# vtk DataFile Version 2.0
               (MEGA VTK FILE)
ASCII
DATASET UNSTRUCTURED_GRID
POINTS       1950    double
  0.10378E-02  0.67292E-03 -0.13060E-01
  0.17452E-02  0.12308E-02 -0.13056E-01
  0.23177E-02  0.59151E-03 -0.13056E-01
  0.16698E-02 -0.33775E-03 -0.13062E-01
  0.10379E-02  0.67237E-03 -0.11750E-01
  0.17453E-02  0.12301E-02 -0.11750E-01
  0.23178E-02  0.59098E-03 -0.11750E-01
  0.16700E-02 -0.33851E-03 -0.11750E-01
  0.30377E-02  0.14882E-03 -0.13049E-01
  0.27791E-02 -0.67643E-03 -0.13057E-01
  0.30377E-02  0.14846E-03 -0.11750E-01
  0.27788E-02 -0.67692E-03 -0.11750E-01
  0.12850E-02  0.18412E-02 -0.13052E-01
  0.65139E-03  0.14576E-02 -0.13057E-01
  0.12851E-02  0.18410E-02 -0.11750E-01
  0.65164E-03  0.14566E-02 -0.11750E-01
  0.12757E-03  0.29933E-03 -0.13060E-01
 -0.12822E-03  0.11672E-02 -0.13061E-01
  0.12783E-03  0.29819E-03 -0.11750E-01
 -0.12804E-03  0.11655E-02 -0.11750E-01
  0.94500E-03  0.22748E-02 -0.13049E-01
  0.11327E-02  0.28286E-02 -0.13046E-01
  0.17490E-02  0.24238E-02 -0.13048E-01
  0.94533E-03  0.22746E-02 -0.11750E-01
  0.11330E-02  0.28291E-02 -0.11750E-01
  0.17494E-02  0.24236E-02 -0.11750E-01
  0.40588E-03  0.21685E-02 -0.13056E-01
  0.39779E-03  0.29366E-02 -0.13054E-01
  0.40594E-03  0.21684E-02 -0.11750E-01
  0.39781E-03  0.29369E-02 -0.11750E-01
 -0.76303E-03 -0.10033E-02 -0.13063E-01
 -0.86604E-03  0.78969E-04 -0.13065E-01
  0.46119E-03 -0.70318E-03 -0.13062E-01
 -0.76268E-03 -0.10032E-02 -0.11750E-01
 -0.86593E-03  0.78160E-04 -0.11750E-01
  0.46164E-03 -0.70391E-03 -0.11750E-01
 -0.18300E-02 -0.71196E-03 -0.13056E-01
 -0.18440E-02  0.82749E-04 -0.13063E-01
 -0.18297E-02 -0.71210E-03 -0.11750E-01
 -0.18441E-02  0.82626E-04 -0.11750E-01
 -0.27238E-02 -0.77865E-03 -0.13053E-01
 -0.28028E-02  0.40713E-04 -0.13060E-01
 -0.27238E-02 -0.77882E-03 -0.11750E-01
 -0.28031E-02  0.40439E-04 -0.11750E-01
 -0.25365E-02 -0.15195E-02 -0.13048E-01
 -0.19287E-02 -0.13230E-02 -0.13051E-01
 -0.25363E-02 -0.15195E-02 -0.11750E-01
 -0.19283E-02 -0.13231E-02 -0.11750E-01
 -0.99363E-03  0.98847E-03 -0.13065E-01
 -0.99377E-03  0.98712E-03 -0.11750E-01
 -0.14380E-02 -0.17325E-02 -0.13055E-01
 -0.14377E-02 -0.17325E-02 -0.11750E-01
 -0.31574E-03  0.20220E-02 -0.13062E-01
 -0.31594E-03  0.20217E-02 -0.11750E-01
 -0.11068E-02  0.18615E-02 -0.13065E-01
 -0.11071E-02  0.18616E-02 -0.11750E-01
 -0.18845E-02  0.17175E-02 -0.13059E-01
 -0.18713E-02  0.90940E-03 -0.13063E-01
 -0.18846E-02  0.17175E-02 -0.11750E-01
 -0.18714E-02  0.90916E-03 -0.11750E-01
 -0.15871E-03 -0.19800E-02 -0.13061E-01
 -0.94089E-03 -0.23489E-02 -0.13055E-01
 -0.15844E-03 -0.19800E-02 -0.11750E-01
 -0.94029E-03 -0.23489E-02 -0.11750E-01
  0.78856E-03 -0.17074E-02 -0.13061E-01
  0.78922E-03 -0.17074E-02 -0.11750E-01
  0.17211E-02 -0.14894E-02 -0.13058E-01
  0.17211E-02 -0.14892E-02 -0.11750E-01
  0.32050E-02  0.76036E-03 -0.13038E-01
  0.28046E-02  0.12477E-02 -0.13046E-01
  0.32047E-02  0.75936E-03 -0.11750E-01
  0.28047E-02  0.12473E-02 -0.11750E-01
  0.23059E-02  0.18665E-02 -0.13049E-01
  0.23060E-02  0.18664E-02 -0.11750E-01
 -0.40614E-03  0.29038E-02 -0.13058E-01
 -0.40627E-03  0.29049E-02 -0.11750E-01
 -0.12092E-02  0.27207E-02 -0.13057E-01
 -0.12092E-02  0.27212E-02 -0.11750E-01
 -0.19448E-02  0.24642E-02 -0.13050E-01
 -0.19448E-02  0.24645E-02 -0.11750E-01
 -0.25029E-02  0.22359E-02 -0.13041E-01
 -0.26371E-02  0.16503E-02 -0.13052E-01
 -0.25029E-02  0.22359E-02 -0.11750E-01
 -0.26372E-02  0.16503E-02 -0.11750E-01
 -0.27671E-02  0.87493E-03 -0.13060E-01
 -0.27674E-02  0.87466E-03 -0.11750E-01
 -0.21123E-02 -0.21373E-02 -0.13048E-01
 -0.21122E-02 -0.21373E-02 -0.11750E-01
 -0.16087E-02 -0.26931E-02 -0.13045E-01
 -0.16087E-02 -0.26931E-02 -0.11750E-01
 -0.11939E-02 -0.31291E-02 -0.13038E-01
 -0.58641E-03 -0.30382E-02 -0.13048E-01
 -0.11937E-02 -0.31291E-02 -0.11750E-01
 -0.58606E-03 -0.30382E-02 -0.11750E-01
  0.20912E-03 -0.28748E-02 -0.13055E-01
  0.20952E-03 -0.28748E-02 -0.11750E-01
  0.10586E-02 -0.26423E-02 -0.13054E-01
  0.10589E-02 -0.26420E-02 -0.11750E-01
  0.18413E-02 -0.23707E-02 -0.13049E-01
  0.18413E-02 -0.23705E-02 -0.11750E-01
  0.24544E-02 -0.21445E-02 -0.13040E-01
  0.26022E-02 -0.15105E-02 -0.13050E-01
  0.24543E-02 -0.21439E-02 -0.11750E-01
  0.26021E-02 -0.15106E-02 -0.11750E-01
  0.37964E-02  0.93572E-03 -0.13017E-01
  0.39100E-02  0.00000E+00 -0.13020E-01
  0.37964E-02  0.93572E-03 -0.11750E-01
  0.39100E-02  0.00000E+00 -0.11750E-01
  0.34621E-02  0.18171E-02 -0.13020E-01
  0.34621E-02  0.18171E-02 -0.11750E-01
  0.29267E-02  0.25928E-02 -0.13017E-01
  0.29267E-02  0.25928E-02 -0.11750E-01
  0.22211E-02  0.32179E-02 -0.13018E-01
  0.22211E-02  0.32179E-02 -0.11750E-01
  0.13865E-02  0.36559E-02 -0.13017E-01
  0.13865E-02  0.36559E-02 -0.11750E-01
  0.47130E-03  0.38815E-02 -0.13019E-01
  0.47130E-03  0.38815E-02 -0.11750E-01
 -0.47130E-03  0.38815E-02 -0.13020E-01
 -0.47130E-03  0.38815E-02 -0.11750E-01
 -0.13865E-02  0.36559E-02 -0.13020E-01
 -0.13865E-02  0.36559E-02 -0.11750E-01
 -0.22211E-02  0.32179E-02 -0.13019E-01
 -0.22211E-02  0.32179E-02 -0.11750E-01
 -0.29267E-02  0.25928E-02 -0.13016E-01
 -0.29267E-02  0.25928E-02 -0.11750E-01
 -0.34621E-02  0.18171E-02 -0.13020E-01
 -0.34621E-02  0.18171E-02 -0.11750E-01
 -0.37964E-02  0.93572E-03 -0.13022E-01
 -0.37964E-02  0.93572E-03 -0.11750E-01
 -0.39100E-02  0.22152E-17 -0.13021E-01
 -0.39100E-02 -0.47884E-18 -0.11750E-01
 -0.37964E-02 -0.93572E-03 -0.13020E-01
 -0.37964E-02 -0.93572E-03 -0.11750E-01
 -0.34621E-02 -0.18171E-02 -0.13018E-01
 -0.34621E-02 -0.18171E-02 -0.11750E-01
 -0.29267E-02 -0.25928E-02 -0.13017E-01
 -0.29267E-02 -0.25928E-02 -0.11750E-01
 -0.22211E-02 -0.32179E-02 -0.13020E-01
 -0.22211E-02 -0.32179E-02 -0.11750E-01
 -0.13865E-02 -0.36559E-02 -0.13017E-01
 -0.13865E-02 -0.36559E-02 -0.11750E-01
 -0.47130E-03 -0.38815E-02 -0.13021E-01
 -0.47130E-03 -0.38815E-02 -0.11750E-01
  0.47130E-03 -0.38815E-02 -0.13020E-01
  0.47130E-03 -0.38815E-02 -0.11750E-01
  0.13865E-02 -0.36559E-02 -0.13018E-01
  0.13865E-02 -0.36559E-02 -0.11750E-01
  0.22211E-02 -0.32179E-02 -0.13021E-01
  0.22211E-02 -0.32179E-02 -0.11750E-01
  0.29267E-02 -0.25928E-02 -0.13018E-01
  0.29267E-02 -0.25928E-02 -0.11750E-01
  0.34621E-02 -0.18171E-02 -0.13021E-01
  0.34621E-02 -0.18171E-02 -0.11750E-01
  0.37964E-02 -0.93572E-03 -0.13021E-01
  0.37964E-02 -0.93572E-03 -0.11750E-01
  0.10376E-02  0.67348E-03 -0.13018E-01
  0.17450E-02  0.12314E-02 -0.13017E-01
  0.23175E-02  0.59203E-03 -0.13017E-01
  0.16696E-02 -0.33700E-03 -0.13018E-01
  0.30377E-02  0.14918E-03 -0.13016E-01
  0.27795E-02 -0.67594E-03 -0.13017E-01
  0.12849E-02  0.18414E-02 -0.13017E-01
  0.65115E-03  0.14586E-02 -0.13017E-01
  0.12731E-03  0.30048E-03 -0.13018E-01
 -0.12841E-03  0.11690E-02 -0.13018E-01
  0.94467E-03  0.22749E-02 -0.13016E-01
  0.11323E-02  0.28282E-02 -0.13016E-01
  0.17487E-02  0.24239E-02 -0.13016E-01
  0.40583E-03  0.21685E-02 -0.13017E-01
  0.39777E-03  0.29364E-02 -0.13017E-01
 -0.76338E-03 -0.10035E-02 -0.13018E-01
 -0.86615E-03  0.79778E-04 -0.13019E-01
  0.46074E-03 -0.70245E-03 -0.13018E-01
 -0.18303E-02 -0.71182E-03 -0.13017E-01
 -0.18439E-02  0.82873E-04 -0.13018E-01
 -0.27238E-02 -0.77848E-03 -0.13017E-01
 -0.28025E-02  0.40986E-04 -0.13018E-01
 -0.25366E-02 -0.15194E-02 -0.13016E-01
 -0.19292E-02 -0.13228E-02 -0.13016E-01
 -0.99349E-03  0.98983E-03 -0.13019E-01
 -0.14384E-02 -0.17324E-02 -0.13017E-01
 -0.31554E-03  0.20223E-02 -0.13018E-01
 -0.11064E-02  0.18614E-02 -0.13018E-01
 -0.18845E-02  0.17175E-02 -0.13017E-01
 -0.18712E-02  0.90964E-03 -0.13018E-01
 -0.15899E-03 -0.19800E-02 -0.13018E-01
 -0.94149E-03 -0.23489E-02 -0.13017E-01
  0.78790E-03 -0.17074E-02 -0.13018E-01
  0.17210E-02 -0.14896E-02 -0.13017E-01
  0.32053E-02  0.76137E-03 -0.13015E-01
  0.28046E-02  0.12481E-02 -0.13016E-01
  0.23058E-02  0.18665E-02 -0.13016E-01
 -0.40600E-03  0.29027E-02 -0.13018E-01
 -0.12092E-02  0.27202E-02 -0.13017E-01
 -0.19447E-02  0.24640E-02 -0.13016E-01
 -0.25028E-02  0.22359E-02 -0.13015E-01
 -0.26370E-02  0.16503E-02 -0.13017E-01
 -0.27668E-02  0.87519E-03 -0.13018E-01
 -0.21125E-02 -0.21373E-02 -0.13016E-01
 -0.16088E-02 -0.26932E-02 -0.13016E-01
 -0.11940E-02 -0.31291E-02 -0.13015E-01
 -0.58676E-03 -0.30382E-02 -0.13016E-01
  0.20871E-03 -0.28748E-02 -0.13017E-01
  0.10583E-02 -0.26426E-02 -0.13017E-01
  0.18413E-02 -0.23709E-02 -0.13016E-01
  0.24545E-02 -0.21450E-02 -0.13015E-01
  0.26022E-02 -0.15104E-02 -0.13016E-01
  0.37964E-02  0.93572E-03 -0.13012E-01
  0.39100E-02  0.00000E+00 -0.13013E-01
  0.34621E-02  0.18171E-02 -0.13013E-01
  0.29267E-02  0.25928E-02 -0.13013E-01
  0.22211E-02  0.32179E-02 -0.13013E-01
  0.13865E-02  0.36559E-02 -0.13013E-01
  0.47130E-03  0.38815E-02 -0.13013E-01
 -0.47130E-03  0.38815E-02 -0.13013E-01
 -0.13865E-02  0.36559E-02 -0.13013E-01
 -0.22211E-02  0.32179E-02 -0.13013E-01
 -0.29267E-02  0.25928E-02 -0.13012E-01
 -0.34621E-02  0.18171E-02 -0.13013E-01
 -0.37964E-02  0.93572E-03 -0.13013E-01
 -0.39100E-02 -0.47884E-18 -0.13013E-01
 -0.37964E-02 -0.93572E-03 -0.13013E-01
 -0.34621E-02 -0.18171E-02 -0.13013E-01
 -0.29267E-02 -0.25928E-02 -0.13013E-01
 -0.22211E-02 -0.32179E-02 -0.13013E-01
 -0.13865E-02 -0.36559E-02 -0.13012E-01
 -0.47130E-03 -0.38815E-02 -0.13013E-01
  0.47130E-03 -0.38815E-02 -0.13013E-01
  0.13865E-02 -0.36559E-02 -0.13013E-01
  0.22211E-02 -0.32179E-02 -0.13013E-01
  0.29267E-02 -0.25928E-02 -0.13012E-01
  0.34621E-02 -0.18171E-02 -0.13013E-01
  0.37964E-02 -0.93572E-03 -0.13013E-01
  0.10375E-02  0.67403E-03 -0.12115E-01
  0.17448E-02  0.12321E-02 -0.12115E-01
  0.23174E-02  0.59255E-03 -0.12115E-01
  0.16694E-02 -0.33624E-03 -0.12115E-01
  0.30377E-02  0.14955E-03 -0.12115E-01
  0.27798E-02 -0.67544E-03 -0.12115E-01
  0.12848E-02  0.18415E-02 -0.12115E-01
  0.65090E-03  0.14596E-02 -0.12115E-01
  0.12705E-03  0.30163E-03 -0.12115E-01
 -0.12859E-03  0.11707E-02 -0.12115E-01
  0.94434E-03  0.22750E-02 -0.12115E-01
  0.11320E-02  0.28277E-02 -0.12115E-01
  0.17483E-02  0.24241E-02 -0.12115E-01
  0.40577E-03  0.21685E-02 -0.12115E-01
  0.39776E-03  0.29361E-02 -0.12115E-01
 -0.76374E-03 -0.10036E-02 -0.12115E-01
 -0.86626E-03  0.80588E-04 -0.12115E-01
  0.46029E-03 -0.70173E-03 -0.12115E-01
 -0.18306E-02 -0.71168E-03 -0.12115E-01
 -0.18438E-02  0.82996E-04 -0.12115E-01
 -0.27238E-02 -0.77831E-03 -0.12115E-01
 -0.28022E-02  0.41259E-04 -0.12115E-01
 -0.25368E-02 -0.15194E-02 -0.12115E-01
 -0.19296E-02 -0.13227E-02 -0.12115E-01
 -0.99334E-03  0.99119E-03 -0.12115E-01
 -0.14387E-02 -0.17324E-02 -0.12115E-01
 -0.31534E-03  0.20226E-02 -0.12115E-01
 -0.11061E-02  0.18613E-02 -0.12115E-01
 -0.18844E-02  0.17175E-02 -0.12115E-01
 -0.18710E-02  0.90988E-03 -0.12115E-01
 -0.15926E-03 -0.19801E-02 -0.12115E-01
 -0.94209E-03 -0.23490E-02 -0.12115E-01
  0.78724E-03 -0.17074E-02 -0.12115E-01
  0.17210E-02 -0.14899E-02 -0.12115E-01
  0.32056E-02  0.76237E-03 -0.12115E-01
  0.28046E-02  0.12485E-02 -0.12115E-01
  0.23057E-02  0.18666E-02 -0.12115E-01
 -0.40586E-03  0.29017E-02 -0.12115E-01
 -0.12092E-02  0.27198E-02 -0.12115E-01
 -0.19447E-02  0.24638E-02 -0.12115E-01
 -0.25028E-02  0.22359E-02 -0.12115E-01
 -0.26369E-02  0.16503E-02 -0.12115E-01
 -0.27665E-02  0.87545E-03 -0.12115E-01
 -0.21126E-02 -0.21374E-02 -0.12115E-01
 -0.16088E-02 -0.26932E-02 -0.12115E-01
 -0.11941E-02 -0.31291E-02 -0.12115E-01
 -0.58711E-03 -0.30382E-02 -0.12115E-01
  0.20830E-03 -0.28748E-02 -0.12115E-01
  0.10580E-02 -0.26428E-02 -0.12115E-01
  0.18414E-02 -0.23711E-02 -0.12115E-01
  0.24546E-02 -0.21456E-02 -0.12115E-01
  0.26023E-02 -0.15103E-02 -0.12115E-01
  0.37964E-02  0.93572E-03 -0.12115E-01
  0.39100E-02  0.00000E+00 -0.12115E-01
  0.34621E-02  0.18171E-02 -0.12115E-01
  0.29267E-02  0.25928E-02 -0.12115E-01
  0.22211E-02  0.32179E-02 -0.12115E-01
  0.13865E-02  0.36559E-02 -0.12115E-01
  0.47130E-03  0.38815E-02 -0.12115E-01
 -0.47130E-03  0.38815E-02 -0.12115E-01
 -0.13865E-02  0.36559E-02 -0.12115E-01
 -0.22211E-02  0.32179E-02 -0.12115E-01
 -0.29267E-02  0.25928E-02 -0.12115E-01
 -0.34621E-02  0.18171E-02 -0.12115E-01
 -0.37964E-02  0.93572E-03 -0.12115E-01
 -0.39100E-02  0.39516E-17 -0.12115E-01
 -0.37964E-02 -0.93572E-03 -0.12115E-01
 -0.34621E-02 -0.18171E-02 -0.12115E-01
 -0.29267E-02 -0.25928E-02 -0.12115E-01
 -0.22211E-02 -0.32179E-02 -0.12115E-01
 -0.13865E-02 -0.36559E-02 -0.12115E-01
 -0.47130E-03 -0.38815E-02 -0.12115E-01
  0.47130E-03 -0.38815E-02 -0.12115E-01
  0.13865E-02 -0.36559E-02 -0.12115E-01
  0.22211E-02 -0.32179E-02 -0.12115E-01
  0.29267E-02 -0.25928E-02 -0.12115E-01
  0.34621E-02 -0.18171E-02 -0.12115E-01
  0.37964E-02 -0.93572E-03 -0.12115E-01
  0.10374E-02  0.67459E-03 -0.11136E-01
  0.17446E-02  0.12328E-02 -0.11136E-01
  0.23173E-02  0.59308E-03 -0.11136E-01
  0.16692E-02 -0.33549E-03 -0.11136E-01
  0.30376E-02  0.14991E-03 -0.11136E-01
  0.27801E-02 -0.67495E-03 -0.11136E-01
  0.12847E-02  0.18417E-02 -0.11136E-01
  0.65065E-03  0.14606E-02 -0.11136E-01
  0.12678E-03  0.30278E-03 -0.11136E-01
 -0.12878E-03  0.11725E-02 -0.11136E-01
  0.94401E-03  0.22752E-02 -0.11136E-01
  0.11316E-02  0.28273E-02 -0.11136E-01
  0.17479E-02  0.24242E-02 -0.11136E-01
  0.40572E-03  0.21686E-02 -0.11136E-01
  0.39774E-03  0.29359E-02 -0.11136E-01
 -0.76409E-03 -0.10038E-02 -0.11136E-01
 -0.86637E-03  0.81397E-04 -0.11136E-01
  0.45985E-03 -0.70100E-03 -0.11136E-01
 -0.18309E-02 -0.71154E-03 -0.11136E-01
 -0.18437E-02  0.83120E-04 -0.11136E-01
 -0.27237E-02 -0.77814E-03 -0.11136E-01
 -0.28020E-02  0.41533E-04 -0.11136E-01
 -0.25369E-02 -0.15193E-02 -0.11136E-01
 -0.19300E-02 -0.13227E-02 -0.11136E-01
 -0.99320E-03  0.99254E-03 -0.11136E-01
 -0.14391E-02 -0.17324E-02 -0.11136E-01
 -0.31514E-03  0.20228E-02 -0.11136E-01
 -0.11057E-02  0.18611E-02 -0.11136E-01
 -0.18844E-02  0.17175E-02 -0.11136E-01
 -0.18709E-02  0.91012E-03 -0.11136E-01
 -0.15954E-03 -0.19801E-02 -0.11136E-01
 -0.94269E-03 -0.23490E-02 -0.11136E-01
  0.78658E-03 -0.17074E-02 -0.11136E-01
  0.17209E-02 -0.14901E-02 -0.11136E-01
  0.32060E-02  0.76338E-03 -0.11136E-01
  0.28046E-02  0.12490E-02 -0.11136E-01
  0.23056E-02  0.18666E-02 -0.11136E-01
 -0.40572E-03  0.29006E-02 -0.11136E-01
 -0.12092E-02  0.27193E-02 -0.11136E-01
 -0.19446E-02  0.24636E-02 -0.11136E-01
 -0.25028E-02  0.22359E-02 -0.11136E-01
 -0.26368E-02  0.16503E-02 -0.11136E-01
 -0.27662E-02  0.87571E-03 -0.11136E-01
 -0.21128E-02 -0.21374E-02 -0.11136E-01
 -0.16088E-02 -0.26932E-02 -0.11136E-01
 -0.11942E-02 -0.31291E-02 -0.11136E-01
 -0.58746E-03 -0.30382E-02 -0.11136E-01
  0.20790E-03 -0.28748E-02 -0.11136E-01
  0.10577E-02 -0.26431E-02 -0.11136E-01
  0.18414E-02 -0.23713E-02 -0.11136E-01
  0.24548E-02 -0.21461E-02 -0.11136E-01
  0.26024E-02 -0.15102E-02 -0.11136E-01
  0.37964E-02  0.93572E-03 -0.11136E-01
  0.39100E-02  0.00000E+00 -0.11136E-01
  0.34621E-02  0.18171E-02 -0.11136E-01
  0.29267E-02  0.25928E-02 -0.11136E-01
  0.22211E-02  0.32179E-02 -0.11136E-01
  0.13865E-02  0.36559E-02 -0.11136E-01
  0.47130E-03  0.38815E-02 -0.11136E-01
 -0.47130E-03  0.38815E-02 -0.11136E-01
 -0.13865E-02  0.36559E-02 -0.11136E-01
 -0.22211E-02  0.32179E-02 -0.11136E-01
 -0.29267E-02  0.25928E-02 -0.11136E-01
 -0.34621E-02  0.18171E-02 -0.11136E-01
 -0.37964E-02  0.93572E-03 -0.11136E-01
 -0.39100E-02 -0.47884E-18 -0.11136E-01
 -0.37964E-02 -0.93572E-03 -0.11136E-01
 -0.34621E-02 -0.18171E-02 -0.11136E-01
 -0.29267E-02 -0.25928E-02 -0.11136E-01
 -0.22211E-02 -0.32179E-02 -0.11136E-01
 -0.13865E-02 -0.36559E-02 -0.11136E-01
 -0.47130E-03 -0.38815E-02 -0.11136E-01
  0.47130E-03 -0.38815E-02 -0.11136E-01
  0.13865E-02 -0.36559E-02 -0.11136E-01
  0.22211E-02 -0.32179E-02 -0.11136E-01
  0.29267E-02 -0.25928E-02 -0.11136E-01
  0.34621E-02 -0.18171E-02 -0.11136E-01
  0.37964E-02 -0.93572E-03 -0.11136E-01
  0.10373E-02  0.67514E-03 -0.10157E-01
  0.17445E-02  0.12334E-02 -0.10157E-01
  0.23172E-02  0.59360E-03 -0.10157E-01
  0.16689E-02 -0.33474E-03 -0.10157E-01
  0.30376E-02  0.15027E-03 -0.10157E-01
  0.27805E-02 -0.67446E-03 -0.10157E-01
  0.12846E-02  0.18419E-02 -0.10157E-01
  0.65041E-03  0.14616E-02 -0.10157E-01
  0.12652E-03  0.30393E-03 -0.10157E-01
 -0.12896E-03  0.11742E-02 -0.10157E-01
  0.94367E-03  0.22753E-02 -0.10157E-01
  0.11313E-02  0.28269E-02 -0.10157E-01
  0.17475E-02  0.24244E-02 -0.10157E-01
  0.40566E-03  0.21686E-02 -0.10157E-01
  0.39772E-03  0.29356E-02 -0.10157E-01
 -0.76444E-03 -0.10039E-02 -0.10157E-01
 -0.86648E-03  0.82206E-04 -0.10157E-01
  0.45940E-03 -0.70028E-03 -0.10157E-01
 -0.18312E-02 -0.71140E-03 -0.10157E-01
 -0.18436E-02  0.83243E-04 -0.10157E-01
 -0.27237E-02 -0.77797E-03 -0.10157E-01
 -0.28017E-02  0.41806E-04 -0.10157E-01
 -0.25371E-02 -0.15193E-02 -0.10157E-01
 -0.19305E-02 -0.13226E-02 -0.10157E-01
 -0.99305E-03  0.99390E-03 -0.10157E-01
 -0.14394E-02 -0.17323E-02 -0.10157E-01
 -0.31494E-03  0.20231E-02 -0.10157E-01
 -0.11054E-02  0.18610E-02 -0.10157E-01
 -0.18843E-02  0.17175E-02 -0.10157E-01
 -0.18708E-02  0.91036E-03 -0.10157E-01
 -0.15981E-03 -0.19801E-02 -0.10157E-01
 -0.94328E-03 -0.23490E-02 -0.10157E-01
  0.78592E-03 -0.17074E-02 -0.10157E-01
  0.17209E-02 -0.14904E-02 -0.10157E-01
  0.32063E-02  0.76439E-03 -0.10157E-01
  0.28045E-02  0.12494E-02 -0.10157E-01
  0.23055E-02  0.18666E-02 -0.10157E-01
 -0.40558E-03  0.28995E-02 -0.10157E-01
 -0.12092E-02  0.27188E-02 -0.10157E-01
 -0.19446E-02  0.24633E-02 -0.10157E-01
 -0.25027E-02  0.22359E-02 -0.10157E-01
 -0.26367E-02  0.16503E-02 -0.10157E-01
 -0.27658E-02  0.87597E-03 -0.10157E-01
 -0.21129E-02 -0.21374E-02 -0.10157E-01
 -0.16089E-02 -0.26932E-02 -0.10157E-01
 -0.11943E-02 -0.31291E-02 -0.10157E-01
 -0.58781E-03 -0.30382E-02 -0.10157E-01
  0.20749E-03 -0.28748E-02 -0.10157E-01
  0.10574E-02 -0.26434E-02 -0.10157E-01
  0.18415E-02 -0.23715E-02 -0.10157E-01
  0.24549E-02 -0.21467E-02 -0.10157E-01
  0.26025E-02 -0.15101E-02 -0.10157E-01
  0.37964E-02  0.93572E-03 -0.10157E-01
  0.39100E-02  0.00000E+00 -0.10157E-01
  0.34621E-02  0.18171E-02 -0.10157E-01
  0.29267E-02  0.25928E-02 -0.10157E-01
  0.22211E-02  0.32179E-02 -0.10157E-01
  0.13865E-02  0.36559E-02 -0.10157E-01
  0.47130E-03  0.38815E-02 -0.10157E-01
 -0.47130E-03  0.38815E-02 -0.10157E-01
 -0.13865E-02  0.36559E-02 -0.10157E-01
 -0.22211E-02  0.32179E-02 -0.10157E-01
 -0.29267E-02  0.25928E-02 -0.10157E-01
 -0.34621E-02  0.18171E-02 -0.10157E-01
 -0.37964E-02  0.93572E-03 -0.10157E-01
 -0.39100E-02 -0.47884E-18 -0.10157E-01
 -0.37964E-02 -0.93572E-03 -0.10157E-01
 -0.34621E-02 -0.18171E-02 -0.10157E-01
 -0.29267E-02 -0.25928E-02 -0.10157E-01
 -0.22211E-02 -0.32179E-02 -0.10157E-01
 -0.13865E-02 -0.36559E-02 -0.10157E-01
 -0.47130E-03 -0.38815E-02 -0.10157E-01
  0.47130E-03 -0.38815E-02 -0.10157E-01
  0.13865E-02 -0.36559E-02 -0.10157E-01
  0.22211E-02 -0.32179E-02 -0.10157E-01
  0.29267E-02 -0.25928E-02 -0.10157E-01
  0.34621E-02 -0.18171E-02 -0.10157E-01
  0.37964E-02 -0.93572E-03 -0.10157E-01
  0.10372E-02  0.67570E-03 -0.91779E-02
  0.17443E-02  0.12341E-02 -0.91779E-02
  0.23171E-02  0.59412E-03 -0.91779E-02
  0.16687E-02 -0.33398E-03 -0.91779E-02
  0.30376E-02  0.15064E-03 -0.91779E-02
  0.27808E-02 -0.67396E-03 -0.91779E-02
  0.12845E-02  0.18421E-02 -0.91779E-02
  0.65016E-03  0.14626E-02 -0.91779E-02
  0.12626E-03  0.30507E-03 -0.91779E-02
 -0.12915E-03  0.11760E-02 -0.91779E-02
  0.94334E-03  0.22754E-02 -0.91779E-02
  0.11310E-02  0.28264E-02 -0.91779E-02
  0.17471E-02  0.24245E-02 -0.91779E-02
  0.40561E-03  0.21686E-02 -0.91779E-02
  0.39770E-03  0.29353E-02 -0.91779E-02
 -0.76480E-03 -0.10040E-02 -0.91779E-02
 -0.86659E-03  0.83015E-04 -0.91779E-02
  0.45895E-03 -0.69955E-03 -0.91779E-02
 -0.18315E-02 -0.71126E-03 -0.91779E-02
 -0.18435E-02  0.83367E-04 -0.91779E-02
 -0.27237E-02 -0.77780E-03 -0.91779E-02
 -0.28014E-02  0.42080E-04 -0.91779E-02
 -0.25372E-02 -0.15192E-02 -0.91779E-02
 -0.19309E-02 -0.13224E-02 -0.91779E-02
 -0.99291E-03  0.99526E-03 -0.91779E-02
 -0.14398E-02 -0.17323E-02 -0.91779E-02
 -0.31474E-03  0.20234E-02 -0.91779E-02
 -0.11051E-02  0.18609E-02 -0.91779E-02
 -0.18843E-02  0.17175E-02 -0.91779E-02
 -0.18706E-02  0.91060E-03 -0.91779E-02
 -0.16009E-03 -0.19801E-02 -0.91779E-02
 -0.94388E-03 -0.23490E-02 -0.91779E-02
  0.78526E-03 -0.17074E-02 -0.91779E-02
  0.17208E-02 -0.14906E-02 -0.91779E-02
  0.32066E-02  0.76539E-03 -0.91779E-02
  0.28045E-02  0.12498E-02 -0.91779E-02
  0.23053E-02  0.18667E-02 -0.91779E-02
 -0.40545E-03  0.28984E-02 -0.91779E-02
 -0.12092E-02  0.27184E-02 -0.91779E-02
 -0.19446E-02  0.24631E-02 -0.91779E-02
 -0.25027E-02  0.22359E-02 -0.91779E-02
 -0.26366E-02  0.16503E-02 -0.91779E-02
 -0.27655E-02  0.87623E-03 -0.91779E-02
 -0.21130E-02 -0.21374E-02 -0.91779E-02
 -0.16089E-02 -0.26932E-02 -0.91779E-02
 -0.11944E-02 -0.31291E-02 -0.91779E-02
 -0.58816E-03 -0.30382E-02 -0.91779E-02
  0.20709E-03 -0.28748E-02 -0.91779E-02
  0.10571E-02 -0.26436E-02 -0.91779E-02
  0.18415E-02 -0.23717E-02 -0.91779E-02
  0.24550E-02 -0.21472E-02 -0.91779E-02
  0.26025E-02 -0.15100E-02 -0.91779E-02
  0.37964E-02  0.93572E-03 -0.91779E-02
  0.39100E-02  0.00000E+00 -0.91779E-02
  0.34621E-02  0.18171E-02 -0.91779E-02
  0.29267E-02  0.25928E-02 -0.91779E-02
  0.22211E-02  0.32179E-02 -0.91779E-02
  0.13865E-02  0.36559E-02 -0.91779E-02
  0.47130E-03  0.38815E-02 -0.91779E-02
 -0.47130E-03  0.38815E-02 -0.91779E-02
 -0.13865E-02  0.36559E-02 -0.91779E-02
 -0.22211E-02  0.32179E-02 -0.91779E-02
 -0.29267E-02  0.25928E-02 -0.91779E-02
 -0.34621E-02  0.18171E-02 -0.91779E-02
 -0.37964E-02  0.93572E-03 -0.91779E-02
 -0.39100E-02 -0.47884E-18 -0.91779E-02
 -0.37964E-02 -0.93572E-03 -0.91779E-02
 -0.34621E-02 -0.18171E-02 -0.91779E-02
 -0.29267E-02 -0.25928E-02 -0.91779E-02
 -0.22211E-02 -0.32179E-02 -0.91779E-02
 -0.13865E-02 -0.36559E-02 -0.91779E-02
 -0.47130E-03 -0.38815E-02 -0.91779E-02
  0.47130E-03 -0.38815E-02 -0.91779E-02
  0.13865E-02 -0.36559E-02 -0.91779E-02
  0.22211E-02 -0.32179E-02 -0.91779E-02
  0.29267E-02 -0.25928E-02 -0.91779E-02
  0.34621E-02 -0.18171E-02 -0.91779E-02
  0.37964E-02 -0.93572E-03 -0.91779E-02
  0.10371E-02  0.67625E-03 -0.81988E-02
  0.17441E-02  0.12348E-02 -0.81988E-02
  0.23169E-02  0.59465E-03 -0.81988E-02
  0.16685E-02 -0.33323E-03 -0.81988E-02
  0.30376E-02  0.15100E-03 -0.81988E-02
  0.27812E-02 -0.67347E-03 -0.81988E-02
  0.12844E-02  0.18423E-02 -0.81988E-02
  0.64992E-03  0.14636E-02 -0.81988E-02
  0.12600E-03  0.30622E-03 -0.81988E-02
 -0.12933E-03  0.11777E-02 -0.81988E-02
  0.94301E-03  0.22755E-02 -0.81988E-02
  0.11306E-02  0.28260E-02 -0.81988E-02
  0.17467E-02  0.24247E-02 -0.81988E-02
  0.40556E-03  0.21687E-02 -0.81988E-02
  0.39769E-03  0.29351E-02 -0.81988E-02
 -0.76515E-03 -0.10042E-02 -0.81988E-02
 -0.86670E-03  0.83825E-04 -0.81988E-02
  0.45850E-03 -0.69882E-03 -0.81988E-02
 -0.18318E-02 -0.71112E-03 -0.81988E-02
 -0.18434E-02  0.83490E-04 -0.81988E-02
 -0.27236E-02 -0.77763E-03 -0.81988E-02
 -0.28011E-02  0.42353E-04 -0.81988E-02
 -0.25374E-02 -0.15192E-02 -0.81988E-02
 -0.19313E-02 -0.13223E-02 -0.81988E-02
 -0.99277E-03  0.99661E-03 -0.81988E-02
 -0.14401E-02 -0.17322E-02 -0.81988E-02
 -0.31454E-03  0.20237E-02 -0.81988E-02
 -0.11047E-02  0.18607E-02 -0.81988E-02
 -0.18842E-02  0.17175E-02 -0.81988E-02
 -0.18705E-02  0.91084E-03 -0.81988E-02
 -0.16036E-03 -0.19801E-02 -0.81988E-02
 -0.94448E-03 -0.23491E-02 -0.81988E-02
  0.78460E-03 -0.17074E-02 -0.81988E-02
  0.17208E-02 -0.14909E-02 -0.81988E-02
  0.32070E-02  0.76640E-03 -0.81988E-02
  0.28045E-02  0.12503E-02 -0.81988E-02
  0.23052E-02  0.18667E-02 -0.81988E-02
 -0.40531E-03  0.28974E-02 -0.81988E-02
 -0.12092E-02  0.27179E-02 -0.81988E-02
 -0.19445E-02  0.24629E-02 -0.81988E-02
 -0.25027E-02  0.22359E-02 -0.81988E-02
 -0.26366E-02  0.16503E-02 -0.81988E-02
 -0.27652E-02  0.87650E-03 -0.81988E-02
 -0.21132E-02 -0.21374E-02 -0.81988E-02
 -0.16090E-02 -0.26933E-02 -0.81988E-02
 -0.11946E-02 -0.31291E-02 -0.81988E-02
 -0.58851E-03 -0.30382E-02 -0.81988E-02
  0.20668E-03 -0.28749E-02 -0.81988E-02
  0.10567E-02 -0.26439E-02 -0.81988E-02
  0.18416E-02 -0.23719E-02 -0.81988E-02
  0.24551E-02 -0.21478E-02 -0.81988E-02
  0.26026E-02 -0.15099E-02 -0.81988E-02
  0.37964E-02  0.93572E-03 -0.81988E-02
  0.39100E-02  0.00000E+00 -0.81988E-02
  0.34621E-02  0.18171E-02 -0.81988E-02
  0.29267E-02  0.25928E-02 -0.81988E-02
  0.22211E-02  0.32179E-02 -0.81988E-02
  0.13865E-02  0.36559E-02 -0.81988E-02
  0.47130E-03  0.38815E-02 -0.81988E-02
 -0.47130E-03  0.38815E-02 -0.81988E-02
 -0.13865E-02  0.36559E-02 -0.81988E-02
 -0.22211E-02  0.32179E-02 -0.81988E-02
 -0.29267E-02  0.25928E-02 -0.81988E-02
 -0.34621E-02  0.18171E-02 -0.81988E-02
 -0.37964E-02  0.93572E-03 -0.81988E-02
 -0.39100E-02 -0.47884E-18 -0.81988E-02
 -0.37964E-02 -0.93572E-03 -0.81988E-02
 -0.34621E-02 -0.18171E-02 -0.81988E-02
 -0.29267E-02 -0.25928E-02 -0.81988E-02
 -0.22211E-02 -0.32179E-02 -0.81988E-02
 -0.13865E-02 -0.36559E-02 -0.81988E-02
 -0.47130E-03 -0.38815E-02 -0.81988E-02
  0.47130E-03 -0.38815E-02 -0.81988E-02
  0.13865E-02 -0.36559E-02 -0.81988E-02
  0.22211E-02 -0.32179E-02 -0.81988E-02
  0.29267E-02 -0.25928E-02 -0.81988E-02
  0.34621E-02 -0.18171E-02 -0.81988E-02
  0.37964E-02 -0.93572E-03 -0.81988E-02
  0.10370E-02  0.67680E-03 -0.72196E-02
  0.17439E-02  0.12354E-02 -0.72196E-02
  0.23168E-02  0.59517E-03 -0.72196E-02
  0.16683E-02 -0.33247E-03 -0.72196E-02
  0.30375E-02  0.15136E-03 -0.72196E-02
  0.27815E-02 -0.67298E-03 -0.72196E-02
  0.12843E-02  0.18425E-02 -0.72196E-02
  0.64967E-03  0.14646E-02 -0.72196E-02
  0.12573E-03  0.30737E-03 -0.72196E-02
 -0.12952E-03  0.11795E-02 -0.72196E-02
  0.94268E-03  0.22757E-02 -0.72196E-02
  0.11303E-02  0.28255E-02 -0.72196E-02
  0.17463E-02  0.24248E-02 -0.72196E-02
  0.40550E-03  0.21687E-02 -0.72196E-02
  0.39767E-03  0.29348E-02 -0.72196E-02
 -0.76551E-03 -0.10043E-02 -0.72196E-02
 -0.86680E-03  0.84634E-04 -0.72196E-02
  0.45806E-03 -0.69810E-03 -0.72196E-02
 -0.18321E-02 -0.71098E-03 -0.72196E-02
 -0.18433E-02  0.83614E-04 -0.72196E-02
 -0.27236E-02 -0.77746E-03 -0.72196E-02
 -0.28009E-02  0.42626E-04 -0.72196E-02
 -0.25375E-02 -0.15191E-02 -0.72196E-02
 -0.19317E-02 -0.13223E-02 -0.72196E-02
 -0.99262E-03  0.99797E-03 -0.72196E-02
 -0.14405E-02 -0.17322E-02 -0.72196E-02
 -0.31434E-03  0.20240E-02 -0.72196E-02
 -0.11044E-02  0.18606E-02 -0.72196E-02
 -0.18842E-02  0.17175E-02 -0.72196E-02
 -0.18704E-02  0.91108E-03 -0.72196E-02
 -0.16064E-03 -0.19802E-02 -0.72196E-02
 -0.94508E-03 -0.23491E-02 -0.72196E-02
  0.78394E-03 -0.17074E-02 -0.72196E-02
  0.17208E-02 -0.14911E-02 -0.72196E-02
  0.32073E-02  0.76740E-03 -0.72196E-02
  0.28045E-02  0.12507E-02 -0.72196E-02
  0.23051E-02  0.18668E-02 -0.72196E-02
 -0.40517E-03  0.28963E-02 -0.72196E-02
 -0.12092E-02  0.27174E-02 -0.72196E-02
 -0.19445E-02  0.24627E-02 -0.72196E-02
 -0.25026E-02  0.22358E-02 -0.72196E-02
 -0.26365E-02  0.16503E-02 -0.72196E-02
 -0.27649E-02  0.87676E-03 -0.72196E-02
 -0.21133E-02 -0.21374E-02 -0.72196E-02
 -0.16090E-02 -0.26933E-02 -0.72196E-02
 -0.11947E-02 -0.31291E-02 -0.72196E-02
 -0.58886E-03 -0.30382E-02 -0.72196E-02
  0.20627E-03 -0.28749E-02 -0.72196E-02
  0.10564E-02 -0.26442E-02 -0.72196E-02
  0.18416E-02 -0.23721E-02 -0.72196E-02
  0.24553E-02 -0.21483E-02 -0.72196E-02
  0.26027E-02 -0.15097E-02 -0.72196E-02
  0.37964E-02  0.93572E-03 -0.72196E-02
  0.39100E-02  0.00000E+00 -0.72196E-02
  0.34621E-02  0.18171E-02 -0.72196E-02
  0.29267E-02  0.25928E-02 -0.72196E-02
  0.22211E-02  0.32179E-02 -0.72196E-02
  0.13865E-02  0.36559E-02 -0.72196E-02
  0.47130E-03  0.38815E-02 -0.72196E-02
 -0.47130E-03  0.38815E-02 -0.72196E-02
 -0.13865E-02  0.36559E-02 -0.72196E-02
 -0.22211E-02  0.32179E-02 -0.72196E-02
 -0.29267E-02  0.25928E-02 -0.72196E-02
 -0.34621E-02  0.18171E-02 -0.72196E-02
 -0.37964E-02  0.93572E-03 -0.72196E-02
 -0.39100E-02 -0.47884E-18 -0.72196E-02
 -0.37964E-02 -0.93572E-03 -0.72196E-02
 -0.34621E-02 -0.18171E-02 -0.72196E-02
 -0.29267E-02 -0.25928E-02 -0.72196E-02
 -0.22211E-02 -0.32179E-02 -0.72196E-02
 -0.13865E-02 -0.36559E-02 -0.72196E-02
 -0.47130E-03 -0.38815E-02 -0.72196E-02
  0.47130E-03 -0.38815E-02 -0.72196E-02
  0.13865E-02 -0.36559E-02 -0.72196E-02
  0.22211E-02 -0.32179E-02 -0.72196E-02
  0.29267E-02 -0.25928E-02 -0.72196E-02
  0.34621E-02 -0.18171E-02 -0.72196E-02
  0.37964E-02 -0.93572E-03 -0.72196E-02
  0.10368E-02  0.67736E-03 -0.62404E-02
  0.17438E-02  0.12361E-02 -0.62404E-02
  0.23167E-02  0.59570E-03 -0.62404E-02
  0.16681E-02 -0.33172E-03 -0.62404E-02
  0.30375E-02  0.15173E-03 -0.62404E-02
  0.27819E-02 -0.67248E-03 -0.62404E-02
  0.12842E-02  0.18427E-02 -0.62404E-02
  0.64943E-03  0.14656E-02 -0.62404E-02
  0.12547E-03  0.30852E-03 -0.62404E-02
 -0.12970E-03  0.11812E-02 -0.62404E-02
  0.94235E-03  0.22758E-02 -0.62404E-02
  0.11300E-02  0.28251E-02 -0.62404E-02
  0.17459E-02  0.24249E-02 -0.62404E-02
  0.40545E-03  0.21688E-02 -0.62404E-02
  0.39766E-03  0.29345E-02 -0.62404E-02
 -0.76586E-03 -0.10044E-02 -0.62404E-02
 -0.86691E-03  0.85443E-04 -0.62404E-02
  0.45761E-03 -0.69737E-03 -0.62404E-02
 -0.18324E-02 -0.71084E-03 -0.62404E-02
 -0.18432E-02  0.83737E-04 -0.62404E-02
 -0.27236E-02 -0.77729E-03 -0.62404E-02
 -0.28006E-02  0.42899E-04 -0.62404E-02
 -0.25377E-02 -0.15191E-02 -0.62404E-02
 -0.19322E-02 -0.13222E-02 -0.62404E-02
 -0.99248E-03  0.99932E-03 -0.62404E-02
 -0.14408E-02 -0.17322E-02 -0.62404E-02
 -0.31414E-03  0.20243E-02 -0.62404E-02
 -0.11040E-02  0.18605E-02 -0.62404E-02
 -0.18841E-02  0.17175E-02 -0.62404E-02
 -0.18703E-02  0.91132E-03 -0.62404E-02
 -0.16091E-03 -0.19802E-02 -0.62404E-02
 -0.94568E-03 -0.23491E-02 -0.62404E-02
  0.78328E-03 -0.17074E-02 -0.62404E-02
  0.17207E-02 -0.14914E-02 -0.62404E-02
  0.32076E-02  0.76841E-03 -0.62404E-02
  0.28044E-02  0.12511E-02 -0.62404E-02
  0.23050E-02  0.18668E-02 -0.62404E-02
 -0.40503E-03  0.28952E-02 -0.62404E-02
 -0.12092E-02  0.27170E-02 -0.62404E-02
 -0.19445E-02  0.24624E-02 -0.62404E-02
 -0.25026E-02  0.22358E-02 -0.62404E-02
 -0.26364E-02  0.16503E-02 -0.62404E-02
 -0.27646E-02  0.87702E-03 -0.62404E-02
 -0.21134E-02 -0.21374E-02 -0.62404E-02
 -0.16091E-02 -0.26933E-02 -0.62404E-02
 -0.11948E-02 -0.31291E-02 -0.62404E-02
 -0.58921E-03 -0.30382E-02 -0.62404E-02
  0.20587E-03 -0.28749E-02 -0.62404E-02
  0.10561E-02 -0.26444E-02 -0.62404E-02
  0.18416E-02 -0.23723E-02 -0.62404E-02
  0.24554E-02 -0.21489E-02 -0.62404E-02
  0.26027E-02 -0.15096E-02 -0.62404E-02
  0.37964E-02  0.93572E-03 -0.62404E-02
  0.39100E-02  0.00000E+00 -0.62404E-02
  0.34621E-02  0.18171E-02 -0.62404E-02
  0.29267E-02  0.25928E-02 -0.62404E-02
  0.22211E-02  0.32179E-02 -0.62404E-02
  0.13865E-02  0.36559E-02 -0.62404E-02
  0.47130E-03  0.38815E-02 -0.62404E-02
 -0.47130E-03  0.38815E-02 -0.62404E-02
 -0.13865E-02  0.36559E-02 -0.62404E-02
 -0.22211E-02  0.32179E-02 -0.62404E-02
 -0.29267E-02  0.25928E-02 -0.62404E-02
 -0.34621E-02  0.18171E-02 -0.62404E-02
 -0.37964E-02  0.93572E-03 -0.62404E-02
 -0.39100E-02 -0.47884E-18 -0.62404E-02
 -0.37964E-02 -0.93572E-03 -0.62404E-02
 -0.34621E-02 -0.18171E-02 -0.62404E-02
 -0.29267E-02 -0.25928E-02 -0.62404E-02
 -0.22211E-02 -0.32179E-02 -0.62404E-02
 -0.13865E-02 -0.36559E-02 -0.62404E-02
 -0.47130E-03 -0.38815E-02 -0.62404E-02
  0.47130E-03 -0.38815E-02 -0.62404E-02
  0.13865E-02 -0.36559E-02 -0.62404E-02
  0.22211E-02 -0.32179E-02 -0.62404E-02
  0.29267E-02 -0.25928E-02 -0.62404E-02
  0.34621E-02 -0.18171E-02 -0.62404E-02
  0.37964E-02 -0.93572E-03 -0.62404E-02
  0.10367E-02  0.67791E-03 -0.52613E-02
  0.17436E-02  0.12368E-02 -0.52613E-02
  0.23166E-02  0.59622E-03 -0.52613E-02
  0.16679E-02 -0.33096E-03 -0.52613E-02
  0.30375E-02  0.15209E-03 -0.52613E-02
  0.27822E-02 -0.67199E-03 -0.52613E-02
  0.12841E-02  0.18429E-02 -0.52613E-02
  0.64918E-03  0.14666E-02 -0.52613E-02
  0.12521E-03  0.30967E-03 -0.52613E-02
 -0.12989E-03  0.11830E-02 -0.52613E-02
  0.94202E-03  0.22759E-02 -0.52613E-02
  0.11296E-02  0.28247E-02 -0.52613E-02
  0.17455E-02  0.24251E-02 -0.52613E-02
  0.40539E-03  0.21688E-02 -0.52613E-02
  0.39764E-03  0.29343E-02 -0.52613E-02
 -0.76621E-03 -0.10046E-02 -0.52613E-02
 -0.86702E-03  0.86253E-04 -0.52613E-02
  0.45716E-03 -0.69665E-03 -0.52613E-02
 -0.18326E-02 -0.71070E-03 -0.52613E-02
 -0.18431E-02  0.83861E-04 -0.52613E-02
 -0.27235E-02 -0.77712E-03 -0.52613E-02
 -0.28003E-02  0.43173E-04 -0.52613E-02
 -0.25379E-02 -0.15190E-02 -0.52613E-02
 -0.19326E-02 -0.13220E-02 -0.52613E-02
 -0.99233E-03  0.10007E-02 -0.52613E-02
 -0.14412E-02 -0.17321E-02 -0.52613E-02
 -0.31394E-03  0.20245E-02 -0.52613E-02
 -0.11037E-02  0.18603E-02 -0.52613E-02
 -0.18841E-02  0.17175E-02 -0.52613E-02
 -0.18701E-02  0.91156E-03 -0.52613E-02
 -0.16119E-03 -0.19802E-02 -0.52613E-02
 -0.94628E-03 -0.23491E-02 -0.52613E-02
  0.78262E-03 -0.17074E-02 -0.52613E-02
  0.17207E-02 -0.14916E-02 -0.52613E-02
  0.32079E-02  0.76941E-03 -0.52613E-02
  0.28044E-02  0.12515E-02 -0.52613E-02
  0.23049E-02  0.18668E-02 -0.52613E-02
 -0.40490E-03  0.28942E-02 -0.52613E-02
 -0.12093E-02  0.27165E-02 -0.52613E-02
 -0.19444E-02  0.24622E-02 -0.52613E-02
 -0.25026E-02  0.22358E-02 -0.52613E-02
 -0.26363E-02  0.16503E-02 -0.52613E-02
 -0.27643E-02  0.87728E-03 -0.52613E-02
 -0.21136E-02 -0.21374E-02 -0.52613E-02
 -0.16091E-02 -0.26933E-02 -0.52613E-02
 -0.11949E-02 -0.31291E-02 -0.52613E-02
 -0.58956E-03 -0.30382E-02 -0.52613E-02
  0.20546E-03 -0.28749E-02 -0.52613E-02
  0.10558E-02 -0.26447E-02 -0.52613E-02
  0.18417E-02 -0.23725E-02 -0.52613E-02
  0.24555E-02 -0.21494E-02 -0.52613E-02
  0.26028E-02 -0.15095E-02 -0.52613E-02
  0.37964E-02  0.93572E-03 -0.52613E-02
  0.39100E-02  0.00000E+00 -0.52613E-02
  0.34621E-02  0.18171E-02 -0.52613E-02
  0.29267E-02  0.25928E-02 -0.52613E-02
  0.22211E-02  0.32179E-02 -0.52613E-02
  0.13865E-02  0.36559E-02 -0.52613E-02
  0.47130E-03  0.38815E-02 -0.52613E-02
 -0.47130E-03  0.38815E-02 -0.52613E-02
 -0.13865E-02  0.36559E-02 -0.52613E-02
 -0.22211E-02  0.32179E-02 -0.52613E-02
 -0.29267E-02  0.25928E-02 -0.52613E-02
 -0.34621E-02  0.18171E-02 -0.52613E-02
 -0.37964E-02  0.93572E-03 -0.52613E-02
 -0.39100E-02 -0.47884E-18 -0.52613E-02
 -0.37964E-02 -0.93572E-03 -0.52613E-02
 -0.34621E-02 -0.18171E-02 -0.52613E-02
 -0.29267E-02 -0.25928E-02 -0.52613E-02
 -0.22211E-02 -0.32179E-02 -0.52613E-02
 -0.13865E-02 -0.36559E-02 -0.52613E-02
 -0.47130E-03 -0.38815E-02 -0.52613E-02
  0.47130E-03 -0.38815E-02 -0.52613E-02
  0.13865E-02 -0.36559E-02 -0.52613E-02
  0.22211E-02 -0.32179E-02 -0.52613E-02
  0.29267E-02 -0.25928E-02 -0.52613E-02
  0.34621E-02 -0.18171E-02 -0.52613E-02
  0.37964E-02 -0.93572E-03 -0.52613E-02
  0.10366E-02  0.67847E-03 -0.42821E-02
  0.17434E-02  0.12374E-02 -0.42821E-02
  0.23164E-02  0.59674E-03 -0.42821E-02
  0.16677E-02 -0.33021E-03 -0.42821E-02
  0.30375E-02  0.15245E-03 -0.42821E-02
  0.27825E-02 -0.67150E-03 -0.42821E-02
  0.12840E-02  0.18430E-02 -0.42821E-02
  0.64894E-03  0.14676E-02 -0.42821E-02
  0.12495E-03  0.31081E-03 -0.42821E-02
 -0.13007E-03  0.11847E-02 -0.42821E-02
  0.94169E-03  0.22761E-02 -0.42821E-02
  0.11293E-02  0.28242E-02 -0.42821E-02
  0.17451E-02  0.24252E-02 -0.42821E-02
  0.40534E-03  0.21688E-02 -0.42821E-02
  0.39762E-03  0.29340E-02 -0.42821E-02
 -0.76657E-03 -0.10047E-02 -0.42821E-02
 -0.86713E-03  0.87062E-04 -0.42821E-02
  0.45671E-03 -0.69592E-03 -0.42821E-02
 -0.18329E-02 -0.71056E-03 -0.42821E-02
 -0.18430E-02  0.83985E-04 -0.42821E-02
 -0.27235E-02 -0.77695E-03 -0.42821E-02
 -0.28001E-02  0.43446E-04 -0.42821E-02
 -0.25380E-02 -0.15190E-02 -0.42821E-02
 -0.19330E-02 -0.13219E-02 -0.42821E-02
 -0.99219E-03  0.10020E-02 -0.42821E-02
 -0.14415E-02 -0.17321E-02 -0.42821E-02
 -0.31374E-03  0.20248E-02 -0.42821E-02
 -0.11033E-02  0.18602E-02 -0.42821E-02
 -0.18840E-02  0.17175E-02 -0.42821E-02
 -0.18700E-02  0.91180E-03 -0.42821E-02
 -0.16146E-03 -0.19803E-02 -0.42821E-02
 -0.94687E-03 -0.23491E-02 -0.42821E-02
  0.78195E-03 -0.17073E-02 -0.42821E-02
  0.17207E-02 -0.14919E-02 -0.42821E-02
  0.32083E-02  0.77042E-03 -0.42821E-02
  0.28044E-02  0.12520E-02 -0.42821E-02
  0.23048E-02  0.18669E-02 -0.42821E-02
 -0.40476E-03  0.28931E-02 -0.42821E-02
 -0.12093E-02  0.27160E-02 -0.42821E-02
 -0.19444E-02  0.24620E-02 -0.42821E-02
 -0.25026E-02  0.22358E-02 -0.42821E-02
 -0.26362E-02  0.16503E-02 -0.42821E-02
 -0.27640E-02  0.87754E-03 -0.42821E-02
 -0.21137E-02 -0.21374E-02 -0.42821E-02
 -0.16091E-02 -0.26933E-02 -0.42821E-02
 -0.11950E-02 -0.31291E-02 -0.42821E-02
 -0.58991E-03 -0.30382E-02 -0.42821E-02
  0.20505E-03 -0.28749E-02 -0.42821E-02
  0.10555E-02 -0.26450E-02 -0.42821E-02
  0.18417E-02 -0.23727E-02 -0.42821E-02
  0.24556E-02 -0.21500E-02 -0.42821E-02
  0.26029E-02 -0.15094E-02 -0.42821E-02
  0.37964E-02  0.93572E-03 -0.42821E-02
  0.39100E-02  0.00000E+00 -0.42821E-02
  0.34621E-02  0.18171E-02 -0.42821E-02
  0.29267E-02  0.25928E-02 -0.42821E-02
  0.22211E-02  0.32179E-02 -0.42821E-02
  0.13865E-02  0.36559E-02 -0.42821E-02
  0.47130E-03  0.38815E-02 -0.42821E-02
 -0.47130E-03  0.38815E-02 -0.42821E-02
 -0.13865E-02  0.36559E-02 -0.42821E-02
 -0.22211E-02  0.32179E-02 -0.42821E-02
 -0.29267E-02  0.25928E-02 -0.42821E-02
 -0.34621E-02  0.18171E-02 -0.42821E-02
 -0.37964E-02  0.93572E-03 -0.42821E-02
 -0.39100E-02  0.39516E-17 -0.42821E-02
 -0.37964E-02 -0.93572E-03 -0.42821E-02
 -0.34621E-02 -0.18171E-02 -0.42821E-02
 -0.29267E-02 -0.25928E-02 -0.42821E-02
 -0.22211E-02 -0.32179E-02 -0.42821E-02
 -0.13865E-02 -0.36559E-02 -0.42821E-02
 -0.47130E-03 -0.38815E-02 -0.42821E-02
  0.47130E-03 -0.38815E-02 -0.42821E-02
  0.13865E-02 -0.36559E-02 -0.42821E-02
  0.22211E-02 -0.32179E-02 -0.42821E-02
  0.29267E-02 -0.25928E-02 -0.42821E-02
  0.34621E-02 -0.18171E-02 -0.42821E-02
  0.37964E-02 -0.93572E-03 -0.42821E-02
  0.10365E-02  0.67902E-03 -0.33029E-02
  0.17432E-02  0.12381E-02 -0.33029E-02
  0.23163E-02  0.59727E-03 -0.33029E-02
  0.16675E-02 -0.32945E-03 -0.33029E-02
  0.30374E-02  0.15282E-03 -0.33029E-02
  0.27829E-02 -0.67100E-03 -0.33029E-02
  0.12839E-02  0.18432E-02 -0.33029E-02
  0.64869E-03  0.14686E-02 -0.33029E-02
  0.12468E-03  0.31196E-03 -0.33029E-02
 -0.13026E-03  0.11865E-02 -0.33029E-02
  0.94135E-03  0.22762E-02 -0.33029E-02
  0.11289E-02  0.28238E-02 -0.33029E-02
  0.17447E-02  0.24254E-02 -0.33029E-02
  0.40528E-03  0.21688E-02 -0.33029E-02
  0.39760E-03  0.29337E-02 -0.33029E-02
 -0.76692E-03 -0.10049E-02 -0.33029E-02
 -0.86724E-03  0.87871E-04 -0.33029E-02
  0.45626E-03 -0.69519E-03 -0.33029E-02
 -0.18332E-02 -0.71042E-03 -0.33029E-02
 -0.18430E-02  0.84108E-04 -0.33029E-02
 -0.27235E-02 -0.77678E-03 -0.33029E-02
 -0.27998E-02  0.43720E-04 -0.33029E-02
 -0.25382E-02 -0.15189E-02 -0.33029E-02
 -0.19334E-02 -0.13219E-02 -0.33029E-02
 -0.99205E-03  0.10034E-02 -0.33029E-02
 -0.14419E-02 -0.17320E-02 -0.33029E-02
 -0.31354E-03  0.20251E-02 -0.33029E-02
 -0.11030E-02  0.18601E-02 -0.33029E-02
 -0.18840E-02  0.17175E-02 -0.33029E-02
 -0.18699E-02  0.91204E-03 -0.33029E-02
 -0.16174E-03 -0.19803E-02 -0.33029E-02
 -0.94747E-03 -0.23492E-02 -0.33029E-02
  0.78129E-03 -0.17073E-02 -0.33029E-02
  0.17206E-02 -0.14921E-02 -0.33029E-02
  0.32086E-02  0.77142E-03 -0.33029E-02
  0.28044E-02  0.12524E-02 -0.33029E-02
  0.23047E-02  0.18669E-02 -0.33029E-02
 -0.40462E-03  0.28920E-02 -0.33029E-02
 -0.12093E-02  0.27155E-02 -0.33029E-02
 -0.19444E-02  0.24618E-02 -0.33029E-02
 -0.25025E-02  0.22358E-02 -0.33029E-02
 -0.26361E-02  0.16503E-02 -0.33029E-02
 -0.27637E-02  0.87781E-03 -0.33029E-02
 -0.21139E-02 -0.21374E-02 -0.33029E-02
 -0.16092E-02 -0.26934E-02 -0.33029E-02
 -0.11951E-02 -0.31291E-02 -0.33029E-02
 -0.59025E-03 -0.30382E-02 -0.33029E-02
  0.20465E-03 -0.28749E-02 -0.33029E-02
  0.10552E-02 -0.26452E-02 -0.33029E-02
  0.18418E-02 -0.23729E-02 -0.33029E-02
  0.24558E-02 -0.21505E-02 -0.33029E-02
  0.26030E-02 -0.15093E-02 -0.33029E-02
  0.37964E-02  0.93572E-03 -0.33029E-02
  0.39100E-02  0.00000E+00 -0.33029E-02
  0.34621E-02  0.18171E-02 -0.33029E-02
  0.29267E-02  0.25928E-02 -0.33029E-02
  0.22211E-02  0.32179E-02 -0.33029E-02
  0.13865E-02  0.36559E-02 -0.33029E-02
  0.47130E-03  0.38815E-02 -0.33029E-02
 -0.47130E-03  0.38815E-02 -0.33029E-02
 -0.13865E-02  0.36559E-02 -0.33029E-02
 -0.22211E-02  0.32179E-02 -0.33029E-02
 -0.29267E-02  0.25928E-02 -0.33029E-02
 -0.34621E-02  0.18171E-02 -0.33029E-02
 -0.37964E-02  0.93572E-03 -0.33029E-02
 -0.39100E-02 -0.47884E-18 -0.33029E-02
 -0.37964E-02 -0.93572E-03 -0.33029E-02
 -0.34621E-02 -0.18171E-02 -0.33029E-02
 -0.29267E-02 -0.25928E-02 -0.33029E-02
 -0.22211E-02 -0.32179E-02 -0.33029E-02
 -0.13865E-02 -0.36559E-02 -0.33029E-02
 -0.47130E-03 -0.38815E-02 -0.33029E-02
  0.47130E-03 -0.38815E-02 -0.33029E-02
  0.13865E-02 -0.36559E-02 -0.33029E-02
  0.22211E-02 -0.32179E-02 -0.33029E-02
  0.29267E-02 -0.25928E-02 -0.33029E-02
  0.34621E-02 -0.18171E-02 -0.33029E-02
  0.37964E-02 -0.93572E-03 -0.33029E-02
  0.10364E-02  0.67958E-03 -0.23238E-02
  0.17430E-02  0.12387E-02 -0.23238E-02
  0.23162E-02  0.59779E-03 -0.23238E-02
  0.16672E-02 -0.32870E-03 -0.23238E-02
  0.30374E-02  0.15318E-03 -0.23238E-02
  0.27832E-02 -0.67051E-03 -0.23238E-02
  0.12838E-02  0.18434E-02 -0.23238E-02
  0.64845E-03  0.14696E-02 -0.23238E-02
  0.12442E-03  0.31311E-03 -0.23238E-02
 -0.13044E-03  0.11882E-02 -0.23238E-02
  0.94102E-03  0.22763E-02 -0.23238E-02
  0.11286E-02  0.28233E-02 -0.23238E-02
  0.17443E-02  0.24255E-02 -0.23238E-02
  0.40523E-03  0.21689E-02 -0.23238E-02
  0.39759E-03  0.29335E-02 -0.23238E-02
 -0.76727E-03 -0.10050E-02 -0.23238E-02
 -0.86735E-03  0.88681E-04 -0.23238E-02
  0.45582E-03 -0.69447E-03 -0.23238E-02
 -0.18335E-02 -0.71028E-03 -0.23238E-02
 -0.18429E-02  0.84232E-04 -0.23238E-02
 -0.27235E-02 -0.77661E-03 -0.23238E-02
 -0.27995E-02  0.43993E-04 -0.23238E-02
 -0.25383E-02 -0.15189E-02 -0.23238E-02
 -0.19339E-02 -0.13218E-02 -0.23238E-02
 -0.99190E-03  0.10048E-02 -0.23238E-02
 -0.14422E-02 -0.17320E-02 -0.23238E-02
 -0.31334E-03  0.20254E-02 -0.23238E-02
 -0.11026E-02  0.18599E-02 -0.23238E-02
 -0.18839E-02  0.17175E-02 -0.23238E-02
 -0.18697E-02  0.91228E-03 -0.23238E-02
 -0.16201E-03 -0.19803E-02 -0.23238E-02
 -0.94807E-03 -0.23492E-02 -0.23238E-02
  0.78063E-03 -0.17073E-02 -0.23238E-02
  0.17206E-02 -0.14923E-02 -0.23238E-02
  0.32089E-02  0.77243E-03 -0.23238E-02
  0.28043E-02  0.12528E-02 -0.23238E-02
  0.23046E-02  0.18670E-02 -0.23238E-02
 -0.40448E-03  0.28910E-02 -0.23238E-02
 -0.12093E-02  0.27151E-02 -0.23238E-02
 -0.19443E-02  0.24615E-02 -0.23238E-02
 -0.25025E-02  0.22358E-02 -0.23238E-02
 -0.26360E-02  0.16503E-02 -0.23238E-02
 -0.27633E-02  0.87807E-03 -0.23238E-02
 -0.21140E-02 -0.21374E-02 -0.23238E-02
 -0.16092E-02 -0.26934E-02 -0.23238E-02
 -0.11953E-02 -0.31291E-02 -0.23238E-02
 -0.59060E-03 -0.30382E-02 -0.23238E-02
  0.20424E-03 -0.28749E-02 -0.23238E-02
  0.10549E-02 -0.26455E-02 -0.23238E-02
  0.18418E-02 -0.23732E-02 -0.23238E-02
  0.24559E-02 -0.21511E-02 -0.23238E-02
  0.26030E-02 -0.15092E-02 -0.23238E-02
  0.37964E-02  0.93572E-03 -0.23238E-02
  0.39100E-02  0.00000E+00 -0.23238E-02
  0.34621E-02  0.18171E-02 -0.23238E-02
  0.29267E-02  0.25928E-02 -0.23238E-02
  0.22211E-02  0.32179E-02 -0.23238E-02
  0.13865E-02  0.36559E-02 -0.23238E-02
  0.47130E-03  0.38815E-02 -0.23238E-02
 -0.47130E-03  0.38815E-02 -0.23238E-02
 -0.13865E-02  0.36559E-02 -0.23238E-02
 -0.22211E-02  0.32179E-02 -0.23238E-02
 -0.29267E-02  0.25928E-02 -0.23238E-02
 -0.34621E-02  0.18171E-02 -0.23238E-02
 -0.37964E-02  0.93572E-03 -0.23238E-02
 -0.39100E-02  0.22152E-17 -0.23238E-02
 -0.37964E-02 -0.93572E-03 -0.23238E-02
 -0.34621E-02 -0.18171E-02 -0.23238E-02
 -0.29267E-02 -0.25928E-02 -0.23238E-02
 -0.22211E-02 -0.32179E-02 -0.23238E-02
 -0.13865E-02 -0.36559E-02 -0.23238E-02
 -0.47130E-03 -0.38815E-02 -0.23238E-02
  0.47130E-03 -0.38815E-02 -0.23238E-02
  0.13865E-02 -0.36559E-02 -0.23238E-02
  0.22211E-02 -0.32179E-02 -0.23238E-02
  0.29267E-02 -0.25928E-02 -0.23238E-02
  0.34621E-02 -0.18171E-02 -0.23238E-02
  0.37964E-02 -0.93572E-03 -0.23238E-02
  0.10363E-02  0.68013E-03 -0.13446E-02
  0.17429E-02  0.12394E-02 -0.13446E-02
  0.23161E-02  0.59831E-03 -0.13446E-02
  0.16670E-02 -0.32794E-03 -0.13446E-02
  0.30374E-02  0.15354E-03 -0.13446E-02
  0.27836E-02 -0.67002E-03 -0.13446E-02
  0.12837E-02  0.18436E-02 -0.13446E-02
  0.64820E-03  0.14706E-02 -0.13446E-02
  0.12416E-03  0.31426E-03 -0.13446E-02
 -0.13063E-03  0.11900E-02 -0.13446E-02
  0.94069E-03  0.22765E-02 -0.13446E-02
  0.11282E-02  0.28229E-02 -0.13446E-02
  0.17439E-02  0.24257E-02 -0.13446E-02
  0.40518E-03  0.21689E-02 -0.13446E-02
  0.39757E-03  0.29332E-02 -0.13446E-02
 -0.76763E-03 -0.10051E-02 -0.13446E-02
 -0.86746E-03  0.89490E-04 -0.13446E-02
  0.45537E-03 -0.69374E-03 -0.13446E-02
 -0.18338E-02 -0.71013E-03 -0.13446E-02
 -0.18428E-02  0.84355E-04 -0.13446E-02
 -0.27234E-02 -0.77644E-03 -0.13446E-02
 -0.27992E-02  0.44266E-04 -0.13446E-02
 -0.25385E-02 -0.15188E-02 -0.13446E-02
 -0.19343E-02 -0.13216E-02 -0.13446E-02
 -0.99176E-03  0.10061E-02 -0.13446E-02
 -0.14425E-02 -0.17320E-02 -0.13446E-02
 -0.31314E-03  0.20257E-02 -0.13446E-02
 -0.11023E-02  0.18598E-02 -0.13446E-02
 -0.18839E-02  0.17175E-02 -0.13446E-02
 -0.18696E-02  0.91252E-03 -0.13446E-02
 -0.16229E-03 -0.19803E-02 -0.13446E-02
 -0.94867E-03 -0.23492E-02 -0.13446E-02
  0.77997E-03 -0.17073E-02 -0.13446E-02
  0.17205E-02 -0.14926E-02 -0.13446E-02
  0.32092E-02  0.77343E-03 -0.13446E-02
  0.28043E-02  0.12533E-02 -0.13446E-02
  0.23044E-02  0.18670E-02 -0.13446E-02
 -0.40434E-03  0.28899E-02 -0.13446E-02
 -0.12093E-02  0.27146E-02 -0.13446E-02
 -0.19443E-02  0.24613E-02 -0.13446E-02
 -0.25025E-02  0.22358E-02 -0.13446E-02
 -0.26359E-02  0.16503E-02 -0.13446E-02
 -0.27630E-02  0.87833E-03 -0.13446E-02
 -0.21141E-02 -0.21374E-02 -0.13446E-02
 -0.16093E-02 -0.26934E-02 -0.13446E-02
 -0.11954E-02 -0.31291E-02 -0.13446E-02
 -0.59095E-03 -0.30382E-02 -0.13446E-02
  0.20384E-03 -0.28750E-02 -0.13446E-02
  0.10546E-02 -0.26458E-02 -0.13446E-02
  0.18419E-02 -0.23734E-02 -0.13446E-02
  0.24560E-02 -0.21516E-02 -0.13446E-02
  0.26031E-02 -0.15091E-02 -0.13446E-02
  0.37964E-02  0.93572E-03 -0.13446E-02
  0.39100E-02  0.00000E+00 -0.13446E-02
  0.34621E-02  0.18171E-02 -0.13446E-02
  0.29267E-02  0.25928E-02 -0.13446E-02
  0.22211E-02  0.32179E-02 -0.13446E-02
  0.13865E-02  0.36559E-02 -0.13446E-02
  0.47130E-03  0.38815E-02 -0.13446E-02
 -0.47130E-03  0.38815E-02 -0.13446E-02
 -0.13865E-02  0.36559E-02 -0.13446E-02
 -0.22211E-02  0.32179E-02 -0.13446E-02
 -0.29267E-02  0.25928E-02 -0.13446E-02
 -0.34621E-02  0.18171E-02 -0.13446E-02
 -0.37964E-02  0.93572E-03 -0.13446E-02
 -0.39100E-02 -0.47884E-18 -0.13446E-02
 -0.37964E-02 -0.93572E-03 -0.13446E-02
 -0.34621E-02 -0.18171E-02 -0.13446E-02
 -0.29267E-02 -0.25928E-02 -0.13446E-02
 -0.22211E-02 -0.32179E-02 -0.13446E-02
 -0.13865E-02 -0.36559E-02 -0.13446E-02
 -0.47130E-03 -0.38815E-02 -0.13446E-02
  0.47130E-03 -0.38815E-02 -0.13446E-02
  0.13865E-02 -0.36559E-02 -0.13446E-02
  0.22211E-02 -0.32179E-02 -0.13446E-02
  0.29267E-02 -0.25928E-02 -0.13446E-02
  0.34621E-02 -0.18171E-02 -0.13446E-02
  0.37964E-02 -0.93572E-03 -0.13446E-02
  0.10362E-02  0.68068E-03 -0.36542E-03
  0.17427E-02  0.12401E-02 -0.36542E-03
  0.23160E-02  0.59884E-03 -0.36542E-03
  0.16668E-02 -0.32719E-03 -0.36542E-03
  0.30373E-02  0.15391E-03 -0.36542E-03
  0.27839E-02 -0.66953E-03 -0.36542E-03
  0.12836E-02  0.18438E-02 -0.36542E-03
  0.64796E-03  0.14716E-02 -0.36542E-03
  0.12390E-03  0.31541E-03 -0.36542E-03
 -0.13082E-03  0.11917E-02 -0.36542E-03
  0.94036E-03  0.22766E-02 -0.36542E-03
  0.11279E-02  0.28225E-02 -0.36542E-03
  0.17435E-02  0.24258E-02 -0.36542E-03
  0.40512E-03  0.21690E-02 -0.36542E-03
  0.39755E-03  0.29330E-02 -0.36542E-03
 -0.76798E-03 -0.10053E-02 -0.36542E-03
 -0.86756E-03  0.90299E-04 -0.36542E-03
  0.45492E-03 -0.69302E-03 -0.36542E-03
 -0.18341E-02 -0.70999E-03 -0.36542E-03
 -0.18427E-02  0.84479E-04 -0.36542E-03
 -0.27234E-02 -0.77627E-03 -0.36542E-03
 -0.27990E-02  0.44540E-04 -0.36542E-03
 -0.25386E-02 -0.15188E-02 -0.36542E-03
 -0.19347E-02 -0.13215E-02 -0.36542E-03
 -0.99161E-03  0.10075E-02 -0.36542E-03
 -0.14429E-02 -0.17319E-02 -0.36542E-03
 -0.31294E-03  0.20260E-02 -0.36542E-03
 -0.11019E-02  0.18597E-02 -0.36542E-03
 -0.18838E-02  0.17175E-02 -0.36542E-03
 -0.18695E-02  0.91276E-03 -0.36542E-03
 -0.16256E-03 -0.19804E-02 -0.36542E-03
 -0.94927E-03 -0.23493E-02 -0.36542E-03
  0.77931E-03 -0.17073E-02 -0.36542E-03
  0.17205E-02 -0.14928E-02 -0.36542E-03
  0.32096E-02  0.77444E-03 -0.36542E-03
  0.28043E-02  0.12537E-02 -0.36542E-03
  0.23043E-02  0.18670E-02 -0.36542E-03
 -0.40420E-03  0.28888E-02 -0.36542E-03
 -0.12093E-02  0.27141E-02 -0.36542E-03
 -0.19443E-02  0.24611E-02 -0.36542E-03
 -0.25024E-02  0.22358E-02 -0.36542E-03
 -0.26358E-02  0.16503E-02 -0.36542E-03
 -0.27627E-02  0.87859E-03 -0.36542E-03
 -0.21143E-02 -0.21374E-02 -0.36542E-03
 -0.16093E-02 -0.26934E-02 -0.36542E-03
 -0.11955E-02 -0.31291E-02 -0.36542E-03
 -0.59130E-03 -0.30382E-02 -0.36542E-03
  0.20343E-03 -0.28750E-02 -0.36542E-03
  0.10543E-02 -0.26460E-02 -0.36542E-03
  0.18419E-02 -0.23736E-02 -0.36542E-03
  0.24561E-02 -0.21521E-02 -0.36542E-03
  0.26032E-02 -0.15090E-02 -0.36542E-03
  0.37964E-02  0.93572E-03 -0.36542E-03
  0.39100E-02  0.00000E+00 -0.36542E-03
  0.34621E-02  0.18171E-02 -0.36542E-03
  0.29267E-02  0.25928E-02 -0.36542E-03
  0.22211E-02  0.32179E-02 -0.36542E-03
  0.13865E-02  0.36559E-02 -0.36542E-03
  0.47130E-03  0.38815E-02 -0.36542E-03
 -0.47130E-03  0.38815E-02 -0.36542E-03
 -0.13865E-02  0.36559E-02 -0.36542E-03
 -0.22211E-02  0.32179E-02 -0.36542E-03
 -0.29267E-02  0.25928E-02 -0.36542E-03
 -0.34621E-02  0.18171E-02 -0.36542E-03
 -0.37964E-02  0.93572E-03 -0.36542E-03
 -0.39100E-02  0.22152E-17 -0.36542E-03
 -0.37964E-02 -0.93572E-03 -0.36542E-03
 -0.34621E-02 -0.18171E-02 -0.36542E-03
 -0.29267E-02 -0.25928E-02 -0.36542E-03
 -0.22211E-02 -0.32179E-02 -0.36542E-03
 -0.13865E-02 -0.36559E-02 -0.36542E-03
 -0.47130E-03 -0.38815E-02 -0.36542E-03
  0.47130E-03 -0.38815E-02 -0.36542E-03
  0.13865E-02 -0.36559E-02 -0.36542E-03
  0.22211E-02 -0.32179E-02 -0.36542E-03
  0.29267E-02 -0.25928E-02 -0.36542E-03
  0.34621E-02 -0.18171E-02 -0.36542E-03
  0.37964E-02 -0.93572E-03 -0.36542E-03
  0.10360E-02  0.68124E-03  0.61375E-03
  0.17425E-02  0.12407E-02  0.61375E-03
  0.23158E-02  0.59936E-03  0.61375E-03
  0.16666E-02 -0.32643E-03  0.61375E-03
  0.30373E-02  0.15427E-03  0.61375E-03
  0.27842E-02 -0.66903E-03  0.61375E-03
  0.12835E-02  0.18440E-02  0.61375E-03
  0.64771E-03  0.14727E-02  0.61375E-03
  0.12363E-03  0.31656E-03  0.61375E-03
 -0.13100E-03  0.11935E-02  0.61375E-03
  0.94003E-03  0.22767E-02  0.61375E-03
  0.11276E-02  0.28220E-02  0.61375E-03
  0.17432E-02  0.24260E-02  0.61375E-03
  0.40507E-03  0.21690E-02  0.61375E-03
  0.39754E-03  0.29327E-02  0.61375E-03
 -0.76834E-03 -0.10054E-02  0.61375E-03
 -0.86767E-03  0.91108E-04  0.61375E-03
  0.45447E-03 -0.69229E-03  0.61375E-03
 -0.18344E-02 -0.70985E-03  0.61375E-03
 -0.18426E-02  0.84602E-04  0.61375E-03
 -0.27234E-02 -0.77610E-03  0.61375E-03
 -0.27987E-02  0.44813E-04  0.61375E-03
 -0.25388E-02 -0.15187E-02  0.61375E-03
 -0.19352E-02 -0.13215E-02  0.61375E-03
 -0.99147E-03  0.10088E-02  0.61375E-03
 -0.14433E-02 -0.17319E-02  0.61375E-03
 -0.31274E-03  0.20262E-02  0.61375E-03
 -0.11016E-02  0.18595E-02  0.61375E-03
 -0.18838E-02  0.17175E-02  0.61375E-03
 -0.18694E-02  0.91300E-03  0.61375E-03
 -0.16284E-03 -0.19804E-02  0.61375E-03
 -0.94986E-03 -0.23493E-02  0.61375E-03
  0.77865E-03 -0.17073E-02  0.61375E-03
  0.17205E-02 -0.14931E-02  0.61375E-03
  0.32099E-02  0.77544E-03  0.61375E-03
  0.28042E-02  0.12541E-02  0.61375E-03
  0.23042E-02  0.18671E-02  0.61375E-03
 -0.40407E-03  0.28877E-02  0.61375E-03
 -0.12093E-02  0.27137E-02  0.61375E-03
 -0.19442E-02  0.24609E-02  0.61375E-03
 -0.25024E-02  0.22358E-02  0.61375E-03
 -0.26358E-02  0.16503E-02  0.61375E-03
 -0.27624E-02  0.87885E-03  0.61375E-03
 -0.21144E-02 -0.21374E-02  0.61375E-03
 -0.16094E-02 -0.26934E-02  0.61375E-03
 -0.11956E-02 -0.31291E-02  0.61375E-03
 -0.59165E-03 -0.30382E-02  0.61375E-03
  0.20302E-03 -0.28750E-02  0.61375E-03
  0.10540E-02 -0.26463E-02  0.61375E-03
  0.18419E-02 -0.23738E-02  0.61375E-03
  0.24563E-02 -0.21527E-02  0.61375E-03
  0.26033E-02 -0.15088E-02  0.61375E-03
  0.37964E-02  0.93572E-03  0.61375E-03
  0.39100E-02  0.00000E+00  0.61375E-03
  0.34621E-02  0.18171E-02  0.61375E-03
  0.29267E-02  0.25928E-02  0.61375E-03
  0.22211E-02  0.32179E-02  0.61375E-03
  0.13865E-02  0.36559E-02  0.61375E-03
  0.47130E-03  0.38815E-02  0.61375E-03
 -0.47130E-03  0.38815E-02  0.61375E-03
 -0.13865E-02  0.36559E-02  0.61375E-03
 -0.22211E-02  0.32179E-02  0.61375E-03
 -0.29267E-02  0.25928E-02  0.61375E-03
 -0.34621E-02  0.18171E-02  0.61375E-03
 -0.37964E-02  0.93572E-03  0.61375E-03
 -0.39100E-02 -0.47884E-18  0.61375E-03
 -0.37964E-02 -0.93572E-03  0.61375E-03
 -0.34621E-02 -0.18171E-02  0.61375E-03
 -0.29267E-02 -0.25928E-02  0.61375E-03
 -0.22211E-02 -0.32179E-02  0.61375E-03
 -0.13865E-02 -0.36559E-02  0.61375E-03
 -0.47130E-03 -0.38815E-02  0.61375E-03
  0.47130E-03 -0.38815E-02  0.61375E-03
  0.13865E-02 -0.36559E-02  0.61375E-03
  0.22211E-02 -0.32179E-02  0.61375E-03
  0.29267E-02 -0.25928E-02  0.61375E-03
  0.34621E-02 -0.18171E-02  0.61375E-03
  0.37964E-02 -0.93572E-03  0.61375E-03
  0.10359E-02  0.68179E-03  0.15929E-02
  0.17423E-02  0.12414E-02  0.15929E-02
  0.23157E-02  0.59988E-03  0.15929E-02
  0.16664E-02 -0.32568E-03  0.15929E-02
  0.30373E-02  0.15463E-03  0.15929E-02
  0.27846E-02 -0.66854E-03  0.15929E-02
  0.12834E-02  0.18442E-02  0.15929E-02
  0.64747E-03  0.14736E-02  0.15929E-02
  0.12337E-03  0.31770E-03  0.15929E-02
 -0.13118E-03  0.11952E-02  0.15929E-02
  0.93970E-03  0.22768E-02  0.15929E-02
  0.11272E-02  0.28216E-02  0.15929E-02
  0.17428E-02  0.24261E-02  0.15929E-02
  0.40501E-03  0.21690E-02  0.15929E-02
  0.39752E-03  0.29324E-02  0.15929E-02
 -0.76869E-03 -0.10056E-02  0.15929E-02
 -0.86778E-03  0.91918E-04  0.15929E-02
  0.45402E-03 -0.69156E-03  0.15929E-02
 -0.18347E-02 -0.70971E-03  0.15929E-02
 -0.18425E-02  0.84726E-04  0.15929E-02
 -0.27234E-02 -0.77593E-03  0.15929E-02
 -0.27984E-02  0.45086E-04  0.15929E-02
 -0.25389E-02 -0.15187E-02  0.15929E-02
 -0.19356E-02 -0.13213E-02  0.15929E-02
 -0.99133E-03  0.10102E-02  0.15929E-02
 -0.14436E-02 -0.17318E-02  0.15929E-02
 -0.31254E-03  0.20265E-02  0.15929E-02
 -0.11013E-02  0.18594E-02  0.15929E-02
 -0.18837E-02  0.17175E-02  0.15929E-02
 -0.18692E-02  0.91324E-03  0.15929E-02
 -0.16311E-03 -0.19804E-02  0.15929E-02
 -0.95046E-03 -0.23493E-02  0.15929E-02
  0.77799E-03 -0.17073E-02  0.15929E-02
  0.17204E-02 -0.14933E-02  0.15929E-02
  0.32102E-02  0.77645E-03  0.15929E-02
  0.28042E-02  0.12545E-02  0.15929E-02
  0.23041E-02  0.18671E-02  0.15929E-02
 -0.40393E-03  0.28867E-02  0.15929E-02
 -0.12093E-02  0.27132E-02  0.15929E-02
 -0.19442E-02  0.24606E-02  0.15929E-02
 -0.25024E-02  0.22358E-02  0.15929E-02
 -0.26357E-02  0.16503E-02  0.15929E-02
 -0.27621E-02  0.87912E-03  0.15929E-02
 -0.21146E-02 -0.21374E-02  0.15929E-02
 -0.16094E-02 -0.26935E-02  0.15929E-02
 -0.11957E-02 -0.31291E-02  0.15929E-02
 -0.59200E-03 -0.30381E-02  0.15929E-02
  0.20262E-03 -0.28750E-02  0.15929E-02
  0.10536E-02 -0.26466E-02  0.15929E-02
  0.18420E-02 -0.23740E-02  0.15929E-02
  0.24564E-02 -0.21533E-02  0.15929E-02
  0.26033E-02 -0.15087E-02  0.15929E-02
  0.37964E-02  0.93572E-03  0.15929E-02
  0.39100E-02  0.00000E+00  0.15929E-02
  0.34621E-02  0.18171E-02  0.15929E-02
  0.29267E-02  0.25928E-02  0.15929E-02
  0.22211E-02  0.32179E-02  0.15929E-02
  0.13865E-02  0.36559E-02  0.15929E-02
  0.47130E-03  0.38815E-02  0.15929E-02
 -0.47130E-03  0.38815E-02  0.15929E-02
 -0.13865E-02  0.36559E-02  0.15929E-02
 -0.22211E-02  0.32179E-02  0.15929E-02
 -0.29267E-02  0.25928E-02  0.15929E-02
 -0.34621E-02  0.18171E-02  0.15929E-02
 -0.37964E-02  0.93572E-03  0.15929E-02
 -0.39100E-02 -0.47884E-18  0.15929E-02
 -0.37964E-02 -0.93572E-03  0.15929E-02
 -0.34621E-02 -0.18171E-02  0.15929E-02
 -0.29267E-02 -0.25928E-02  0.15929E-02
 -0.22211E-02 -0.32179E-02  0.15929E-02
 -0.13865E-02 -0.36559E-02  0.15929E-02
 -0.47130E-03 -0.38815E-02  0.15929E-02
  0.47130E-03 -0.38815E-02  0.15929E-02
  0.13865E-02 -0.36559E-02  0.15929E-02
  0.22211E-02 -0.32179E-02  0.15929E-02
  0.29267E-02 -0.25928E-02  0.15929E-02
  0.34621E-02 -0.18171E-02  0.15929E-02
  0.37964E-02 -0.93572E-03  0.15929E-02
  0.10358E-02  0.68235E-03  0.25721E-02
  0.17422E-02  0.12421E-02  0.25721E-02
  0.23156E-02  0.60041E-03  0.25721E-02
  0.16662E-02 -0.32493E-03  0.25721E-02
  0.30373E-02  0.15500E-03  0.25721E-02
  0.27849E-02 -0.66805E-03  0.25721E-02
  0.12833E-02  0.18444E-02  0.25721E-02
  0.64722E-03  0.14747E-02  0.25721E-02
  0.12311E-03  0.31885E-03  0.25721E-02
 -0.13137E-03  0.11970E-02  0.25721E-02
  0.93937E-03  0.22770E-02  0.25721E-02
  0.11269E-02  0.28211E-02  0.25721E-02
  0.17424E-02  0.24262E-02  0.25721E-02
  0.40496E-03  0.21691E-02  0.25721E-02
  0.39750E-03  0.29322E-02  0.25721E-02
 -0.76904E-03 -0.10057E-02  0.25721E-02
 -0.86789E-03  0.92727E-04  0.25721E-02
  0.45358E-03 -0.69084E-03  0.25721E-02
 -0.18350E-02 -0.70957E-03  0.25721E-02
 -0.18424E-02  0.84849E-04  0.25721E-02
 -0.27233E-02 -0.77576E-03  0.25721E-02
 -0.27981E-02  0.45359E-04  0.25721E-02
 -0.25391E-02 -0.15186E-02  0.25721E-02
 -0.19360E-02 -0.13212E-02  0.25721E-02
 -0.99118E-03  0.10115E-02  0.25721E-02
 -0.14440E-02 -0.17318E-02  0.25721E-02
 -0.31234E-03  0.20268E-02  0.25721E-02
 -0.11009E-02  0.18593E-02  0.25721E-02
 -0.18836E-02  0.17175E-02  0.25721E-02
 -0.18691E-02  0.91347E-03  0.25721E-02
 -0.16339E-03 -0.19804E-02  0.25721E-02
 -0.95106E-03 -0.23493E-02  0.25721E-02
  0.77733E-03 -0.17073E-02  0.25721E-02
  0.17204E-02 -0.14936E-02  0.25721E-02
  0.32105E-02  0.77745E-03  0.25721E-02
  0.28042E-02  0.12550E-02  0.25721E-02
  0.23040E-02  0.18671E-02  0.25721E-02
 -0.40379E-03  0.28856E-02  0.25721E-02
 -0.12093E-02  0.27127E-02  0.25721E-02
 -0.19441E-02  0.24604E-02  0.25721E-02
 -0.25023E-02  0.22358E-02  0.25721E-02
 -0.26356E-02  0.16503E-02  0.25721E-02
 -0.27618E-02  0.87938E-03  0.25721E-02
 -0.21147E-02 -0.21374E-02  0.25721E-02
 -0.16094E-02 -0.26935E-02  0.25721E-02
 -0.11958E-02 -0.31291E-02  0.25721E-02
 -0.59235E-03 -0.30381E-02  0.25721E-02
  0.20221E-03 -0.28750E-02  0.25721E-02
  0.10533E-02 -0.26468E-02  0.25721E-02
  0.18420E-02 -0.23742E-02  0.25721E-02
  0.24565E-02 -0.21538E-02  0.25721E-02
  0.26034E-02 -0.15086E-02  0.25721E-02
  0.37964E-02  0.93572E-03  0.25721E-02
  0.39100E-02  0.00000E+00  0.25721E-02
  0.34621E-02  0.18171E-02  0.25721E-02
  0.29267E-02  0.25928E-02  0.25721E-02
  0.22211E-02  0.32179E-02  0.25721E-02
  0.13865E-02  0.36559E-02  0.25721E-02
  0.47130E-03  0.38815E-02  0.25721E-02
 -0.47130E-03  0.38815E-02  0.25721E-02
 -0.13865E-02  0.36559E-02  0.25721E-02
 -0.22211E-02  0.32179E-02  0.25721E-02
 -0.29267E-02  0.25928E-02  0.25721E-02
 -0.34621E-02  0.18171E-02  0.25721E-02
 -0.37964E-02  0.93572E-03  0.25721E-02
 -0.39100E-02 -0.47884E-18  0.25721E-02
 -0.37964E-02 -0.93572E-03  0.25721E-02
 -0.34621E-02 -0.18171E-02  0.25721E-02
 -0.29267E-02 -0.25928E-02  0.25721E-02
 -0.22211E-02 -0.32179E-02  0.25721E-02
 -0.13865E-02 -0.36559E-02  0.25721E-02
 -0.47130E-03 -0.38815E-02  0.25721E-02
  0.47130E-03 -0.38815E-02  0.25721E-02
  0.13865E-02 -0.36559E-02  0.25721E-02
  0.22211E-02 -0.32179E-02  0.25721E-02
  0.29267E-02 -0.25928E-02  0.25721E-02
  0.34621E-02 -0.18171E-02  0.25721E-02
  0.37964E-02 -0.93572E-03  0.25721E-02
  0.10357E-02  0.68290E-03  0.35512E-02
  0.17420E-02  0.12427E-02  0.35512E-02
  0.23155E-02  0.60093E-03  0.35512E-02
  0.16660E-02 -0.32417E-03  0.35512E-02
  0.30372E-02  0.15536E-03  0.35512E-02
  0.27853E-02 -0.66755E-03  0.35512E-02
  0.12832E-02  0.18445E-02  0.35512E-02
  0.64698E-03  0.14757E-02  0.35512E-02
  0.12285E-03  0.32000E-03  0.35512E-02
 -0.13155E-03  0.11987E-02  0.35512E-02
  0.93903E-03  0.22771E-02  0.35512E-02
  0.11266E-02  0.28207E-02  0.35512E-02
  0.17420E-02  0.24264E-02  0.35512E-02
  0.40490E-03  0.21691E-02  0.35512E-02
  0.39749E-03  0.29319E-02  0.35512E-02
 -0.76940E-03 -0.10058E-02  0.35512E-02
 -0.86800E-03  0.93536E-04  0.35512E-02
  0.45313E-03 -0.69011E-03  0.35512E-02
 -0.18353E-02 -0.70943E-03  0.35512E-02
 -0.18423E-02  0.84973E-04  0.35512E-02
 -0.27233E-02 -0.77559E-03  0.35512E-02
 -0.27979E-02  0.45633E-04  0.35512E-02
 -0.25393E-02 -0.15186E-02  0.35512E-02
 -0.19365E-02 -0.13212E-02  0.35512E-02
 -0.99104E-03  0.10129E-02  0.35512E-02
 -0.14443E-02 -0.17318E-02  0.35512E-02
 -0.31214E-03  0.20271E-02  0.35512E-02
 -0.11006E-02  0.18592E-02  0.35512E-02
 -0.18836E-02  0.17175E-02  0.35512E-02
 -0.18690E-02  0.91371E-03  0.35512E-02
 -0.16366E-03 -0.19805E-02  0.35512E-02
 -0.95166E-03 -0.23493E-02  0.35512E-02
  0.77667E-03 -0.17073E-02  0.35512E-02
  0.17203E-02 -0.14938E-02  0.35512E-02
  0.32109E-02  0.77846E-03  0.35512E-02
  0.28042E-02  0.12554E-02  0.35512E-02
  0.23039E-02  0.18672E-02  0.35512E-02
 -0.40365E-03  0.28845E-02  0.35512E-02
 -0.12093E-02  0.27122E-02  0.35512E-02
 -0.19441E-02  0.24602E-02  0.35512E-02
 -0.25023E-02  0.22358E-02  0.35512E-02
 -0.26355E-02  0.16502E-02  0.35512E-02
 -0.27615E-02  0.87964E-03  0.35512E-02
 -0.21148E-02 -0.21374E-02  0.35512E-02
 -0.16095E-02 -0.26935E-02  0.35512E-02
 -0.11960E-02 -0.31291E-02  0.35512E-02
 -0.59270E-03 -0.30381E-02  0.35512E-02
  0.20180E-03 -0.28750E-02  0.35512E-02
  0.10530E-02 -0.26471E-02  0.35512E-02
  0.18421E-02 -0.23744E-02  0.35512E-02
  0.24566E-02 -0.21543E-02  0.35512E-02
  0.26035E-02 -0.15085E-02  0.35512E-02
  0.37964E-02  0.93572E-03  0.35512E-02
  0.39100E-02  0.00000E+00  0.35512E-02
  0.34621E-02  0.18171E-02  0.35512E-02
  0.29267E-02  0.25928E-02  0.35512E-02
  0.22211E-02  0.32179E-02  0.35512E-02
  0.13865E-02  0.36559E-02  0.35512E-02
  0.47130E-03  0.38815E-02  0.35512E-02
 -0.47130E-03  0.38815E-02  0.35512E-02
 -0.13865E-02  0.36559E-02  0.35512E-02
 -0.22211E-02  0.32179E-02  0.35512E-02
 -0.29267E-02  0.25928E-02  0.35512E-02
 -0.34621E-02  0.18171E-02  0.35512E-02
 -0.37964E-02  0.93572E-03  0.35512E-02
 -0.39100E-02 -0.47884E-18  0.35512E-02
 -0.37964E-02 -0.93572E-03  0.35512E-02
 -0.34621E-02 -0.18171E-02  0.35512E-02
 -0.29267E-02 -0.25928E-02  0.35512E-02
 -0.22211E-02 -0.32179E-02  0.35512E-02
 -0.13865E-02 -0.36559E-02  0.35512E-02
 -0.47130E-03 -0.38815E-02  0.35512E-02
  0.47130E-03 -0.38815E-02  0.35512E-02
  0.13865E-02 -0.36559E-02  0.35512E-02
  0.22211E-02 -0.32179E-02  0.35512E-02
  0.29267E-02 -0.25928E-02  0.35512E-02
  0.34621E-02 -0.18171E-02  0.35512E-02
  0.37964E-02 -0.93572E-03  0.35512E-02
  0.10356E-02  0.68346E-03  0.45304E-02
  0.17418E-02  0.12434E-02  0.45304E-02
  0.23153E-02  0.60145E-03  0.45304E-02
  0.16657E-02 -0.32342E-03  0.45304E-02
  0.30372E-02  0.15572E-03  0.45304E-02
  0.27856E-02 -0.66706E-03  0.45304E-02
  0.12830E-02  0.18447E-02  0.45304E-02
  0.64673E-03  0.14767E-02  0.45304E-02
  0.12259E-03  0.32115E-03  0.45304E-02
 -0.13174E-03  0.12005E-02  0.45304E-02
  0.93870E-03  0.22772E-02  0.45304E-02
  0.11262E-02  0.28203E-02  0.45304E-02
  0.17416E-02  0.24265E-02  0.45304E-02
  0.40485E-03  0.21691E-02  0.45304E-02
  0.39747E-03  0.29316E-02  0.45304E-02
 -0.76975E-03 -0.10060E-02  0.45304E-02
 -0.86811E-03  0.94345E-04  0.45304E-02
  0.45268E-03 -0.68939E-03  0.45304E-02
 -0.18356E-02 -0.70929E-03  0.45304E-02
 -0.18422E-02  0.85096E-04  0.45304E-02
 -0.27233E-02 -0.77542E-03  0.45304E-02
 -0.27976E-02  0.45906E-04  0.45304E-02
 -0.25394E-02 -0.15185E-02  0.45304E-02
 -0.19369E-02 -0.13211E-02  0.45304E-02
 -0.99090E-03  0.10142E-02  0.45304E-02
 -0.14446E-02 -0.17317E-02  0.45304E-02
 -0.31194E-03  0.20274E-02  0.45304E-02
 -0.11002E-02  0.18590E-02  0.45304E-02
 -0.18835E-02  0.17175E-02  0.45304E-02
 -0.18689E-02  0.91395E-03  0.45304E-02
 -0.16394E-03 -0.19805E-02  0.45304E-02
 -0.95226E-03 -0.23494E-02  0.45304E-02
  0.77601E-03 -0.17073E-02  0.45304E-02
  0.17203E-02 -0.14941E-02  0.45304E-02
  0.32112E-02  0.77946E-03  0.45304E-02
  0.28042E-02  0.12558E-02  0.45304E-02
  0.23038E-02  0.18672E-02  0.45304E-02
 -0.40352E-03  0.28835E-02  0.45304E-02
 -0.12093E-02  0.27118E-02  0.45304E-02
 -0.19441E-02  0.24600E-02  0.45304E-02
 -0.25023E-02  0.22358E-02  0.45304E-02
 -0.26354E-02  0.16502E-02  0.45304E-02
 -0.27612E-02  0.87990E-03  0.45304E-02
 -0.21150E-02 -0.21374E-02  0.45304E-02
 -0.16095E-02 -0.26935E-02  0.45304E-02
 -0.11961E-02 -0.31291E-02  0.45304E-02
 -0.59305E-03 -0.30381E-02  0.45304E-02
  0.20140E-03 -0.28750E-02  0.45304E-02
  0.10527E-02 -0.26474E-02  0.45304E-02
  0.18421E-02 -0.23746E-02  0.45304E-02
  0.24568E-02 -0.21549E-02  0.45304E-02
  0.26036E-02 -0.15084E-02  0.45304E-02
  0.37964E-02  0.93572E-03  0.45304E-02
  0.39100E-02  0.00000E+00  0.45304E-02
  0.34621E-02  0.18171E-02  0.45304E-02
  0.29267E-02  0.25928E-02  0.45304E-02
  0.22211E-02  0.32179E-02  0.45304E-02
  0.13865E-02  0.36559E-02  0.45304E-02
  0.47130E-03  0.38815E-02  0.45304E-02
 -0.47130E-03  0.38815E-02  0.45304E-02
 -0.13865E-02  0.36559E-02  0.45304E-02
 -0.22211E-02  0.32179E-02  0.45304E-02
 -0.29267E-02  0.25928E-02  0.45304E-02
 -0.34621E-02  0.18171E-02  0.45304E-02
 -0.37964E-02  0.93572E-03  0.45304E-02
 -0.39100E-02  0.22152E-17  0.45304E-02
 -0.37964E-02 -0.93572E-03  0.45304E-02
 -0.34621E-02 -0.18171E-02  0.45304E-02
 -0.29267E-02 -0.25928E-02  0.45304E-02
 -0.22211E-02 -0.32179E-02  0.45304E-02
 -0.13865E-02 -0.36559E-02  0.45304E-02
 -0.47130E-03 -0.38815E-02  0.45304E-02
  0.47130E-03 -0.38815E-02  0.45304E-02
  0.13865E-02 -0.36559E-02  0.45304E-02
  0.22211E-02 -0.32179E-02  0.45304E-02
  0.29267E-02 -0.25928E-02  0.45304E-02
  0.34621E-02 -0.18171E-02  0.45304E-02
  0.37964E-02 -0.93572E-03  0.45304E-02
  0.10355E-02  0.68401E-03  0.55096E-02
  0.17416E-02  0.12440E-02  0.55096E-02
  0.23152E-02  0.60198E-03  0.55096E-02
  0.16655E-02 -0.32266E-03  0.55096E-02
  0.30372E-02  0.15609E-03  0.55096E-02
  0.27860E-02 -0.66657E-03  0.55096E-02
  0.12829E-02  0.18449E-02  0.55096E-02
  0.64649E-03  0.14777E-02  0.55096E-02
  0.12232E-03  0.32230E-03  0.55096E-02
 -0.13193E-03  0.12022E-02  0.55096E-02
  0.93837E-03  0.22774E-02  0.55096E-02
  0.11259E-02  0.28198E-02  0.55096E-02
  0.17412E-02  0.24267E-02  0.55096E-02
  0.40480E-03  0.21692E-02  0.55096E-02
  0.39745E-03  0.29314E-02  0.55096E-02
 -0.77011E-03 -0.10061E-02  0.55096E-02
 -0.86822E-03  0.95155E-04  0.55096E-02
  0.45223E-03 -0.68866E-03  0.55096E-02
 -0.18359E-02 -0.70915E-03  0.55096E-02
 -0.18421E-02  0.85220E-04  0.55096E-02
 -0.27232E-02 -0.77525E-03  0.55096E-02
 -0.27973E-02  0.46180E-04  0.55096E-02
 -0.25396E-02 -0.15185E-02  0.55096E-02
 -0.19373E-02 -0.13210E-02  0.55096E-02
 -0.99075E-03  0.10156E-02  0.55096E-02
 -0.14450E-02 -0.17317E-02  0.55096E-02
 -0.31173E-03  0.20277E-02  0.55096E-02
 -0.10999E-02  0.18589E-02  0.55096E-02
 -0.18835E-02  0.17175E-02  0.55096E-02
 -0.18687E-02  0.91419E-03  0.55096E-02
 -0.16421E-03 -0.19805E-02  0.55096E-02
 -0.95285E-03 -0.23494E-02  0.55096E-02
  0.77535E-03 -0.17073E-02  0.55096E-02
  0.17202E-02 -0.14943E-02  0.55096E-02
  0.32115E-02  0.78047E-03  0.55096E-02
  0.28041E-02  0.12563E-02  0.55096E-02
  0.23037E-02  0.18672E-02  0.55096E-02
 -0.40338E-03  0.28824E-02  0.55096E-02
 -0.12093E-02  0.27113E-02  0.55096E-02
 -0.19440E-02  0.24597E-02  0.55096E-02
 -0.25023E-02  0.22358E-02  0.55096E-02
 -0.26353E-02  0.16502E-02  0.55096E-02
 -0.27609E-02  0.88016E-03  0.55096E-02
 -0.21151E-02 -0.21374E-02  0.55096E-02
 -0.16096E-02 -0.26935E-02  0.55096E-02
 -0.11962E-02 -0.31291E-02  0.55096E-02
 -0.59340E-03 -0.30381E-02  0.55096E-02
  0.20099E-03 -0.28751E-02  0.55096E-02
  0.10524E-02 -0.26476E-02  0.55096E-02
  0.18422E-02 -0.23748E-02  0.55096E-02
  0.24569E-02 -0.21554E-02  0.55096E-02
  0.26036E-02 -0.15083E-02  0.55096E-02
  0.37964E-02  0.93572E-03  0.55096E-02
  0.39100E-02  0.00000E+00  0.55096E-02
  0.34621E-02  0.18171E-02  0.55096E-02
  0.29267E-02  0.25928E-02  0.55096E-02
  0.22211E-02  0.32179E-02  0.55096E-02
  0.13865E-02  0.36559E-02  0.55096E-02
  0.47130E-03  0.38815E-02  0.55096E-02
 -0.47130E-03  0.38815E-02  0.55096E-02
 -0.13865E-02  0.36559E-02  0.55096E-02
 -0.22211E-02  0.32179E-02  0.55096E-02
 -0.29267E-02  0.25928E-02  0.55096E-02
 -0.34621E-02  0.18171E-02  0.55096E-02
 -0.37964E-02  0.93572E-03  0.55096E-02
 -0.39100E-02 -0.47884E-18  0.55096E-02
 -0.37964E-02 -0.93572E-03  0.55096E-02
 -0.34621E-02 -0.18171E-02  0.55096E-02
 -0.29267E-02 -0.25928E-02  0.55096E-02
 -0.22211E-02 -0.32179E-02  0.55096E-02
 -0.13865E-02 -0.36559E-02  0.55096E-02
 -0.47130E-03 -0.38815E-02  0.55096E-02
  0.47130E-03 -0.38815E-02  0.55096E-02
  0.13865E-02 -0.36559E-02  0.55096E-02
  0.22211E-02 -0.32179E-02  0.55096E-02
  0.29267E-02 -0.25928E-02  0.55096E-02
  0.34621E-02 -0.18171E-02  0.55096E-02
  0.37964E-02 -0.93572E-03  0.55096E-02
  0.10354E-02  0.68457E-03  0.64887E-02
  0.17414E-02  0.12447E-02  0.64887E-02
  0.23151E-02  0.60250E-03  0.64887E-02
  0.16653E-02 -0.32191E-03  0.64887E-02
  0.30372E-02  0.15645E-03  0.64887E-02
  0.27863E-02 -0.66607E-03  0.64887E-02
  0.12829E-02  0.18451E-02  0.64887E-02
  0.64624E-03  0.14787E-02  0.64887E-02
  0.12206E-03  0.32345E-03  0.64887E-02
 -0.13211E-03  0.12040E-02  0.64887E-02
  0.93804E-03  0.22775E-02  0.64887E-02
  0.11255E-02  0.28194E-02  0.64887E-02
  0.17408E-02  0.24268E-02  0.64887E-02
  0.40474E-03  0.21692E-02  0.64887E-02
  0.39744E-03  0.29311E-02  0.64887E-02
 -0.77046E-03 -0.10062E-02  0.64887E-02
 -0.86832E-03  0.95964E-04  0.64887E-02
  0.45179E-03 -0.68793E-03  0.64887E-02
 -0.18362E-02 -0.70901E-03  0.64887E-02
 -0.18420E-02  0.85343E-04  0.64887E-02
 -0.27232E-02 -0.77507E-03  0.64887E-02
 -0.27970E-02  0.46453E-04  0.64887E-02
 -0.25397E-02 -0.15184E-02  0.64887E-02
 -0.19377E-02 -0.13209E-02  0.64887E-02
 -0.99061E-03  0.10169E-02  0.64887E-02
 -0.14453E-02 -0.17316E-02  0.64887E-02
 -0.31153E-03  0.20280E-02  0.64887E-02
 -0.10995E-02  0.18588E-02  0.64887E-02
 -0.18834E-02  0.17175E-02  0.64887E-02
 -0.18686E-02  0.91443E-03  0.64887E-02
 -0.16449E-03 -0.19806E-02  0.64887E-02
 -0.95345E-03 -0.23494E-02  0.64887E-02
  0.77469E-03 -0.17073E-02  0.64887E-02
  0.17202E-02 -0.14945E-02  0.64887E-02
  0.32119E-02  0.78148E-03  0.64887E-02
  0.28041E-02  0.12567E-02  0.64887E-02
  0.23036E-02  0.18673E-02  0.64887E-02
 -0.40324E-03  0.28813E-02  0.64887E-02
 -0.12093E-02  0.27108E-02  0.64887E-02
 -0.19440E-02  0.24595E-02  0.64887E-02
 -0.25022E-02  0.22358E-02  0.64887E-02
 -0.26352E-02  0.16502E-02  0.64887E-02
 -0.27606E-02  0.88043E-03  0.64887E-02
 -0.21152E-02 -0.21374E-02  0.64887E-02
 -0.16096E-02 -0.26936E-02  0.64887E-02
 -0.11963E-02 -0.31291E-02  0.64887E-02
 -0.59375E-03 -0.30381E-02  0.64887E-02
  0.20059E-03 -0.28751E-02  0.64887E-02
  0.10521E-02 -0.26479E-02  0.64887E-02
  0.18422E-02 -0.23750E-02  0.64887E-02
  0.24570E-02 -0.21560E-02  0.64887E-02
  0.26037E-02 -0.15082E-02  0.64887E-02
  0.37964E-02  0.93572E-03  0.64887E-02
  0.39100E-02  0.00000E+00  0.64887E-02
  0.34621E-02  0.18171E-02  0.64887E-02
  0.29267E-02  0.25928E-02  0.64887E-02
  0.22211E-02  0.32179E-02  0.64887E-02
  0.13865E-02  0.36559E-02  0.64887E-02
  0.47130E-03  0.38815E-02  0.64887E-02
 -0.47130E-03  0.38815E-02  0.64887E-02
 -0.13865E-02  0.36559E-02  0.64887E-02
 -0.22211E-02  0.32179E-02  0.64887E-02
 -0.29267E-02  0.25928E-02  0.64887E-02
 -0.34621E-02  0.18171E-02  0.64887E-02
 -0.37964E-02  0.93572E-03  0.64887E-02
 -0.39100E-02 -0.47884E-18  0.64887E-02
 -0.37964E-02 -0.93572E-03  0.64887E-02
 -0.34621E-02 -0.18171E-02  0.64887E-02
 -0.29267E-02 -0.25928E-02  0.64887E-02
 -0.22211E-02 -0.32179E-02  0.64887E-02
 -0.13865E-02 -0.36559E-02  0.64887E-02
 -0.47130E-03 -0.38815E-02  0.64887E-02
  0.47130E-03 -0.38815E-02  0.64887E-02
  0.13865E-02 -0.36559E-02  0.64887E-02
  0.22211E-02 -0.32179E-02  0.64887E-02
  0.29267E-02 -0.25928E-02  0.64887E-02
  0.34621E-02 -0.18171E-02  0.64887E-02
  0.37964E-02 -0.93572E-03  0.64887E-02
  0.10352E-02  0.68512E-03  0.74679E-02
  0.17413E-02  0.12454E-02  0.74679E-02
  0.23150E-02  0.60302E-03  0.74679E-02
  0.16651E-02 -0.32115E-03  0.74679E-02
  0.30371E-02  0.15681E-03  0.74679E-02
  0.27866E-02 -0.66558E-03  0.74679E-02
  0.12827E-02  0.18453E-02  0.74679E-02
  0.64600E-03  0.14797E-02  0.74679E-02
  0.12180E-03  0.32459E-03  0.74679E-02
 -0.13230E-03  0.12058E-02  0.74679E-02
  0.93771E-03  0.22776E-02  0.74679E-02
  0.11252E-02  0.28189E-02  0.74679E-02
  0.17404E-02  0.24270E-02  0.74679E-02
  0.40469E-03  0.21693E-02  0.74679E-02
  0.39742E-03  0.29308E-02  0.74679E-02
 -0.77081E-03 -0.10064E-02  0.74679E-02
 -0.86843E-03  0.96773E-04  0.74679E-02
  0.45134E-03 -0.68721E-03  0.74679E-02
 -0.18365E-02 -0.70887E-03  0.74679E-02
 -0.18419E-02  0.85467E-04  0.74679E-02
 -0.27232E-02 -0.77490E-03  0.74679E-02
 -0.27968E-02  0.46726E-04  0.74679E-02
 -0.25399E-02 -0.15184E-02  0.74679E-02
 -0.19382E-02 -0.13208E-02  0.74679E-02
 -0.99046E-03  0.10183E-02  0.74679E-02
 -0.14457E-02 -0.17316E-02  0.74679E-02
 -0.31133E-03  0.20283E-02  0.74679E-02
 -0.10992E-02  0.18586E-02  0.74679E-02
 -0.18834E-02  0.17175E-02  0.74679E-02
 -0.18685E-02  0.91467E-03  0.74679E-02
 -0.16476E-03 -0.19806E-02  0.74679E-02
 -0.95405E-03 -0.23494E-02  0.74679E-02
  0.77402E-03 -0.17073E-02  0.74679E-02
  0.17202E-02 -0.14948E-02  0.74679E-02
  0.32122E-02  0.78248E-03  0.74679E-02
  0.28041E-02  0.12571E-02  0.74679E-02
  0.23034E-02  0.18673E-02  0.74679E-02
 -0.40310E-03  0.28802E-02  0.74679E-02
 -0.12093E-02  0.27103E-02  0.74679E-02
 -0.19440E-02  0.24593E-02  0.74679E-02
 -0.25022E-02  0.22358E-02  0.74679E-02
 -0.26351E-02  0.16502E-02  0.74679E-02
 -0.27602E-02  0.88069E-03  0.74679E-02
 -0.21154E-02 -0.21374E-02  0.74679E-02
 -0.16097E-02 -0.26936E-02  0.74679E-02
 -0.11964E-02 -0.31291E-02  0.74679E-02
 -0.59409E-03 -0.30381E-02  0.74679E-02
  0.20018E-03 -0.28751E-02  0.74679E-02
  0.10518E-02 -0.26482E-02  0.74679E-02
  0.18422E-02 -0.23752E-02  0.74679E-02
  0.24571E-02 -0.21565E-02  0.74679E-02
  0.26038E-02 -0.15081E-02  0.74679E-02
  0.37964E-02  0.93572E-03  0.74679E-02
  0.39100E-02  0.00000E+00  0.74679E-02
  0.34621E-02  0.18171E-02  0.74679E-02
  0.29267E-02  0.25928E-02  0.74679E-02
  0.22211E-02  0.32179E-02  0.74679E-02
  0.13865E-02  0.36559E-02  0.74679E-02
  0.47130E-03  0.38815E-02  0.74679E-02
 -0.47130E-03  0.38815E-02  0.74679E-02
 -0.13865E-02  0.36559E-02  0.74679E-02
 -0.22211E-02  0.32179E-02  0.74679E-02
 -0.29267E-02  0.25928E-02  0.74679E-02
 -0.34621E-02  0.18171E-02  0.74679E-02
 -0.37964E-02  0.93572E-03  0.74679E-02
 -0.39100E-02 -0.47884E-18  0.74679E-02
 -0.37964E-02 -0.93572E-03  0.74679E-02
 -0.34621E-02 -0.18171E-02  0.74679E-02
 -0.29267E-02 -0.25928E-02  0.74679E-02
 -0.22211E-02 -0.32179E-02  0.74679E-02
 -0.13865E-02 -0.36559E-02  0.74679E-02
 -0.47130E-03 -0.38815E-02  0.74679E-02
  0.47130E-03 -0.38815E-02  0.74679E-02
  0.13865E-02 -0.36559E-02  0.74679E-02
  0.22211E-02 -0.32179E-02  0.74679E-02
  0.29267E-02 -0.25928E-02  0.74679E-02
  0.34621E-02 -0.18171E-02  0.74679E-02
  0.37964E-02 -0.93572E-03  0.74679E-02
  0.10351E-02  0.68567E-03  0.84471E-02
  0.17411E-02  0.12460E-02  0.84471E-02
  0.23149E-02  0.60355E-03  0.84471E-02
  0.16649E-02 -0.32040E-03  0.84471E-02
  0.30371E-02  0.15718E-03  0.84471E-02
  0.27870E-02 -0.66509E-03  0.84471E-02
  0.12826E-02  0.18455E-02  0.84471E-02
  0.64575E-03  0.14807E-02  0.84471E-02
  0.12154E-03  0.32574E-03  0.84471E-02
 -0.13248E-03  0.12075E-02  0.84471E-02
  0.93738E-03  0.22777E-02  0.84471E-02
  0.11249E-02  0.28185E-02  0.84471E-02
  0.17400E-02  0.24271E-02  0.84471E-02
  0.40463E-03  0.21693E-02  0.84471E-02
  0.39740E-03  0.29306E-02  0.84471E-02
 -0.77117E-03 -0.10065E-02  0.84471E-02
 -0.86854E-03  0.97583E-04  0.84471E-02
  0.45089E-03 -0.68648E-03  0.84471E-02
 -0.18368E-02 -0.70873E-03  0.84471E-02
 -0.18418E-02  0.85591E-04  0.84471E-02
 -0.27232E-02 -0.77474E-03  0.84471E-02
 -0.27965E-02  0.47000E-04  0.84471E-02
 -0.25400E-02 -0.15183E-02  0.84471E-02
 -0.19386E-02 -0.13207E-02  0.84471E-02
 -0.99032E-03  0.10197E-02  0.84471E-02
 -0.14460E-02 -0.17316E-02  0.84471E-02
 -0.31113E-03  0.20285E-02  0.84471E-02
 -0.10988E-02  0.18585E-02  0.84471E-02
 -0.18833E-02  0.17175E-02  0.84471E-02
 -0.18683E-02  0.91491E-03  0.84471E-02
 -0.16504E-03 -0.19806E-02  0.84471E-02
 -0.95465E-03 -0.23495E-02  0.84471E-02
  0.77336E-03 -0.17073E-02  0.84471E-02
  0.17201E-02 -0.14950E-02  0.84471E-02
  0.32125E-02  0.78348E-03  0.84471E-02
  0.28041E-02  0.12576E-02  0.84471E-02
  0.23033E-02  0.18674E-02  0.84471E-02
 -0.40296E-03  0.28792E-02  0.84471E-02
 -0.12093E-02  0.27099E-02  0.84471E-02
 -0.19439E-02  0.24591E-02  0.84471E-02
 -0.25022E-02  0.22358E-02  0.84471E-02
 -0.26350E-02  0.16502E-02  0.84471E-02
 -0.27599E-02  0.88095E-03  0.84471E-02
 -0.21155E-02 -0.21374E-02  0.84471E-02
 -0.16097E-02 -0.26936E-02  0.84471E-02
 -0.11965E-02 -0.31290E-02  0.84471E-02
 -0.59444E-03 -0.30381E-02  0.84471E-02
  0.19977E-03 -0.28751E-02  0.84471E-02
  0.10515E-02 -0.26484E-02  0.84471E-02
  0.18423E-02 -0.23754E-02  0.84471E-02
  0.24573E-02 -0.21571E-02  0.84471E-02
  0.26039E-02 -0.15080E-02  0.84471E-02
  0.37964E-02  0.93572E-03  0.84471E-02
  0.39100E-02  0.00000E+00  0.84471E-02
  0.34621E-02  0.18171E-02  0.84471E-02
  0.29267E-02  0.25928E-02  0.84471E-02
  0.22211E-02  0.32179E-02  0.84471E-02
  0.13865E-02  0.36559E-02  0.84471E-02
  0.47130E-03  0.38815E-02  0.84471E-02
 -0.47130E-03  0.38815E-02  0.84471E-02
 -0.13865E-02  0.36559E-02  0.84471E-02
 -0.22211E-02  0.32179E-02  0.84471E-02
 -0.29267E-02  0.25928E-02  0.84471E-02
 -0.34621E-02  0.18171E-02  0.84471E-02
 -0.37964E-02  0.93572E-03  0.84471E-02
 -0.39100E-02  0.47884E-18  0.84471E-02
 -0.37964E-02 -0.93572E-03  0.84471E-02
 -0.34621E-02 -0.18171E-02  0.84471E-02
 -0.29267E-02 -0.25928E-02  0.84471E-02
 -0.22211E-02 -0.32179E-02  0.84471E-02
 -0.13865E-02 -0.36559E-02  0.84471E-02
 -0.47130E-03 -0.38815E-02  0.84471E-02
  0.47130E-03 -0.38815E-02  0.84471E-02
  0.13865E-02 -0.36559E-02  0.84471E-02
  0.22211E-02 -0.32179E-02  0.84471E-02
  0.29267E-02 -0.25928E-02  0.84471E-02
  0.34621E-02 -0.18171E-02  0.84471E-02
  0.37964E-02 -0.93572E-03  0.84471E-02
  
CELLS       3486               17724
       1       0
       1       1
       1       2
       1       3
       1       4
       1       5
       1       6
       1       7
       1       8
       1       9
       1      10
       1      11
       1      12
       1      13
       1      14
       1      15
       1      16
       1      17
       1      18
       1      19
       1      20
       1      21
       1      22
       1      23
       1      24
       1      25
       1      26
       1      27
       1      28
       1      29
       1      30
       1      31
       1      32
       1      33
       1      34
       1      35
       1      36
       1      37
       1      38
       1      39
       1      40
       1      41
       1      42
       1      43
       1      44
       1      45
       1      46
       1      47
       1      48
       1      49
       1      50
       1      51
       1      52
       1      53
       1      54
       1      55
       1      56
       1      57
       1      58
       1      59
       1      60
       1      61
       1      62
       1      63
       1      64
       1      65
       1      66
       1      67
       1      68
       1      69
       1      70
       1      71
       1      72
       1      73
       1      74
       1      75
       1      76
       1      77
       1      78
       1      79
       1      80
       1      81
       1      82
       1      83
       1      84
       1      85
       1      86
       1      87
       1      88
       1      89
       1      90
       1      91
       1      92
       1      93
       1      94
       1      95
       1      96
       1      97
       1      98
       1      99
       1     100
       1     101
       1     102
       1     103
       1     104
       1     105
       1     106
       1     107
       1     108
       1     109
       1     110
       1     111
       1     112
       1     113
       1     114
       1     115
       1     116
       1     117
       1     118
       1     119
       1     120
       1     121
       1     122
       1     123
       1     124
       1     125
       1     126
       1     127
       1     128
       1     129
       1     130
       1     131
       1     132
       1     133
       1     134
       1     135
       1     136
       1     137
       1     138
       1     139
       1     140
       1     141
       1     142
       1     143
       1     144
       1     145
       1     146
       1     147
       1     148
       1     149
       1     150
       1     151
       1     152
       1     153
       1     154
       1     155
       1     156
       1     157
       1     158
       1     159
       1     160
       1     161
       1     162
       1     163
       1     164
       1     165
       1     166
       1     167
       1     168
       1     169
       1     170
       1     171
       1     172
       1     173
       1     174
       1     175
       1     176
       1     177
       1     178
       1     179
       1     180
       1     181
       1     182
       1     183
       1     184
       1     185
       1     186
       1     187
       1     188
       1     189
       1     190
       1     191
       1     192
       1     193
       1     194
       1     195
       1     196
       1     197
       1     198
       1     199
       1     200
       1     201
       1     202
       1     203
       1     204
       1     205
       1     206
       1     207
       1     208
       1     209
       1     210
       1     211
       1     212
       1     213
       1     214
       1     215
       1     216
       1     217
       1     218
       1     219
       1     220
       1     221
       1     222
       1     223
       1     224
       1     225
       1     226
       1     227
       1     228
       1     229
       1     230
       1     231
       1     232
       1     233
       1     234
       1     235
       1     236
       1     237
       1     238
       1     239
       1     240
       1     241
       1     242
       1     243
       1     244
       1     245
       1     246
       1     247
       1     248
       1     249
       1     250
       1     251
       1     252
       1     253
       1     254
       1     255
       1     256
       1     257
       1     258
       1     259
       1     260
       1     261
       1     262
       1     263
       1     264
       1     265
       1     266
       1     267
       1     268
       1     269
       1     270
       1     271
       1     272
       1     273
       1     274
       1     275
       1     276
       1     277
       1     278
       1     279
       1     280
       1     281
       1     282
       1     283
       1     284
       1     285
       1     286
       1     287
       1     288
       1     289
       1     290
       1     291
       1     292
       1     293
       1     294
       1     295
       1     296
       1     297
       1     298
       1     299
       1     300
       1     301
       1     302
       1     303
       1     304
       1     305
       1     306
       1     307
       1     308
       1     309
       1     310
       1     311
       1     312
       1     313
       1     314
       1     315
       1     316
       1     317
       1     318
       1     319
       1     320
       1     321
       1     322
       1     323
       1     324
       1     325
       1     326
       1     327
       1     328
       1     329
       1     330
       1     331
       1     332
       1     333
       1     334
       1     335
       1     336
       1     337
       1     338
       1     339
       1     340
       1     341
       1     342
       1     343
       1     344
       1     345
       1     346
       1     347
       1     348
       1     349
       1     350
       1     351
       1     352
       1     353
       1     354
       1     355
       1     356
       1     357
       1     358
       1     359
       1     360
       1     361
       1     362
       1     363
       1     364
       1     365
       1     366
       1     367
       1     368
       1     369
       1     370
       1     371
       1     372
       1     373
       1     374
       1     375
       1     376
       1     377
       1     378
       1     379
       1     380
       1     381
       1     382
       1     383
       1     384
       1     385
       1     386
       1     387
       1     388
       1     389
       1     390
       1     391
       1     392
       1     393
       1     394
       1     395
       1     396
       1     397
       1     398
       1     399
       1     400
       1     401
       1     402
       1     403
       1     404
       1     405
       1     406
       1     407
       1     408
       1     409
       1     410
       1     411
       1     412
       1     413
       1     414
       1     415
       1     416
       1     417
       1     418
       1     419
       1     420
       1     421
       1     422
       1     423
       1     424
       1     425
       1     426
       1     427
       1     428
       1     429
       1     430
       1     431
       1     432
       1     433
       1     434
       1     435
       1     436
       1     437
       1     438
       1     439
       1     440
       1     441
       1     442
       1     443
       1     444
       1     445
       1     446
       1     447
       1     448
       1     449
       1     450
       1     451
       1     452
       1     453
       1     454
       1     455
       1     456
       1     457
       1     458
       1     459
       1     460
       1     461
       1     462
       1     463
       1     464
       1     465
       1     466
       1     467
       1     468
       1     469
       1     470
       1     471
       1     472
       1     473
       1     474
       1     475
       1     476
       1     477
       1     478
       1     479
       1     480
       1     481
       1     482
       1     483
       1     484
       1     485
       1     486
       1     487
       1     488
       1     489
       1     490
       1     491
       1     492
       1     493
       1     494
       1     495
       1     496
       1     497
       1     498
       1     499
       1     500
       1     501
       1     502
       1     503
       1     504
       1     505
       1     506
       1     507
       1     508
       1     509
       1     510
       1     511
       1     512
       1     513
       1     514
       1     515
       1     516
       1     517
       1     518
       1     519
       1     520
       1     521
       1     522
       1     523
       1     524
       1     525
       1     526
       1     527
       1     528
       1     529
       1     530
       1     531
       1     532
       1     533
       1     534
       1     535
       1     536
       1     537
       1     538
       1     539
       1     540
       1     541
       1     542
       1     543
       1     544
       1     545
       1     546
       1     547
       1     548
       1     549
       1     550
       1     551
       1     552
       1     553
       1     554
       1     555
       1     556
       1     557
       1     558
       1     559
       1     560
       1     561
       1     562
       1     563
       1     564
       1     565
       1     566
       1     567
       1     568
       1     569
       1     570
       1     571
       1     572
       1     573
       1     574
       1     575
       1     576
       1     577
       1     578
       1     579
       1     580
       1     581
       1     582
       1     583
       1     584
       1     585
       1     586
       1     587
       1     588
       1     589
       1     590
       1     591
       1     592
       1     593
       1     594
       1     595
       1     596
       1     597
       1     598
       1     599
       1     600
       1     601
       1     602
       1     603
       1     604
       1     605
       1     606
       1     607
       1     608
       1     609
       1     610
       1     611
       1     612
       1     613
       1     614
       1     615
       1     616
       1     617
       1     618
       1     619
       1     620
       1     621
       1     622
       1     623
       1     624
       1     625
       1     626
       1     627
       1     628
       1     629
       1     630
       1     631
       1     632
       1     633
       1     634
       1     635
       1     636
       1     637
       1     638
       1     639
       1     640
       1     641
       1     642
       1     643
       1     644
       1     645
       1     646
       1     647
       1     648
       1     649
       1     650
       1     651
       1     652
       1     653
       1     654
       1     655
       1     656
       1     657
       1     658
       1     659
       1     660
       1     661
       1     662
       1     663
       1     664
       1     665
       1     666
       1     667
       1     668
       1     669
       1     670
       1     671
       1     672
       1     673
       1     674
       1     675
       1     676
       1     677
       1     678
       1     679
       1     680
       1     681
       1     682
       1     683
       1     684
       1     685
       1     686
       1     687
       1     688
       1     689
       1     690
       1     691
       1     692
       1     693
       1     694
       1     695
       1     696
       1     697
       1     698
       1     699
       1     700
       1     701
       1     702
       1     703
       1     704
       1     705
       1     706
       1     707
       1     708
       1     709
       1     710
       1     711
       1     712
       1     713
       1     714
       1     715
       1     716
       1     717
       1     718
       1     719
       1     720
       1     721
       1     722
       1     723
       1     724
       1     725
       1     726
       1     727
       1     728
       1     729
       1     730
       1     731
       1     732
       1     733
       1     734
       1     735
       1     736
       1     737
       1     738
       1     739
       1     740
       1     741
       1     742
       1     743
       1     744
       1     745
       1     746
       1     747
       1     748
       1     749
       1     750
       1     751
       1     752
       1     753
       1     754
       1     755
       1     756
       1     757
       1     758
       1     759
       1     760
       1     761
       1     762
       1     763
       1     764
       1     765
       1     766
       1     767
       1     768
       1     769
       1     770
       1     771
       1     772
       1     773
       1     774
       1     775
       1     776
       1     777
       1     778
       1     779
       1     780
       1     781
       1     782
       1     783
       1     784
       1     785
       1     786
       1     787
       1     788
       1     789
       1     790
       1     791
       1     792
       1     793
       1     794
       1     795
       1     796
       1     797
       1     798
       1     799
       1     800
       1     801
       1     802
       1     803
       1     804
       1     805
       1     806
       1     807
       1     808
       1     809
       1     810
       1     811
       1     812
       1     813
       1     814
       1     815
       1     816
       1     817
       1     818
       1     819
       1     820
       1     821
       1     822
       1     823
       1     824
       1     825
       1     826
       1     827
       1     828
       1     829
       1     830
       1     831
       1     832
       1     833
       1     834
       1     835
       1     836
       1     837
       1     838
       1     839
       1     840
       1     841
       1     842
       1     843
       1     844
       1     845
       1     846
       1     847
       1     848
       1     849
       1     850
       1     851
       1     852
       1     853
       1     854
       1     855
       1     856
       1     857
       1     858
       1     859
       1     860
       1     861
       1     862
       1     863
       1     864
       1     865
       1     866
       1     867
       1     868
       1     869
       1     870
       1     871
       1     872
       1     873
       1     874
       1     875
       1     876
       1     877
       1     878
       1     879
       1     880
       1     881
       1     882
       1     883
       1     884
       1     885
       1     886
       1     887
       1     888
       1     889
       1     890
       1     891
       1     892
       1     893
       1     894
       1     895
       1     896
       1     897
       1     898
       1     899
       1     900
       1     901
       1     902
       1     903
       1     904
       1     905
       1     906
       1     907
       1     908
       1     909
       1     910
       1     911
       1     912
       1     913
       1     914
       1     915
       1     916
       1     917
       1     918
       1     919
       1     920
       1     921
       1     922
       1     923
       1     924
       1     925
       1     926
       1     927
       1     928
       1     929
       1     930
       1     931
       1     932
       1     933
       1     934
       1     935
       1     936
       1     937
       1     938
       1     939
       1     940
       1     941
       1     942
       1     943
       1     944
       1     945
       1     946
       1     947
       1     948
       1     949
       1     950
       1     951
       1     952
       1     953
       1     954
       1     955
       1     956
       1     957
       1     958
       1     959
       1     960
       1     961
       1     962
       1     963
       1     964
       1     965
       1     966
       1     967
       1     968
       1     969
       1     970
       1     971
       1     972
       1     973
       1     974
       1     975
       1     976
       1     977
       1     978
       1     979
       1     980
       1     981
       1     982
       1     983
       1     984
       1     985
       1     986
       1     987
       1     988
       1     989
       1     990
       1     991
       1     992
       1     993
       1     994
       1     995
       1     996
       1     997
       1     998
       1     999
       1    1000
       1    1001
       1    1002
       1    1003
       1    1004
       1    1005
       1    1006
       1    1007
       1    1008
       1    1009
       1    1010
       1    1011
       1    1012
       1    1013
       1    1014
       1    1015
       1    1016
       1    1017
       1    1018
       1    1019
       1    1020
       1    1021
       1    1022
       1    1023
       1    1024
       1    1025
       1    1026
       1    1027
       1    1028
       1    1029
       1    1030
       1    1031
       1    1032
       1    1033
       1    1034
       1    1035
       1    1036
       1    1037
       1    1038
       1    1039
       1    1040
       1    1041
       1    1042
       1    1043
       1    1044
       1    1045
       1    1046
       1    1047
       1    1048
       1    1049
       1    1050
       1    1051
       1    1052
       1    1053
       1    1054
       1    1055
       1    1056
       1    1057
       1    1058
       1    1059
       1    1060
       1    1061
       1    1062
       1    1063
       1    1064
       1    1065
       1    1066
       1    1067
       1    1068
       1    1069
       1    1070
       1    1071
       1    1072
       1    1073
       1    1074
       1    1075
       1    1076
       1    1077
       1    1078
       1    1079
       1    1080
       1    1081
       1    1082
       1    1083
       1    1084
       1    1085
       1    1086
       1    1087
       1    1088
       1    1089
       1    1090
       1    1091
       1    1092
       1    1093
       1    1094
       1    1095
       1    1096
       1    1097
       1    1098
       1    1099
       1    1100
       1    1101
       1    1102
       1    1103
       1    1104
       1    1105
       1    1106
       1    1107
       1    1108
       1    1109
       1    1110
       1    1111
       1    1112
       1    1113
       1    1114
       1    1115
       1    1116
       1    1117
       1    1118
       1    1119
       1    1120
       1    1121
       1    1122
       1    1123
       1    1124
       1    1125
       1    1126
       1    1127
       1    1128
       1    1129
       1    1130
       1    1131
       1    1132
       1    1133
       1    1134
       1    1135
       1    1136
       1    1137
       1    1138
       1    1139
       1    1140
       1    1141
       1    1142
       1    1143
       1    1144
       1    1145
       1    1146
       1    1147
       1    1148
       1    1149
       1    1150
       1    1151
       1    1152
       1    1153
       1    1154
       1    1155
       1    1156
       1    1157
       1    1158
       1    1159
       1    1160
       1    1161
       1    1162
       1    1163
       1    1164
       1    1165
       1    1166
       1    1167
       1    1168
       1    1169
       1    1170
       1    1171
       1    1172
       1    1173
       1    1174
       1    1175
       1    1176
       1    1177
       1    1178
       1    1179
       1    1180
       1    1181
       1    1182
       1    1183
       1    1184
       1    1185
       1    1186
       1    1187
       1    1188
       1    1189
       1    1190
       1    1191
       1    1192
       1    1193
       1    1194
       1    1195
       1    1196
       1    1197
       1    1198
       1    1199
       1    1200
       1    1201
       1    1202
       1    1203
       1    1204
       1    1205
       1    1206
       1    1207
       1    1208
       1    1209
       1    1210
       1    1211
       1    1212
       1    1213
       1    1214
       1    1215
       1    1216
       1    1217
       1    1218
       1    1219
       1    1220
       1    1221
       1    1222
       1    1223
       1    1224
       1    1225
       1    1226
       1    1227
       1    1228
       1    1229
       1    1230
       1    1231
       1    1232
       1    1233
       1    1234
       1    1235
       1    1236
       1    1237
       1    1238
       1    1239
       1    1240
       1    1241
       1    1242
       1    1243
       1    1244
       1    1245
       1    1246
       1    1247
       1    1248
       1    1249
       1    1250
       1    1251
       1    1252
       1    1253
       1    1254
       1    1255
       1    1256
       1    1257
       1    1258
       1    1259
       1    1260
       1    1261
       1    1262
       1    1263
       1    1264
       1    1265
       1    1266
       1    1267
       1    1268
       1    1269
       1    1270
       1    1271
       1    1272
       1    1273
       1    1274
       1    1275
       1    1276
       1    1277
       1    1278
       1    1279
       1    1280
       1    1281
       1    1282
       1    1283
       1    1284
       1    1285
       1    1286
       1    1287
       1    1288
       1    1289
       1    1290
       1    1291
       1    1292
       1    1293
       1    1294
       1    1295
       1    1296
       1    1297
       1    1298
       1    1299
       1    1300
       1    1301
       1    1302
       1    1303
       1    1304
       1    1305
       1    1306
       1    1307
       1    1308
       1    1309
       1    1310
       1    1311
       1    1312
       1    1313
       1    1314
       1    1315
       1    1316
       1    1317
       1    1318
       1    1319
       1    1320
       1    1321
       1    1322
       1    1323
       1    1324
       1    1325
       1    1326
       1    1327
       1    1328
       1    1329
       1    1330
       1    1331
       1    1332
       1    1333
       1    1334
       1    1335
       1    1336
       1    1337
       1    1338
       1    1339
       1    1340
       1    1341
       1    1342
       1    1343
       1    1344
       1    1345
       1    1346
       1    1347
       1    1348
       1    1349
       1    1350
       1    1351
       1    1352
       1    1353
       1    1354
       1    1355
       1    1356
       1    1357
       1    1358
       1    1359
       1    1360
       1    1361
       1    1362
       1    1363
       1    1364
       1    1365
       1    1366
       1    1367
       1    1368
       1    1369
       1    1370
       1    1371
       1    1372
       1    1373
       1    1374
       1    1375
       1    1376
       1    1377
       1    1378
       1    1379
       1    1380
       1    1381
       1    1382
       1    1383
       1    1384
       1    1385
       1    1386
       1    1387
       1    1388
       1    1389
       1    1390
       1    1391
       1    1392
       1    1393
       1    1394
       1    1395
       1    1396
       1    1397
       1    1398
       1    1399
       1    1400
       1    1401
       1    1402
       1    1403
       1    1404
       1    1405
       1    1406
       1    1407
       1    1408
       1    1409
       1    1410
       1    1411
       1    1412
       1    1413
       1    1414
       1    1415
       1    1416
       1    1417
       1    1418
       1    1419
       1    1420
       1    1421
       1    1422
       1    1423
       1    1424
       1    1425
       1    1426
       1    1427
       1    1428
       1    1429
       1    1430
       1    1431
       1    1432
       1    1433
       1    1434
       1    1435
       1    1436
       1    1437
       1    1438
       1    1439
       1    1440
       1    1441
       1    1442
       1    1443
       1    1444
       1    1445
       1    1446
       1    1447
       1    1448
       1    1449
       1    1450
       1    1451
       1    1452
       1    1453
       1    1454
       1    1455
       1    1456
       1    1457
       1    1458
       1    1459
       1    1460
       1    1461
       1    1462
       1    1463
       1    1464
       1    1465
       1    1466
       1    1467
       1    1468
       1    1469
       1    1470
       1    1471
       1    1472
       1    1473
       1    1474
       1    1475
       1    1476
       1    1477
       1    1478
       1    1479
       1    1480
       1    1481
       1    1482
       1    1483
       1    1484
       1    1485
       1    1486
       1    1487
       1    1488
       1    1489
       1    1490
       1    1491
       1    1492
       1    1493
       1    1494
       1    1495
       1    1496
       1    1497
       1    1498
       1    1499
       1    1500
       1    1501
       1    1502
       1    1503
       1    1504
       1    1505
       1    1506
       1    1507
       1    1508
       1    1509
       1    1510
       1    1511
       1    1512
       1    1513
       1    1514
       1    1515
       1    1516
       1    1517
       1    1518
       1    1519
       1    1520
       1    1521
       1    1522
       1    1523
       1    1524
       1    1525
       1    1526
       1    1527
       1    1528
       1    1529
       1    1530
       1    1531
       1    1532
       1    1533
       1    1534
       1    1535
       1    1536
       1    1537
       1    1538
       1    1539
       1    1540
       1    1541
       1    1542
       1    1543
       1    1544
       1    1545
       1    1546
       1    1547
       1    1548
       1    1549
       1    1550
       1    1551
       1    1552
       1    1553
       1    1554
       1    1555
       1    1556
       1    1557
       1    1558
       1    1559
       1    1560
       1    1561
       1    1562
       1    1563
       1    1564
       1    1565
       1    1566
       1    1567
       1    1568
       1    1569
       1    1570
       1    1571
       1    1572
       1    1573
       1    1574
       1    1575
       1    1576
       1    1577
       1    1578
       1    1579
       1    1580
       1    1581
       1    1582
       1    1583
       1    1584
       1    1585
       1    1586
       1    1587
       1    1588
       1    1589
       1    1590
       1    1591
       1    1592
       1    1593
       1    1594
       1    1595
       1    1596
       1    1597
       1    1598
       1    1599
       1    1600
       1    1601
       1    1602
       1    1603
       1    1604
       1    1605
       1    1606
       1    1607
       1    1608
       1    1609
       1    1610
       1    1611
       1    1612
       1    1613
       1    1614
       1    1615
       1    1616
       1    1617
       1    1618
       1    1619
       1    1620
       1    1621
       1    1622
       1    1623
       1    1624
       1    1625
       1    1626
       1    1627
       1    1628
       1    1629
       1    1630
       1    1631
       1    1632
       1    1633
       1    1634
       1    1635
       1    1636
       1    1637
       1    1638
       1    1639
       1    1640
       1    1641
       1    1642
       1    1643
       1    1644
       1    1645
       1    1646
       1    1647
       1    1648
       1    1649
       1    1650
       1    1651
       1    1652
       1    1653
       1    1654
       1    1655
       1    1656
       1    1657
       1    1658
       1    1659
       1    1660
       1    1661
       1    1662
       1    1663
       1    1664
       1    1665
       1    1666
       1    1667
       1    1668
       1    1669
       1    1670
       1    1671
       1    1672
       1    1673
       1    1674
       1    1675
       1    1676
       1    1677
       1    1678
       1    1679
       1    1680
       1    1681
       1    1682
       1    1683
       1    1684
       1    1685
       1    1686
       1    1687
       1    1688
       1    1689
       1    1690
       1    1691
       1    1692
       1    1693
       1    1694
       1    1695
       1    1696
       1    1697
       1    1698
       1    1699
       1    1700
       1    1701
       1    1702
       1    1703
       1    1704
       1    1705
       1    1706
       1    1707
       1    1708
       1    1709
       1    1710
       1    1711
       1    1712
       1    1713
       1    1714
       1    1715
       1    1716
       1    1717
       1    1718
       1    1719
       1    1720
       1    1721
       1    1722
       1    1723
       1    1724
       1    1725
       1    1726
       1    1727
       1    1728
       1    1729
       1    1730
       1    1731
       1    1732
       1    1733
       1    1734
       1    1735
       1    1736
       1    1737
       1    1738
       1    1739
       1    1740
       1    1741
       1    1742
       1    1743
       1    1744
       1    1745
       1    1746
       1    1747
       1    1748
       1    1749
       1    1750
       1    1751
       1    1752
       1    1753
       1    1754
       1    1755
       1    1756
       1    1757
       1    1758
       1    1759
       1    1760
       1    1761
       1    1762
       1    1763
       1    1764
       1    1765
       1    1766
       1    1767
       1    1768
       1    1769
       1    1770
       1    1771
       1    1772
       1    1773
       1    1774
       1    1775
       1    1776
       1    1777
       1    1778
       1    1779
       1    1780
       1    1781
       1    1782
       1    1783
       1    1784
       1    1785
       1    1786
       1    1787
       1    1788
       1    1789
       1    1790
       1    1791
       1    1792
       1    1793
       1    1794
       1    1795
       1    1796
       1    1797
       1    1798
       1    1799
       1    1800
       1    1801
       1    1802
       1    1803
       1    1804
       1    1805
       1    1806
       1    1807
       1    1808
       1    1809
       1    1810
       1    1811
       1    1812
       1    1813
       1    1814
       1    1815
       1    1816
       1    1817
       1    1818
       1    1819
       1    1820
       1    1821
       1    1822
       1    1823
       1    1824
       1    1825
       1    1826
       1    1827
       1    1828
       1    1829
       1    1830
       1    1831
       1    1832
       1    1833
       1    1834
       1    1835
       1    1836
       1    1837
       1    1838
       1    1839
       1    1840
       1    1841
       1    1842
       1    1843
       1    1844
       1    1845
       1    1846
       1    1847
       1    1848
       1    1849
       1    1850
       1    1851
       1    1852
       1    1853
       1    1854
       1    1855
       1    1856
       1    1857
       1    1858
       1    1859
       1    1860
       1    1861
       1    1862
       1    1863
       1    1864
       1    1865
       1    1866
       1    1867
       1    1868
       1    1869
       1    1870
       1    1871
       1    1872
       1    1873
       1    1874
       1    1875
       1    1876
       1    1877
       1    1878
       1    1879
       1    1880
       1    1881
       1    1882
       1    1883
       1    1884
       1    1885
       1    1886
       1    1887
       1    1888
       1    1889
       1    1890
       1    1891
       1    1892
       1    1893
       1    1894
       1    1895
       1    1896
       1    1897
       1    1898
       1    1899
       1    1900
       1    1901
       1    1902
       1    1903
       1    1904
       1    1905
       1    1906
       1    1907
       1    1908
       1    1909
       1    1910
       1    1911
       1    1912
       1    1913
       1    1914
       1    1915
       1    1916
       1    1917
       1    1918
       1    1919
       1    1920
       1    1921
       1    1922
       1    1923
       1    1924
       1    1925
       1    1926
       1    1927
       1    1928
       1    1929
       1    1930
       1    1931
       1    1932
       1    1933
       1    1934
       1    1935
       1    1936
       1    1937
       1    1938
       1    1939
       1    1940
       1    1941
       1    1942
       1    1943
       1    1944
       1    1945
       1    1946
       1    1947
       1    1948
       1    1949
       8       0       1       2       3       4       5       6       7
       8       2       8       9       3       6      10      11       7
       8      12       1       0      13      14       5       4      15
       8       0      16      17      13       4      18      19      15
       8      20      21      22      12      23      24      25      14
       8      26      27      21      20      28      29      24      23
       8      13      26      20      12      15      28      23      14
       8      30      31      16      32      33      34      18      35
       8      36      37      31      30      38      39      34      33
       8      40      41      37      36      42      43      39      38
       8      44      40      36      45      46      42      38      47
       8      48      17      16      31      49      19      18      34
       8      30      50      45      36      33      51      47      38
       8       0       3      32      16       4       7      35      18
       8      52      26      13      17      53      28      15      19
       8      54      52      17      48      55      53      19      49
       8      56      54      48      57      58      55      49      59
       8      37      57      48      31      39      59      49      34
       8      60      61      50      30      62      63      51      33
       8      64      60      30      32      65      62      33      35
       8      66      64      32       3      67      65      35       7
       8      68       8       2      69      70      10       6      71
       8      72      69       2       1      73      71       6       5
       8      22      72       1      12      25      73       5      14
       8      74      27      26      52      75      29      28      53
       8      76      74      52      54      77      75      53      55
       8      78      76      54      56      79      77      55      58
       8      80      78      56      81      82      79      58      83
       8      84      81      56      57      85      83      58      59
       8      41      84      57      37      43      85      59      39
       8      86      44      45      50      87      46      47      51
       8      88      86      50      61      89      87      51      63
       8      90      88      61      91      92      89      63      93
       8      94      91      61      60      95      93      63      62
       8      96      94      60      64      97      95      62      65
       8      98      96      64      66      99      97      65      67
       8     100      98      66     101     102      99      67     103
       8       9     101      66       3      11     103      67       7
       8     104     105       8      68     106     107      10      70
       8     108     104      68      69     109     106      70      71
       8     110     108      69      72     111     109      71      73
       8     112     110      72      22     113     111      73      25
       8     114     112      22      21     115     113      25      24
       8     116     114      21      27     117     115      24      29
       8     118     116      27      74     119     117      29      75
       8     120     118      74      76     121     119      75      77
       8     122     120      76      78     123     121      77      79
       8     124     122      78      80     125     123      79      82
       8     126     124      80      81     127     125      82      83
       8     128     126      81      84     129     127      83      85
       8     130     128      84      41     131     129      85      43
       8     132     130      41      40     133     131      43      42
       8     134     132      40      44     135     133      42      46
       8     136     134      44      86     137     135      46      87
       8     138     136      86      88     139     137      87      89
       8     140     138      88      90     141     139      89      92
       8     142     140      90      91     143     141      92      93
       8     144     142      91      94     145     143      93      95
       8     146     144      94      96     147     145      95      97
       8     148     146      96      98     149     147      97      99
       8     150     148      98     100     151     149      99     102
       8     152     150     100     101     153     151     102     103
       8     154     152     101       9     155     153     103      11
       8     105     154       9       8     107     155      11      10
       8     156     157     158     159       0       1       2       3
       8     158     160     161     159       2       8       9       3
       8     162     157     156     163      12       1       0      13
       8     156     164     165     163       0      16      17      13
       8     166     167     168     162      20      21      22      12
       8     169     170     167     166      26      27      21      20
       8     163     169     166     162      13      26      20      12
       8     171     172     164     173      30      31      16      32
       8     174     175     172     171      36      37      31      30
       8     176     177     175     174      40      41      37      36
       8     178     176     174     179      44      40      36      45
       8     180     165     164     172      48      17      16      31
       8     171     181     179     174      30      50      45      36
       8     156     159     173     164       0       3      32      16
       8     182     169     163     165      52      26      13      17
       8     183     182     165     180      54      52      17      48
       8     184     183     180     185      56      54      48      57
       8     175     185     180     172      37      57      48      31
       8     186     187     181     171      60      61      50      30
       8     188     186     171     173      64      60      30      32
       8     189     188     173     159      66      64      32       3
       8     190     160     158     191      68       8       2      69
       8     192     191     158     157      72      69       2       1
       8     168     192     157     162      22      72       1      12
       8     193     170     169     182      74      27      26      52
       8     194     193     182     183      76      74      52      54
       8     195     194     183     184      78      76      54      56
       8     196     195     184     197      80      78      56      81
       8     198     197     184     185      84      81      56      57
       8     177     198     185     175      41      84      57      37
       8     199     178     179     181      86      44      45      50
       8     200     199     181     187      88      86      50      61
       8     201     200     187     202      90      88      61      91
       8     203     202     187     186      94      91      61      60
       8     204     203     186     188      96      94      60      64
       8     205     204     188     189      98      96      64      66
       8     206     205     189     207     100      98      66     101
       8     161     207     189     159       9     101      66       3
       8     208     209     160     190     104     105       8      68
       8     210     208     190     191     108     104      68      69
       8     211     210     191     192     110     108      69      72
       8     212     211     192     168     112     110      72      22
       8     213     212     168     167     114     112      22      21
       8     214     213     167     170     116     114      21      27
       8     215     214     170     193     118     116      27      74
       8     216     215     193     194     120     118      74      76
       8     217     216     194     195     122     120      76      78
       8     218     217     195     196     124     122      78      80
       8     219     218     196     197     126     124      80      81
       8     220     219     197     198     128     126      81      84
       8     221     220     198     177     130     128      84      41
       8     222     221     177     176     132     130      41      40
       8     223     222     176     178     134     132      40      44
       8     224     223     178     199     136     134      44      86
       8     225     224     199     200     138     136      86      88
       8     226     225     200     201     140     138      88      90
       8     227     226     201     202     142     140      90      91
       8     228     227     202     203     144     142      91      94
       8     229     228     203     204     146     144      94      96
       8     230     229     204     205     148     146      96      98
       8     231     230     205     206     150     148      98     100
       8     232     231     206     207     152     150     100     101
       8     233     232     207     161     154     152     101       9
       8     209     233     161     160     105     154       9       8
       8     234     235     236     237     156     157     158     159
       8     236     238     239     237     158     160     161     159
       8     240     235     234     241     162     157     156     163
       8     234     242     243     241     156     164     165     163
       8     244     245     246     240     166     167     168     162
       8     247     248     245     244     169     170     167     166
       8     241     247     244     240     163     169     166     162
       8     249     250     242     251     171     172     164     173
       8     252     253     250     249     174     175     172     171
       8     254     255     253     252     176     177     175     174
       8     256     254     252     257     178     176     174     179
       8     258     243     242     250     180     165     164     172
       8     249     259     257     252     171     181     179     174
       8     234     237     251     242     156     159     173     164
       8     260     247     241     243     182     169     163     165
       8     261     260     243     258     183     182     165     180
       8     262     261     258     263     184     183     180     185
       8     253     263     258     250     175     185     180     172
       8     264     265     259     249     186     187     181     171
       8     266     264     249     251     188     186     171     173
       8     267     266     251     237     189     188     173     159
       8     268     238     236     269     190     160     158     191
       8     270     269     236     235     192     191     158     157
       8     246     270     235     240     168     192     157     162
       8     271     248     247     260     193     170     169     182
       8     272     271     260     261     194     193     182     183
       8     273     272     261     262     195     194     183     184
       8     274     273     262     275     196     195     184     197
       8     276     275     262     263     198     197     184     185
       8     255     276     263     253     177     198     185     175
       8     277     256     257     259     199     178     179     181
       8     278     277     259     265     200     199     181     187
       8     279     278     265     280     201     200     187     202
       8     281     280     265     264     203     202     187     186
       8     282     281     264     266     204     203     186     188
       8     283     282     266     267     205     204     188     189
       8     284     283     267     285     206     205     189     207
       8     239     285     267     237     161     207     189     159
       8     286     287     238     268     208     209     160     190
       8     288     286     268     269     210     208     190     191
       8     289     288     269     270     211     210     191     192
       8     290     289     270     246     212     211     192     168
       8     291     290     246     245     213     212     168     167
       8     292     291     245     248     214     213     167     170
       8     293     292     248     271     215     214     170     193
       8     294     293     271     272     216     215     193     194
       8     295     294     272     273     217     216     194     195
       8     296     295     273     274     218     217     195     196
       8     297     296     274     275     219     218     196     197
       8     298     297     275     276     220     219     197     198
       8     299     298     276     255     221     220     198     177
       8     300     299     255     254     222     221     177     176
       8     301     300     254     256     223     222     176     178
       8     302     301     256     277     224     223     178     199
       8     303     302     277     278     225     224     199     200
       8     304     303     278     279     226     225     200     201
       8     305     304     279     280     227     226     201     202
       8     306     305     280     281     228     227     202     203
       8     307     306     281     282     229     228     203     204
       8     308     307     282     283     230     229     204     205
       8     309     308     283     284     231     230     205     206
       8     310     309     284     285     232     231     206     207
       8     311     310     285     239     233     232     207     161
       8     287     311     239     238     209     233     161     160
       8     312     313     314     315     234     235     236     237
       8     314     316     317     315     236     238     239     237
       8     318     313     312     319     240     235     234     241
       8     312     320     321     319     234     242     243     241
       8     322     323     324     318     244     245     246     240
       8     325     326     323     322     247     248     245     244
       8     319     325     322     318     241     247     244     240
       8     327     328     320     329     249     250     242     251
       8     330     331     328     327     252     253     250     249
       8     332     333     331     330     254     255     253     252
       8     334     332     330     335     256     254     252     257
       8     336     321     320     328     258     243     242     250
       8     327     337     335     330     249     259     257     252
       8     312     315     329     320     234     237     251     242
       8     338     325     319     321     260     247     241     243
       8     339     338     321     336     261     260     243     258
       8     340     339     336     341     262     261     258     263
       8     331     341     336     328     253     263     258     250
       8     342     343     337     327     264     265     259     249
       8     344     342     327     329     266     264     249     251
       8     345     344     329     315     267     266     251     237
       8     346     316     314     347     268     238     236     269
       8     348     347     314     313     270     269     236     235
       8     324     348     313     318     246     270     235     240
       8     349     326     325     338     271     248     247     260
       8     350     349     338     339     272     271     260     261
       8     351     350     339     340     273     272     261     262
       8     352     351     340     353     274     273     262     275
       8     354     353     340     341     276     275     262     263
       8     333     354     341     331     255     276     263     253
       8     355     334     335     337     277     256     257     259
       8     356     355     337     343     278     277     259     265
       8     357     356     343     358     279     278     265     280
       8     359     358     343     342     281     280     265     264
       8     360     359     342     344     282     281     264     266
       8     361     360     344     345     283     282     266     267
       8     362     361     345     363     284     283     267     285
       8     317     363     345     315     239     285     267     237
       8     364     365     316     346     286     287     238     268
       8     366     364     346     347     288     286     268     269
       8     367     366     347     348     289     288     269     270
       8     368     367     348     324     290     289     270     246
       8     369     368     324     323     291     290     246     245
       8     370     369     323     326     292     291     245     248
       8     371     370     326     349     293     292     248     271
       8     372     371     349     350     294     293     271     272
       8     373     372     350     351     295     294     272     273
       8     374     373     351     352     296     295     273     274
       8     375     374     352     353     297     296     274     275
       8     376     375     353     354     298     297     275     276
       8     377     376     354     333     299     298     276     255
       8     378     377     333     332     300     299     255     254
       8     379     378     332     334     301     300     254     256
       8     380     379     334     355     302     301     256     277
       8     381     380     355     356     303     302     277     278
       8     382     381     356     357     304     303     278     279
       8     383     382     357     358     305     304     279     280
       8     384     383     358     359     306     305     280     281
       8     385     384     359     360     307     306     281     282
       8     386     385     360     361     308     307     282     283
       8     387     386     361     362     309     308     283     284
       8     388     387     362     363     310     309     284     285
       8     389     388     363     317     311     310     285     239
       8     365     389     317     316     287     311     239     238
       8     390     391     392     393     312     313     314     315
       8     392     394     395     393     314     316     317     315
       8     396     391     390     397     318     313     312     319
       8     390     398     399     397     312     320     321     319
       8     400     401     402     396     322     323     324     318
       8     403     404     401     400     325     326     323     322
       8     397     403     400     396     319     325     322     318
       8     405     406     398     407     327     328     320     329
       8     408     409     406     405     330     331     328     327
       8     410     411     409     408     332     333     331     330
       8     412     410     408     413     334     332     330     335
       8     414     399     398     406     336     321     320     328
       8     405     415     413     408     327     337     335     330
       8     390     393     407     398     312     315     329     320
       8     416     403     397     399     338     325     319     321
       8     417     416     399     414     339     338     321     336
       8     418     417     414     419     340     339     336     341
       8     409     419     414     406     331     341     336     328
       8     420     421     415     405     342     343     337     327
       8     422     420     405     407     344     342     327     329
       8     423     422     407     393     345     344     329     315
       8     424     394     392     425     346     316     314     347
       8     426     425     392     391     348     347     314     313
       8     402     426     391     396     324     348     313     318
       8     427     404     403     416     349     326     325     338
       8     428     427     416     417     350     349     338     339
       8     429     428     417     418     351     350     339     340
       8     430     429     418     431     352     351     340     353
       8     432     431     418     419     354     353     340     341
       8     411     432     419     409     333     354     341     331
       8     433     412     413     415     355     334     335     337
       8     434     433     415     421     356     355     337     343
       8     435     434     421     436     357     356     343     358
       8     437     436     421     420     359     358     343     342
       8     438     437     420     422     360     359     342     344
       8     439     438     422     423     361     360     344     345
       8     440     439     423     441     362     361     345     363
       8     395     441     423     393     317     363     345     315
       8     442     443     394     424     364     365     316     346
       8     444     442     424     425     366     364     346     347
       8     445     444     425     426     367     366     347     348
       8     446     445     426     402     368     367     348     324
       8     447     446     402     401     369     368     324     323
       8     448     447     401     404     370     369     323     326
       8     449     448     404     427     371     370     326     349
       8     450     449     427     428     372     371     349     350
       8     451     450     428     429     373     372     350     351
       8     452     451     429     430     374     373     351     352
       8     453     452     430     431     375     374     352     353
       8     454     453     431     432     376     375     353     354
       8     455     454     432     411     377     376     354     333
       8     456     455     411     410     378     377     333     332
       8     457     456     410     412     379     378     332     334
       8     458     457     412     433     380     379     334     355
       8     459     458     433     434     381     380     355     356
       8     460     459     434     435     382     381     356     357
       8     461     460     435     436     383     382     357     358
       8     462     461     436     437     384     383     358     359
       8     463     462     437     438     385     384     359     360
       8     464     463     438     439     386     385     360     361
       8     465     464     439     440     387     386     361     362
       8     466     465     440     441     388     387     362     363
       8     467     466     441     395     389     388     363     317
       8     443     467     395     394     365     389     317     316
       8     468     469     470     471     390     391     392     393
       8     470     472     473     471     392     394     395     393
       8     474     469     468     475     396     391     390     397
       8     468     476     477     475     390     398     399     397
       8     478     479     480     474     400     401     402     396
       8     481     482     479     478     403     404     401     400
       8     475     481     478     474     397     403     400     396
       8     483     484     476     485     405     406     398     407
       8     486     487     484     483     408     409     406     405
       8     488     489     487     486     410     411     409     408
       8     490     488     486     491     412     410     408     413
       8     492     477     476     484     414     399     398     406
       8     483     493     491     486     405     415     413     408
       8     468     471     485     476     390     393     407     398
       8     494     481     475     477     416     403     397     399
       8     495     494     477     492     417     416     399     414
       8     496     495     492     497     418     417     414     419
       8     487     497     492     484     409     419     414     406
       8     498     499     493     483     420     421     415     405
       8     500     498     483     485     422     420     405     407
       8     501     500     485     471     423     422     407     393
       8     502     472     470     503     424     394     392     425
       8     504     503     470     469     426     425     392     391
       8     480     504     469     474     402     426     391     396
       8     505     482     481     494     427     404     403     416
       8     506     505     494     495     428     427     416     417
       8     507     506     495     496     429     428     417     418
       8     508     507     496     509     430     429     418     431
       8     510     509     496     497     432     431     418     419
       8     489     510     497     487     411     432     419     409
       8     511     490     491     493     433     412     413     415
       8     512     511     493     499     434     433     415     421
       8     513     512     499     514     435     434     421     436
       8     515     514     499     498     437     436     421     420
       8     516     515     498     500     438     437     420     422
       8     517     516     500     501     439     438     422     423
       8     518     517     501     519     440     439     423     441
       8     473     519     501     471     395     441     423     393
       8     520     521     472     502     442     443     394     424
       8     522     520     502     503     444     442     424     425
       8     523     522     503     504     445     444     425     426
       8     524     523     504     480     446     445     426     402
       8     525     524     480     479     447     446     402     401
       8     526     525     479     482     448     447     401     404
       8     527     526     482     505     449     448     404     427
       8     528     527     505     506     450     449     427     428
       8     529     528     506     507     451     450     428     429
       8     530     529     507     508     452     451     429     430
       8     531     530     508     509     453     452     430     431
       8     532     531     509     510     454     453     431     432
       8     533     532     510     489     455     454     432     411
       8     534     533     489     488     456     455     411     410
       8     535     534     488     490     457     456     410     412
       8     536     535     490     511     458     457     412     433
       8     537     536     511     512     459     458     433     434
       8     538     537     512     513     460     459     434     435
       8     539     538     513     514     461     460     435     436
       8     540     539     514     515     462     461     436     437
       8     541     540     515     516     463     462     437     438
       8     542     541     516     517     464     463     438     439
       8     543     542     517     518     465     464     439     440
       8     544     543     518     519     466     465     440     441
       8     545     544     519     473     467     466     441     395
       8     521     545     473     472     443     467     395     394
       8     546     547     548     549     468     469     470     471
       8     548     550     551     549     470     472     473     471
       8     552     547     546     553     474     469     468     475
       8     546     554     555     553     468     476     477     475
       8     556     557     558     552     478     479     480     474
       8     559     560     557     556     481     482     479     478
       8     553     559     556     552     475     481     478     474
       8     561     562     554     563     483     484     476     485
       8     564     565     562     561     486     487     484     483
       8     566     567     565     564     488     489     487     486
       8     568     566     564     569     490     488     486     491
       8     570     555     554     562     492     477     476     484
       8     561     571     569     564     483     493     491     486
       8     546     549     563     554     468     471     485     476
       8     572     559     553     555     494     481     475     477
       8     573     572     555     570     495     494     477     492
       8     574     573     570     575     496     495     492     497
       8     565     575     570     562     487     497     492     484
       8     576     577     571     561     498     499     493     483
       8     578     576     561     563     500     498     483     485
       8     579     578     563     549     501     500     485     471
       8     580     550     548     581     502     472     470     503
       8     582     581     548     547     504     503     470     469
       8     558     582     547     552     480     504     469     474
       8     583     560     559     572     505     482     481     494
       8     584     583     572     573     506     505     494     495
       8     585     584     573     574     507     506     495     496
       8     586     585     574     587     508     507     496     509
       8     588     587     574     575     510     509     496     497
       8     567     588     575     565     489     510     497     487
       8     589     568     569     571     511     490     491     493
       8     590     589     571     577     512     511     493     499
       8     591     590     577     592     513     512     499     514
       8     593     592     577     576     515     514     499     498
       8     594     593     576     578     516     515     498     500
       8     595     594     578     579     517     516     500     501
       8     596     595     579     597     518     517     501     519
       8     551     597     579     549     473     519     501     471
       8     598     599     550     580     520     521     472     502
       8     600     598     580     581     522     520     502     503
       8     601     600     581     582     523     522     503     504
       8     602     601     582     558     524     523     504     480
       8     603     602     558     557     525     524     480     479
       8     604     603     557     560     526     525     479     482
       8     605     604     560     583     527     526     482     505
       8     606     605     583     584     528     527     505     506
       8     607     606     584     585     529     528     506     507
       8     608     607     585     586     530     529     507     508
       8     609     608     586     587     531     530     508     509
       8     610     609     587     588     532     531     509     510
       8     611     610     588     567     533     532     510     489
       8     612     611     567     566     534     533     489     488
       8     613     612     566     568     535     534     488     490
       8     614     613     568     589     536     535     490     511
       8     615     614     589     590     537     536     511     512
       8     616     615     590     591     538     537     512     513
       8     617     616     591     592     539     538     513     514
       8     618     617     592     593     540     539     514     515
       8     619     618     593     594     541     540     515     516
       8     620     619     594     595     542     541     516     517
       8     621     620     595     596     543     542     517     518
       8     622     621     596     597     544     543     518     519
       8     623     622     597     551     545     544     519     473
       8     599     623     551     550     521     545     473     472
       8     624     625     626     627     546     547     548     549
       8     626     628     629     627     548     550     551     549
       8     630     625     624     631     552     547     546     553
       8     624     632     633     631     546     554     555     553
       8     634     635     636     630     556     557     558     552
       8     637     638     635     634     559     560     557     556
       8     631     637     634     630     553     559     556     552
       8     639     640     632     641     561     562     554     563
       8     642     643     640     639     564     565     562     561
       8     644     645     643     642     566     567     565     564
       8     646     644     642     647     568     566     564     569
       8     648     633     632     640     570     555     554     562
       8     639     649     647     642     561     571     569     564
       8     624     627     641     632     546     549     563     554
       8     650     637     631     633     572     559     553     555
       8     651     650     633     648     573     572     555     570
       8     652     651     648     653     574     573     570     575
       8     643     653     648     640     565     575     570     562
       8     654     655     649     639     576     577     571     561
       8     656     654     639     641     578     576     561     563
       8     657     656     641     627     579     578     563     549
       8     658     628     626     659     580     550     548     581
       8     660     659     626     625     582     581     548     547
       8     636     660     625     630     558     582     547     552
       8     661     638     637     650     583     560     559     572
       8     662     661     650     651     584     583     572     573
       8     663     662     651     652     585     584     573     574
       8     664     663     652     665     586     585     574     587
       8     666     665     652     653     588     587     574     575
       8     645     666     653     643     567     588     575     565
       8     667     646     647     649     589     568     569     571
       8     668     667     649     655     590     589     571     577
       8     669     668     655     670     591     590     577     592
       8     671     670     655     654     593     592     577     576
       8     672     671     654     656     594     593     576     578
       8     673     672     656     657     595     594     578     579
       8     674     673     657     675     596     595     579     597
       8     629     675     657     627     551     597     579     549
       8     676     677     628     658     598     599     550     580
       8     678     676     658     659     600     598     580     581
       8     679     678     659     660     601     600     581     582
       8     680     679     660     636     602     601     582     558
       8     681     680     636     635     603     602     558     557
       8     682     681     635     638     604     603     557     560
       8     683     682     638     661     605     604     560     583
       8     684     683     661     662     606     605     583     584
       8     685     684     662     663     607     606     584     585
       8     686     685     663     664     608     607     585     586
       8     687     686     664     665     609     608     586     587
       8     688     687     665     666     610     609     587     588
       8     689     688     666     645     611     610     588     567
       8     690     689     645     644     612     611     567     566
       8     691     690     644     646     613     612     566     568
       8     692     691     646     667     614     613     568     589
       8     693     692     667     668     615     614     589     590
       8     694     693     668     669     616     615     590     591
       8     695     694     669     670     617     616     591     592
       8     696     695     670     671     618     617     592     593
       8     697     696     671     672     619     618     593     594
       8     698     697     672     673     620     619     594     595
       8     699     698     673     674     621     620     595     596
       8     700     699     674     675     622     621     596     597
       8     701     700     675     629     623     622     597     551
       8     677     701     629     628     599     623     551     550
       8     702     703     704     705     624     625     626     627
       8     704     706     707     705     626     628     629     627
       8     708     703     702     709     630     625     624     631
       8     702     710     711     709     624     632     633     631
       8     712     713     714     708     634     635     636     630
       8     715     716     713     712     637     638     635     634
       8     709     715     712     708     631     637     634     630
       8     717     718     710     719     639     640     632     641
       8     720     721     718     717     642     643     640     639
       8     722     723     721     720     644     645     643     642
       8     724     722     720     725     646     644     642     647
       8     726     711     710     718     648     633     632     640
       8     717     727     725     720     639     649     647     642
       8     702     705     719     710     624     627     641     632
       8     728     715     709     711     650     637     631     633
       8     729     728     711     726     651     650     633     648
       8     730     729     726     731     652     651     648     653
       8     721     731     726     718     643     653     648     640
       8     732     733     727     717     654     655     649     639
       8     734     732     717     719     656     654     639     641
       8     735     734     719     705     657     656     641     627
       8     736     706     704     737     658     628     626     659
       8     738     737     704     703     660     659     626     625
       8     714     738     703     708     636     660     625     630
       8     739     716     715     728     661     638     637     650
       8     740     739     728     729     662     661     650     651
       8     741     740     729     730     663     662     651     652
       8     742     741     730     743     664     663     652     665
       8     744     743     730     731     666     665     652     653
       8     723     744     731     721     645     666     653     643
       8     745     724     725     727     667     646     647     649
       8     746     745     727     733     668     667     649     655
       8     747     746     733     748     669     668     655     670
       8     749     748     733     732     671     670     655     654
       8     750     749     732     734     672     671     654     656
       8     751     750     734     735     673     672     656     657
       8     752     751     735     753     674     673     657     675
       8     707     753     735     705     629     675     657     627
       8     754     755     706     736     676     677     628     658
       8     756     754     736     737     678     676     658     659
       8     757     756     737     738     679     678     659     660
       8     758     757     738     714     680     679     660     636
       8     759     758     714     713     681     680     636     635
       8     760     759     713     716     682     681     635     638
       8     761     760     716     739     683     682     638     661
       8     762     761     739     740     684     683     661     662
       8     763     762     740     741     685     684     662     663
       8     764     763     741     742     686     685     663     664
       8     765     764     742     743     687     686     664     665
       8     766     765     743     744     688     687     665     666
       8     767     766     744     723     689     688     666     645
       8     768     767     723     722     690     689     645     644
       8     769     768     722     724     691     690     644     646
       8     770     769     724     745     692     691     646     667
       8     771     770     745     746     693     692     667     668
       8     772     771     746     747     694     693     668     669
       8     773     772     747     748     695     694     669     670
       8     774     773     748     749     696     695     670     671
       8     775     774     749     750     697     696     671     672
       8     776     775     750     751     698     697     672     673
       8     777     776     751     752     699     698     673     674
       8     778     777     752     753     700     699     674     675
       8     779     778     753     707     701     700     675     629
       8     755     779     707     706     677     701     629     628
       8     780     781     782     783     702     703     704     705
       8     782     784     785     783     704     706     707     705
       8     786     781     780     787     708     703     702     709
       8     780     788     789     787     702     710     711     709
       8     790     791     792     786     712     713     714     708
       8     793     794     791     790     715     716     713     712
       8     787     793     790     786     709     715     712     708
       8     795     796     788     797     717     718     710     719
       8     798     799     796     795     720     721     718     717
       8     800     801     799     798     722     723     721     720
       8     802     800     798     803     724     722     720     725
       8     804     789     788     796     726     711     710     718
       8     795     805     803     798     717     727     725     720
       8     780     783     797     788     702     705     719     710
       8     806     793     787     789     728     715     709     711
       8     807     806     789     804     729     728     711     726
       8     808     807     804     809     730     729     726     731
       8     799     809     804     796     721     731     726     718
       8     810     811     805     795     732     733     727     717
       8     812     810     795     797     734     732     717     719
       8     813     812     797     783     735     734     719     705
       8     814     784     782     815     736     706     704     737
       8     816     815     782     781     738     737     704     703
       8     792     816     781     786     714     738     703     708
       8     817     794     793     806     739     716     715     728
       8     818     817     806     807     740     739     728     729
       8     819     818     807     808     741     740     729     730
       8     820     819     808     821     742     741     730     743
       8     822     821     808     809     744     743     730     731
       8     801     822     809     799     723     744     731     721
       8     823     802     803     805     745     724     725     727
       8     824     823     805     811     746     745     727     733
       8     825     824     811     826     747     746     733     748
       8     827     826     811     810     749     748     733     732
       8     828     827     810     812     750     749     732     734
       8     829     828     812     813     751     750     734     735
       8     830     829     813     831     752     751     735     753
       8     785     831     813     783     707     753     735     705
       8     832     833     784     814     754     755     706     736
       8     834     832     814     815     756     754     736     737
       8     835     834     815     816     757     756     737     738
       8     836     835     816     792     758     757     738     714
       8     837     836     792     791     759     758     714     713
       8     838     837     791     794     760     759     713     716
       8     839     838     794     817     761     760     716     739
       8     840     839     817     818     762     761     739     740
       8     841     840     818     819     763     762     740     741
       8     842     841     819     820     764     763     741     742
       8     843     842     820     821     765     764     742     743
       8     844     843     821     822     766     765     743     744
       8     845     844     822     801     767     766     744     723
       8     846     845     801     800     768     767     723     722
       8     847     846     800     802     769     768     722     724
       8     848     847     802     823     770     769     724     745
       8     849     848     823     824     771     770     745     746
       8     850     849     824     825     772     771     746     747
       8     851     850     825     826     773     772     747     748
       8     852     851     826     827     774     773     748     749
       8     853     852     827     828     775     774     749     750
       8     854     853     828     829     776     775     750     751
       8     855     854     829     830     777     776     751     752
       8     856     855     830     831     778     777     752     753
       8     857     856     831     785     779     778     753     707
       8     833     857     785     784     755     779     707     706
       8     858     859     860     861     780     781     782     783
       8     860     862     863     861     782     784     785     783
       8     864     859     858     865     786     781     780     787
       8     858     866     867     865     780     788     789     787
       8     868     869     870     864     790     791     792     786
       8     871     872     869     868     793     794     791     790
       8     865     871     868     864     787     793     790     786
       8     873     874     866     875     795     796     788     797
       8     876     877     874     873     798     799     796     795
       8     878     879     877     876     800     801     799     798
       8     880     878     876     881     802     800     798     803
       8     882     867     866     874     804     789     788     796
       8     873     883     881     876     795     805     803     798
       8     858     861     875     866     780     783     797     788
       8     884     871     865     867     806     793     787     789
       8     885     884     867     882     807     806     789     804
       8     886     885     882     887     808     807     804     809
       8     877     887     882     874     799     809     804     796
       8     888     889     883     873     810     811     805     795
       8     890     888     873     875     812     810     795     797
       8     891     890     875     861     813     812     797     783
       8     892     862     860     893     814     784     782     815
       8     894     893     860     859     816     815     782     781
       8     870     894     859     864     792     816     781     786
       8     895     872     871     884     817     794     793     806
       8     896     895     884     885     818     817     806     807
       8     897     896     885     886     819     818     807     808
       8     898     897     886     899     820     819     808     821
       8     900     899     886     887     822     821     808     809
       8     879     900     887     877     801     822     809     799
       8     901     880     881     883     823     802     803     805
       8     902     901     883     889     824     823     805     811
       8     903     902     889     904     825     824     811     826
       8     905     904     889     888     827     826     811     810
       8     906     905     888     890     828     827     810     812
       8     907     906     890     891     829     828     812     813
       8     908     907     891     909     830     829     813     831
       8     863     909     891     861     785     831     813     783
       8     910     911     862     892     832     833     784     814
       8     912     910     892     893     834     832     814     815
       8     913     912     893     894     835     834     815     816
       8     914     913     894     870     836     835     816     792
       8     915     914     870     869     837     836     792     791
       8     916     915     869     872     838     837     791     794
       8     917     916     872     895     839     838     794     817
       8     918     917     895     896     840     839     817     818
       8     919     918     896     897     841     840     818     819
       8     920     919     897     898     842     841     819     820
       8     921     920     898     899     843     842     820     821
       8     922     921     899     900     844     843     821     822
       8     923     922     900     879     845     844     822     801
       8     924     923     879     878     846     845     801     800
       8     925     924     878     880     847     846     800     802
       8     926     925     880     901     848     847     802     823
       8     927     926     901     902     849     848     823     824
       8     928     927     902     903     850     849     824     825
       8     929     928     903     904     851     850     825     826
       8     930     929     904     905     852     851     826     827
       8     931     930     905     906     853     852     827     828
       8     932     931     906     907     854     853     828     829
       8     933     932     907     908     855     854     829     830
       8     934     933     908     909     856     855     830     831
       8     935     934     909     863     857     856     831     785
       8     911     935     863     862     833     857     785     784
       8     936     937     938     939     858     859     860     861
       8     938     940     941     939     860     862     863     861
       8     942     937     936     943     864     859     858     865
       8     936     944     945     943     858     866     867     865
       8     946     947     948     942     868     869     870     864
       8     949     950     947     946     871     872     869     868
       8     943     949     946     942     865     871     868     864
       8     951     952     944     953     873     874     866     875
       8     954     955     952     951     876     877     874     873
       8     956     957     955     954     878     879     877     876
       8     958     956     954     959     880     878     876     881
       8     960     945     944     952     882     867     866     874
       8     951     961     959     954     873     883     881     876
       8     936     939     953     944     858     861     875     866
       8     962     949     943     945     884     871     865     867
       8     963     962     945     960     885     884     867     882
       8     964     963     960     965     886     885     882     887
       8     955     965     960     952     877     887     882     874
       8     966     967     961     951     888     889     883     873
       8     968     966     951     953     890     888     873     875
       8     969     968     953     939     891     890     875     861
       8     970     940     938     971     892     862     860     893
       8     972     971     938     937     894     893     860     859
       8     948     972     937     942     870     894     859     864
       8     973     950     949     962     895     872     871     884
       8     974     973     962     963     896     895     884     885
       8     975     974     963     964     897     896     885     886
       8     976     975     964     977     898     897     886     899
       8     978     977     964     965     900     899     886     887
       8     957     978     965     955     879     900     887     877
       8     979     958     959     961     901     880     881     883
       8     980     979     961     967     902     901     883     889
       8     981     980     967     982     903     902     889     904
       8     983     982     967     966     905     904     889     888
       8     984     983     966     968     906     905     888     890
       8     985     984     968     969     907     906     890     891
       8     986     985     969     987     908     907     891     909
       8     941     987     969     939     863     909     891     861
       8     988     989     940     970     910     911     862     892
       8     990     988     970     971     912     910     892     893
       8     991     990     971     972     913     912     893     894
       8     992     991     972     948     914     913     894     870
       8     993     992     948     947     915     914     870     869
       8     994     993     947     950     916     915     869     872
       8     995     994     950     973     917     916     872     895
       8     996     995     973     974     918     917     895     896
       8     997     996     974     975     919     918     896     897
       8     998     997     975     976     920     919     897     898
       8     999     998     976     977     921     920     898     899
       8    1000     999     977     978     922     921     899     900
       8    1001    1000     978     957     923     922     900     879
       8    1002    1001     957     956     924     923     879     878
       8    1003    1002     956     958     925     924     878     880
       8    1004    1003     958     979     926     925     880     901
       8    1005    1004     979     980     927     926     901     902
       8    1006    1005     980     981     928     927     902     903
       8    1007    1006     981     982     929     928     903     904
       8    1008    1007     982     983     930     929     904     905
       8    1009    1008     983     984     931     930     905     906
       8    1010    1009     984     985     932     931     906     907
       8    1011    1010     985     986     933     932     907     908
       8    1012    1011     986     987     934     933     908     909
       8    1013    1012     987     941     935     934     909     863
       8     989    1013     941     940     911     935     863     862
       8    1014    1015    1016    1017     936     937     938     939
       8    1016    1018    1019    1017     938     940     941     939
       8    1020    1015    1014    1021     942     937     936     943
       8    1014    1022    1023    1021     936     944     945     943
       8    1024    1025    1026    1020     946     947     948     942
       8    1027    1028    1025    1024     949     950     947     946
       8    1021    1027    1024    1020     943     949     946     942
       8    1029    1030    1022    1031     951     952     944     953
       8    1032    1033    1030    1029     954     955     952     951
       8    1034    1035    1033    1032     956     957     955     954
       8    1036    1034    1032    1037     958     956     954     959
       8    1038    1023    1022    1030     960     945     944     952
       8    1029    1039    1037    1032     951     961     959     954
       8    1014    1017    1031    1022     936     939     953     944
       8    1040    1027    1021    1023     962     949     943     945
       8    1041    1040    1023    1038     963     962     945     960
       8    1042    1041    1038    1043     964     963     960     965
       8    1033    1043    1038    1030     955     965     960     952
       8    1044    1045    1039    1029     966     967     961     951
       8    1046    1044    1029    1031     968     966     951     953
       8    1047    1046    1031    1017     969     968     953     939
       8    1048    1018    1016    1049     970     940     938     971
       8    1050    1049    1016    1015     972     971     938     937
       8    1026    1050    1015    1020     948     972     937     942
       8    1051    1028    1027    1040     973     950     949     962
       8    1052    1051    1040    1041     974     973     962     963
       8    1053    1052    1041    1042     975     974     963     964
       8    1054    1053    1042    1055     976     975     964     977
       8    1056    1055    1042    1043     978     977     964     965
       8    1035    1056    1043    1033     957     978     965     955
       8    1057    1036    1037    1039     979     958     959     961
       8    1058    1057    1039    1045     980     979     961     967
       8    1059    1058    1045    1060     981     980     967     982
       8    1061    1060    1045    1044     983     982     967     966
       8    1062    1061    1044    1046     984     983     966     968
       8    1063    1062    1046    1047     985     984     968     969
       8    1064    1063    1047    1065     986     985     969     987
       8    1019    1065    1047    1017     941     987     969     939
       8    1066    1067    1018    1048     988     989     940     970
       8    1068    1066    1048    1049     990     988     970     971
       8    1069    1068    1049    1050     991     990     971     972
       8    1070    1069    1050    1026     992     991     972     948
       8    1071    1070    1026    1025     993     992     948     947
       8    1072    1071    1025    1028     994     993     947     950
       8    1073    1072    1028    1051     995     994     950     973
       8    1074    1073    1051    1052     996     995     973     974
       8    1075    1074    1052    1053     997     996     974     975
       8    1076    1075    1053    1054     998     997     975     976
       8    1077    1076    1054    1055     999     998     976     977
       8    1078    1077    1055    1056    1000     999     977     978
       8    1079    1078    1056    1035    1001    1000     978     957
       8    1080    1079    1035    1034    1002    1001     957     956
       8    1081    1080    1034    1036    1003    1002     956     958
       8    1082    1081    1036    1057    1004    1003     958     979
       8    1083    1082    1057    1058    1005    1004     979     980
       8    1084    1083    1058    1059    1006    1005     980     981
       8    1085    1084    1059    1060    1007    1006     981     982
       8    1086    1085    1060    1061    1008    1007     982     983
       8    1087    1086    1061    1062    1009    1008     983     984
       8    1088    1087    1062    1063    1010    1009     984     985
       8    1089    1088    1063    1064    1011    1010     985     986
       8    1090    1089    1064    1065    1012    1011     986     987
       8    1091    1090    1065    1019    1013    1012     987     941
       8    1067    1091    1019    1018     989    1013     941     940
       8    1092    1093    1094    1095    1014    1015    1016    1017
       8    1094    1096    1097    1095    1016    1018    1019    1017
       8    1098    1093    1092    1099    1020    1015    1014    1021
       8    1092    1100    1101    1099    1014    1022    1023    1021
       8    1102    1103    1104    1098    1024    1025    1026    1020
       8    1105    1106    1103    1102    1027    1028    1025    1024
       8    1099    1105    1102    1098    1021    1027    1024    1020
       8    1107    1108    1100    1109    1029    1030    1022    1031
       8    1110    1111    1108    1107    1032    1033    1030    1029
       8    1112    1113    1111    1110    1034    1035    1033    1032
       8    1114    1112    1110    1115    1036    1034    1032    1037
       8    1116    1101    1100    1108    1038    1023    1022    1030
       8    1107    1117    1115    1110    1029    1039    1037    1032
       8    1092    1095    1109    1100    1014    1017    1031    1022
       8    1118    1105    1099    1101    1040    1027    1021    1023
       8    1119    1118    1101    1116    1041    1040    1023    1038
       8    1120    1119    1116    1121    1042    1041    1038    1043
       8    1111    1121    1116    1108    1033    1043    1038    1030
       8    1122    1123    1117    1107    1044    1045    1039    1029
       8    1124    1122    1107    1109    1046    1044    1029    1031
       8    1125    1124    1109    1095    1047    1046    1031    1017
       8    1126    1096    1094    1127    1048    1018    1016    1049
       8    1128    1127    1094    1093    1050    1049    1016    1015
       8    1104    1128    1093    1098    1026    1050    1015    1020
       8    1129    1106    1105    1118    1051    1028    1027    1040
       8    1130    1129    1118    1119    1052    1051    1040    1041
       8    1131    1130    1119    1120    1053    1052    1041    1042
       8    1132    1131    1120    1133    1054    1053    1042    1055
       8    1134    1133    1120    1121    1056    1055    1042    1043
       8    1113    1134    1121    1111    1035    1056    1043    1033
       8    1135    1114    1115    1117    1057    1036    1037    1039
       8    1136    1135    1117    1123    1058    1057    1039    1045
       8    1137    1136    1123    1138    1059    1058    1045    1060
       8    1139    1138    1123    1122    1061    1060    1045    1044
       8    1140    1139    1122    1124    1062    1061    1044    1046
       8    1141    1140    1124    1125    1063    1062    1046    1047
       8    1142    1141    1125    1143    1064    1063    1047    1065
       8    1097    1143    1125    1095    1019    1065    1047    1017
       8    1144    1145    1096    1126    1066    1067    1018    1048
       8    1146    1144    1126    1127    1068    1066    1048    1049
       8    1147    1146    1127    1128    1069    1068    1049    1050
       8    1148    1147    1128    1104    1070    1069    1050    1026
       8    1149    1148    1104    1103    1071    1070    1026    1025
       8    1150    1149    1103    1106    1072    1071    1025    1028
       8    1151    1150    1106    1129    1073    1072    1028    1051
       8    1152    1151    1129    1130    1074    1073    1051    1052
       8    1153    1152    1130    1131    1075    1074    1052    1053
       8    1154    1153    1131    1132    1076    1075    1053    1054
       8    1155    1154    1132    1133    1077    1076    1054    1055
       8    1156    1155    1133    1134    1078    1077    1055    1056
       8    1157    1156    1134    1113    1079    1078    1056    1035
       8    1158    1157    1113    1112    1080    1079    1035    1034
       8    1159    1158    1112    1114    1081    1080    1034    1036
       8    1160    1159    1114    1135    1082    1081    1036    1057
       8    1161    1160    1135    1136    1083    1082    1057    1058
       8    1162    1161    1136    1137    1084    1083    1058    1059
       8    1163    1162    1137    1138    1085    1084    1059    1060
       8    1164    1163    1138    1139    1086    1085    1060    1061
       8    1165    1164    1139    1140    1087    1086    1061    1062
       8    1166    1165    1140    1141    1088    1087    1062    1063
       8    1167    1166    1141    1142    1089    1088    1063    1064
       8    1168    1167    1142    1143    1090    1089    1064    1065
       8    1169    1168    1143    1097    1091    1090    1065    1019
       8    1145    1169    1097    1096    1067    1091    1019    1018
       8    1170    1171    1172    1173    1092    1093    1094    1095
       8    1172    1174    1175    1173    1094    1096    1097    1095
       8    1176    1171    1170    1177    1098    1093    1092    1099
       8    1170    1178    1179    1177    1092    1100    1101    1099
       8    1180    1181    1182    1176    1102    1103    1104    1098
       8    1183    1184    1181    1180    1105    1106    1103    1102
       8    1177    1183    1180    1176    1099    1105    1102    1098
       8    1185    1186    1178    1187    1107    1108    1100    1109
       8    1188    1189    1186    1185    1110    1111    1108    1107
       8    1190    1191    1189    1188    1112    1113    1111    1110
       8    1192    1190    1188    1193    1114    1112    1110    1115
       8    1194    1179    1178    1186    1116    1101    1100    1108
       8    1185    1195    1193    1188    1107    1117    1115    1110
       8    1170    1173    1187    1178    1092    1095    1109    1100
       8    1196    1183    1177    1179    1118    1105    1099    1101
       8    1197    1196    1179    1194    1119    1118    1101    1116
       8    1198    1197    1194    1199    1120    1119    1116    1121
       8    1189    1199    1194    1186    1111    1121    1116    1108
       8    1200    1201    1195    1185    1122    1123    1117    1107
       8    1202    1200    1185    1187    1124    1122    1107    1109
       8    1203    1202    1187    1173    1125    1124    1109    1095
       8    1204    1174    1172    1205    1126    1096    1094    1127
       8    1206    1205    1172    1171    1128    1127    1094    1093
       8    1182    1206    1171    1176    1104    1128    1093    1098
       8    1207    1184    1183    1196    1129    1106    1105    1118
       8    1208    1207    1196    1197    1130    1129    1118    1119
       8    1209    1208    1197    1198    1131    1130    1119    1120
       8    1210    1209    1198    1211    1132    1131    1120    1133
       8    1212    1211    1198    1199    1134    1133    1120    1121
       8    1191    1212    1199    1189    1113    1134    1121    1111
       8    1213    1192    1193    1195    1135    1114    1115    1117
       8    1214    1213    1195    1201    1136    1135    1117    1123
       8    1215    1214    1201    1216    1137    1136    1123    1138
       8    1217    1216    1201    1200    1139    1138    1123    1122
       8    1218    1217    1200    1202    1140    1139    1122    1124
       8    1219    1218    1202    1203    1141    1140    1124    1125
       8    1220    1219    1203    1221    1142    1141    1125    1143
       8    1175    1221    1203    1173    1097    1143    1125    1095
       8    1222    1223    1174    1204    1144    1145    1096    1126
       8    1224    1222    1204    1205    1146    1144    1126    1127
       8    1225    1224    1205    1206    1147    1146    1127    1128
       8    1226    1225    1206    1182    1148    1147    1128    1104
       8    1227    1226    1182    1181    1149    1148    1104    1103
       8    1228    1227    1181    1184    1150    1149    1103    1106
       8    1229    1228    1184    1207    1151    1150    1106    1129
       8    1230    1229    1207    1208    1152    1151    1129    1130
       8    1231    1230    1208    1209    1153    1152    1130    1131
       8    1232    1231    1209    1210    1154    1153    1131    1132
       8    1233    1232    1210    1211    1155    1154    1132    1133
       8    1234    1233    1211    1212    1156    1155    1133    1134
       8    1235    1234    1212    1191    1157    1156    1134    1113
       8    1236    1235    1191    1190    1158    1157    1113    1112
       8    1237    1236    1190    1192    1159    1158    1112    1114
       8    1238    1237    1192    1213    1160    1159    1114    1135
       8    1239    1238    1213    1214    1161    1160    1135    1136
       8    1240    1239    1214    1215    1162    1161    1136    1137
       8    1241    1240    1215    1216    1163    1162    1137    1138
       8    1242    1241    1216    1217    1164    1163    1138    1139
       8    1243    1242    1217    1218    1165    1164    1139    1140
       8    1244    1243    1218    1219    1166    1165    1140    1141
       8    1245    1244    1219    1220    1167    1166    1141    1142
       8    1246    1245    1220    1221    1168    1167    1142    1143
       8    1247    1246    1221    1175    1169    1168    1143    1097
       8    1223    1247    1175    1174    1145    1169    1097    1096
       8    1248    1249    1250    1251    1170    1171    1172    1173
       8    1250    1252    1253    1251    1172    1174    1175    1173
       8    1254    1249    1248    1255    1176    1171    1170    1177
       8    1248    1256    1257    1255    1170    1178    1179    1177
       8    1258    1259    1260    1254    1180    1181    1182    1176
       8    1261    1262    1259    1258    1183    1184    1181    1180
       8    1255    1261    1258    1254    1177    1183    1180    1176
       8    1263    1264    1256    1265    1185    1186    1178    1187
       8    1266    1267    1264    1263    1188    1189    1186    1185
       8    1268    1269    1267    1266    1190    1191    1189    1188
       8    1270    1268    1266    1271    1192    1190    1188    1193
       8    1272    1257    1256    1264    1194    1179    1178    1186
       8    1263    1273    1271    1266    1185    1195    1193    1188
       8    1248    1251    1265    1256    1170    1173    1187    1178
       8    1274    1261    1255    1257    1196    1183    1177    1179
       8    1275    1274    1257    1272    1197    1196    1179    1194
       8    1276    1275    1272    1277    1198    1197    1194    1199
       8    1267    1277    1272    1264    1189    1199    1194    1186
       8    1278    1279    1273    1263    1200    1201    1195    1185
       8    1280    1278    1263    1265    1202    1200    1185    1187
       8    1281    1280    1265    1251    1203    1202    1187    1173
       8    1282    1252    1250    1283    1204    1174    1172    1205
       8    1284    1283    1250    1249    1206    1205    1172    1171
       8    1260    1284    1249    1254    1182    1206    1171    1176
       8    1285    1262    1261    1274    1207    1184    1183    1196
       8    1286    1285    1274    1275    1208    1207    1196    1197
       8    1287    1286    1275    1276    1209    1208    1197    1198
       8    1288    1287    1276    1289    1210    1209    1198    1211
       8    1290    1289    1276    1277    1212    1211    1198    1199
       8    1269    1290    1277    1267    1191    1212    1199    1189
       8    1291    1270    1271    1273    1213    1192    1193    1195
       8    1292    1291    1273    1279    1214    1213    1195    1201
       8    1293    1292    1279    1294    1215    1214    1201    1216
       8    1295    1294    1279    1278    1217    1216    1201    1200
       8    1296    1295    1278    1280    1218    1217    1200    1202
       8    1297    1296    1280    1281    1219    1218    1202    1203
       8    1298    1297    1281    1299    1220    1219    1203    1221
       8    1253    1299    1281    1251    1175    1221    1203    1173
       8    1300    1301    1252    1282    1222    1223    1174    1204
       8    1302    1300    1282    1283    1224    1222    1204    1205
       8    1303    1302    1283    1284    1225    1224    1205    1206
       8    1304    1303    1284    1260    1226    1225    1206    1182
       8    1305    1304    1260    1259    1227    1226    1182    1181
       8    1306    1305    1259    1262    1228    1227    1181    1184
       8    1307    1306    1262    1285    1229    1228    1184    1207
       8    1308    1307    1285    1286    1230    1229    1207    1208
       8    1309    1308    1286    1287    1231    1230    1208    1209
       8    1310    1309    1287    1288    1232    1231    1209    1210
       8    1311    1310    1288    1289    1233    1232    1210    1211
       8    1312    1311    1289    1290    1234    1233    1211    1212
       8    1313    1312    1290    1269    1235    1234    1212    1191
       8    1314    1313    1269    1268    1236    1235    1191    1190
       8    1315    1314    1268    1270    1237    1236    1190    1192
       8    1316    1315    1270    1291    1238    1237    1192    1213
       8    1317    1316    1291    1292    1239    1238    1213    1214
       8    1318    1317    1292    1293    1240    1239    1214    1215
       8    1319    1318    1293    1294    1241    1240    1215    1216
       8    1320    1319    1294    1295    1242    1241    1216    1217
       8    1321    1320    1295    1296    1243    1242    1217    1218
       8    1322    1321    1296    1297    1244    1243    1218    1219
       8    1323    1322    1297    1298    1245    1244    1219    1220
       8    1324    1323    1298    1299    1246    1245    1220    1221
       8    1325    1324    1299    1253    1247    1246    1221    1175
       8    1301    1325    1253    1252    1223    1247    1175    1174
       8    1326    1327    1328    1329    1248    1249    1250    1251
       8    1328    1330    1331    1329    1250    1252    1253    1251
       8    1332    1327    1326    1333    1254    1249    1248    1255
       8    1326    1334    1335    1333    1248    1256    1257    1255
       8    1336    1337    1338    1332    1258    1259    1260    1254
       8    1339    1340    1337    1336    1261    1262    1259    1258
       8    1333    1339    1336    1332    1255    1261    1258    1254
       8    1341    1342    1334    1343    1263    1264    1256    1265
       8    1344    1345    1342    1341    1266    1267    1264    1263
       8    1346    1347    1345    1344    1268    1269    1267    1266
       8    1348    1346    1344    1349    1270    1268    1266    1271
       8    1350    1335    1334    1342    1272    1257    1256    1264
       8    1341    1351    1349    1344    1263    1273    1271    1266
       8    1326    1329    1343    1334    1248    1251    1265    1256
       8    1352    1339    1333    1335    1274    1261    1255    1257
       8    1353    1352    1335    1350    1275    1274    1257    1272
       8    1354    1353    1350    1355    1276    1275    1272    1277
       8    1345    1355    1350    1342    1267    1277    1272    1264
       8    1356    1357    1351    1341    1278    1279    1273    1263
       8    1358    1356    1341    1343    1280    1278    1263    1265
       8    1359    1358    1343    1329    1281    1280    1265    1251
       8    1360    1330    1328    1361    1282    1252    1250    1283
       8    1362    1361    1328    1327    1284    1283    1250    1249
       8    1338    1362    1327    1332    1260    1284    1249    1254
       8    1363    1340    1339    1352    1285    1262    1261    1274
       8    1364    1363    1352    1353    1286    1285    1274    1275
       8    1365    1364    1353    1354    1287    1286    1275    1276
       8    1366    1365    1354    1367    1288    1287    1276    1289
       8    1368    1367    1354    1355    1290    1289    1276    1277
       8    1347    1368    1355    1345    1269    1290    1277    1267
       8    1369    1348    1349    1351    1291    1270    1271    1273
       8    1370    1369    1351    1357    1292    1291    1273    1279
       8    1371    1370    1357    1372    1293    1292    1279    1294
       8    1373    1372    1357    1356    1295    1294    1279    1278
       8    1374    1373    1356    1358    1296    1295    1278    1280
       8    1375    1374    1358    1359    1297    1296    1280    1281
       8    1376    1375    1359    1377    1298    1297    1281    1299
       8    1331    1377    1359    1329    1253    1299    1281    1251
       8    1378    1379    1330    1360    1300    1301    1252    1282
       8    1380    1378    1360    1361    1302    1300    1282    1283
       8    1381    1380    1361    1362    1303    1302    1283    1284
       8    1382    1381    1362    1338    1304    1303    1284    1260
       8    1383    1382    1338    1337    1305    1304    1260    1259
       8    1384    1383    1337    1340    1306    1305    1259    1262
       8    1385    1384    1340    1363    1307    1306    1262    1285
       8    1386    1385    1363    1364    1308    1307    1285    1286
       8    1387    1386    1364    1365    1309    1308    1286    1287
       8    1388    1387    1365    1366    1310    1309    1287    1288
       8    1389    1388    1366    1367    1311    1310    1288    1289
       8    1390    1389    1367    1368    1312    1311    1289    1290
       8    1391    1390    1368    1347    1313    1312    1290    1269
       8    1392    1391    1347    1346    1314    1313    1269    1268
       8    1393    1392    1346    1348    1315    1314    1268    1270
       8    1394    1393    1348    1369    1316    1315    1270    1291
       8    1395    1394    1369    1370    1317    1316    1291    1292
       8    1396    1395    1370    1371    1318    1317    1292    1293
       8    1397    1396    1371    1372    1319    1318    1293    1294
       8    1398    1397    1372    1373    1320    1319    1294    1295
       8    1399    1398    1373    1374    1321    1320    1295    1296
       8    1400    1399    1374    1375    1322    1321    1296    1297
       8    1401    1400    1375    1376    1323    1322    1297    1298
       8    1402    1401    1376    1377    1324    1323    1298    1299
       8    1403    1402    1377    1331    1325    1324    1299    1253
       8    1379    1403    1331    1330    1301    1325    1253    1252
       8    1404    1405    1406    1407    1326    1327    1328    1329
       8    1406    1408    1409    1407    1328    1330    1331    1329
       8    1410    1405    1404    1411    1332    1327    1326    1333
       8    1404    1412    1413    1411    1326    1334    1335    1333
       8    1414    1415    1416    1410    1336    1337    1338    1332
       8    1417    1418    1415    1414    1339    1340    1337    1336
       8    1411    1417    1414    1410    1333    1339    1336    1332
       8    1419    1420    1412    1421    1341    1342    1334    1343
       8    1422    1423    1420    1419    1344    1345    1342    1341
       8    1424    1425    1423    1422    1346    1347    1345    1344
       8    1426    1424    1422    1427    1348    1346    1344    1349
       8    1428    1413    1412    1420    1350    1335    1334    1342
       8    1419    1429    1427    1422    1341    1351    1349    1344
       8    1404    1407    1421    1412    1326    1329    1343    1334
       8    1430    1417    1411    1413    1352    1339    1333    1335
       8    1431    1430    1413    1428    1353    1352    1335    1350
       8    1432    1431    1428    1433    1354    1353    1350    1355
       8    1423    1433    1428    1420    1345    1355    1350    1342
       8    1434    1435    1429    1419    1356    1357    1351    1341
       8    1436    1434    1419    1421    1358    1356    1341    1343
       8    1437    1436    1421    1407    1359    1358    1343    1329
       8    1438    1408    1406    1439    1360    1330    1328    1361
       8    1440    1439    1406    1405    1362    1361    1328    1327
       8    1416    1440    1405    1410    1338    1362    1327    1332
       8    1441    1418    1417    1430    1363    1340    1339    1352
       8    1442    1441    1430    1431    1364    1363    1352    1353
       8    1443    1442    1431    1432    1365    1364    1353    1354
       8    1444    1443    1432    1445    1366    1365    1354    1367
       8    1446    1445    1432    1433    1368    1367    1354    1355
       8    1425    1446    1433    1423    1347    1368    1355    1345
       8    1447    1426    1427    1429    1369    1348    1349    1351
       8    1448    1447    1429    1435    1370    1369    1351    1357
       8    1449    1448    1435    1450    1371    1370    1357    1372
       8    1451    1450    1435    1434    1373    1372    1357    1356
       8    1452    1451    1434    1436    1374    1373    1356    1358
       8    1453    1452    1436    1437    1375    1374    1358    1359
       8    1454    1453    1437    1455    1376    1375    1359    1377
       8    1409    1455    1437    1407    1331    1377    1359    1329
       8    1456    1457    1408    1438    1378    1379    1330    1360
       8    1458    1456    1438    1439    1380    1378    1360    1361
       8    1459    1458    1439    1440    1381    1380    1361    1362
       8    1460    1459    1440    1416    1382    1381    1362    1338
       8    1461    1460    1416    1415    1383    1382    1338    1337
       8    1462    1461    1415    1418    1384    1383    1337    1340
       8    1463    1462    1418    1441    1385    1384    1340    1363
       8    1464    1463    1441    1442    1386    1385    1363    1364
       8    1465    1464    1442    1443    1387    1386    1364    1365
       8    1466    1465    1443    1444    1388    1387    1365    1366
       8    1467    1466    1444    1445    1389    1388    1366    1367
       8    1468    1467    1445    1446    1390    1389    1367    1368
       8    1469    1468    1446    1425    1391    1390    1368    1347
       8    1470    1469    1425    1424    1392    1391    1347    1346
       8    1471    1470    1424    1426    1393    1392    1346    1348
       8    1472    1471    1426    1447    1394    1393    1348    1369
       8    1473    1472    1447    1448    1395    1394    1369    1370
       8    1474    1473    1448    1449    1396    1395    1370    1371
       8    1475    1474    1449    1450    1397    1396    1371    1372
       8    1476    1475    1450    1451    1398    1397    1372    1373
       8    1477    1476    1451    1452    1399    1398    1373    1374
       8    1478    1477    1452    1453    1400    1399    1374    1375
       8    1479    1478    1453    1454    1401    1400    1375    1376
       8    1480    1479    1454    1455    1402    1401    1376    1377
       8    1481    1480    1455    1409    1403    1402    1377    1331
       8    1457    1481    1409    1408    1379    1403    1331    1330
       8    1482    1483    1484    1485    1404    1405    1406    1407
       8    1484    1486    1487    1485    1406    1408    1409    1407
       8    1488    1483    1482    1489    1410    1405    1404    1411
       8    1482    1490    1491    1489    1404    1412    1413    1411
       8    1492    1493    1494    1488    1414    1415    1416    1410
       8    1495    1496    1493    1492    1417    1418    1415    1414
       8    1489    1495    1492    1488    1411    1417    1414    1410
       8    1497    1498    1490    1499    1419    1420    1412    1421
       8    1500    1501    1498    1497    1422    1423    1420    1419
       8    1502    1503    1501    1500    1424    1425    1423    1422
       8    1504    1502    1500    1505    1426    1424    1422    1427
       8    1506    1491    1490    1498    1428    1413    1412    1420
       8    1497    1507    1505    1500    1419    1429    1427    1422
       8    1482    1485    1499    1490    1404    1407    1421    1412
       8    1508    1495    1489    1491    1430    1417    1411    1413
       8    1509    1508    1491    1506    1431    1430    1413    1428
       8    1510    1509    1506    1511    1432    1431    1428    1433
       8    1501    1511    1506    1498    1423    1433    1428    1420
       8    1512    1513    1507    1497    1434    1435    1429    1419
       8    1514    1512    1497    1499    1436    1434    1419    1421
       8    1515    1514    1499    1485    1437    1436    1421    1407
       8    1516    1486    1484    1517    1438    1408    1406    1439
       8    1518    1517    1484    1483    1440    1439    1406    1405
       8    1494    1518    1483    1488    1416    1440    1405    1410
       8    1519    1496    1495    1508    1441    1418    1417    1430
       8    1520    1519    1508    1509    1442    1441    1430    1431
       8    1521    1520    1509    1510    1443    1442    1431    1432
       8    1522    1521    1510    1523    1444    1443    1432    1445
       8    1524    1523    1510    1511    1446    1445    1432    1433
       8    1503    1524    1511    1501    1425    1446    1433    1423
       8    1525    1504    1505    1507    1447    1426    1427    1429
       8    1526    1525    1507    1513    1448    1447    1429    1435
       8    1527    1526    1513    1528    1449    1448    1435    1450
       8    1529    1528    1513    1512    1451    1450    1435    1434
       8    1530    1529    1512    1514    1452    1451    1434    1436
       8    1531    1530    1514    1515    1453    1452    1436    1437
       8    1532    1531    1515    1533    1454    1453    1437    1455
       8    1487    1533    1515    1485    1409    1455    1437    1407
       8    1534    1535    1486    1516    1456    1457    1408    1438
       8    1536    1534    1516    1517    1458    1456    1438    1439
       8    1537    1536    1517    1518    1459    1458    1439    1440
       8    1538    1537    1518    1494    1460    1459    1440    1416
       8    1539    1538    1494    1493    1461    1460    1416    1415
       8    1540    1539    1493    1496    1462    1461    1415    1418
       8    1541    1540    1496    1519    1463    1462    1418    1441
       8    1542    1541    1519    1520    1464    1463    1441    1442
       8    1543    1542    1520    1521    1465    1464    1442    1443
       8    1544    1543    1521    1522    1466    1465    1443    1444
       8    1545    1544    1522    1523    1467    1466    1444    1445
       8    1546    1545    1523    1524    1468    1467    1445    1446
       8    1547    1546    1524    1503    1469    1468    1446    1425
       8    1548    1547    1503    1502    1470    1469    1425    1424
       8    1549    1548    1502    1504    1471    1470    1424    1426
       8    1550    1549    1504    1525    1472    1471    1426    1447
       8    1551    1550    1525    1526    1473    1472    1447    1448
       8    1552    1551    1526    1527    1474    1473    1448    1449
       8    1553    1552    1527    1528    1475    1474    1449    1450
       8    1554    1553    1528    1529    1476    1475    1450    1451
       8    1555    1554    1529    1530    1477    1476    1451    1452
       8    1556    1555    1530    1531    1478    1477    1452    1453
       8    1557    1556    1531    1532    1479    1478    1453    1454
       8    1558    1557    1532    1533    1480    1479    1454    1455
       8    1559    1558    1533    1487    1481    1480    1455    1409
       8    1535    1559    1487    1486    1457    1481    1409    1408
       8    1560    1561    1562    1563    1482    1483    1484    1485
       8    1562    1564    1565    1563    1484    1486    1487    1485
       8    1566    1561    1560    1567    1488    1483    1482    1489
       8    1560    1568    1569    1567    1482    1490    1491    1489
       8    1570    1571    1572    1566    1492    1493    1494    1488
       8    1573    1574    1571    1570    1495    1496    1493    1492
       8    1567    1573    1570    1566    1489    1495    1492    1488
       8    1575    1576    1568    1577    1497    1498    1490    1499
       8    1578    1579    1576    1575    1500    1501    1498    1497
       8    1580    1581    1579    1578    1502    1503    1501    1500
       8    1582    1580    1578    1583    1504    1502    1500    1505
       8    1584    1569    1568    1576    1506    1491    1490    1498
       8    1575    1585    1583    1578    1497    1507    1505    1500
       8    1560    1563    1577    1568    1482    1485    1499    1490
       8    1586    1573    1567    1569    1508    1495    1489    1491
       8    1587    1586    1569    1584    1509    1508    1491    1506
       8    1588    1587    1584    1589    1510    1509    1506    1511
       8    1579    1589    1584    1576    1501    1511    1506    1498
       8    1590    1591    1585    1575    1512    1513    1507    1497
       8    1592    1590    1575    1577    1514    1512    1497    1499
       8    1593    1592    1577    1563    1515    1514    1499    1485
       8    1594    1564    1562    1595    1516    1486    1484    1517
       8    1596    1595    1562    1561    1518    1517    1484    1483
       8    1572    1596    1561    1566    1494    1518    1483    1488
       8    1597    1574    1573    1586    1519    1496    1495    1508
       8    1598    1597    1586    1587    1520    1519    1508    1509
       8    1599    1598    1587    1588    1521    1520    1509    1510
       8    1600    1599    1588    1601    1522    1521    1510    1523
       8    1602    1601    1588    1589    1524    1523    1510    1511
       8    1581    1602    1589    1579    1503    1524    1511    1501
       8    1603    1582    1583    1585    1525    1504    1505    1507
       8    1604    1603    1585    1591    1526    1525    1507    1513
       8    1605    1604    1591    1606    1527    1526    1513    1528
       8    1607    1606    1591    1590    1529    1528    1513    1512
       8    1608    1607    1590    1592    1530    1529    1512    1514
       8    1609    1608    1592    1593    1531    1530    1514    1515
       8    1610    1609    1593    1611    1532    1531    1515    1533
       8    1565    1611    1593    1563    1487    1533    1515    1485
       8    1612    1613    1564    1594    1534    1535    1486    1516
       8    1614    1612    1594    1595    1536    1534    1516    1517
       8    1615    1614    1595    1596    1537    1536    1517    1518
       8    1616    1615    1596    1572    1538    1537    1518    1494
       8    1617    1616    1572    1571    1539    1538    1494    1493
       8    1618    1617    1571    1574    1540    1539    1493    1496
       8    1619    1618    1574    1597    1541    1540    1496    1519
       8    1620    1619    1597    1598    1542    1541    1519    1520
       8    1621    1620    1598    1599    1543    1542    1520    1521
       8    1622    1621    1599    1600    1544    1543    1521    1522
       8    1623    1622    1600    1601    1545    1544    1522    1523
       8    1624    1623    1601    1602    1546    1545    1523    1524
       8    1625    1624    1602    1581    1547    1546    1524    1503
       8    1626    1625    1581    1580    1548    1547    1503    1502
       8    1627    1626    1580    1582    1549    1548    1502    1504
       8    1628    1627    1582    1603    1550    1549    1504    1525
       8    1629    1628    1603    1604    1551    1550    1525    1526
       8    1630    1629    1604    1605    1552    1551    1526    1527
       8    1631    1630    1605    1606    1553    1552    1527    1528
       8    1632    1631    1606    1607    1554    1553    1528    1529
       8    1633    1632    1607    1608    1555    1554    1529    1530
       8    1634    1633    1608    1609    1556    1555    1530    1531
       8    1635    1634    1609    1610    1557    1556    1531    1532
       8    1636    1635    1610    1611    1558    1557    1532    1533
       8    1637    1636    1611    1565    1559    1558    1533    1487
       8    1613    1637    1565    1564    1535    1559    1487    1486
       8    1638    1639    1640    1641    1560    1561    1562    1563
       8    1640    1642    1643    1641    1562    1564    1565    1563
       8    1644    1639    1638    1645    1566    1561    1560    1567
       8    1638    1646    1647    1645    1560    1568    1569    1567
       8    1648    1649    1650    1644    1570    1571    1572    1566
       8    1651    1652    1649    1648    1573    1574    1571    1570
       8    1645    1651    1648    1644    1567    1573    1570    1566
       8    1653    1654    1646    1655    1575    1576    1568    1577
       8    1656    1657    1654    1653    1578    1579    1576    1575
       8    1658    1659    1657    1656    1580    1581    1579    1578
       8    1660    1658    1656    1661    1582    1580    1578    1583
       8    1662    1647    1646    1654    1584    1569    1568    1576
       8    1653    1663    1661    1656    1575    1585    1583    1578
       8    1638    1641    1655    1646    1560    1563    1577    1568
       8    1664    1651    1645    1647    1586    1573    1567    1569
       8    1665    1664    1647    1662    1587    1586    1569    1584
       8    1666    1665    1662    1667    1588    1587    1584    1589
       8    1657    1667    1662    1654    1579    1589    1584    1576
       8    1668    1669    1663    1653    1590    1591    1585    1575
       8    1670    1668    1653    1655    1592    1590    1575    1577
       8    1671    1670    1655    1641    1593    1592    1577    1563
       8    1672    1642    1640    1673    1594    1564    1562    1595
       8    1674    1673    1640    1639    1596    1595    1562    1561
       8    1650    1674    1639    1644    1572    1596    1561    1566
       8    1675    1652    1651    1664    1597    1574    1573    1586
       8    1676    1675    1664    1665    1598    1597    1586    1587
       8    1677    1676    1665    1666    1599    1598    1587    1588
       8    1678    1677    1666    1679    1600    1599    1588    1601
       8    1680    1679    1666    1667    1602    1601    1588    1589
       8    1659    1680    1667    1657    1581    1602    1589    1579
       8    1681    1660    1661    1663    1603    1582    1583    1585
       8    1682    1681    1663    1669    1604    1603    1585    1591
       8    1683    1682    1669    1684    1605    1604    1591    1606
       8    1685    1684    1669    1668    1607    1606    1591    1590
       8    1686    1685    1668    1670    1608    1607    1590    1592
       8    1687    1686    1670    1671    1609    1608    1592    1593
       8    1688    1687    1671    1689    1610    1609    1593    1611
       8    1643    1689    1671    1641    1565    1611    1593    1563
       8    1690    1691    1642    1672    1612    1613    1564    1594
       8    1692    1690    1672    1673    1614    1612    1594    1595
       8    1693    1692    1673    1674    1615    1614    1595    1596
       8    1694    1693    1674    1650    1616    1615    1596    1572
       8    1695    1694    1650    1649    1617    1616    1572    1571
       8    1696    1695    1649    1652    1618    1617    1571    1574
       8    1697    1696    1652    1675    1619    1618    1574    1597
       8    1698    1697    1675    1676    1620    1619    1597    1598
       8    1699    1698    1676    1677    1621    1620    1598    1599
       8    1700    1699    1677    1678    1622    1621    1599    1600
       8    1701    1700    1678    1679    1623    1622    1600    1601
       8    1702    1701    1679    1680    1624    1623    1601    1602
       8    1703    1702    1680    1659    1625    1624    1602    1581
       8    1704    1703    1659    1658    1626    1625    1581    1580
       8    1705    1704    1658    1660    1627    1626    1580    1582
       8    1706    1705    1660    1681    1628    1627    1582    1603
       8    1707    1706    1681    1682    1629    1628    1603    1604
       8    1708    1707    1682    1683    1630    1629    1604    1605
       8    1709    1708    1683    1684    1631    1630    1605    1606
       8    1710    1709    1684    1685    1632    1631    1606    1607
       8    1711    1710    1685    1686    1633    1632    1607    1608
       8    1712    1711    1686    1687    1634    1633    1608    1609
       8    1713    1712    1687    1688    1635    1634    1609    1610
       8    1714    1713    1688    1689    1636    1635    1610    1611
       8    1715    1714    1689    1643    1637    1636    1611    1565
       8    1691    1715    1643    1642    1613    1637    1565    1564
       8    1716    1717    1718    1719    1638    1639    1640    1641
       8    1718    1720    1721    1719    1640    1642    1643    1641
       8    1722    1717    1716    1723    1644    1639    1638    1645
       8    1716    1724    1725    1723    1638    1646    1647    1645
       8    1726    1727    1728    1722    1648    1649    1650    1644
       8    1729    1730    1727    1726    1651    1652    1649    1648
       8    1723    1729    1726    1722    1645    1651    1648    1644
       8    1731    1732    1724    1733    1653    1654    1646    1655
       8    1734    1735    1732    1731    1656    1657    1654    1653
       8    1736    1737    1735    1734    1658    1659    1657    1656
       8    1738    1736    1734    1739    1660    1658    1656    1661
       8    1740    1725    1724    1732    1662    1647    1646    1654
       8    1731    1741    1739    1734    1653    1663    1661    1656
       8    1716    1719    1733    1724    1638    1641    1655    1646
       8    1742    1729    1723    1725    1664    1651    1645    1647
       8    1743    1742    1725    1740    1665    1664    1647    1662
       8    1744    1743    1740    1745    1666    1665    1662    1667
       8    1735    1745    1740    1732    1657    1667    1662    1654
       8    1746    1747    1741    1731    1668    1669    1663    1653
       8    1748    1746    1731    1733    1670    1668    1653    1655
       8    1749    1748    1733    1719    1671    1670    1655    1641
       8    1750    1720    1718    1751    1672    1642    1640    1673
       8    1752    1751    1718    1717    1674    1673    1640    1639
       8    1728    1752    1717    1722    1650    1674    1639    1644
       8    1753    1730    1729    1742    1675    1652    1651    1664
       8    1754    1753    1742    1743    1676    1675    1664    1665
       8    1755    1754    1743    1744    1677    1676    1665    1666
       8    1756    1755    1744    1757    1678    1677    1666    1679
       8    1758    1757    1744    1745    1680    1679    1666    1667
       8    1737    1758    1745    1735    1659    1680    1667    1657
       8    1759    1738    1739    1741    1681    1660    1661    1663
       8    1760    1759    1741    1747    1682    1681    1663    1669
       8    1761    1760    1747    1762    1683    1682    1669    1684
       8    1763    1762    1747    1746    1685    1684    1669    1668
       8    1764    1763    1746    1748    1686    1685    1668    1670
       8    1765    1764    1748    1749    1687    1686    1670    1671
       8    1766    1765    1749    1767    1688    1687    1671    1689
       8    1721    1767    1749    1719    1643    1689    1671    1641
       8    1768    1769    1720    1750    1690    1691    1642    1672
       8    1770    1768    1750    1751    1692    1690    1672    1673
       8    1771    1770    1751    1752    1693    1692    1673    1674
       8    1772    1771    1752    1728    1694    1693    1674    1650
       8    1773    1772    1728    1727    1695    1694    1650    1649
       8    1774    1773    1727    1730    1696    1695    1649    1652
       8    1775    1774    1730    1753    1697    1696    1652    1675
       8    1776    1775    1753    1754    1698    1697    1675    1676
       8    1777    1776    1754    1755    1699    1698    1676    1677
       8    1778    1777    1755    1756    1700    1699    1677    1678
       8    1779    1778    1756    1757    1701    1700    1678    1679
       8    1780    1779    1757    1758    1702    1701    1679    1680
       8    1781    1780    1758    1737    1703    1702    1680    1659
       8    1782    1781    1737    1736    1704    1703    1659    1658
       8    1783    1782    1736    1738    1705    1704    1658    1660
       8    1784    1783    1738    1759    1706    1705    1660    1681
       8    1785    1784    1759    1760    1707    1706    1681    1682
       8    1786    1785    1760    1761    1708    1707    1682    1683
       8    1787    1786    1761    1762    1709    1708    1683    1684
       8    1788    1787    1762    1763    1710    1709    1684    1685
       8    1789    1788    1763    1764    1711    1710    1685    1686
       8    1790    1789    1764    1765    1712    1711    1686    1687
       8    1791    1790    1765    1766    1713    1712    1687    1688
       8    1792    1791    1766    1767    1714    1713    1688    1689
       8    1793    1792    1767    1721    1715    1714    1689    1643
       8    1769    1793    1721    1720    1691    1715    1643    1642
       8    1794    1795    1796    1797    1716    1717    1718    1719
       8    1796    1798    1799    1797    1718    1720    1721    1719
       8    1800    1795    1794    1801    1722    1717    1716    1723
       8    1794    1802    1803    1801    1716    1724    1725    1723
       8    1804    1805    1806    1800    1726    1727    1728    1722
       8    1807    1808    1805    1804    1729    1730    1727    1726
       8    1801    1807    1804    1800    1723    1729    1726    1722
       8    1809    1810    1802    1811    1731    1732    1724    1733
       8    1812    1813    1810    1809    1734    1735    1732    1731
       8    1814    1815    1813    1812    1736    1737    1735    1734
       8    1816    1814    1812    1817    1738    1736    1734    1739
       8    1818    1803    1802    1810    1740    1725    1724    1732
       8    1809    1819    1817    1812    1731    1741    1739    1734
       8    1794    1797    1811    1802    1716    1719    1733    1724
       8    1820    1807    1801    1803    1742    1729    1723    1725
       8    1821    1820    1803    1818    1743    1742    1725    1740
       8    1822    1821    1818    1823    1744    1743    1740    1745
       8    1813    1823    1818    1810    1735    1745    1740    1732
       8    1824    1825    1819    1809    1746    1747    1741    1731
       8    1826    1824    1809    1811    1748    1746    1731    1733
       8    1827    1826    1811    1797    1749    1748    1733    1719
       8    1828    1798    1796    1829    1750    1720    1718    1751
       8    1830    1829    1796    1795    1752    1751    1718    1717
       8    1806    1830    1795    1800    1728    1752    1717    1722
       8    1831    1808    1807    1820    1753    1730    1729    1742
       8    1832    1831    1820    1821    1754    1753    1742    1743
       8    1833    1832    1821    1822    1755    1754    1743    1744
       8    1834    1833    1822    1835    1756    1755    1744    1757
       8    1836    1835    1822    1823    1758    1757    1744    1745
       8    1815    1836    1823    1813    1737    1758    1745    1735
       8    1837    1816    1817    1819    1759    1738    1739    1741
       8    1838    1837    1819    1825    1760    1759    1741    1747
       8    1839    1838    1825    1840    1761    1760    1747    1762
       8    1841    1840    1825    1824    1763    1762    1747    1746
       8    1842    1841    1824    1826    1764    1763    1746    1748
       8    1843    1842    1826    1827    1765    1764    1748    1749
       8    1844    1843    1827    1845    1766    1765    1749    1767
       8    1799    1845    1827    1797    1721    1767    1749    1719
       8    1846    1847    1798    1828    1768    1769    1720    1750
       8    1848    1846    1828    1829    1770    1768    1750    1751
       8    1849    1848    1829    1830    1771    1770    1751    1752
       8    1850    1849    1830    1806    1772    1771    1752    1728
       8    1851    1850    1806    1805    1773    1772    1728    1727
       8    1852    1851    1805    1808    1774    1773    1727    1730
       8    1853    1852    1808    1831    1775    1774    1730    1753
       8    1854    1853    1831    1832    1776    1775    1753    1754
       8    1855    1854    1832    1833    1777    1776    1754    1755
       8    1856    1855    1833    1834    1778    1777    1755    1756
       8    1857    1856    1834    1835    1779    1778    1756    1757
       8    1858    1857    1835    1836    1780    1779    1757    1758
       8    1859    1858    1836    1815    1781    1780    1758    1737
       8    1860    1859    1815    1814    1782    1781    1737    1736
       8    1861    1860    1814    1816    1783    1782    1736    1738
       8    1862    1861    1816    1837    1784    1783    1738    1759
       8    1863    1862    1837    1838    1785    1784    1759    1760
       8    1864    1863    1838    1839    1786    1785    1760    1761
       8    1865    1864    1839    1840    1787    1786    1761    1762
       8    1866    1865    1840    1841    1788    1787    1762    1763
       8    1867    1866    1841    1842    1789    1788    1763    1764
       8    1868    1867    1842    1843    1790    1789    1764    1765
       8    1869    1868    1843    1844    1791    1790    1765    1766
       8    1870    1869    1844    1845    1792    1791    1766    1767
       8    1871    1870    1845    1799    1793    1792    1767    1721
       8    1847    1871    1799    1798    1769    1793    1721    1720
       8    1872    1873    1874    1875    1794    1795    1796    1797
       8    1874    1876    1877    1875    1796    1798    1799    1797
       8    1878    1873    1872    1879    1800    1795    1794    1801
       8    1872    1880    1881    1879    1794    1802    1803    1801
       8    1882    1883    1884    1878    1804    1805    1806    1800
       8    1885    1886    1883    1882    1807    1808    1805    1804
       8    1879    1885    1882    1878    1801    1807    1804    1800
       8    1887    1888    1880    1889    1809    1810    1802    1811
       8    1890    1891    1888    1887    1812    1813    1810    1809
       8    1892    1893    1891    1890    1814    1815    1813    1812
       8    1894    1892    1890    1895    1816    1814    1812    1817
       8    1896    1881    1880    1888    1818    1803    1802    1810
       8    1887    1897    1895    1890    1809    1819    1817    1812
       8    1872    1875    1889    1880    1794    1797    1811    1802
       8    1898    1885    1879    1881    1820    1807    1801    1803
       8    1899    1898    1881    1896    1821    1820    1803    1818
       8    1900    1899    1896    1901    1822    1821    1818    1823
       8    1891    1901    1896    1888    1813    1823    1818    1810
       8    1902    1903    1897    1887    1824    1825    1819    1809
       8    1904    1902    1887    1889    1826    1824    1809    1811
       8    1905    1904    1889    1875    1827    1826    1811    1797
       8    1906    1876    1874    1907    1828    1798    1796    1829
       8    1908    1907    1874    1873    1830    1829    1796    1795
       8    1884    1908    1873    1878    1806    1830    1795    1800
       8    1909    1886    1885    1898    1831    1808    1807    1820
       8    1910    1909    1898    1899    1832    1831    1820    1821
       8    1911    1910    1899    1900    1833    1832    1821    1822
       8    1912    1911    1900    1913    1834    1833    1822    1835
       8    1914    1913    1900    1901    1836    1835    1822    1823
       8    1893    1914    1901    1891    1815    1836    1823    1813
       8    1915    1894    1895    1897    1837    1816    1817    1819
       8    1916    1915    1897    1903    1838    1837    1819    1825
       8    1917    1916    1903    1918    1839    1838    1825    1840
       8    1919    1918    1903    1902    1841    1840    1825    1824
       8    1920    1919    1902    1904    1842    1841    1824    1826
       8    1921    1920    1904    1905    1843    1842    1826    1827
       8    1922    1921    1905    1923    1844    1843    1827    1845
       8    1877    1923    1905    1875    1799    1845    1827    1797
       8    1924    1925    1876    1906    1846    1847    1798    1828
       8    1926    1924    1906    1907    1848    1846    1828    1829
       8    1927    1926    1907    1908    1849    1848    1829    1830
       8    1928    1927    1908    1884    1850    1849    1830    1806
       8    1929    1928    1884    1883    1851    1850    1806    1805
       8    1930    1929    1883    1886    1852    1851    1805    1808
       8    1931    1930    1886    1909    1853    1852    1808    1831
       8    1932    1931    1909    1910    1854    1853    1831    1832
       8    1933    1932    1910    1911    1855    1854    1832    1833
       8    1934    1933    1911    1912    1856    1855    1833    1834
       8    1935    1934    1912    1913    1857    1856    1834    1835
       8    1936    1935    1913    1914    1858    1857    1835    1836
       8    1937    1936    1914    1893    1859    1858    1836    1815
       8    1938    1937    1893    1892    1860    1859    1815    1814
       8    1939    1938    1892    1894    1861    1860    1814    1816
       8    1940    1939    1894    1915    1862    1861    1816    1837
       8    1941    1940    1915    1916    1863    1862    1837    1838
       8    1942    1941    1916    1917    1864    1863    1838    1839
       8    1943    1942    1917    1918    1865    1864    1839    1840
       8    1944    1943    1918    1919    1866    1865    1840    1841
       8    1945    1944    1919    1920    1867    1866    1841    1842
       8    1946    1945    1920    1921    1868    1867    1842    1843
       8    1947    1946    1921    1922    1869    1868    1843    1844
       8    1948    1947    1922    1923    1870    1869    1844    1845
       8    1949    1948    1923    1877    1871    1870    1845    1799
       8    1925    1949    1877    1876    1847    1871    1799    1798
  
CELL_TYPES    3486
       1
       1
       1
       1
       1
       1
       1
       1
       1
       1
       1
       1
       1
       1
       1
       1
       1
       1
       1
       1
       1
       1
       1
       1
       1
       1
       1
       1
       1
       1
       1
       1
       1
       1
       1
       1
       1
       1
       1
       1
       1
       1
       1
       1
       1
       1
       1
       1
       1
       1
       1
       1
       1
       1
       1
       1
       1
       1
       1
       1
       1
       1
       1
       1
       1
       1
       1
       1
       1
       1
       1
       1
       1
       1
       1
       1
       1
       1
       1
       1
       1
       1
       1
       1
       1
       1
       1
       1
       1
       1
       1
       1
       1
       1
       1
       1
       1
       1
       1
       1
       1
       1
       1
       1
       1
       1
       1
       1
       1
       1
       1
       1
       1
       1
       1
       1
       1
       1
       1
       1
       1
       1
       1
       1
       1
       1
       1
       1
       1
       1
       1
       1
       1
       1
       1
       1
       1
       1
       1
       1
       1
       1
       1
       1
       1
       1
       1
       1
       1
       1
       1
       1
       1
       1
       1
       1
       1
       1
       1
       1
       1
       1
       1
       1
       1
       1
       1
       1
       1
       1
       1
       1
       1
       1
       1
       1
       1
       1
       1
       1
       1
       1
       1
       1
       1
       1
       1
       1
       1
       1
       1
       1
       1
       1
       1
       1
       1
       1
       1
       1
       1
       1
       1
       1
       1
       1
       1
       1
       1
       1
       1
       1
       1
       1
       1
       1
       1
       1
       1
       1
       1
       1
       1
       1
       1
       1
       1
       1
       1
       1
       1
       1
       1
       1
       1
       1
       1
       1
       1
       1
       1
       1
       1
       1
       1
       1
       1
       1
       1
       1
       1
       1
       1
       1
       1
       1
       1
       1
       1
       1
       1
       1
       1
       1
       1
       1
       1
       1
       1
       1
       1
       1
       1
       1
       1
       1
       1
       1
       1
       1
       1
       1
       1
       1
       1
       1
       1
       1
       1
       1
       1
       1
       1
       1
       1
       1
       1
       1
       1
       1
       1
       1
       1
       1
       1
       1
       1
       1
       1
       1
       1
       1
       1
       1
       1
       1
       1
       1
       1
       1
       1
       1
       1
       1
       1
       1
       1
       1
       1
       1
       1
       1
       1
       1
       1
       1
       1
       1
       1
       1
       1
       1
       1
       1
       1
       1
       1
       1
       1
       1
       1
       1
       1
       1
       1
       1
       1
       1
       1
       1
       1
       1
       1
       1
       1
       1
       1
       1
       1
       1
       1
       1
       1
       1
       1
       1
       1
       1
       1
       1
       1
       1
       1
       1
       1
       1
       1
       1
       1
       1
       1
       1
       1
       1
       1
       1
       1
       1
       1
       1
       1
       1
       1
       1
       1
       1
       1
       1
       1
       1
       1
       1
       1
       1
       1
       1
       1
       1
       1
       1
       1
       1
       1
       1
       1
       1
       1
       1
       1
       1
       1
       1
       1
       1
       1
       1
       1
       1
       1
       1
       1
       1
       1
       1
       1
       1
       1
       1
       1
       1
       1
       1
       1
       1
       1
       1
       1
       1
       1
       1
       1
       1
       1
       1
       1
       1
       1
       1
       1
       1
       1
       1
       1
       1
       1
       1
       1
       1
       1
       1
       1
       1
       1
       1
       1
       1
       1
       1
       1
       1
       1
       1
       1
       1
       1
       1
       1
       1
       1
       1
       1
       1
       1
       1
       1
       1
       1
       1
       1
       1
       1
       1
       1
       1
       1
       1
       1
       1
       1
       1
       1
       1
       1
       1
       1
       1
       1
       1
       1
       1
       1
       1
       1
       1
       1
       1
       1
       1
       1
       1
       1
       1
       1
       1
       1
       1
       1
       1
       1
       1
       1
       1
       1
       1
       1
       1
       1
       1
       1
       1
       1
       1
       1
       1
       1
       1
       1
       1
       1
       1
       1
       1
       1
       1
       1
       1
       1
       1
       1
       1
       1
       1
       1
       1
       1
       1
       1
       1
       1
       1
       1
       1
       1
       1
       1
       1
       1
       1
       1
       1
       1
       1
       1
       1
       1
       1
       1
       1
       1
       1
       1
       1
       1
       1
       1
       1
       1
       1
       1
       1
       1
       1
       1
       1
       1
       1
       1
       1
       1
       1
       1
       1
       1
       1
       1
       1
       1
       1
       1
       1
       1
       1
       1
       1
       1
       1
       1
       1
       1
       1
       1
       1
       1
       1
       1
       1
       1
       1
       1
       1
       1
       1
       1
       1
       1
       1
       1
       1
       1
       1
       1
       1
       1
       1
       1
       1
       1
       1
       1
       1
       1
       1
       1
       1
       1
       1
       1
       1
       1
       1
       1
       1
       1
       1
       1
       1
       1
       1
       1
       1
       1
       1
       1
       1
       1
       1
       1
       1
       1
       1
       1
       1
       1
       1
       1
       1
       1
       1
       1
       1
       1
       1
       1
       1
       1
       1
       1
       1
       1
       1
       1
       1
       1
       1
       1
       1
       1
       1
       1
       1
       1
       1
       1
       1
       1
       1
       1
       1
       1
       1
       1
       1
       1
       1
       1
       1
       1
       1
       1
       1
       1
       1
       1
       1
       1
       1
       1
       1
       1
       1
       1
       1
       1
       1
       1
       1
       1
       1
       1
       1
       1
       1
       1
       1
       1
       1
       1
       1
       1
       1
       1
       1
       1
       1
       1
       1
       1
       1
       1
       1
       1
       1
       1
       1
       1
       1
       1
       1
       1
       1
       1
       1
       1
       1
       1
       1
       1
       1
       1
       1
       1
       1
       1
       1
       1
       1
       1
       1
       1
       1
       1
       1
       1
       1
       1
       1
       1
       1
       1
       1
       1
       1
       1
       1
       1
       1
       1
       1
       1
       1
       1
       1
       1
       1
       1
       1
       1
       1
       1
       1
       1
       1
       1
       1
       1
       1
       1
       1
       1
       1
       1
       1
       1
       1
       1
       1
       1
       1
       1
       1
       1
       1
       1
       1
       1
       1
       1
       1
       1
       1
       1
       1
       1
       1
       1
       1
       1
       1
       1
       1
       1
       1
       1
       1
       1
       1
       1
       1
       1
       1
       1
       1
       1
       1
       1
       1
       1
       1
       1
       1
       1
       1
       1
       1
       1
       1
       1
       1
       1
       1
       1
       1
       1
       1
       1
       1
       1
       1
       1
       1
       1
       1
       1
       1
       1
       1
       1
       1
       1
       1
       1
       1
       1
       1
       1
       1
       1
       1
       1
       1
       1
       1
       1
       1
       1
       1
       1
       1
       1
       1
       1
       1
       1
       1
       1
       1
       1
       1
       1
       1
       1
       1
       1
       1
       1
       1
       1
       1
       1
       1
       1
       1
       1
       1
       1
       1
       1
       1
       1
       1
       1
       1
       1
       1
       1
       1
       1
       1
       1
       1
       1
       1
       1
       1
       1
       1
       1
       1
       1
       1
       1
       1
       1
       1
       1
       1
       1
       1
       1
       1
       1
       1
       1
       1
       1
       1
       1
       1
       1
       1
       1
       1
       1
       1
       1
       1
       1
       1
       1
       1
       1
       1
       1
       1
       1
       1
       1
       1
       1
       1
       1
       1
       1
       1
       1
       1
       1
       1
       1
       1
       1
       1
       1
       1
       1
       1
       1
       1
       1
       1
       1
       1
       1
       1
       1
       1
       1
       1
       1
       1
       1
       1
       1
       1
       1
       1
       1
       1
       1
       1
       1
       1
       1
       1
       1
       1
       1
       1
       1
       1
       1
       1
       1
       1
       1
       1
       1
       1
       1
       1
       1
       1
       1
       1
       1
       1
       1
       1
       1
       1
       1
       1
       1
       1
       1
       1
       1
       1
       1
       1
       1
       1
       1
       1
       1
       1
       1
       1
       1
       1
       1
       1
       1
       1
       1
       1
       1
       1
       1
       1
       1
       1
       1
       1
       1
       1
       1
       1
       1
       1
       1
       1
       1
       1
       1
       1
       1
       1
       1
       1
       1
       1
       1
       1
       1
       1
       1
       1
       1
       1
       1
       1
       1
       1
       1
       1
       1
       1
       1
       1
       1
       1
       1
       1
       1
       1
       1
       1
       1
       1
       1
       1
       1
       1
       1
       1
       1
       1
       1
       1
       1
       1
       1
       1
       1
       1
       1
       1
       1
       1
       1
       1
       1
       1
       1
       1
       1
       1
       1
       1
       1
       1
       1
       1
       1
       1
       1
       1
       1
       1
       1
       1
       1
       1
       1
       1
       1
       1
       1
       1
       1
       1
       1
       1
       1
       1
       1
       1
       1
       1
       1
       1
       1
       1
       1
       1
       1
       1
       1
       1
       1
       1
       1
       1
       1
       1
       1
       1
       1
       1
       1
       1
       1
       1
       1
       1
       1
       1
       1
       1
       1
       1
       1
       1
       1
       1
       1
       1
       1
       1
       1
       1
       1
       1
       1
       1
       1
       1
       1
       1
       1
       1
       1
       1
       1
       1
       1
       1
       1
       1
       1
       1
       1
       1
       1
       1
       1
       1
       1
       1
       1
       1
       1
       1
       1
       1
       1
       1
       1
       1
       1
       1
       1
       1
       1
       1
       1
       1
       1
       1
       1
       1
       1
       1
       1
       1
       1
       1
       1
       1
       1
       1
       1
       1
       1
       1
       1
       1
       1
       1
       1
       1
       1
       1
       1
       1
       1
       1
       1
       1
       1
       1
       1
       1
       1
       1
       1
       1
       1
       1
       1
       1
       1
       1
       1
       1
       1
       1
       1
       1
       1
       1
       1
       1
       1
       1
       1
       1
       1
       1
       1
       1
       1
       1
       1
       1
       1
       1
       1
       1
       1
       1
       1
       1
       1
       1
       1
       1
       1
       1
       1
       1
       1
       1
       1
       1
       1
       1
       1
       1
       1
       1
       1
       1
       1
       1
       1
       1
       1
       1
       1
       1
       1
       1
       1
       1
       1
       1
       1
       1
       1
       1
       1
       1
       1
       1
       1
       1
       1
       1
       1
       1
       1
       1
       1
       1
       1
       1
       1
       1
       1
       1
       1
       1
       1
       1
       1
       1
       1
       1
       1
       1
       1
       1
       1
       1
       1
       1
       1
       1
       1
       1
       1
       1
       1
       1
       1
       1
       1
       1
       1
       1
       1
       1
       1
       1
       1
       1
       1
       1
       1
       1
       1
       1
       1
       1
       1
       1
       1
       1
       1
       1
       1
       1
       1
       1
       1
       1
       1
       1
       1
       1
       1
       1
       1
       1
       1
       1
       1
       1
       1
       1
       1
       1
       1
       1
       1
       1
       1
       1
       1
       1
       1
       1
       1
       1
       1
       1
       1
       1
       1
       1
       1
       1
       1
       1
       1
       1
       1
       1
       1
       1
       1
       1
       1
       1
       1
       1
       1
       1
       1
       1
       1
       1
       1
       1
       1
       1
       1
       1
       1
       1
       1
       1
       1
       1
       1
       1
       1
       1
       1
       1
       1
       1
       1
       1
       1
       1
       1
       1
       1
       1
       1
       1
       1
       1
       1
       1
       1
       1
       1
       1
       1
       1
       1
       1
       1
       1
       1
       1
       1
       1
       1
       1
       1
       1
       1
       1
       1
       1
       1
       1
       1
       1
       1
       1
       1
       1
       1
       1
       1
       1
       1
       1
       1
       1
       1
       1
       1
       1
       1
       1
       1
       1
       1
       1
       1
       1
       1
       1
       1
       1
       1
       1
       1
       1
       1
       1
       1
       1
       1
       1
       1
       1
       1
       1
       1
       1
       1
       1
       1
       1
       1
       1
       1
       1
       1
       1
       1
       1
       1
       1
       1
       1
       1
       1
       1
       1
       1
       1
       1
       1
       1
       1
       1
       1
       1
       1
       1
       1
       1
       1
       1
       1
       1
       1
       1
       1
       1
       1
       1
       1
       1
       1
       1
       1
       1
       1
       1
       1
       1
       1
       1
       1
       1
       1
       1
       1
       1
       1
       1
       1
       1
       1
       1
       1
       1
       1
       1
       1
       1
       1
       1
       1
       1
       1
       1
       1
       1
       1
       1
       1
       1
       1
       1
       1
       1
       1
       1
       1
       1
       1
       1
       1
       1
       1
       1
       1
       1
       1
       1
       1
       1
       1
       1
       1
       1
       1
       1
       1
       1
       1
       1
       1
       1
       1
       1
       1
       1
       1
       1
       1
       1
       1
       1
       1
       1
       1
       1
       1
       1
       1
       1
       1
       1
       1
       1
       1
       1
       1
       1
       1
       1
       1
       1
       1
       1
       1
       1
       1
       1
       1
       1
       1
       1
       1
       1
       1
       1
       1
       1
       1
       1
       1
       1
       1
       1
       1
       1
       1
       1
       1
       1
       1
       1
       1
       1
       1
       1
       1
       1
       1
       1
       1
       1
       1
       1
       1
       1
       1
       1
       1
       1
       1
       1
       1
       1
       1
       1
       1
       1
       1
       1
       1
       1
       1
       1
       1
       1
       1
       1
       1
       1
       1
       1
       1
       1
       1
       1
       1
       1
       1
       1
       1
       1
       1
       1
       1
       1
       1
       1
       1
       1
       1
       1
       1
       1
       1
       1
       1
      12
      12
      12
      12
      12
      12
      12
      12
      12
      12
      12
      12
      12
      12
      12
      12
      12
      12
      12
      12
      12
      12
      12
      12
      12
      12
      12
      12
      12
      12
      12
      12
      12
      12
      12
      12
      12
      12
      12
      12
      12
      12
      12
      12
      12
      12
      12
      12
      12
      12
      12
      12
      12
      12
      12
      12
      12
      12
      12
      12
      12
      12
      12
      12
      12
      12
      12
      12
      12
      12
      12
      12
      12
      12
      12
      12
      12
      12
      12
      12
      12
      12
      12
      12
      12
      12
      12
      12
      12
      12
      12
      12
      12
      12
      12
      12
      12
      12
      12
      12
      12
      12
      12
      12
      12
      12
      12
      12
      12
      12
      12
      12
      12
      12
      12
      12
      12
      12
      12
      12
      12
      12
      12
      12
      12
      12
      12
      12
      12
      12
      12
      12
      12
      12
      12
      12
      12
      12
      12
      12
      12
      12
      12
      12
      12
      12
      12
      12
      12
      12
      12
      12
      12
      12
      12
      12
      12
      12
      12
      12
      12
      12
      12
      12
      12
      12
      12
      12
      12
      12
      12
      12
      12
      12
      12
      12
      12
      12
      12
      12
      12
      12
      12
      12
      12
      12
      12
      12
      12
      12
      12
      12
      12
      12
      12
      12
      12
      12
      12
      12
      12
      12
      12
      12
      12
      12
      12
      12
      12
      12
      12
      12
      12
      12
      12
      12
      12
      12
      12
      12
      12
      12
      12
      12
      12
      12
      12
      12
      12
      12
      12
      12
      12
      12
      12
      12
      12
      12
      12
      12
      12
      12
      12
      12
      12
      12
      12
      12
      12
      12
      12
      12
      12
      12
      12
      12
      12
      12
      12
      12
      12
      12
      12
      12
      12
      12
      12
      12
      12
      12
      12
      12
      12
      12
      12
      12
      12
      12
      12
      12
      12
      12
      12
      12
      12
      12
      12
      12
      12
      12
      12
      12
      12
      12
      12
      12
      12
      12
      12
      12
      12
      12
      12
      12
      12
      12
      12
      12
      12
      12
      12
      12
      12
      12
      12
      12
      12
      12
      12
      12
      12
      12
      12
      12
      12
      12
      12
      12
      12
      12
      12
      12
      12
      12
      12
      12
      12
      12
      12
      12
      12
      12
      12
      12
      12
      12
      12
      12
      12
      12
      12
      12
      12
      12
      12
      12
      12
      12
      12
      12
      12
      12
      12
      12
      12
      12
      12
      12
      12
      12
      12
      12
      12
      12
      12
      12
      12
      12
      12
      12
      12
      12
      12
      12
      12
      12
      12
      12
      12
      12
      12
      12
      12
      12
      12
      12
      12
      12
      12
      12
      12
      12
      12
      12
      12
      12
      12
      12
      12
      12
      12
      12
      12
      12
      12
      12
      12
      12
      12
      12
      12
      12
      12
      12
      12
      12
      12
      12
      12
      12
      12
      12
      12
      12
      12
      12
      12
      12
      12
      12
      12
      12
      12
      12
      12
      12
      12
      12
      12
      12
      12
      12
      12
      12
      12
      12
      12
      12
      12
      12
      12
      12
      12
      12
      12
      12
      12
      12
      12
      12
      12
      12
      12
      12
      12
      12
      12
      12
      12
      12
      12
      12
      12
      12
      12
      12
      12
      12
      12
      12
      12
      12
      12
      12
      12
      12
      12
      12
      12
      12
      12
      12
      12
      12
      12
      12
      12
      12
      12
      12
      12
      12
      12
      12
      12
      12
      12
      12
      12
      12
      12
      12
      12
      12
      12
      12
      12
      12
      12
      12
      12
      12
      12
      12
      12
      12
      12
      12
      12
      12
      12
      12
      12
      12
      12
      12
      12
      12
      12
      12
      12
      12
      12
      12
      12
      12
      12
      12
      12
      12
      12
      12
      12
      12
      12
      12
      12
      12
      12
      12
      12
      12
      12
      12
      12
      12
      12
      12
      12
      12
      12
      12
      12
      12
      12
      12
      12
      12
      12
      12
      12
      12
      12
      12
      12
      12
      12
      12
      12
      12
      12
      12
      12
      12
      12
      12
      12
      12
      12
      12
      12
      12
      12
      12
      12
      12
      12
      12
      12
      12
      12
      12
      12
      12
      12
      12
      12
      12
      12
      12
      12
      12
      12
      12
      12
      12
      12
      12
      12
      12
      12
      12
      12
      12
      12
      12
      12
      12
      12
      12
      12
      12
      12
      12
      12
      12
      12
      12
      12
      12
      12
      12
      12
      12
      12
      12
      12
      12
      12
      12
      12
      12
      12
      12
      12
      12
      12
      12
      12
      12
      12
      12
      12
      12
      12
      12
      12
      12
      12
      12
      12
      12
      12
      12
      12
      12
      12
      12
      12
      12
      12
      12
      12
      12
      12
      12
      12
      12
      12
      12
      12
      12
      12
      12
      12
      12
      12
      12
      12
      12
      12
      12
      12
      12
      12
      12
      12
      12
      12
      12
      12
      12
      12
      12
      12
      12
      12
      12
      12
      12
      12
      12
      12
      12
      12
      12
      12
      12
      12
      12
      12
      12
      12
      12
      12
      12
      12
      12
      12
      12
      12
      12
      12
      12
      12
      12
      12
      12
      12
      12
      12
      12
      12
      12
      12
      12
      12
      12
      12
      12
      12
      12
      12
      12
      12
      12
      12
      12
      12
      12
      12
      12
      12
      12
      12
      12
      12
      12
      12
      12
      12
      12
      12
      12
      12
      12
      12
      12
      12
      12
      12
      12
      12
      12
      12
      12
      12
      12
      12
      12
      12
      12
      12
      12
      12
      12
      12
      12
      12
      12
      12
      12
      12
      12
      12
      12
      12
      12
      12
      12
      12
      12
      12
      12
      12
      12
      12
      12
      12
      12
      12
      12
      12
      12
      12
      12
      12
      12
      12
      12
      12
      12
      12
      12
      12
      12
      12
      12
      12
      12
      12
      12
      12
      12
      12
      12
      12
      12
      12
      12
      12
      12
      12
      12
      12
      12
      12
      12
      12
      12
      12
      12
      12
      12
      12
      12
      12
      12
      12
      12
      12
      12
      12
      12
      12
      12
      12
      12
      12
      12
      12
      12
      12
      12
      12
      12
      12
      12
      12
      12
      12
      12
      12
      12
      12
      12
      12
      12
      12
      12
      12
      12
      12
      12
      12
      12
      12
      12
      12
      12
      12
      12
      12
      12
      12
      12
      12
      12
      12
      12
      12
      12
      12
      12
      12
      12
      12
      12
      12
      12
      12
      12
      12
      12
      12
      12
      12
      12
      12
      12
      12
      12
      12
      12
      12
      12
      12
      12
      12
      12
      12
      12
      12
      12
      12
      12
      12
      12
      12
      12
      12
      12
      12
      12
      12
      12
      12
      12
      12
      12
      12
      12
      12
      12
      12
      12
      12
      12
      12
      12
      12
      12
      12
      12
      12
      12
      12
      12
      12
      12
      12
      12
      12
      12
      12
      12
      12
      12
      12
      12
      12
      12
      12
      12
      12
      12
      12
      12
      12
      12
      12
      12
      12
      12
      12
      12
      12
      12
      12
      12
      12
      12
      12
      12
      12
      12
      12
      12
      12
      12
      12
      12
      12
      12
      12
      12
      12
      12
      12
      12
      12
      12
      12
      12
      12
      12
      12
      12
      12
      12
      12
      12
      12
      12
      12
      12
      12
      12
      12
      12
      12
      12
      12
      12
      12
      12
      12
      12
      12
      12
      12
      12
      12
      12
      12
      12
      12
      12
      12
      12
      12
      12
      12
      12
      12
      12
      12
      12
      12
      12
      12
      12
      12
      12
      12
      12
      12
      12
      12
      12
      12
      12
      12
      12
      12
      12
      12
      12
      12
      12
      12
      12
      12
      12
      12
      12
      12
      12
      12
      12
      12
      12
      12
      12
      12
      12
      12
      12
      12
      12
      12
      12
      12
      12
      12
      12
      12
      12
      12
      12
      12
      12
      12
      12
      12
      12
      12
      12
      12
      12
      12
      12
      12
      12
      12
      12
      12
      12
      12
      12
      12
      12
      12
      12
      12
      12
      12
      12
      12
      12
      12
      12
      12
      12
      12
      12
      12
      12
      12
      12
      12
      12
      12
      12
      12
      12
      12
      12
      12
      12
      12
      12
      12
      12
      12
      12
      12
      12
      12
      12
      12
      12
      12
      12
      12
      12
      12
      12
      12
      12
      12
      12
      12
      12
      12
      12
      12
      12
      12
      12
      12
      12
      12
      12
      12
      12
      12
      12
      12
      12
      12
      12
      12
      12
      12
      12
      12
      12
      12
      12
      12
      12
      12
      12
      12
      12
      12
      12
      12
      12
      12
      12
      12
      12
      12
      12
      12
      12
      12
      12
      12
      12
      12
      12
      12
      12
      12
      12
      12
      12
      12
      12
      12
      12
      12
      12
      12
      12
      12
      12
      12
      12
      12
      12
      12
      12
      12
      12
      12
      12
      12
      12
      12
      12
      12
      12
      12
      12
      12
      12
      12
      12
      12
      12
      12
      12
      12
      12
      12
      12
      12
      12
      12
      12
      12
      12
      12
      12
      12
      12
      12
      12
      12
      12
      12
      12
      12
      12
      12
      12
      12
      12
      12
      12
      12
      12
      12
      12
      12
      12
      12
      12
      12
      12
      12
      12
      12
      12
      12
      12
      12
      12
      12
      12
      12
      12
      12
      12
      12
      12
      12
      12
      12
      12
      12
      12
      12
      12
      12
      12
      12
      12
      12
      12
      12
      12
      12
      12
      12
      12
      12
      12
      12
      12
      12
      12
      12
      12
      12
      12
      12
      12
      12
      12
      12
      12
      12
      12
      12
      12
      12
      12
      12
      12
      12
      12
      12
      12
      12
      12
      12
      12
      12
      12
      12
      12
      12
      12
      12
      12
      12
      12
      12
      12
      12
      12
      12
      12
      12
      12
      12
      12
      12
      12
      12
      12
      12
      12
      12
      12
      12
      12
      12
      12
      12
      12
      12
      12
      12
      12
      12
      12
      12
      12
      12
      12
      12
      12
      12
      12
      12
      12
      12
      12
      12
      12
      12
      12
      12
      12
      12
      12
      12
      12
      12
      12
      12
      12
      12
      12
      12
      12
      12
      12
      12
      12
      12
      12
      12
      12
      12
      12
      12
      12
      12
      12
      12
      12
      12
      12
      12
      12
      12
      12
      12
      12
  
  
POINT_DATA       1950
  
SCALARS                  material_type  double 1
LOOKUP_TABLE default
                   2
                   2
                   2
                   2
                   2
                   2
                   2
                   2
                   2
                   2
                   2
                   2
                   2
                   2
                   2
                   2
                   2
                   2
                   2
                   2
                   2
                   2
                   2
                   2
                   2
                   2
                   2
                   2
                   2
                   2
                   2
                   2
                   2
                   2
                   2
                   2
                   2
                   2
                   2
                   2
                   2
                   2
                   2
                   2
                   2
                   2
                   2
                   2
                   2
                   2
                   2
                   2
                   2
                   2
                   2
                   2
                   2
                   2
                   2
                   2
                   2
                   2
                   2
                   2
                   2
                   2
                   2
                   2
                   2
                   2
                   2
                   2
                   2
                   2
                   2
                   2
                   2
                   2
                   2
                   2
                   2
                   2
                   2
                   2
                   2
                   2
                   2
                   2
                   2
                   2
                   2
                   2
                   2
                   2
                   2
                   2
                   2
                   2
                   2
                   2
                   2
                   2
                   2
                   2
                   2
                   2
                   2
                   2
                   2
                   2
                   2
                   2
                   2
                   2
                   2
                   2
                   2
                   2
                   2
                   2
                   2
                   2
                   2
                   2
                   2
                   2
                   2
                   2
                   2
                   2
                   2
                   2
                   2
                   2
                   2
                   2
                   2
                   2
                   2
                   2
                   2
                   2
                   2
                   2
                   2
                   2
                   2
                   2
                   2
                   2
                   2
                   2
                   2
                   2
                   2
                   2
                   2
                   2
                   2
                   2
                   2
                   2
                   2
                   2
                   2
                   2
                   2
                   2
                   2
                   2
                   2
                   2
                   2
                   2
                   2
                   2
                   2
                   2
                   2
                   2
                   2
                   2
                   2
                   2
                   2
                   2
                   2
                   2
                   2
                   2
                   2
                   2
                   2
                   2
                   2
                   2
                   2
                   2
                   2
                   2
                   2
                   2
                   2
                   2
                   2
                   2
                   2
                   2
                   2
                   2
                   2
                   2
                   2
                   2
                   2
                   2
                   2
                   2
                   2
                   2
                   2
                   2
                   2
                   2
                   2
                   2
                   2
                   2
                   2
                   2
                   2
                   2
                   2
                   2
                   2
                   2
                   2
                   2
                   2
                   2
                   2
                   2
                   2
                   2
                   2
                   2
                   2
                   2
                   2
                   2
                   2
                   2
                   2
                   2
                   2
                   2
                   2
                   2
                   2
                   2
                   2
                   2
                   2
                   2
                   2
                   2
                   2
                   2
                   2
                   2
                   2
                   2
                   2
                   2
                   2
                   2
                   2
                   2
                   2
                   2
                   2
                   2
                   2
                   2
                   2
                   2
                   2
                   2
                   2
                   2
                   2
                   2
                   2
                   2
                   2
                   2
                   2
                   2
                   2
                   2
                   2
                   2
                   2
                   2
                   2
                   2
                   2
                   2
                   2
                   2
                   2
                   2
                   2
                   2
                   2
                   2
                   2
                   2
                   2
                   2
                   2
                   2
                   2
                   2
                   2
                   2
                   2
                   2
                   2
                   2
                   2
                   2
                   2
                   2
                   2
                   2
                   2
                   2
                   2
                   2
                   2
                   2
                   2
                   2
                   2
                   2
                   2
                   2
                   2
                   2
                   2
                   2
                   2
                   2
                   2
                   2
                   2
                   2
                   2
                   2
                   2
                   2
                   2
                   2
                   2
                   2
                   2
                   2
                   2
                   2
                   2
                   2
                   2
                   2
                   2
                   2
                   2
                   2
                   2
                   2
                   2
                   2
                   2
                   2
                   2
                   2
                   2
                   2
                   2
                   2
                   2
                   2
                   2
                   2
                   2
                   2
                   2
                   2
                   2
                   2
                   2
                   2
                   2
                   2
                   2
                   2
                   2
                   2
                   2
                   2
                   2
                   2
                   2
                   2
                   2
                   2
                   2
                   2
                   2
                   2
                   2
                   2
                   2
                   2
                   2
                   2
                   2
                   2
                   2
                   2
                   2
                   2
                   2
                   2
                   2
                   2
                   2
                   2
                   2
                   2
                   2
                   2
                   2
                   2
                   2
                   2
                   2
                   2
                   2
                   2
                   2
                   2
                   2
                   2
                   2
                   2
                   2
                   2
                   2
                   2
                   2
                   2
                   2
                   2
                   2
                   2
                   2
                   2
                   2
                   2
                   2
                   2
                   2
                   2
                   2
                   2
                   2
                   2
                   2
                   2
                   2
                   2
                   2
                   2
                   2
                   2
                   2
                   2
                   2
                   2
                   2
                   2
                   2
                   2
                   2
                   2
                   2
                   2
                   2
                   2
                   2
                   2
                   2
                   2
                   2
                   2
                   2
                   2
                   2
                   2
                   2
                   2
                   2
                   2
                   2
                   2
                   2
                   2
                   2
                   2
                   2
                   2
                   2
                   2
                   2
                   2
                   2
                   2
                   2
                   2
                   2
                   2
                   2
                   2
                   2
                   2
                   2
                   2
                   2
                   2
                   2
                   2
                   2
                   2
                   2
                   2
                   2
                   2
                   2
                   2
                   2
                   2
                   2
                   2
                   2
                   2
                   2
                   2
                   2
                   2
                   2
                   2
                   2
                   2
                   2
                   2
                   2
                   2
                   2
                   2
                   2
                   2
                   2
                   2
                   2
                   2
                   2
                   2
                   2
                   2
                   2
                   2
                   2
                   2
                   2
                   2
                   2
                   2
                   2
                   2
                   2
                   2
                   2
                   2
                   2
                   2
                   2
                   2
                   2
                   2
                   2
                   2
                   2
                   2
                   2
                   2
                   2
                   2
                   2
                   2
                   2
                   2
                   2
                   2
                   2
                   2
                   2
                   2
                   2
                   2
                   2
                   2
                   2
                   2
                   2
                   2
                   2
                   2
                   2
                   2
                   2
                   2
                   2
                   2
                   2
                   2
                   2
                   2
                   2
                   2
                   2
                   2
                   2
                   2
                   2
                   2
                   2
                   2
                   2
                   2
                   2
                   2
                   2
                   2
                   2
                   2
                   2
                   2
                   2
                   2
                   2
                   2
                   2
                   2
                   2
                   2
                   2
                   2
                   2
                   2
                   2
                   2
                   2
                   2
                   2
                   2
                   2
                   2
                   2
                   2
                   2
                   2
                   2
                   2
                   2
                   2
                   2
                   2
                   2
                   2
                   2
                   2
                   2
                   2
                   2
                   2
                   2
                   2
                   2
                   2
                   2
                   2
                   2
                   2
                   2
                   2
                   2
                   2
                   2
                   2
                   2
                   2
                   2
                   2
                   2
                   2
                   2
                   2
                   2
                   2
                   2
                   2
                   2
                   2
                   2
                   2
                   2
                   2
                   2
                   2
                   2
                   2
                   2
                   2
                   2
                   2
                   2
                   2
                   2
                   2
                   2
                   2
                   2
                   2
                   2
                   2
                   2
                   2
                   2
                   2
                   2
                   2
                   2
                   2
                   2
                   2
                   2
                   2
                   2
                   2
                   2
                   2
                   2
                   2
                   2
                   2
                   2
                   2
                   2
                   2
                   2
                   2
                   2
                   2
                   2
                   2
                   2
                   2
                   2
                   2
                   2
                   2
                   2
                   2
                   2
                   2
                   2
                   2
                   2
                   2
                   2
                   2
                   2
                   2
                   2
                   2
                   2
                   2
                   2
                   2
                   2
                   2
                   2
                   2
                   2
                   2
                   2
                   2
                   2
                   2
                   2
                   2
                   2
                   2
                   2
                   2
                   2
                   2
                   2
                   2
                   2
                   2
                   2
                   2
                   2
                   2
                   2
                   2
                   2
                   2
                   2
                   2
                   2
                   2
                   2
                   2
                   2
                   2
                   2
                   2
                   2
                   2
                   2
                   2
                   2
                   2
                   2
                   2
                   2
                   2
                   2
                   2
                   2
                   2
                   2
                   2
                   2
                   2
                   2
                   2
                   2
                   2
                   2
                   2
                   2
                   2
                   2
                   2
                   2
                   2
                   2
                   2
                   2
                   2
                   2
                   2
                   2
                   2
                   2
                   2
                   2
                   2
                   2
                   2
                   2
                   2
                   2
                   2
                   2
                   2
                   2
                   2
                   2
                   2
                   2
                   2
                   2
                   2
                   2
                   2
                   2
                   2
                   2
                   2
                   2
                   2
                   2
                   2
                   2
                   2
                   2
                   2
                   2
                   2
                   2
                   2
                   2
                   2
                   2
                   2
                   2
                   2
                   2
                   2
                   2
                   2
                   2
                   2
                   2
                   2
                   2
                   2
                   2
                   2
                   2
                   2
                   2
                   2
                   2
                   2
                   2
                   2
                   2
                   2
                   2
                   2
                   2
                   2
                   2
                   2
                   2
                   2
                   2
                   2
                   2
                   2
                   2
                   2
                   2
                   2
                   2
                   2
                   2
                   2
                   2
                   2
                   2
                   2
                   2
                   2
                   2
                   2
                   2
                   2
                   2
                   2
                   2
                   2
                   2
                   2
                   2
                   2
                   2
                   2
                   2
                   2
                   2
                   2
                   2
                   2
                   2
                   2
                   2
                   2
                   2
                   2
                   2
                   2
                   2
                   2
                   2
                   2
                   2
                   2
                   2
                   2
                   2
                   2
                   2
                   2
                   2
                   2
                   2
                   2
                   2
                   2
                   2
                   2
                   2
                   2
                   2
                   2
                   2
                   2
                   2
                   2
                   2
                   2
                   2
                   2
                   2
                   2
                   2
                   2
                   2
                   2
                   2
                   2
                   2
                   2
                   2
                   2
                   2
                   2
                   2
                   2
                   2
                   2
                   2
                   2
                   2
                   2
                   2
                   2
                   2
                   2
                   2
                   2
                   2
                   2
                   2
                   2
                   2
                   2
                   2
                   2
                   2
                   2
                   2
                   2
                   2
                   2
                   2
                   2
                   2
                   2
                   2
                   2
                   2
                   2
                   2
                   2
                   2
                   2
                   2
                   2
                   2
                   2
                   2
                   2
                   2
                   2
                   2
                   2
                   2
                   2
                   2
                   2
                   2
                   2
                   2
                   2
                   2
                   2
                   2
                   2
                   2
                   2
                   2
                   2
                   2
                   2
                   2
                   2
                   2
                   2
                   2
                   2
                   2
                   2
                   2
                   2
                   2
                   2
                   2
                   2
                   2
                   2
                   2
                   2
                   2
                   2
                   2
                   2
                   2
                   2
                   2
                   2
                   2
                   2
                   2
                   2
                   2
                   2
                   2
                   2
                   2
                   2
                   2
                   2
                   2
                   2
                   2
                   2
                   2
                   2
                   2
                   2
                   2
                   2
                   2
                   2
                   2
                   2
                   2
                   2
                   2
                   2
                   2
                   2
                   2
                   2
                   2
                   2
                   2
                   2
                   2
                   2
                   2
                   2
                   2
                   2
                   2
                   2
                   2
                   2
                   2
                   2
                   2
                   2
                   2
                   2
                   2
                   2
                   2
                   2
                   2
                   2
                   2
                   2
                   2
                   2
                   2
                   2
                   2
                   2
                   2
                   2
                   2
                   2
                   2
                   2
                   2
                   2
                   2
                   2
                   2
                   2
                   2
                   2
                   2
                   2
                   2
                   2
                   2
                   2
                   2
                   2
                   2
                   2
                   2
                   2
                   2
                   2
                   2
                   2
                   2
                   2
                   2
                   2
                   2
                   2
                   2
                   2
                   2
                   2
                   2
                   2
                   2
                   2
                   2
                   2
                   2
                   2
                   2
                   2
                   2
                   2
                   2
                   2
                   2
                   2
                   2
                   2
                   2
                   2
                   2
                   2
                   2
                   2
                   2
                   2
                   2
                   2
                   2
                   2
                   2
                   2
                   2
                   2
                   2
                   2
                   2
                   2
                   2
                   2
                   2
                   2
                   2
                   2
                   2
                   2
                   2
                   2
                   2
                   2
                   2
                   2
                   2
                   2
                   2
                   2
                   2
                   2
                   2
                   2
                   2
                   2
                   2
                   2
                   2
                   2
                   2
                   2
                   2
                   2
                   2
                   2
                   2
                   2
                   2
                   2
                   2
                   2
                   2
                   2
                   2
                   2
                   2
                   2
                   2
                   2
                   2
                   2
                   2
                   2
                   2
                   2
                   2
                   2
                   2
                   2
                   2
                   2
                   2
                   2
                   2
                   2
                   2
                   2
                   2
                   2
                   2
                   2
                   2
                   2
                   2
                   2
                   2
                   2
                   2
                   2
                   2
                   2
                   2
                   2
                   2
                   2
                   2
                   2
                   2
                   2
                   2
                   2
                   2
                   2
                   2
                   2
                   2
                   2
                   2
                   2
                   2
                   2
                   2
                   2
                   2
                   2
                   2
                   2
                   2
                   2
                   2
                   2
                   2
                   2
                   2
                   2
                   2
                   2
                   2
                   2
                   2
                   2
                   2
                   2
                   2
                   2
                   2
                   2
                   2
                   2
                   2
                   2
                   2
                   2
                   2
                   2
                   2
                   2
                   2
                   2
                   2
                   2
                   2
                   2
                   2
                   2
                   2
                   2
                   2
                   2
                   2
                   2
                   2
                   2
                   2
                   2
                   2
                   2
                   2
                   2
                   2
                   2
                   2
                   2
                   2
                   2
                   2
                   2
                   2
                   2
                   2
                   2
                   2
                   2
                   2
                   2
                   2
                   2
                   2
                   2
                   2
                   2
                   2
                   2
                   2
                   2
                   2
                   2
                   2
                   2
                   2
                   2
                   2
                   2
                   2
                   2
                   2
                   2
                   2
                   2
                   2
                   2
                   2
                   2
                   2
                   2
                   2
                   2
                   2
                   2
                   2
                   2
                   2
                   2
                   2
                   2
                   2
                   2
                   2
                   2
                   2
                   2
                   2
                   2
                   2
                   2
                   2
                   2
                   2
                   2
                   2
                   2
                   2
                   2
                   2
                   2
                   2
                   2
                   2
                   2
                   2
                   2
                   2
                   2
                   2
                   2
                   2
                   2
                   2
                   2
                   2
                   2
                   2
                   2
                   2
                   2
                   2
                   2
                   2
                   2
                   2
                   2
                   2
                   2
                   2
                   2
                   2
                   2
                   2
                   2
                   2
                   2
                   2
                   2
                   2
                   2
                   2
                   2
                   2
                   2
                   2
                   2
                   2
                   2
                   2
                   2
                   2
                   2
                   2
                   2
                   2
                   2
                   2
                   2
                   2
                   2
                   2
                   2
                   2
                   2
                   2
                   2
                   2
                   2
                   2
                   2
                   2
                   2
                   2
                   2
                   2
                   2
                   2
                   2
                   2
                   2
                   2
                   2
                   2
                   2
                   2
                   2
                   2
                   2
                   2
                   2
                   2
                   2
                   2
                   2
                   2
                   2
                   2
                   2
                   2
                   2
                   2
                   2
                   2
                   2
                   2
                   2
                   2
                   2
                   2
                   2
                   2
                   2
                   2
                   2
                   2
                   2
                   2
                   2
                   2
                   2
                   2
                   2
                   2
                   2
                   2
                   2
                   2
                   2
                   2
                   2
                   2
                   2
                   2
                   2
                   2
                   2
                   2
                   2
                   2
                   2
                   2
                   2
                   2
                   2
                   2
                   2
                   2
                   2
                   2
                   2
                   2
                   2
                   2
                   2
                   2
                   2
                   2
                   2
                   2
                   2
                   2
                   2
                   2
                   2
                   2
                   2
                   2
                   2
                   2
                   2
                   2
                   2
                   2
                   2
                   2
                   2
                   2
                   2
                   2
                   2
                   2
                   2
                   2
                   2
                   2
                   2
                   2
                   2
                   2
                   2
                   2
                   2
                   2
                   2
                   2
                   2
                   2
                   2
                   2
                   2
                   2
                   2
                   2
                   2
                   2
                   2
                   2
                   2
                   2
                   2
                   2
                   2
                   2
                   2
                   2
                   2
                   2
                   2
                   2
                   2
                   2
                   2
                   2
                   2
                   2
                   2
                   2
                   2
                   2
                   2
                   2
                   2
                   2
                   2
                   2
                   2
                   2
                   2
                   2
                   2
                   2
                   2
                   2
                   2
                   2
                   2
                   2
                   2
                   2
                   2
                   2
                   2
                   2
                   2
                   2
                   2
                   2
                   2
                   2
                   2
                   2
                   2
                   2
                   2
                   2
                   2
                   2
                   2
                   2
                   2
                   2
                   2
                   2
                   2
                   2
                   2
                   2
                   2
                   2
                   2
                   2
                   2
                   2
                   2
                   2
                   2
                   2
                   2
                   2
                   2
                   2
                   2
                   2
                   2
                   2
                   2
                   2
                   2
                   2
                   2
                   2
                   2
                   2
                   2
                   2
                   2
                   2
                   2
                   2
                   2
                   2
                   2
                   2
                   2
                   2
                   2
                   2
                   2
                   2
                   2
                   2
                   2
                   2
                   2
                   2
                   2
                   2
                   2
                   2
                   2
                   2
                   2
                   2
                   2
                   2
                   2
                   2
                   2
                   2
                   2
                   2
                   2
                   2
                   2
                   2
                   2
                   2
                   2
                   2
                   2
                   2
                   2
                   2
                   2
                   2
                   2
                   2
                   2
                   2
                   2
                   2
                   2
                   2
                   2
                   2
                   2
                   2
                   2
                   2
                   2
                   2
                   2
                   2
                   2
                   2
                   2
                   2
                   2
                   2
                   2
                   2
                   2
                   2
                   2
                   2
                   2
                   2
                   2
                   2
                   2
                   2
                   2
                   2
                   2
                   2
                   2
                   2
                   2
                   2
                   2
                   2
                   2
                   2
                   2
                   2
                   2
                   2
                   2
                   2
                   2
                   2
                   2
                   2
                   2
                   2
                   2
                   2
                   2
                   2
                   2
                   2
                   2
                   2
                   2
                   2
                   2
                   2
                   2
                   2
                   2
                   2
                   2
  
SCALARS                        node_id  double 1
LOOKUP_TABLE default
                   1
                   2
                   3
                   4
                   5
                   6
                   7
                   8
                   9
                  10
                  11
                  12
                  13
                  14
                  15
                  16
                  17
                  18
                  19
                  20
                  21
                  22
                  23
                  24
                  25
                  26
                  27
                  28
                  29
                  30
                  31
                  32
                  33
                  34
                  35
                  36
                  37
                  38
                  39
                  40
                  41
                  42
                  43
                  44
                  45
                  46
                  47
                  48
                  49
                  50
                  51
                  52
                  53
                  54
                  55
                  56
                  57
                  58
                  59
                  60
                  61
                  62
                  63
                  64
                  65
                  66
                  67
                  68
                  69
                  70
                  71
                  72
                  73
                  74
                  75
                  76
                  77
                  78
                  79
                  80
                  81
                  82
                  83
                  84
                  85
                  86
                  87
                  88
                  89
                  90
                  91
                  92
                  93
                  94
                  95
                  96
                  97
                  98
                  99
                 100
                 101
                 102
                 103
                 104
                 105
                 106
                 107
                 108
                 109
                 110
                 111
                 112
                 113
                 114
                 115
                 116
                 117
                 118
                 119
                 120
                 121
                 122
                 123
                 124
                 125
                 126
                 127
                 128
                 129
                 130
                 131
                 132
                 133
                 134
                 135
                 136
                 137
                 138
                 139
                 140
                 141
                 142
                 143
                 144
                 145
                 146
                 147
                 148
                 149
                 150
                 151
                 152
                 153
                 154
                 155
                 156
                 157
                 158
                 159
                 160
                 161
                 162
                 163
                 164
                 165
                 166
                 167
                 168
                 169
                 170
                 171
                 172
                 173
                 174
                 175
                 176
                 177
                 178
                 179
                 180
                 181
                 182
                 183
                 184
                 185
                 186
                 187
                 188
                 189
                 190
                 191
                 192
                 193
                 194
                 195
                 196
                 197
                 198
                 199
                 200
                 201
                 202
                 203
                 204
                 205
                 206
                 207
                 208
                 209
                 210
                 211
                 212
                 213
                 214
                 215
                 216
                 217
                 218
                 219
                 220
                 221
                 222
                 223
                 224
                 225
                 226
                 227
                 228
                 229
                 230
                 231
                 232
                 233
                 234
                 235
                 236
                 237
                 238
                 239
                 240
                 241
                 242
                 243
                 244
                 245
                 246
                 247
                 248
                 249
                 250
                 251
                 252
                 253
                 254
                 255
                 256
                 257
                 258
                 259
                 260
                 261
                 262
                 263
                 264
                 265
                 266
                 267
                 268
                 269
                 270
                 271
                 272
                 273
                 274
                 275
                 276
                 277
                 278
                 279
                 280
                 281
                 282
                 283
                 284
                 285
                 286
                 287
                 288
                 289
                 290
                 291
                 292
                 293
                 294
                 295
                 296
                 297
                 298
                 299
                 300
                 301
                 302
                 303
                 304
                 305
                 306
                 307
                 308
                 309
                 310
                 311
                 312
                 313
                 314
                 315
                 316
                 317
                 318
                 319
                 320
                 321
                 322
                 323
                 324
                 325
                 326
                 327
                 328
                 329
                 330
                 331
                 332
                 333
                 334
                 335
                 336
                 337
                 338
                 339
                 340
                 341
                 342
                 343
                 344
                 345
                 346
                 347
                 348
                 349
                 350
                 351
                 352
                 353
                 354
                 355
                 356
                 357
                 358
                 359
                 360
                 361
                 362
                 363
                 364
                 365
                 366
                 367
                 368
                 369
                 370
                 371
                 372
                 373
                 374
                 375
                 376
                 377
                 378
                 379
                 380
                 381
                 382
                 383
                 384
                 385
                 386
                 387
                 388
                 389
                 390
                 391
                 392
                 393
                 394
                 395
                 396
                 397
                 398
                 399
                 400
                 401
                 402
                 403
                 404
                 405
                 406
                 407
                 408
                 409
                 410
                 411
                 412
                 413
                 414
                 415
                 416
                 417
                 418
                 419
                 420
                 421
                 422
                 423
                 424
                 425
                 426
                 427
                 428
                 429
                 430
                 431
                 432
                 433
                 434
                 435
                 436
                 437
                 438
                 439
                 440
                 441
                 442
                 443
                 444
                 445
                 446
                 447
                 448
                 449
                 450
                 451
                 452
                 453
                 454
                 455
                 456
                 457
                 458
                 459
                 460
                 461
                 462
                 463
                 464
                 465
                 466
                 467
                 468
                 469
                 470
                 471
                 472
                 473
                 474
                 475
                 476
                 477
                 478
                 479
                 480
                 481
                 482
                 483
                 484
                 485
                 486
                 487
                 488
                 489
                 490
                 491
                 492
                 493
                 494
                 495
                 496
                 497
                 498
                 499
                 500
                 501
                 502
                 503
                 504
                 505
                 506
                 507
                 508
                 509
                 510
                 511
                 512
                 513
                 514
                 515
                 516
                 517
                 518
                 519
                 520
                 521
                 522
                 523
                 524
                 525
                 526
                 527
                 528
                 529
                 530
                 531
                 532
                 533
                 534
                 535
                 536
                 537
                 538
                 539
                 540
                 541
                 542
                 543
                 544
                 545
                 546
                 547
                 548
                 549
                 550
                 551
                 552
                 553
                 554
                 555
                 556
                 557
                 558
                 559
                 560
                 561
                 562
                 563
                 564
                 565
                 566
                 567
                 568
                 569
                 570
                 571
                 572
                 573
                 574
                 575
                 576
                 577
                 578
                 579
                 580
                 581
                 582
                 583
                 584
                 585
                 586
                 587
                 588
                 589
                 590
                 591
                 592
                 593
                 594
                 595
                 596
                 597
                 598
                 599
                 600
                 601
                 602
                 603
                 604
                 605
                 606
                 607
                 608
                 609
                 610
                 611
                 612
                 613
                 614
                 615
                 616
                 617
                 618
                 619
                 620
                 621
                 622
                 623
                 624
                 625
                 626
                 627
                 628
                 629
                 630
                 631
                 632
                 633
                 634
                 635
                 636
                 637
                 638
                 639
                 640
                 641
                 642
                 643
                 644
                 645
                 646
                 647
                 648
                 649
                 650
                 651
                 652
                 653
                 654
                 655
                 656
                 657
                 658
                 659
                 660
                 661
                 662
                 663
                 664
                 665
                 666
                 667
                 668
                 669
                 670
                 671
                 672
                 673
                 674
                 675
                 676
                 677
                 678
                 679
                 680
                 681
                 682
                 683
                 684
                 685
                 686
                 687
                 688
                 689
                 690
                 691
                 692
                 693
                 694
                 695
                 696
                 697
                 698
                 699
                 700
                 701
                 702
                 703
                 704
                 705
                 706
                 707
                 708
                 709
                 710
                 711
                 712
                 713
                 714
                 715
                 716
                 717
                 718
                 719
                 720
                 721
                 722
                 723
                 724
                 725
                 726
                 727
                 728
                 729
                 730
                 731
                 732
                 733
                 734
                 735
                 736
                 737
                 738
                 739
                 740
                 741
                 742
                 743
                 744
                 745
                 746
                 747
                 748
                 749
                 750
                 751
                 752
                 753
                 754
                 755
                 756
                 757
                 758
                 759
                 760
                 761
                 762
                 763
                 764
                 765
                 766
                 767
                 768
                 769
                 770
                 771
                 772
                 773
                 774
                 775
                 776
                 777
                 778
                 779
                 780
                 781
                 782
                 783
                 784
                 785
                 786
                 787
                 788
                 789
                 790
                 791
                 792
                 793
                 794
                 795
                 796
                 797
                 798
                 799
                 800
                 801
                 802
                 803
                 804
                 805
                 806
                 807
                 808
                 809
                 810
                 811
                 812
                 813
                 814
                 815
                 816
                 817
                 818
                 819
                 820
                 821
                 822
                 823
                 824
                 825
                 826
                 827
                 828
                 829
                 830
                 831
                 832
                 833
                 834
                 835
                 836
                 837
                 838
                 839
                 840
                 841
                 842
                 843
                 844
                 845
                 846
                 847
                 848
                 849
                 850
                 851
                 852
                 853
                 854
                 855
                 856
                 857
                 858
                 859
                 860
                 861
                 862
                 863
                 864
                 865
                 866
                 867
                 868
                 869
                 870
                 871
                 872
                 873
                 874
                 875
                 876
                 877
                 878
                 879
                 880
                 881
                 882
                 883
                 884
                 885
                 886
                 887
                 888
                 889
                 890
                 891
                 892
                 893
                 894
                 895
                 896
                 897
                 898
                 899
                 900
                 901
                 902
                 903
                 904
                 905
                 906
                 907
                 908
                 909
                 910
                 911
                 912
                 913
                 914
                 915
                 916
                 917
                 918
                 919
                 920
                 921
                 922
                 923
                 924
                 925
                 926
                 927
                 928
                 929
                 930
                 931
                 932
                 933
                 934
                 935
                 936
                 937
                 938
                 939
                 940
                 941
                 942
                 943
                 944
                 945
                 946
                 947
                 948
                 949
                 950
                 951
                 952
                 953
                 954
                 955
                 956
                 957
                 958
                 959
                 960
                 961
                 962
                 963
                 964
                 965
                 966
                 967
                 968
                 969
                 970
                 971
                 972
                 973
                 974
                 975
                 976
                 977
                 978
                 979
                 980
                 981
                 982
                 983
                 984
                 985
                 986
                 987
                 988
                 989
                 990
                 991
                 992
                 993
                 994
                 995
                 996
                 997
                 998
                 999
                1000
                1001
                1002
                1003
                1004
                1005
                1006
                1007
                1008
                1009
                1010
                1011
                1012
                1013
                1014
                1015
                1016
                1017
                1018
                1019
                1020
                1021
                1022
                1023
                1024
                1025
                1026
                1027
                1028
                1029
                1030
                1031
                1032
                1033
                1034
                1035
                1036
                1037
                1038
                1039
                1040
                1041
                1042
                1043
                1044
                1045
                1046
                1047
                1048
                1049
                1050
                1051
                1052
                1053
                1054
                1055
                1056
                1057
                1058
                1059
                1060
                1061
                1062
                1063
                1064
                1065
                1066
                1067
                1068
                1069
                1070
                1071
                1072
                1073
                1074
                1075
                1076
                1077
                1078
                1079
                1080
                1081
                1082
                1083
                1084
                1085
                1086
                1087
                1088
                1089
                1090
                1091
                1092
                1093
                1094
                1095
                1096
                1097
                1098
                1099
                1100
                1101
                1102
                1103
                1104
                1105
                1106
                1107
                1108
                1109
                1110
                1111
                1112
                1113
                1114
                1115
                1116
                1117
                1118
                1119
                1120
                1121
                1122
                1123
                1124
                1125
                1126
                1127
                1128
                1129
                1130
                1131
                1132
                1133
                1134
                1135
                1136
                1137
                1138
                1139
                1140
                1141
                1142
                1143
                1144
                1145
                1146
                1147
                1148
                1149
                1150
                1151
                1152
                1153
                1154
                1155
                1156
                1157
                1158
                1159
                1160
                1161
                1162
                1163
                1164
                1165
                1166
                1167
                1168
                1169
                1170
                1171
                1172
                1173
                1174
                1175
                1176
                1177
                1178
                1179
                1180
                1181
                1182
                1183
                1184
                1185
                1186
                1187
                1188
                1189
                1190
                1191
                1192
                1193
                1194
                1195
                1196
                1197
                1198
                1199
                1200
                1201
                1202
                1203
                1204
                1205
                1206
                1207
                1208
                1209
                1210
                1211
                1212
                1213
                1214
                1215
                1216
                1217
                1218
                1219
                1220
                1221
                1222
                1223
                1224
                1225
                1226
                1227
                1228
                1229
                1230
                1231
                1232
                1233
                1234
                1235
                1236
                1237
                1238
                1239
                1240
                1241
                1242
                1243
                1244
                1245
                1246
                1247
                1248
                1249
                1250
                1251
                1252
                1253
                1254
                1255
                1256
                1257
                1258
                1259
                1260
                1261
                1262
                1263
                1264
                1265
                1266
                1267
                1268
                1269
                1270
                1271
                1272
                1273
                1274
                1275
                1276
                1277
                1278
                1279
                1280
                1281
                1282
                1283
                1284
                1285
                1286
                1287
                1288
                1289
                1290
                1291
                1292
                1293
                1294
                1295
                1296
                1297
                1298
                1299
                1300
                1301
                1302
                1303
                1304
                1305
                1306
                1307
                1308
                1309
                1310
                1311
                1312
                1313
                1314
                1315
                1316
                1317
                1318
                1319
                1320
                1321
                1322
                1323
                1324
                1325
                1326
                1327
                1328
                1329
                1330
                1331
                1332
                1333
                1334
                1335
                1336
                1337
                1338
                1339
                1340
                1341
                1342
                1343
                1344
                1345
                1346
                1347
                1348
                1349
                1350
                1351
                1352
                1353
                1354
                1355
                1356
                1357
                1358
                1359
                1360
                1361
                1362
                1363
                1364
                1365
                1366
                1367
                1368
                1369
                1370
                1371
                1372
                1373
                1374
                1375
                1376
                1377
                1378
                1379
                1380
                1381
                1382
                1383
                1384
                1385
                1386
                1387
                1388
                1389
                1390
                1391
                1392
                1393
                1394
                1395
                1396
                1397
                1398
                1399
                1400
                1401
                1402
                1403
                1404
                1405
                1406
                1407
                1408
                1409
                1410
                1411
                1412
                1413
                1414
                1415
                1416
                1417
                1418
                1419
                1420
                1421
                1422
                1423
                1424
                1425
                1426
                1427
                1428
                1429
                1430
                1431
                1432
                1433
                1434
                1435
                1436
                1437
                1438
                1439
                1440
                1441
                1442
                1443
                1444
                1445
                1446
                1447
                1448
                1449
                1450
                1451
                1452
                1453
                1454
                1455
                1456
                1457
                1458
                1459
                1460
                1461
                1462
                1463
                1464
                1465
                1466
                1467
                1468
                1469
                1470
                1471
                1472
                1473
                1474
                1475
                1476
                1477
                1478
                1479
                1480
                1481
                1482
                1483
                1484
                1485
                1486
                1487
                1488
                1489
                1490
                1491
                1492
                1493
                1494
                1495
                1496
                1497
                1498
                1499
                1500
                1501
                1502
                1503
                1504
                1505
                1506
                1507
                1508
                1509
                1510
                1511
                1512
                1513
                1514
                1515
                1516
                1517
                1518
                1519
                1520
                1521
                1522
                1523
                1524
                1525
                1526
                1527
                1528
                1529
                1530
                1531
                1532
                1533
                1534
                1535
                1536
                1537
                1538
                1539
                1540
                1541
                1542
                1543
                1544
                1545
                1546
                1547
                1548
                1549
                1550
                1551
                1552
                1553
                1554
                1555
                1556
                1557
                1558
                1559
                1560
                1561
                1562
                1563
                1564
                1565
                1566
                1567
                1568
                1569
                1570
                1571
                1572
                1573
                1574
                1575
                1576
                1577
                1578
                1579
                1580
                1581
                1582
                1583
                1584
                1585
                1586
                1587
                1588
                1589
                1590
                1591
                1592
                1593
                1594
                1595
                1596
                1597
                1598
                1599
                1600
                1601
                1602
                1603
                1604
                1605
                1606
                1607
                1608
                1609
                1610
                1611
                1612
                1613
                1614
                1615
                1616
                1617
                1618
                1619
                1620
                1621
                1622
                1623
                1624
                1625
                1626
                1627
                1628
                1629
                1630
                1631
                1632
                1633
                1634
                1635
                1636
                1637
                1638
                1639
                1640
                1641
                1642
                1643
                1644
                1645
                1646
                1647
                1648
                1649
                1650
                1651
                1652
                1653
                1654
                1655
                1656
                1657
                1658
                1659
                1660
                1661
                1662
                1663
                1664
                1665
                1666
                1667
                1668
                1669
                1670
                1671
                1672
                1673
                1674
                1675
                1676
                1677
                1678
                1679
                1680
                1681
                1682
                1683
                1684
                1685
                1686
                1687
                1688
                1689
                1690
                1691
                1692
                1693
                1694
                1695
                1696
                1697
                1698
                1699
                1700
                1701
                1702
                1703
                1704
                1705
                1706
                1707
                1708
                1709
                1710
                1711
                1712
                1713
                1714
                1715
                1716
                1717
                1718
                1719
                1720
                1721
                1722
                1723
                1724
                1725
                1726
                1727
                1728
                1729
                1730
                1731
                1732
                1733
                1734
                1735
                1736
                1737
                1738
                1739
                1740
                1741
                1742
                1743
                1744
                1745
                1746
                1747
                1748
                1749
                1750
                1751
                1752
                1753
                1754
                1755
                1756
                1757
                1758
                1759
                1760
                1761
                1762
                1763
                1764
                1765
                1766
                1767
                1768
                1769
                1770
                1771
                1772
                1773
                1774
                1775
                1776
                1777
                1778
                1779
                1780
                1781
                1782
                1783
                1784
                1785
                1786
                1787
                1788
                1789
                1790
                1791
                1792
                1793
                1794
                1795
                1796
                1797
                1798
                1799
                1800
                1801
                1802
                1803
                1804
                1805
                1806
                1807
                1808
                1809
                1810
                1811
                1812
                1813
                1814
                1815
                1816
                1817
                1818
                1819
                1820
                1821
                1822
                1823
                1824
                1825
                1826
                1827
                1828
                1829
                1830
                1831
                1832
                1833
                1834
                1835
                1836
                1837
                1838
                1839
                1840
                1841
                1842
                1843
                1844
                1845
                1846
                1847
                1848
                1849
                1850
                1851
                1852
                1853
                1854
                1855
                1856
                1857
                1858
                1859
                1860
                1861
                1862
                1863
                1864
                1865
                1866
                1867
                1868
                1869
                1870
                1871
                1872
                1873
                1874
                1875
                1876
                1877
                1878
                1879
                1880
                1881
                1882
                1883
                1884
                1885
                1886
                1887
                1888
                1889
                1890
                1891
                1892
                1893
                1894
                1895
                1896
                1897
                1898
                1899
                1900
                1901
                1902
                1903
                1904
                1905
                1906
                1907
                1908
                1909
                1910
                1911
                1912
                1913
                1914
                1915
                1916
                1917
                1918
                1919
                1920
                1921
                1922
                1923
                1924
                1925
                1926
                1927
                1928
                1929
                1930
                1931
                1932
                1933
                1934
                1935
                1936
                1937
                1938
                1939
                1940
                1941
                1942
                1943
                1944
                1945
                1946
                1947
                1948
                1949
                1950
  
SCALARS                         bodyid  double 1
LOOKUP_TABLE default
                   1
                   1
                   1
                   1
                   1
                   1
                   1
                   1
                   1
                   1
                   1
                   1
                   1
                   1
                   1
                   1
                   1
                   1
                   1
                   1
                   1
                   1
                   1
                   1
                   1
                   1
                   1
                   1
                   1
                   1
                   1
                   1
                   1
                   1
                   1
                   1
                   1
                   1
                   1
                   1
                   1
                   1
                   1
                   1
                   1
                   1
                   1
                   1
                   1
                   1
                   1
                   1
                   1
                   1
                   1
                   1
                   1
                   1
                   1
                   1
                   1
                   1
                   1
                   1
                   1
                   1
                   1
                   1
                   1
                   1
                   1
                   1
                   1
                   1
                   1
                   1
                   1
                   1
                   1
                   1
                   1
                   1
                   1
                   1
                   1
                   1
                   1
                   1
                   1
                   1
                   1
                   1
                   1
                   1
                   1
                   1
                   1
                   1
                   1
                   1
                   1
                   1
                   1
                   1
                   1
                   1
                   1
                   1
                   1
                   1
                   1
                   1
                   1
                   1
                   1
                   1
                   1
                   1
                   1
                   1
                   1
                   1
                   1
                   1
                   1
                   1
                   1
                   1
                   1
                   1
                   1
                   1
                   1
                   1
                   1
                   1
                   1
                   1
                   1
                   1
                   1
                   1
                   1
                   1
                   1
                   1
                   1
                   1
                   1
                   1
                   1
                   1
                   1
                   1
                   1
                   1
                   1
                   1
                   1
                   1
                   1
                   1
                   1
                   1
                   1
                   1
                   1
                   1
                   1
                   1
                   1
                   1
                   1
                   1
                   1
                   1
                   1
                   1
                   1
                   1
                   1
                   1
                   1
                   1
                   1
                   1
                   1
                   1
                   1
                   1
                   1
                   1
                   1
                   1
                   1
                   1
                   1
                   1
                   1
                   1
                   1
                   1
                   1
                   1
                   1
                   1
                   1
                   1
                   1
                   1
                   1
                   1
                   1
                   1
                   1
                   1
                   1
                   1
                   1
                   1
                   1
                   1
                   1
                   1
                   1
                   1
                   1
                   1
                   1
                   1
                   1
                   1
                   1
                   1
                   1
                   1
                   1
                   1
                   1
                   1
                   1
                   1
                   1
                   1
                   1
                   1
                   1
                   1
                   1
                   1
                   1
                   1
                   1
                   1
                   1
                   1
                   1
                   1
                   1
                   1
                   1
                   1
                   1
                   1
                   1
                   1
                   1
                   1
                   1
                   1
                   1
                   1
                   1
                   1
                   1
                   1
                   1
                   1
                   1
                   1
                   1
                   1
                   1
                   1
                   1
                   1
                   1
                   1
                   1
                   1
                   1
                   1
                   1
                   1
                   1
                   1
                   1
                   1
                   1
                   1
                   1
                   1
                   1
                   1
                   1
                   1
                   1
                   1
                   1
                   1
                   1
                   1
                   1
                   1
                   1
                   1
                   1
                   1
                   1
                   1
                   1
                   1
                   1
                   1
                   1
                   1
                   1
                   1
                   1
                   1
                   1
                   1
                   1
                   1
                   1
                   1
                   1
                   1
                   1
                   1
                   1
                   1
                   1
                   1
                   1
                   1
                   1
                   1
                   1
                   1
                   1
                   1
                   1
                   1
                   1
                   1
                   1
                   1
                   1
                   1
                   1
                   1
                   1
                   1
                   1
                   1
                   1
                   1
                   1
                   1
                   1
                   1
                   1
                   1
                   1
                   1
                   1
                   1
                   1
                   1
                   1
                   1
                   1
                   1
                   1
                   1
                   1
                   1
                   1
                   1
                   1
                   1
                   1
                   1
                   1
                   1
                   1
                   1
                   1
                   1
                   1
                   1
                   1
                   1
                   1
                   1
                   1
                   1
                   1
                   1
                   1
                   1
                   1
                   1
                   1
                   1
                   1
                   1
                   1
                   1
                   1
                   1
                   1
                   1
                   1
                   1
                   1
                   1
                   1
                   1
                   1
                   1
                   1
                   1
                   1
                   1
                   1
                   1
                   1
                   1
                   1
                   1
                   1
                   1
                   1
                   1
                   1
                   1
                   1
                   1
                   1
                   1
                   1
                   1
                   1
                   1
                   1
                   1
                   1
                   1
                   1
                   1
                   1
                   1
                   1
                   1
                   1
                   1
                   1
                   1
                   1
                   1
                   1
                   1
                   1
                   1
                   1
                   1
                   1
                   1
                   1
                   1
                   1
                   1
                   1
                   1
                   1
                   1
                   1
                   1
                   1
                   1
                   1
                   1
                   1
                   1
                   1
                   1
                   1
                   1
                   1
                   1
                   1
                   1
                   1
                   1
                   1
                   1
                   1
                   1
                   1
                   1
                   1
                   1
                   1
                   1
                   1
                   1
                   1
                   1
                   1
                   1
                   1
                   1
                   1
                   1
                   1
                   1
                   1
                   1
                   1
                   1
                   1
                   1
                   1
                   1
                   1
                   1
                   1
                   1
                   1
                   1
                   1
                   1
                   1
                   1
                   1
                   1
                   1
                   1
                   1
                   1
                   1
                   1
                   1
                   1
                   1
                   1
                   1
                   1
                   1
                   1
                   1
                   1
                   1
                   1
                   1
                   1
                   1
                   1
                   1
                   1
                   1
                   1
                   1
                   1
                   1
                   1
                   1
                   1
                   1
                   1
                   1
                   1
                   1
                   1
                   1
                   1
                   1
                   1
                   1
                   1
                   1
                   1
                   1
                   1
                   1
                   1
                   1
                   1
                   1
                   1
                   1
                   1
                   1
                   1
                   1
                   1
                   1
                   1
                   1
                   1
                   1
                   1
                   1
                   1
                   1
                   1
                   1
                   1
                   1
                   1
                   1
                   1
                   1
                   1
                   1
                   1
                   1
                   1
                   1
                   1
                   1
                   1
                   1
                   1
                   1
                   1
                   1
                   1
                   1
                   1
                   1
                   1
                   1
                   1
                   1
                   1
                   1
                   1
                   1
                   1
                   1
                   1
                   1
                   1
                   1
                   1
                   1
                   1
                   1
                   1
                   1
                   1
                   1
                   1
                   1
                   1
                   1
                   1
                   1
                   1
                   1
                   1
                   1
                   1
                   1
                   1
                   1
                   1
                   1
                   1
                   1
                   1
                   1
                   1
                   1
                   1
                   1
                   1
                   1
                   1
                   1
                   1
                   1
                   1
                   1
                   1
                   1
                   1
                   1
                   1
                   1
                   1
                   1
                   1
                   1
                   1
                   1
                   1
                   1
                   1
                   1
                   1
                   1
                   1
                   1
                   1
                   1
                   1
                   1
                   1
                   1
                   1
                   1
                   1
                   1
                   1
                   1
                   1
                   1
                   1
                   1
                   1
                   1
                   1
                   1
                   1
                   1
                   1
                   1
                   1
                   1
                   1
                   1
                   1
                   1
                   1
                   1
                   1
                   1
                   1
                   1
                   1
                   1
                   1
                   1
                   1
                   1
                   1
                   1
                   1
                   1
                   1
                   1
                   1
                   1
                   1
                   1
                   1
                   1
                   1
                   1
                   1
                   1
                   1
                   1
                   1
                   1
                   1
                   1
                   1
                   1
                   1
                   1
                   1
                   1
                   1
                   1
                   1
                   1
                   1
                   1
                   1
                   1
                   1
                   1
                   1
                   1
                   1
                   1
                   1
                   1
                   1
                   1
                   1
                   1
                   1
                   1
                   1
                   1
                   1
                   1
                   1
                   1
                   1
                   1
                   1
                   1
                   1
                   1
                   1
                   1
                   1
                   1
                   1
                   1
                   1
                   1
                   1
                   1
                   1
                   1
                   1
                   1
                   1
                   1
                   1
                   1
                   1
                   1
                   1
                   1
                   1
                   1
                   1
                   1
                   1
                   1
                   1
                   1
                   1
                   1
                   1
                   1
                   1
                   1
                   1
                   1
                   1
                   1
                   1
                   1
                   1
                   1
                   1
                   1
                   1
                   1
                   1
                   1
                   1
                   1
                   1
                   1
                   1
                   1
                   1
                   1
                   1
                   1
                   1
                   1
                   1
                   1
                   1
                   1
                   1
                   1
                   1
                   1
                   1
                   1
                   1
                   1
                   1
                   1
                   1
                   1
                   1
                   1
                   1
                   1
                   1
                   1
                   1
                   1
                   1
                   1
                   1
                   1
                   1
                   1
                   1
                   1
                   1
                   1
                   1
                   1
                   1
                   1
                   1
                   1
                   1
                   1
                   1
                   1
                   1
                   1
                   1
                   1
                   1
                   1
                   1
                   1
                   1
                   1
                   1
                   1
                   1
                   1
                   1
                   1
                   1
                   1
                   1
                   1
                   1
                   1
                   1
                   1
                   1
                   1
                   1
                   1
                   1
                   1
                   1
                   1
                   1
                   1
                   1
                   1
                   1
                   1
                   1
                   1
                   1
                   1
                   1
                   1
                   1
                   1
                   1
                   1
                   1
                   1
                   1
                   1
                   1
                   1
                   1
                   1
                   1
                   1
                   1
                   1
                   1
                   1
                   1
                   1
                   1
                   1
                   1
                   1
                   1
                   1
                   1
                   1
                   1
                   1
                   1
                   1
                   1
                   1
                   1
                   1
                   1
                   1
                   1
                   1
                   1
                   1
                   1
                   1
                   1
                   1
                   1
                   1
                   1
                   1
                   1
                   1
                   1
                   1
                   1
                   1
                   1
                   1
                   1
                   1
                   1
                   1
                   1
                   1
                   1
                   1
                   1
                   1
                   1
                   1
                   1
                   1
                   1
                   1
                   1
                   1
                   1
                   1
                   1
                   1
                   1
                   1
                   1
                   1
                   1
                   1
                   1
                   1
                   1
                   1
                   1
                   1
                   1
                   1
                   1
                   1
                   1
                   1
                   1
                   1
                   1
                   1
                   1
                   1
                   1
                   1
                   1
                   1
                   1
                   1
                   1
                   1
                   1
                   1
                   1
                   1
                   1
                   1
                   1
                   1
                   1
                   1
                   1
                   1
                   1
                   1
                   1
                   1
                   1
                   1
                   1
                   1
                   1
                   1
                   1
                   1
                   1
                   1
                   1
                   1
                   1
                   1
                   1
                   1
                   1
                   1
                   1
                   1
                   1
                   1
                   1
                   1
                   1
                   1
                   1
                   1
                   1
                   1
                   1
                   1
                   1
                   1
                   1
                   1
                   1
                   1
                   1
                   1
                   1
                   1
                   1
                   1
                   1
                   1
                   1
                   1
                   1
                   1
                   1
                   1
                   1
                   1
                   1
                   1
                   1
                   1
                   1
                   1
                   1
                   1
                   1
                   1
                   1
                   1
                   1
                   1
                   1
                   1
                   1
                   1
                   1
                   1
                   1
                   1
                   1
                   1
                   1
                   1
                   1
                   1
                   1
                   1
                   1
                   1
                   1
                   1
                   1
                   1
                   1
                   1
                   1
                   1
                   1
                   1
                   1
                   1
                   1
                   1
                   1
                   1
                   1
                   1
                   1
                   1
                   1
                   1
                   1
                   1
                   1
                   1
                   1
                   1
                   1
                   1
                   1
                   1
                   1
                   1
                   1
                   1
                   1
                   1
                   1
                   1
                   1
                   1
                   1
                   1
                   1
                   1
                   1
                   1
                   1
                   1
                   1
                   1
                   1
                   1
                   1
                   1
                   1
                   1
                   1
                   1
                   1
                   1
                   1
                   1
                   1
                   1
                   1
                   1
                   1
                   1
                   1
                   1
                   1
                   1
                   1
                   1
                   1
                   1
                   1
                   1
                   1
                   1
                   1
                   1
                   1
                   1
                   1
                   1
                   1
                   1
                   1
                   1
                   1
                   1
                   1
                   1
                   1
                   1
                   1
                   1
                   1
                   1
                   1
                   1
                   1
                   1
                   1
                   1
                   1
                   1
                   1
                   1
                   1
                   1
                   1
                   1
                   1
                   1
                   1
                   1
                   1
                   1
                   1
                   1
                   1
                   1
                   1
                   1
                   1
                   1
                   1
                   1
                   1
                   1
                   1
                   1
                   1
                   1
                   1
                   1
                   1
                   1
                   1
                   1
                   1
                   1
                   1
                   1
                   1
                   1
                   1
                   1
                   1
                   1
                   1
                   1
                   1
                   1
                   1
                   1
                   1
                   1
                   1
                   1
                   1
                   1
                   1
                   1
                   1
                   1
                   1
                   1
                   1
                   1
                   1
                   1
                   1
                   1
                   1
                   1
                   1
                   1
                   1
                   1
                   1
                   1
                   1
                   1
                   1
                   1
                   1
                   1
                   1
                   1
                   1
                   1
                   1
                   1
                   1
                   1
                   1
                   1
                   1
                   1
                   1
                   1
                   1
                   1
                   1
                   1
                   1
                   1
                   1
                   1
                   1
                   1
                   1
                   1
                   1
                   1
                   1
                   1
                   1
                   1
                   1
                   1
                   1
                   1
                   1
                   1
                   1
                   1
                   1
                   1
                   1
                   1
                   1
                   1
                   1
                   1
                   1
                   1
                   1
                   1
                   1
                   1
                   1
                   1
                   1
                   1
                   1
                   1
                   1
                   1
                   1
                   1
                   1
                   1
                   1
                   1
                   1
                   1
                   1
                   1
                   1
                   1
                   1
                   1
                   1
                   1
                   1
                   1
                   1
                   1
                   1
                   1
                   1
                   1
                   1
                   1
                   1
                   1
                   1
                   1
                   1
                   1
                   1
                   1
                   1
                   1
                   1
                   1
                   1
                   1
                   1
                   1
                   1
                   1
                   1
                   1
                   1
                   1
                   1
                   1
                   1
                   1
                   1
                   1
                   1
                   1
                   1
                   1
                   1
                   1
                   1
                   1
                   1
                   1
                   1
                   1
                   1
                   1
                   1
                   1
                   1
                   1
                   1
                   1
                   1
                   1
                   1
                   1
                   1
                   1
                   1
                   1
                   1
                   1
                   1
                   1
                   1
                   1
                   1
                   1
                   1
                   1
                   1
                   1
                   1
                   1
                   1
                   1
                   1
                   1
                   1
                   1
                   1
                   1
                   1
                   1
                   1
                   1
                   1
                   1
                   1
                   1
                   1
                   1
                   1
                   1
                   1
                   1
                   1
                   1
                   1
                   1
                   1
                   1
                   1
                   1
                   1
                   1
                   1
                   1
                   1
                   1
                   1
                   1
                   1
                   1
                   1
                   1
                   1
                   1
                   1
                   1
                   1
                   1
                   1
                   1
                   1
                   1
                   1
                   1
                   1
                   1
                   1
                   1
                   1
                   1
                   1
                   1
                   1
                   1
                   1
                   1
                   1
                   1
                   1
                   1
                   1
                   1
                   1
                   1
                   1
                   1
                   1
                   1
                   1
                   1
                   1
                   1
                   1
                   1
                   1
                   1
                   1
                   1
                   1
                   1
                   1
                   1
                   1
                   1
                   1
                   1
                   1
                   1
                   1
                   1
                   1
                   1
                   1
                   1
                   1
                   1
                   1
                   1
                   1
                   1
                   1
                   1
                   1
                   1
                   1
                   1
                   1
                   1
                   1
                   1
                   1
                   1
                   1
                   1
                   1
                   1
                   1
                   1
                   1
                   1
                   1
                   1
                   1
                   1
                   1
                   1
                   1
                   1
                   1
                   1
                   1
                   1
                   1
                   1
                   1
                   1
                   1
                   1
                   1
                   1
                   1
                   1
                   1
                   1
                   1
                   1
                   1
                   1
                   1
                   1
                   1
                   1
                   1
                   1
                   1
                   1
                   1
                   1
                   1
                   1
                   1
                   1
                   1
                   1
                   1
                   1
                   1
                   1
                   1
                   1
                   1
                   1
                   1
                   1
                   1
                   1
                   1
                   1
                   1
                   1
                   1
                   1
                   1
                   1
                   1
                   1
                   1
                   1
                   1
                   1
                   1
                   1
                   1
                   1
                   1
                   1
                   1
                   1
                   1
                   1
                   1
                   1
                   1
                   1
                   1
                   1
                   1
                   1
                   1
                   1
                   1
                   1
                   1
                   1
                   1
                   1
                   1
                   1
                   1
                   1
                   1
                   1
                   1
                   1
                   1
                   1
                   1
                   1
                   1
                   1
                   1
                   1
                   1
                   1
                   1
                   1
                   1
                   1
                   1
                   1
                   1
                   1
                   1
                   1
                   1
                   1
                   1
                   1
                   1
                   1
                   1
                   1
                   1
                   1
                   1
                   1
                   1
                   1
                   1
                   1
                   1
                   1
                   1
                   1
                   1
                   1
                   1
                   1
                   1
                   1
                   1
                   1
                   1
                   1
                   1
                   1
                   1
                   1
                   1
                   1
                   1
                   1
                   1
                   1
                   1
                   1
                   1
                   1
                   1
                   1
                   1
                   1
                   1
                   1
                   1
                   1
                   1
                   1
                   1
                   1
                   1
                   1
                   1
                   1
                   1
                   1
                   1
                   1
                   1
                   1
                   1
                   1
                   1
                   1
                   1
                   1
                   1
                   1
                   1
                   1
                   1
                   1
                   1
                   1
                   1
                   1
                   1
                   1
                   1
                   1
                   1
                   1
                   1
                   1
                   1
                   1
                   1
                   1
                   1
                   1
                   1
                   1
                   1
                   1
                   1
                   1
                   1
                   1
                   1
                   1
                   1
                   1
                   1
                   1
                   1
                   1
                   1
                   1
                   1
                   1
                   1
                   1
                   1
                   1
                   1
                   1
                   1
                   1
                   1
                   1
                   1
                   1
                   1
                   1
                   1
                   1
                   1
                   1
                   1
                   1
                   1
                   1
                   1
                   1
                   1
                   1
                   1
                   1
                   1
                   1
                   1
                   1
                   1
                   1
                   1
                   1
                   1
                   1
                   1
                   1
                   1
                   1
                   1
                   1
                   1
  
SCALARS                  material_type  double 1
LOOKUP_TABLE default
                   2
                   2
                   2
                   2
                   2
                   2
                   2
                   2
                   2
                   2
                   2
                   2
                   2
                   2
                   2
                   2
                   2
                   2
                   2
                   2
                   2
                   2
                   2
                   2
                   2
                   2
                   2
                   2
                   2
                   2
                   2
                   2
                   2
                   2
                   2
                   2
                   2
                   2
                   2
                   2
                   2
                   2
                   2
                   2
                   2
                   2
                   2
                   2
                   2
                   2
                   2
                   2
                   2
                   2
                   2
                   2
                   2
                   2
                   2
                   2
                   2
                   2
                   2
                   2
                   2
                   2
                   2
                   2
                   2
                   2
                   2
                   2
                   2
                   2
                   2
                   2
                   2
                   2
                   2
                   2
                   2
                   2
                   2
                   2
                   2
                   2
                   2
                   2
                   2
                   2
                   2
                   2
                   2
                   2
                   2
                   2
                   2
                   2
                   2
                   2
                   2
                   2
                   2
                   2
                   2
                   2
                   2
                   2
                   2
                   2
                   2
                   2
                   2
                   2
                   2
                   2
                   2
                   2
                   2
                   2
                   2
                   2
                   2
                   2
                   2
                   2
                   2
                   2
                   2
                   2
                   2
                   2
                   2
                   2
                   2
                   2
                   2
                   2
                   2
                   2
                   2
                   2
                   2
                   2
                   2
                   2
                   2
                   2
                   2
                   2
                   2
                   2
                   2
                   2
                   2
                   2
                   2
                   2
                   2
                   2
                   2
                   2
                   2
                   2
                   2
                   2
                   2
                   2
                   2
                   2
                   2
                   2
                   2
                   2
                   2
                   2
                   2
                   2
                   2
                   2
                   2
                   2
                   2
                   2
                   2
                   2
                   2
                   2
                   2
                   2
                   2
                   2
                   2
                   2
                   2
                   2
                   2
                   2
                   2
                   2
                   2
                   2
                   2
                   2
                   2
                   2
                   2
                   2
                   2
                   2
                   2
                   2
                   2
                   2
                   2
                   2
                   2
                   2
                   2
                   2
                   2
                   2
                   2
                   2
                   2
                   2
                   2
                   2
                   2
                   2
                   2
                   2
                   2
                   2
                   2
                   2
                   2
                   2
                   2
                   2
                   2
                   2
                   2
                   2
                   2
                   2
                   2
                   2
                   2
                   2
                   2
                   2
                   2
                   2
                   2
                   2
                   2
                   2
                   2
                   2
                   2
                   2
                   2
                   2
                   2
                   2
                   2
                   2
                   2
                   2
                   2
                   2
                   2
                   2
                   2
                   2
                   2
                   2
                   2
                   2
                   2
                   2
                   2
                   2
                   2
                   2
                   2
                   2
                   2
                   2
                   2
                   2
                   2
                   2
                   2
                   2
                   2
                   2
                   2
                   2
                   2
                   2
                   2
                   2
                   2
                   2
                   2
                   2
                   2
                   2
                   2
                   2
                   2
                   2
                   2
                   2
                   2
                   2
                   2
                   2
                   2
                   2
                   2
                   2
                   2
                   2
                   2
                   2
                   2
                   2
                   2
                   2
                   2
                   2
                   2
                   2
                   2
                   2
                   2
                   2
                   2
                   2
                   2
                   2
                   2
                   2
                   2
                   2
                   2
                   2
                   2
                   2
                   2
                   2
                   2
                   2
                   2
                   2
                   2
                   2
                   2
                   2
                   2
                   2
                   2
                   2
                   2
                   2
                   2
                   2
                   2
                   2
                   2
                   2
                   2
                   2
                   2
                   2
                   2
                   2
                   2
                   2
                   2
                   2
                   2
                   2
                   2
                   2
                   2
                   2
                   2
                   2
                   2
                   2
                   2
                   2
                   2
                   2
                   2
                   2
                   2
                   2
                   2
                   2
                   2
                   2
                   2
                   2
                   2
                   2
                   2
                   2
                   2
                   2
                   2
                   2
                   2
                   2
                   2
                   2
                   2
                   2
                   2
                   2
                   2
                   2
                   2
                   2
                   2
                   2
                   2
                   2
                   2
                   2
                   2
                   2
                   2
                   2
                   2
                   2
                   2
                   2
                   2
                   2
                   2
                   2
                   2
                   2
                   2
                   2
                   2
                   2
                   2
                   2
                   2
                   2
                   2
                   2
                   2
                   2
                   2
                   2
                   2
                   2
                   2
                   2
                   2
                   2
                   2
                   2
                   2
                   2
                   2
                   2
                   2
                   2
                   2
                   2
                   2
                   2
                   2
                   2
                   2
                   2
                   2
                   2
                   2
                   2
                   2
                   2
                   2
                   2
                   2
                   2
                   2
                   2
                   2
                   2
                   2
                   2
                   2
                   2
                   2
                   2
                   2
                   2
                   2
                   2
                   2
                   2
                   2
                   2
                   2
                   2
                   2
                   2
                   2
                   2
                   2
                   2
                   2
                   2
                   2
                   2
                   2
                   2
                   2
                   2
                   2
                   2
                   2
                   2
                   2
                   2
                   2
                   2
                   2
                   2
                   2
                   2
                   2
                   2
                   2
                   2
                   2
                   2
                   2
                   2
                   2
                   2
                   2
                   2
                   2
                   2
                   2
                   2
                   2
                   2
                   2
                   2
                   2
                   2
                   2
                   2
                   2
                   2
                   2
                   2
                   2
                   2
                   2
                   2
                   2
                   2
                   2
                   2
                   2
                   2
                   2
                   2
                   2
                   2
                   2
                   2
                   2
                   2
                   2
                   2
                   2
                   2
                   2
                   2
                   2
                   2
                   2
                   2
                   2
                   2
                   2
                   2
                   2
                   2
                   2
                   2
                   2
                   2
                   2
                   2
                   2
                   2
                   2
                   2
                   2
                   2
                   2
                   2
                   2
                   2
                   2
                   2
                   2
                   2
                   2
                   2
                   2
                   2
                   2
                   2
                   2
                   2
                   2
                   2
                   2
                   2
                   2
                   2
                   2
                   2
                   2
                   2
                   2
                   2
                   2
                   2
                   2
                   2
                   2
                   2
                   2
                   2
                   2
                   2
                   2
                   2
                   2
                   2
                   2
                   2
                   2
                   2
                   2
                   2
                   2
                   2
                   2
                   2
                   2
                   2
                   2
                   2
                   2
                   2
                   2
                   2
                   2
                   2
                   2
                   2
                   2
                   2
                   2
                   2
                   2
                   2
                   2
                   2
                   2
                   2
                   2
                   2
                   2
                   2
                   2
                   2
                   2
                   2
                   2
                   2
                   2
                   2
                   2
                   2
                   2
                   2
                   2
                   2
                   2
                   2
                   2
                   2
                   2
                   2
                   2
                   2
                   2
                   2
                   2
                   2
                   2
                   2
                   2
                   2
                   2
                   2
                   2
                   2
                   2
                   2
                   2
                   2
                   2
                   2
                   2
                   2
                   2
                   2
                   2
                   2
                   2
                   2
                   2
                   2
                   2
                   2
                   2
                   2
                   2
                   2
                   2
                   2
                   2
                   2
                   2
                   2
                   2
                   2
                   2
                   2
                   2
                   2
                   2
                   2
                   2
                   2
                   2
                   2
                   2
                   2
                   2
                   2
                   2
                   2
                   2
                   2
                   2
                   2
                   2
                   2
                   2
                   2
                   2
                   2
                   2
                   2
                   2
                   2
                   2
                   2
                   2
                   2
                   2
                   2
                   2
                   2
                   2
                   2
                   2
                   2
                   2
                   2
                   2
                   2
                   2
                   2
                   2
                   2
                   2
                   2
                   2
                   2
                   2
                   2
                   2
                   2
                   2
                   2
                   2
                   2
                   2
                   2
                   2
                   2
                   2
                   2
                   2
                   2
                   2
                   2
                   2
                   2
                   2
                   2
                   2
                   2
                   2
                   2
                   2
                   2
                   2
                   2
                   2
                   2
                   2
                   2
                   2
                   2
                   2
                   2
                   2
                   2
                   2
                   2
                   2
                   2
                   2
                   2
                   2
                   2
                   2
                   2
                   2
                   2
                   2
                   2
                   2
                   2
                   2
                   2
                   2
                   2
                   2
                   2
                   2
                   2
                   2
                   2
                   2
                   2
                   2
                   2
                   2
                   2
                   2
                   2
                   2
                   2
                   2
                   2
                   2
                   2
                   2
                   2
                   2
                   2
                   2
                   2
                   2
                   2
                   2
                   2
                   2
                   2
                   2
                   2
                   2
                   2
                   2
                   2
                   2
                   2
                   2
                   2
                   2
                   2
                   2
                   2
                   2
                   2
                   2
                   2
                   2
                   2
                   2
                   2
                   2
                   2
                   2
                   2
                   2
                   2
                   2
                   2
                   2
                   2
                   2
                   2
                   2
                   2
                   2
                   2
                   2
                   2
                   2
                   2
                   2
                   2
                   2
                   2
                   2
                   2
                   2
                   2
                   2
                   2
                   2
                   2
                   2
                   2
                   2
                   2
                   2
                   2
                   2
                   2
                   2
                   2
                   2
                   2
                   2
                   2
                   2
                   2
                   2
                   2
                   2
                   2
                   2
                   2
                   2
                   2
                   2
                   2
                   2
                   2
                   2
                   2
                   2
                   2
                   2
                   2
                   2
                   2
                   2
                   2
                   2
                   2
                   2
                   2
                   2
                   2
                   2
                   2
                   2
                   2
                   2
                   2
                   2
                   2
                   2
                   2
                   2
                   2
                   2
                   2
                   2
                   2
                   2
                   2
                   2
                   2
                   2
                   2
                   2
                   2
                   2
                   2
                   2
                   2
                   2
                   2
                   2
                   2
                   2
                   2
                   2
                   2
                   2
                   2
                   2
                   2
                   2
                   2
                   2
                   2
                   2
                   2
                   2
                   2
                   2
                   2
                   2
                   2
                   2
                   2
                   2
                   2
                   2
                   2
                   2
                   2
                   2
                   2
                   2
                   2
                   2
                   2
                   2
                   2
                   2
                   2
                   2
                   2
                   2
                   2
                   2
                   2
                   2
                   2
                   2
                   2
                   2
                   2
                   2
                   2
                   2
                   2
                   2
                   2
                   2
                   2
                   2
                   2
                   2
                   2
                   2
                   2
                   2
                   2
                   2
                   2
                   2
                   2
                   2
                   2
                   2
                   2
                   2
                   2
                   2
                   2
                   2
                   2
                   2
                   2
                   2
                   2
                   2
                   2
                   2
                   2
                   2
                   2
                   2
                   2
                   2
                   2
                   2
                   2
                   2
                   2
                   2
                   2
                   2
                   2
                   2
                   2
                   2
                   2
                   2
                   2
                   2
                   2
                   2
                   2
                   2
                   2
                   2
                   2
                   2
                   2
                   2
                   2
                   2
                   2
                   2
                   2
                   2
                   2
                   2
                   2
                   2
                   2
                   2
                   2
                   2
                   2
                   2
                   2
                   2
                   2
                   2
                   2
                   2
                   2
                   2
                   2
                   2
                   2
                   2
                   2
                   2
                   2
                   2
                   2
                   2
                   2
                   2
                   2
                   2
                   2
                   2
                   2
                   2
                   2
                   2
                   2
                   2
                   2
                   2
                   2
                   2
                   2
                   2
                   2
                   2
                   2
                   2
                   2
                   2
                   2
                   2
                   2
                   2
                   2
                   2
                   2
                   2
                   2
                   2
                   2
                   2
                   2
                   2
                   2
                   2
                   2
                   2
                   2
                   2
                   2
                   2
                   2
                   2
                   2
                   2
                   2
                   2
                   2
                   2
                   2
                   2
                   2
                   2
                   2
                   2
                   2
                   2
                   2
                   2
                   2
                   2
                   2
                   2
                   2
                   2
                   2
                   2
                   2
                   2
                   2
                   2
                   2
                   2
                   2
                   2
                   2
                   2
                   2
                   2
                   2
                   2
                   2
                   2
                   2
                   2
                   2
                   2
                   2
                   2
                   2
                   2
                   2
                   2
                   2
                   2
                   2
                   2
                   2
                   2
                   2
                   2
                   2
                   2
                   2
                   2
                   2
                   2
                   2
                   2
                   2
                   2
                   2
                   2
                   2
                   2
                   2
                   2
                   2
                   2
                   2
                   2
                   2
                   2
                   2
                   2
                   2
                   2
                   2
                   2
                   2
                   2
                   2
                   2
                   2
                   2
                   2
                   2
                   2
                   2
                   2
                   2
                   2
                   2
                   2
                   2
                   2
                   2
                   2
                   2
                   2
                   2
                   2
                   2
                   2
                   2
                   2
                   2
                   2
                   2
                   2
                   2
                   2
                   2
                   2
                   2
                   2
                   2
                   2
                   2
                   2
                   2
                   2
                   2
                   2
                   2
                   2
                   2
                   2
                   2
                   2
                   2
                   2
                   2
                   2
                   2
                   2
                   2
                   2
                   2
                   2
                   2
                   2
                   2
                   2
                   2
                   2
                   2
                   2
                   2
                   2
                   2
                   2
                   2
                   2
                   2
                   2
                   2
                   2
                   2
                   2
                   2
                   2
                   2
                   2
                   2
                   2
                   2
                   2
                   2
                   2
                   2
                   2
                   2
                   2
                   2
                   2
                   2
                   2
                   2
                   2
                   2
                   2
                   2
                   2
                   2
                   2
                   2
                   2
                   2
                   2
                   2
                   2
                   2
                   2
                   2
                   2
                   2
                   2
                   2
                   2
                   2
                   2
                   2
                   2
                   2
                   2
                   2
                   2
                   2
                   2
                   2
                   2
                   2
                   2
                   2
                   2
                   2
                   2
                   2
                   2
                   2
                   2
                   2
                   2
                   2
                   2
                   2
                   2
                   2
                   2
                   2
                   2
                   2
                   2
                   2
                   2
                   2
                   2
                   2
                   2
                   2
                   2
                   2
                   2
                   2
                   2
                   2
                   2
                   2
                   2
                   2
                   2
                   2
                   2
                   2
                   2
                   2
                   2
                   2
                   2
                   2
                   2
                   2
                   2
                   2
                   2
                   2
                   2
                   2
                   2
                   2
                   2
                   2
                   2
                   2
                   2
                   2
                   2
                   2
                   2
                   2
                   2
                   2
                   2
                   2
                   2
                   2
                   2
                   2
                   2
                   2
                   2
                   2
                   2
                   2
                   2
                   2
                   2
                   2
                   2
                   2
                   2
                   2
                   2
                   2
                   2
                   2
                   2
                   2
                   2
                   2
                   2
                   2
                   2
                   2
                   2
                   2
                   2
                   2
                   2
                   2
                   2
                   2
                   2
                   2
                   2
                   2
                   2
                   2
                   2
                   2
                   2
                   2
                   2
                   2
                   2
                   2
                   2
                   2
                   2
                   2
                   2
                   2
                   2
                   2
                   2
                   2
                   2
                   2
                   2
                   2
                   2
                   2
                   2
                   2
                   2
                   2
                   2
                   2
                   2
                   2
                   2
                   2
                   2
                   2
                   2
                   2
                   2
                   2
                   2
                   2
                   2
                   2
                   2
                   2
                   2
                   2
                   2
                   2
                   2
                   2
                   2
                   2
                   2
                   2
                   2
                   2
                   2
                   2
                   2
                   2
                   2
                   2
                   2
                   2
                   2
                   2
                   2
                   2
                   2
                   2
                   2
                   2
                   2
                   2
                   2
                   2
                   2
                   2
                   2
                   2
                   2
                   2
                   2
                   2
                   2
                   2
                   2
                   2
                   2
                   2
                   2
                   2
                   2
                   2
                   2
                   2
                   2
                   2
                   2
                   2
                   2
                   2
                   2
                   2
                   2
                   2
                   2
                   2
                   2
                   2
                   2
                   2
                   2
                   2
                   2
                   2
                   2
                   2
                   2
                   2
                   2
                   2
                   2
                   2
                   2
                   2
                   2
                   2
                   2
                   2
                   2
                   2
                   2
                   2
                   2
                   2
                   2
                   2
                   2
                   2
                   2
                   2
                   2
                   2
                   2
                   2
                   2
                   2
                   2
                   2
                   2
                   2
                   2
                   2
                   2
                   2
                   2
                   2
                   2
                   2
                   2
                   2
                   2
                   2
                   2
                   2
                   2
                   2
                   2
                   2
                   2
                   2
                   2
                   2
                   2
                   2
                   2
                   2
                   2
                   2
                   2
                   2
                   2
                   2
                   2
                   2
                   2
                   2
                   2
                   2
                   2
                   2
                   2
                   2
                   2
                   2
                   2
                   2
                   2
                   2
                   2
                   2
                   2
                   2
                   2
                   2
                   2
                   2
                   2
                   2
                   2
                   2
                   2
                   2
                   2
                   2
                   2
                   2
                   2
                   2
                   2
                   2
                   2
                   2
                   2
                   2
                   2
                   2
                   2
                   2
                   2
                   2
                   2
                   2
                   2
                   2
                   2
                   2
                   2
                   2
                   2
                   2
                   2
                   2
                   2
                   2
                   2
                   2
                   2
                   2
                   2
                   2
                   2
                   2
                   2
                   2
                   2
                   2
                   2
                   2
                   2
                   2
                   2
                   2
                   2
                   2
                   2
                   2
                   2
                   2
                   2
                   2
                   2
                   2
                   2
                   2
                   2
                   2
                   2
                   2
                   2
                   2
                   2
                   2
                   2
                   2
                   2
                   2
                   2
                   2
                   2
                   2
                   2
                   2
                   2
                   2
                   2
                   2
                   2
                   2
                   2
                   2
                   2
                   2
                   2
                   2
                   2
                   2
                   2
                   2
                   2
                   2
                   2
                   2
                   2
                   2
                   2
                   2
                   2
                   2
                   2
                   2
                   2
                   2
                   2
                   2
                   2
                   2
                   2
                   2
                   2
                   2
                   2
                   2
                   2
                   2
                   2
                   2
                   2
                   2
                   2
                   2
                   2
                   2
                   2
                   2
                   2
                   2
                   2
                   2
                   2
                   2
                   2
                   2
                   2
                   2
                   2
                   2
                   2
                   2
                   2
                   2
                   2
                   2
                   2
                   2
                   2
                   2
                   2
                   2
                   2
                   2
                   2
                   2
                   2
                   2
                   2
                   2
                   2
  
SCALARS                       fixity_x  double 1
LOOKUP_TABLE default
                   0
                   0
                   0
                   0
                   0
                   0
                   0
                   0
                   0
                   0
                   0
                   0
                   0
                   0
                   0
                   0
                   0
                   0
                   0
                   0
                   0
                   0
                   0
                   0
                   0
                   0
                   0
                   0
                   0
                   0
                   0
                   0
                   0
                   0
                   0
                   0
                   0
                   0
                   0
                   0
                   0
                   0
                   0
                   0
                   0
                   0
                   0
                   0
                   0
                   0
                   0
                   0
                   0
                   0
                   0
                   0
                   0
                   0
                   0
                   0
                   0
                   0
                   0
                   0
                   0
                   0
                   0
                   0
                   0
                   0
                   0
                   0
                   0
                   0
                   0
                   0
                   0
                   0
                   0
                   0
                   0
                   0
                   0
                   0
                   0
                   0
                   0
                   0
                   0
                   0
                   0
                   0
                   0
                   0
                   0
                   0
                   0
                   0
                   0
                   0
                   0
                   0
                   0
                   0
                   0
                   0
                   0
                   0
                   0
                   0
                   0
                   0
                   0
                   0
                   0
                   0
                   0
                   0
                   0
                   0
                   0
                   0
                   0
                   0
                   0
                   0
                   0
                   0
                   0
                   0
                   0
                   0
                   0
                   0
                   0
                   0
                   0
                   0
                   0
                   0
                   0
                   0
                   0
                   0
                   0
                   0
                   0
                   0
                   0
                   0
                   0
                   0
                   0
                   0
                   0
                   0
                   0
                   0
                   0
                   0
                   0
                   0
                   0
                   0
                   0
                   0
                   0
                   0
                   0
                   0
                   0
                   0
                   0
                   0
                   0
                   0
                   0
                   0
                   0
                   0
                   0
                   0
                   0
                   0
                   0
                   0
                   0
                   0
                   0
                   0
                   0
                   0
                   0
                   0
                   0
                   0
                   0
                   0
                   0
                   0
                   0
                   0
                   0
                   0
                   0
                   0
                   0
                   0
                   0
                   0
                   0
                   0
                   0
                   0
                   0
                   0
                   0
                   0
                   0
                   0
                   0
                   0
                   0
                   0
                   0
                   0
                   0
                   0
                   0
                   0
                   0
                   0
                   0
                   0
                   0
                   0
                   0
                   0
                   0
                   0
                   0
                   0
                   0
                   0
                   0
                   0
                   0
                   0
                   0
                   0
                   0
                   0
                   0
                   0
                   0
                   0
                   0
                   0
                   0
                   0
                   0
                   0
                   0
                   0
                   0
                   0
                   0
                   0
                   0
                   0
                   0
                   0
                   0
                   0
                   0
                   0
                   0
                   0
                   0
                   0
                   0
                   0
                   0
                   0
                   0
                   0
                   0
                   0
                   0
                   0
                   0
                   0
                   0
                   0
                   0
                   0
                   0
                   0
                   0
                   0
                   0
                   0
                   0
                   0
                   0
                   0
                   0
                   0
                   0
                   0
                   0
                   0
                   0
                   0
                   0
                   0
                   0
                   0
                   0
                   0
                   0
                   0
                   0
                   0
                   0
                   0
                   0
                   0
                   0
                   0
                   0
                   0
                   0
                   0
                   0
                   0
                   0
                   0
                   0
                   0
                   0
                   0
                   0
                   0
                   0
                   0
                   0
                   0
                   0
                   0
                   0
                   0
                   0
                   0
                   0
                   0
                   0
                   0
                   0
                   0
                   0
                   0
                   0
                   0
                   0
                   0
                   0
                   0
                   0
                   0
                   0
                   0
                   0
                   0
                   0
                   0
                   0
                   0
                   0
                   0
                   0
                   0
                   0
                   0
                   0
                   0
                   0
                   0
                   0
                   0
                   0
                   0
                   0
                   0
                   0
                   0
                   0
                   0
                   0
                   0
                   0
                   0
                   0
                   0
                   0
                   0
                   0
                   0
                   0
                   0
                   0
                   0
                   0
                   0
                   0
                   0
                   0
                   0
                   0
                   0
                   0
                   0
                   0
                   0
                   0
                   0
                   0
                   0
                   0
                   0
                   0
                   0
                   0
                   0
                   0
                   0
                   0
                   0
                   0
                   0
                   0
                   0
                   0
                   0
                   0
                   0
                   0
                   0
                   0
                   0
                   0
                   0
                   0
                   0
                   0
                   0
                   0
                   0
                   0
                   0
                   0
                   0
                   0
                   0
                   0
                   0
                   0
                   0
                   0
                   0
                   0
                   0
                   0
                   0
                   0
                   0
                   0
                   0
                   0
                   0
                   0
                   0
                   0
                   0
                   0
                   0
                   0
                   0
                   0
                   0
                   0
                   0
                   0
                   0
                   0
                   0
                   0
                   0
                   0
                   0
                   0
                   0
                   0
                   0
                   0
                   0
                   0
                   0
                   0
                   0
                   0
                   0
                   0
                   0
                   0
                   0
                   0
                   0
                   0
                   0
                   0
                   0
                   0
                   0
                   0
                   0
                   0
                   0
                   0
                   0
                   0
                   0
                   0
                   0
                   0
                   0
                   0
                   0
                   0
                   0
                   0
                   0
                   0
                   0
                   0
                   0
                   0
                   0
                   0
                   0
                   0
                   0
                   0
                   0
                   0
                   0
                   0
                   0
                   0
                   0
                   0
                   0
                   0
                   0
                   0
                   0
                   0
                   0
                   0
                   0
                   0
                   0
                   0
                   0
                   0
                   0
                   0
                   0
                   0
                   0
                   0
                   0
                   0
                   0
                   0
                   0
                   0
                   0
                   0
                   0
                   0
                   0
                   0
                   0
                   0
                   0
                   0
                   0
                   0
                   0
                   0
                   0
                   0
                   0
                   0
                   0
                   0
                   0
                   0
                   0
                   0
                   0
                   0
                   0
                   0
                   0
                   0
                   0
                   0
                   0
                   0
                   0
                   0
                   0
                   0
                   0
                   0
                   0
                   0
                   0
                   0
                   0
                   0
                   0
                   0
                   0
                   0
                   0
                   0
                   0
                   0
                   0
                   0
                   0
                   0
                   0
                   0
                   0
                   0
                   0
                   0
                   0
                   0
                   0
                   0
                   0
                   0
                   0
                   0
                   0
                   0
                   0
                   0
                   0
                   0
                   0
                   0
                   0
                   0
                   0
                   0
                   0
                   0
                   0
                   0
                   0
                   0
                   0
                   0
                   0
                   0
                   0
                   0
                   0
                   0
                   0
                   0
                   0
                   0
                   0
                   0
                   0
                   0
                   0
                   0
                   0
                   0
                   0
                   0
                   0
                   0
                   0
                   0
                   0
                   0
                   0
                   0
                   0
                   0
                   0
                   0
                   0
                   0
                   0
                   0
                   0
                   0
                   0
                   0
                   0
                   0
                   0
                   0
                   0
                   0
                   0
                   0
                   0
                   0
                   0
                   0
                   0
                   0
                   0
                   0
                   0
                   0
                   0
                   0
                   0
                   0
                   0
                   0
                   0
                   0
                   0
                   0
                   0
                   0
                   0
                   0
                   0
                   0
                   0
                   0
                   0
                   0
                   0
                   0
                   0
                   0
                   0
                   0
                   0
                   0
                   0
                   0
                   0
                   0
                   0
                   0
                   0
                   0
                   0
                   0
                   0
                   0
                   0
                   0
                   0
                   0
                   0
                   0
                   0
                   0
                   0
                   0
                   0
                   0
                   0
                   0
                   0
                   0
                   0
                   0
                   0
                   0
                   0
                   0
                   0
                   0
                   0
                   0
                   0
                   0
                   0
                   0
                   0
                   0
                   0
                   0
                   0
                   0
                   0
                   0
                   0
                   0
                   0
                   0
                   0
                   0
                   0
                   0
                   0
                   0
                   0
                   0
                   0
                   0
                   0
                   0
                   0
                   0
                   0
                   0
                   0
                   0
                   0
                   0
                   0
                   0
                   0
                   0
                   0
                   0
                   0
                   0
                   0
                   0
                   0
                   0
                   0
                   0
                   0
                   0
                   0
                   0
                   0
                   0
                   0
                   0
                   0
                   0
                   0
                   0
                   0
                   0
                   0
                   0
                   0
                   0
                   0
                   0
                   0
                   0
                   0
                   0
                   0
                   0
                   0
                   0
                   0
                   0
                   0
                   0
                   0
                   0
                   0
                   0
                   0
                   0
                   0
                   0
                   0
                   0
                   0
                   0
                   0
                   0
                   0
                   0
                   0
                   0
                   0
                   0
                   0
                   0
                   0
                   0
                   0
                   0
                   0
                   0
                   0
                   0
                   0
                   0
                   0
                   0
                   0
                   0
                   0
                   0
                   0
                   0
                   0
                   0
                   0
                   0
                   0
                   0
                   0
                   0
                   0
                   0
                   0
                   0
                   0
                   0
                   0
                   0
                   0
                   0
                   0
                   0
                   0
                   0
                   0
                   0
                   0
                   0
                   0
                   0
                   0
                   0
                   0
                   0
                   0
                   0
                   0
                   0
                   0
                   0
                   0
                   0
                   0
                   0
                   0
                   0
                   0
                   0
                   0
                   0
                   0
                   0
                   0
                   0
                   0
                   0
                   0
                   0
                   0
                   0
                   0
                   0
                   0
                   0
                   0
                   0
                   0
                   0
                   0
                   0
                   0
                   0
                   0
                   0
                   0
                   0
                   0
                   0
                   0
                   0
                   0
                   0
                   0
                   0
                   0
                   0
                   0
                   0
                   0
                   0
                   0
                   0
                   0
                   0
                   0
                   0
                   0
                   0
                   0
                   0
                   0
                   0
                   0
                   0
                   0
                   0
                   0
                   0
                   0
                   0
                   0
                   0
                   0
                   0
                   0
                   0
                   0
                   0
                   0
                   0
                   0
                   0
                   0
                   0
                   0
                   0
                   0
                   0
                   0
                   0
                   0
                   0
                   0
                   0
                   0
                   0
                   0
                   0
                   0
                   0
                   0
                   0
                   0
                   0
                   0
                   0
                   0
                   0
                   0
                   0
                   0
                   0
                   0
                   0
                   0
                   0
                   0
                   0
                   0
                   0
                   0
                   0
                   0
                   0
                   0
                   0
                   0
                   0
                   0
                   0
                   0
                   0
                   0
                   0
                   0
                   0
                   0
                   0
                   0
                   0
                   0
                   0
                   0
                   0
                   0
                   0
                   0
                   0
                   0
                   0
                   0
                   0
                   0
                   0
                   0
                   0
                   0
                   0
                   0
                   0
                   0
                   0
                   0
                   0
                   0
                   0
                   0
                   0
                   0
                   0
                   0
                   0
                   0
                   0
                   0
                   0
                   0
                   0
                   0
                   0
                   0
                   0
                   0
                   0
                   0
                   0
                   0
                   0
                   0
                   0
                   0
                   0
                   0
                   0
                   0
                   0
                   0
                   0
                   0
                   0
                   0
                   0
                   0
                   0
                   0
                   0
                   0
                   0
                   0
                   0
                   0
                   0
                   0
                   0
                   0
                   0
                   0
                   0
                   0
                   0
                   0
                   0
                   0
                   0
                   0
                   0
                   0
                   0
                   0
                   0
                   0
                   0
                   0
                   0
                   0
                   0
                   0
                   0
                   0
                   0
                   0
                   0
                   0
                   0
                   0
                   0
                   0
                   0
                   0
                   0
                   0
                   0
                   0
                   0
                   0
                   0
                   0
                   0
                   0
                   0
                   0
                   0
                   0
                   0
                   0
                   0
                   0
                   0
                   0
                   0
                   0
                   0
                   0
                   0
                   0
                   0
                   0
                   0
                   0
                   0
                   0
                   0
                   0
                   0
                   0
                   0
                   0
                   0
                   0
                   0
                   0
                   0
                   0
                   0
                   0
                   0
                   0
                   0
                   0
                   0
                   0
                   0
                   0
                   0
                   0
                   0
                   0
                   0
                   0
                   0
                   0
                   0
                   0
                   0
                   0
                   0
                   0
                   0
                   0
                   0
                   0
                   0
                   0
                   0
                   0
                   0
                   0
                   0
                   0
                   0
                   0
                   0
                   0
                   0
                   0
                   0
                   0
                   0
                   0
                   0
                   0
                   0
                   0
                   0
                   0
                   0
                   0
                   0
                   0
                   0
                   0
                   0
                   0
                   0
                   0
                   0
                   0
                   0
                   0
                   0
                   0
                   0
                   0
                   0
                   0
                   0
                   0
                   0
                   0
                   0
                   0
                   0
                   0
                   0
                   0
                   0
                   0
                   0
                   0
                   0
                   0
                   0
                   0
                   0
                   0
                   0
                   0
                   0
                   0
                   0
                   0
                   0
                   0
                   0
                   0
                   0
                   0
                   0
                   0
                   0
                   0
                   0
                   0
                   0
                   0
                   0
                   0
                   0
                   0
                   0
                   0
                   0
                   0
                   0
                   0
                   0
                   0
                   0
                   0
                   0
                   0
                   0
                   0
                   0
                   0
                   0
                   0
                   0
                   0
                   0
                   0
                   0
                   0
                   0
                   0
                   0
                   0
                   0
                   0
                   0
                   0
                   0
                   0
                   0
                   0
                   0
                   0
                   0
                   0
                   0
                   0
                   0
                   0
                   0
                   0
                   0
                   0
                   0
                   0
                   0
                   0
                   0
                   0
                   0
                   0
                   0
                   0
                   0
                   0
                   0
                   0
                   0
                   0
                   0
                   0
                   0
                   0
                   0
                   0
                   0
                   0
                   0
                   0
                   0
                   0
                   0
                   0
                   0
                   0
                   0
                   0
                   0
                   0
                   0
                   0
                   0
                   0
                   0
                   0
                   0
                   0
                   0
                   0
                   0
                   0
                   0
                   0
                   0
                   0
                   0
                   0
                   0
                   0
                   0
                   0
                   0
                   0
                   0
                   0
                   0
                   0
                   0
                   0
                   0
                   0
                   0
                   0
                   0
                   0
                   0
                   0
                   0
                   0
                   0
                   0
                   0
                   0
                   0
                   0
                   0
                   0
                   0
                   0
                   0
                   0
                   0
                   0
                   0
                   0
                   0
                   0
                   0
                   0
                   0
                   0
                   0
                   0
                   0
                   0
                   0
                   0
                   0
                   0
                   0
                   0
                   0
                   0
                   0
                   0
                   0
                   0
                   0
                   0
                   0
                   0
                   0
                   0
                   0
                   0
                   0
                   0
                   0
                   0
                   0
                   0
                   0
                   0
                   0
                   0
                   0
                   0
                   0
                   0
                   0
                   0
                   0
                   0
                   0
                   0
                   0
                   0
                   0
                   0
                   0
                   0
                   0
                   0
                   0
                   0
                   0
                   0
                   0
                   0
                   0
                   0
                   0
                   0
                   0
                   0
                   0
                   0
                   0
                   0
                   0
                   0
                   0
                   0
                   0
                   0
                   0
                   0
                   0
                   0
                   0
                   0
                   0
                   0
                   0
                   0
                   0
                   0
                   0
                   0
                   0
                   0
                   0
                   0
                   0
                   0
                   0
                   0
                   0
                   0
                   0
                   0
                   0
                   0
                   0
                   0
                   0
                   0
                   0
                   0
                   0
                   0
                   0
                   0
                   0
                   0
                   0
                   0
                   0
                   0
                   0
                   0
                   0
                   0
                   0
                   0
                   0
                   0
                   0
                   0
                   0
                   0
                   0
                   0
                   0
                   0
                   0
                   0
                   0
                   0
                   0
                   0
                   0
                   0
                   0
                   0
                   0
                   0
                   0
                   0
                   0
                   0
                   0
                   0
                   0
                   0
                   0
                   0
                   0
                   0
                   0
                   0
                   0
                   0
                   0
                   0
                   0
                   0
                   0
                   0
                   0
                   0
                   0
                   0
                   0
                   0
                   0
                   0
                   0
                   0
                   0
                   0
                   0
                   0
                   0
                   0
                   0
                   0
                   0
                   0
                   0
                   0
                   0
                   0
                   0
                   0
                   0
                   0
                   0
                   0
                   0
                   0
                   0
                   0
                   0
                   0
                   0
                   0
                   0
                   0
                   0
                   0
                   0
                   0
                   0
                   0
                   0
                   0
                   0
                   0
                   0
                   0
                   0
                   0
                   0
                   0
                   0
                   0
                   0
                   0
                   0
                   0
                   0
                   0
                   0
                   0
                   0
                   0
                   0
                   0
                   0
                   0
                   0
                   0
                   0
                   0
                   0
                   0
                   0
                   0
                   0
                   0
                   0
                   0
                   0
                   0
                   0
                   0
                   0
                   0
                   0
                   0
                   0
                   0
                   0
                   0
                   0
                   0
                   0
                   0
                   0
                   0
                   0
                   0
                   0
                   0
                   0
                   0
                   0
                   0
                   0
                   0
                   0
                   0
                   0
                   0
                   0
                   0
                   0
                   0
                   0
                   0
                   0
                   0
                   0
                   0
                   0
                   0
                   0
                   0
                   0
                   0
                   0
                   0
                   0
                   0
                   0
                   0
                   0
                   0
                   0
                   0
                   0
                   0
                   0
                   0
                   0
                   0
                   0
                   0
                   0
                   0
                   0
                   0
                   0
                   0
                   0
                   0
                   0
                   0
                   0
                   0
                   0
                   0
                   0
                   0
                   0
                   0
                   0
                   0
                   0
                   0
                   0
                   0
                   0
                   0
                   0
                   0
                   0
                   0
                   0
                   0
                   0
                   0
                   0
                   0
                   0
                   0
                   0
                   0
                   0
                   0
                   0
                   0
                   0
                   0
                   0
                   0
                   0
                   0
                   0
                   0
                   0
                   0
                   0
                   0
                   0
                   0
                   0
                   0
                   0
                   0
                   0
                   0
                   0
                   0
                   0
                   0
                   0
                   0
                   0
                   0
                   0
                   0
                   0
                   0
                   0
                   0
                   0
                   0
                   0
                   0
                   0
                   0
                   0
                   0
                   0
                   0
                   0
                   0
                   0
                   0
                   0
                   0
                   0
                   0
                   0
                   0
                   0
                   0
                   0
                   0
                   0
                   0
                   0
                   0
                   0
                   0
                   0
                   0
                   0
                   0
                   0
                   0
  
SCALARS                       fixity_y  double 1
LOOKUP_TABLE default
                   0
                   0
                   0
                   0
                   0
                   0
                   0
                   0
                   0
                   0
                   0
                   0
                   0
                   0
                   0
                   0
                   0
                   0
                   0
                   0
                   0
                   0
                   0
                   0
                   0
                   0
                   0
                   0
                   0
                   0
                   0
                   0
                   0
                   0
                   0
                   0
                   0
                   0
                   0
                   0
                   0
                   0
                   0
                   0
                   0
                   0
                   0
                   0
                   0
                   0
                   0
                   0
                   0
                   0
                   0
                   0
                   0
                   0
                   0
                   0
                   0
                   0
                   0
                   0
                   0
                   0
                   0
                   0
                   0
                   0
                   0
                   0
                   0
                   0
                   0
                   0
                   0
                   0
                   0
                   0
                   0
                   0
                   0
                   0
                   0
                   0
                   0
                   0
                   0
                   0
                   0
                   0
                   0
                   0
                   0
                   0
                   0
                   0
                   0
                   0
                   0
                   0
                   0
                   0
                   0
                   0
                   0
                   0
                   0
                   0
                   0
                   0
                   0
                   0
                   0
                   0
                   0
                   0
                   0
                   0
                   0
                   0
                   0
                   0
                   0
                   0
                   0
                   0
                   0
                   0
                   0
                   0
                   0
                   0
                   0
                   0
                   0
                   0
                   0
                   0
                   0
                   0
                   0
                   0
                   0
                   0
                   0
                   0
                   0
                   0
                   0
                   0
                   0
                   0
                   0
                   0
                   0
                   0
                   0
                   0
                   0
                   0
                   0
                   0
                   0
                   0
                   0
                   0
                   0
                   0
                   0
                   0
                   0
                   0
                   0
                   0
                   0
                   0
                   0
                   0
                   0
                   0
                   0
                   0
                   0
                   0
                   0
                   0
                   0
                   0
                   0
                   0
                   0
                   0
                   0
                   0
                   0
                   0
                   0
                   0
                   0
                   0
                   0
                   0
                   0
                   0
                   0
                   0
                   0
                   0
                   0
                   0
                   0
                   0
                   0
                   0
                   0
                   0
                   0
                   0
                   0
                   0
                   0
                   0
                   0
                   0
                   0
                   0
                   0
                   0
                   0
                   0
                   0
                   0
                   0
                   0
                   0
                   0
                   0
                   0
                   0
                   0
                   0
                   0
                   0
                   0
                   0
                   0
                   0
                   0
                   0
                   0
                   0
                   0
                   0
                   0
                   0
                   0
                   0
                   0
                   0
                   0
                   0
                   0
                   0
                   0
                   0
                   0
                   0
                   0
                   0
                   0
                   0
                   0
                   0
                   0
                   0
                   0
                   0
                   0
                   0
                   0
                   0
                   0
                   0
                   0
                   0
                   0
                   0
                   0
                   0
                   0
                   0
                   0
                   0
                   0
                   0
                   0
                   0
                   0
                   0
                   0
                   0
                   0
                   0
                   0
                   0
                   0
                   0
                   0
                   0
                   0
                   0
                   0
                   0
                   0
                   0
                   0
                   0
                   0
                   0
                   0
                   0
                   0
                   0
                   0
                   0
                   0
                   0
                   0
                   0
                   0
                   0
                   0
                   0
                   0
                   0
                   0
                   0
                   0
                   0
                   0
                   0
                   0
                   0
                   0
                   0
                   0
                   0
                   0
                   0
                   0
                   0
                   0
                   0
                   0
                   0
                   0
                   0
                   0
                   0
                   0
                   0
                   0
                   0
                   0
                   0
                   0
                   0
                   0
                   0
                   0
                   0
                   0
                   0
                   0
                   0
                   0
                   0
                   0
                   0
                   0
                   0
                   0
                   0
                   0
                   0
                   0
                   0
                   0
                   0
                   0
                   0
                   0
                   0
                   0
                   0
                   0
                   0
                   0
                   0
                   0
                   0
                   0
                   0
                   0
                   0
                   0
                   0
                   0
                   0
                   0
                   0
                   0
                   0
                   0
                   0
                   0
                   0
                   0
                   0
                   0
                   0
                   0
                   0
                   0
                   0
                   0
                   0
                   0
                   0
                   0
                   0
                   0
                   0
                   0
                   0
                   0
                   0
                   0
                   0
                   0
                   0
                   0
                   0
                   0
                   0
                   0
                   0
                   0
                   0
                   0
                   0
                   0
                   0
                   0
                   0
                   0
                   0
                   0
                   0
                   0
                   0
                   0
                   0
                   0
                   0
                   0
                   0
                   0
                   0
                   0
                   0
                   0
                   0
                   0
                   0
                   0
                   0
                   0
                   0
                   0
                   0
                   0
                   0
                   0
                   0
                   0
                   0
                   0
                   0
                   0
                   0
                   0
                   0
                   0
                   0
                   0
                   0
                   0
                   0
                   0
                   0
                   0
                   0
                   0
                   0
                   0
                   0
                   0
                   0
                   0
                   0
                   0
                   0
                   0
                   0
                   0
                   0
                   0
                   0
                   0
                   0
                   0
                   0
                   0
                   0
                   0
                   0
                   0
                   0
                   0
                   0
                   0
                   0
                   0
                   0
                   0
                   0
                   0
                   0
                   0
                   0
                   0
                   0
                   0
                   0
                   0
                   0
                   0
                   0
                   0
                   0
                   0
                   0
                   0
                   0
                   0
                   0
                   0
                   0
                   0
                   0
                   0
                   0
                   0
                   0
                   0
                   0
                   0
                   0
                   0
                   0
                   0
                   0
                   0
                   0
                   0
                   0
                   0
                   0
                   0
                   0
                   0
                   0
                   0
                   0
                   0
                   0
                   0
                   0
                   0
                   0
                   0
                   0
                   0
                   0
                   0
                   0
                   0
                   0
                   0
                   0
                   0
                   0
                   0
                   0
                   0
                   0
                   0
                   0
                   0
                   0
                   0
                   0
                   0
                   0
                   0
                   0
                   0
                   0
                   0
                   0
                   0
                   0
                   0
                   0
                   0
                   0
                   0
                   0
                   0
                   0
                   0
                   0
                   0
                   0
                   0
                   0
                   0
                   0
                   0
                   0
                   0
                   0
                   0
                   0
                   0
                   0
                   0
                   0
                   0
                   0
                   0
                   0
                   0
                   0
                   0
                   0
                   0
                   0
                   0
                   0
                   0
                   0
                   0
                   0
                   0
                   0
                   0
                   0
                   0
                   0
                   0
                   0
                   0
                   0
                   0
                   0
                   0
                   0
                   0
                   0
                   0
                   0
                   0
                   0
                   0
                   0
                   0
                   0
                   0
                   0
                   0
                   0
                   0
                   0
                   0
                   0
                   0
                   0
                   0
                   0
                   0
                   0
                   0
                   0
                   0
                   0
                   0
                   0
                   0
                   0
                   0
                   0
                   0
                   0
                   0
                   0
                   0
                   0
                   0
                   0
                   0
                   0
                   0
                   0
                   0
                   0
                   0
                   0
                   0
                   0
                   0
                   0
                   0
                   0
                   0
                   0
                   0
                   0
                   0
                   0
                   0
                   0
                   0
                   0
                   0
                   0
                   0
                   0
                   0
                   0
                   0
                   0
                   0
                   0
                   0
                   0
                   0
                   0
                   0
                   0
                   0
                   0
                   0
                   0
                   0
                   0
                   0
                   0
                   0
                   0
                   0
                   0
                   0
                   0
                   0
                   0
                   0
                   0
                   0
                   0
                   0
                   0
                   0
                   0
                   0
                   0
                   0
                   0
                   0
                   0
                   0
                   0
                   0
                   0
                   0
                   0
                   0
                   0
                   0
                   0
                   0
                   0
                   0
                   0
                   0
                   0
                   0
                   0
                   0
                   0
                   0
                   0
                   0
                   0
                   0
                   0
                   0
                   0
                   0
                   0
                   0
                   0
                   0
                   0
                   0
                   0
                   0
                   0
                   0
                   0
                   0
                   0
                   0
                   0
                   0
                   0
                   0
                   0
                   0
                   0
                   0
                   0
                   0
                   0
                   0
                   0
                   0
                   0
                   0
                   0
                   0
                   0
                   0
                   0
                   0
                   0
                   0
                   0
                   0
                   0
                   0
                   0
                   0
                   0
                   0
                   0
                   0
                   0
                   0
                   0
                   0
                   0
                   0
                   0
                   0
                   0
                   0
                   0
                   0
                   0
                   0
                   0
                   0
                   0
                   0
                   0
                   0
                   0
                   0
                   0
                   0
                   0
                   0
                   0
                   0
                   0
                   0
                   0
                   0
                   0
                   0
                   0
                   0
                   0
                   0
                   0
                   0
                   0
                   0
                   0
                   0
                   0
                   0
                   0
                   0
                   0
                   0
                   0
                   0
                   0
                   0
                   0
                   0
                   0
                   0
                   0
                   0
                   0
                   0
                   0
                   0
                   0
                   0
                   0
                   0
                   0
                   0
                   0
                   0
                   0
                   0
                   0
                   0
                   0
                   0
                   0
                   0
                   0
                   0
                   0
                   0
                   0
                   0
                   0
                   0
                   0
                   0
                   0
                   0
                   0
                   0
                   0
                   0
                   0
                   0
                   0
                   0
                   0
                   0
                   0
                   0
                   0
                   0
                   0
                   0
                   0
                   0
                   0
                   0
                   0
                   0
                   0
                   0
                   0
                   0
                   0
                   0
                   0
                   0
                   0
                   0
                   0
                   0
                   0
                   0
                   0
                   0
                   0
                   0
                   0
                   0
                   0
                   0
                   0
                   0
                   0
                   0
                   0
                   0
                   0
                   0
                   0
                   0
                   0
                   0
                   0
                   0
                   0
                   0
                   0
                   0
                   0
                   0
                   0
                   0
                   0
                   0
                   0
                   0
                   0
                   0
                   0
                   0
                   0
                   0
                   0
                   0
                   0
                   0
                   0
                   0
                   0
                   0
                   0
                   0
                   0
                   0
                   0
                   0
                   0
                   0
                   0
                   0
                   0
                   0
                   0
                   0
                   0
                   0
                   0
                   0
                   0
                   0
                   0
                   0
                   0
                   0
                   0
                   0
                   0
                   0
                   0
                   0
                   0
                   0
                   0
                   0
                   0
                   0
                   0
                   0
                   0
                   0
                   0
                   0
                   0
                   0
                   0
                   0
                   0
                   0
                   0
                   0
                   0
                   0
                   0
                   0
                   0
                   0
                   0
                   0
                   0
                   0
                   0
                   0
                   0
                   0
                   0
                   0
                   0
                   0
                   0
                   0
                   0
                   0
                   0
                   0
                   0
                   0
                   0
                   0
                   0
                   0
                   0
                   0
                   0
                   0
                   0
                   0
                   0
                   0
                   0
                   0
                   0
                   0
                   0
                   0
                   0
                   0
                   0
                   0
                   0
                   0
                   0
                   0
                   0
                   0
                   0
                   0
                   0
                   0
                   0
                   0
                   0
                   0
                   0
                   0
                   0
                   0
                   0
                   0
                   0
                   0
                   0
                   0
                   0
                   0
                   0
                   0
                   0
                   0
                   0
                   0
                   0
                   0
                   0
                   0
                   0
                   0
                   0
                   0
                   0
                   0
                   0
                   0
                   0
                   0
                   0
                   0
                   0
                   0
                   0
                   0
                   0
                   0
                   0
                   0
                   0
                   0
                   0
                   0
                   0
                   0
                   0
                   0
                   0
                   0
                   0
                   0
                   0
                   0
                   0
                   0
                   0
                   0
                   0
                   0
                   0
                   0
                   0
                   0
                   0
                   0
                   0
                   0
                   0
                   0
                   0
                   0
                   0
                   0
                   0
                   0
                   0
                   0
                   0
                   0
                   0
                   0
                   0
                   0
                   0
                   0
                   0
                   0
                   0
                   0
                   0
                   0
                   0
                   0
                   0
                   0
                   0
                   0
                   0
                   0
                   0
                   0
                   0
                   0
                   0
                   0
                   0
                   0
                   0
                   0
                   0
                   0
                   0
                   0
                   0
                   0
                   0
                   0
                   0
                   0
                   0
                   0
                   0
                   0
                   0
                   0
                   0
                   0
                   0
                   0
                   0
                   0
                   0
                   0
                   0
                   0
                   0
                   0
                   0
                   0
                   0
                   0
                   0
                   0
                   0
                   0
                   0
                   0
                   0
                   0
                   0
                   0
                   0
                   0
                   0
                   0
                   0
                   0
                   0
                   0
                   0
                   0
                   0
                   0
                   0
                   0
                   0
                   0
                   0
                   0
                   0
                   0
                   0
                   0
                   0
                   0
                   0
                   0
                   0
                   0
                   0
                   0
                   0
                   0
                   0
                   0
                   0
                   0
                   0
                   0
                   0
                   0
                   0
                   0
                   0
                   0
                   0
                   0
                   0
                   0
                   0
                   0
                   0
                   0
                   0
                   0
                   0
                   0
                   0
                   0
                   0
                   0
                   0
                   0
                   0
                   0
                   0
                   0
                   0
                   0
                   0
                   0
                   0
                   0
                   0
                   0
                   0
                   0
                   0
                   0
                   0
                   0
                   0
                   0
                   0
                   0
                   0
                   0
                   0
                   0
                   0
                   0
                   0
                   0
                   0
                   0
                   0
                   0
                   0
                   0
                   0
                   0
                   0
                   0
                   0
                   0
                   0
                   0
                   0
                   0
                   0
                   0
                   0
                   0
                   0
                   0
                   0
                   0
                   0
                   0
                   0
                   0
                   0
                   0
                   0
                   0
                   0
                   0
                   0
                   0
                   0
                   0
                   0
                   0
                   0
                   0
                   0
                   0
                   0
                   0
                   0
                   0
                   0
                   0
                   0
                   0
                   0
                   0
                   0
                   0
                   0
                   0
                   0
                   0
                   0
                   0
                   0
                   0
                   0
                   0
                   0
                   0
                   0
                   0
                   0
                   0
                   0
                   0
                   0
                   0
                   0
                   0
                   0
                   0
                   0
                   0
                   0
                   0
                   0
                   0
                   0
                   0
                   0
                   0
                   0
                   0
                   0
                   0
                   0
                   0
                   0
                   0
                   0
                   0
                   0
                   0
                   0
                   0
                   0
                   0
                   0
                   0
                   0
                   0
                   0
                   0
                   0
                   0
                   0
                   0
                   0
                   0
                   0
                   0
                   0
                   0
                   0
                   0
                   0
                   0
                   0
                   0
                   0
                   0
                   0
                   0
                   0
                   0
                   0
                   0
                   0
                   0
                   0
                   0
                   0
                   0
                   0
                   0
                   0
                   0
                   0
                   0
                   0
                   0
                   0
                   0
                   0
                   0
                   0
                   0
                   0
                   0
                   0
                   0
                   0
                   0
                   0
                   0
                   0
                   0
                   0
                   0
                   0
                   0
                   0
                   0
                   0
                   0
                   0
                   0
                   0
                   0
                   0
                   0
                   0
                   0
                   0
                   0
                   0
                   0
                   0
                   0
                   0
                   0
                   0
                   0
                   0
                   0
                   0
                   0
                   0
                   0
                   0
                   0
                   0
                   0
                   0
                   0
                   0
                   0
                   0
                   0
                   0
                   0
                   0
                   0
                   0
                   0
                   0
                   0
                   0
                   0
                   0
                   0
                   0
                   0
                   0
                   0
                   0
                   0
                   0
                   0
                   0
                   0
                   0
                   0
                   0
                   0
                   0
                   0
                   0
                   0
                   0
                   0
                   0
                   0
                   0
                   0
                   0
                   0
                   0
                   0
                   0
                   0
                   0
                   0
                   0
                   0
                   0
                   0
                   0
                   0
                   0
                   0
                   0
                   0
                   0
                   0
                   0
                   0
                   0
                   0
                   0
                   0
                   0
                   0
                   0
                   0
                   0
                   0
                   0
                   0
                   0
                   0
                   0
                   0
                   0
                   0
                   0
                   0
                   0
                   0
                   0
                   0
                   0
                   0
                   0
                   0
                   0
                   0
                   0
                   0
                   0
                   0
                   0
                   0
                   0
                   0
                   0
                   0
                   0
                   0
                   0
                   0
                   0
                   0
                   0
                   0
                   0
                   0
                   0
                   0
                   0
                   0
                   0
                   0
                   0
                   0
                   0
                   0
                   0
                   0
                   0
                   0
                   0
                   0
                   0
                   0
                   0
                   0
                   0
                   0
                   0
                   0
                   0
                   0
                   0
                   0
                   0
                   0
                   0
                   0
                   0
                   0
                   0
                   0
                   0
                   0
                   0
                   0
                   0
                   0
                   0
                   0
                   0
                   0
                   0
                   0
                   0
                   0
                   0
                   0
                   0
                   0
                   0
                   0
                   0
                   0
                   0
                   0
                   0
                   0
                   0
                   0
                   0
                   0
                   0
                   0
                   0
                   0
                   0
                   0
                   0
                   0
                   0
                   0
                   0
                   0
                   0
                   0
                   0
                   0
                   0
                   0
                   0
                   0
                   0
                   0
                   0
                   0
                   0
                   0
                   0
                   0
                   0
                   0
                   0
                   0
                   0
                   0
                   0
                   0
                   0
                   0
                   0
                   0
                   0
                   0
                   0
                   0
                   0
                   0
                   0
                   0
                   0
                   0
                   0
                   0
                   0
                   0
                   0
                   0
                   0
                   0
                   0
                   0
                   0
                   0
                   0
                   0
                   0
                   0
                   0
                   0
                   0
                   0
                   0
                   0
                   0
                   0
                   0
                   0
                   0
                   0
                   0
                   0
                   0
                   0
                   0
                   0
                   0
                   0
                   0
                   0
                   0
                   0
                   0
                   0
                   0
                   0
                   0
                   0
                   0
                   0
                   0
                   0
                   0
                   0
                   0
                   0
                   0
                   0
                   0
                   0
                   0
                   0
                   0
                   0
                   0
                   0
                   0
                   0
                   0
                   0
                   0
                   0
                   0
                   0
                   0
                   0
                   0
                   0
                   0
                   0
                   0
                   0
                   0
                   0
                   0
                   0
                   0
                   0
                   0
                   0
                   0
                   0
                   0
                   0
                   0
                   0
                   0
                   0
                   0
                   0
                   0
                   0
                   0
                   0
                   0
                   0
                   0
                   0
                   0
                   0
                   0
                   0
                   0
                   0
                   0
                   0
  
SCALARS                       fixity_z  double 1
LOOKUP_TABLE default
                   0
                   0
                   0
                   0
                   1
                   1
                   1
                   1
                   0
                   0
                   1
                   1
                   0
                   0
                   1
                   1
                   0
                   0
                   1
                   1
                   0
                   0
                   0
                   1
                   1
                   1
                   0
                   0
                   1
                   1
                   0
                   0
                   0
                   1
                   1
                   1
                   0
                   0
                   1
                   1
                   0
                   0
                   1
                   1
                   0
                   0
                   1
                   1
                   0
                   1
                   0
                   1
                   0
                   1
                   0
                   1
                   0
                   0
                   1
                   1
                   0
                   0
                   1
                   1
                   0
                   1
                   0
                   1
                   0
                   0
                   1
                   1
                   0
                   1
                   0
                   1
                   0
                   1
                   0
                   1
                   0
                   0
                   1
                   1
                   0
                   1
                   0
                   1
                   0
                   1
                   0
                   0
                   1
                   1
                   0
                   1
                   0
                   1
                   0
                   1
                   0
                   0
                   1
                   1
                   0
                   0
                   1
                   1
                   0
                   1
                   0
                   1
                   0
                   1
                   0
                   1
                   0
                   1
                   0
                   1
                   0
                   1
                   0
                   1
                   0
                   1
                   0
                   1
                   0
                   1
                   0
                   1
                   0
                   1
                   0
                   1
                   0
                   1
                   0
                   1
                   0
                   1
                   0
                   1
                   0
                   1
                   0
                   1
                   0
                   1
                   0
                   1
                   0
                   1
                   0
                   1
                   0
                   0
                   0
                   0
                   0
                   0
                   0
                   0
                   0
                   0
                   0
                   0
                   0
                   0
                   0
                   0
                   0
                   0
                   0
                   0
                   0
                   0
                   0
                   0
                   0
                   0
                   0
                   0
                   0
                   0
                   0
                   0
                   0
                   0
                   0
                   0
                   0
                   0
                   0
                   0
                   0
                   0
                   0
                   0
                   0
                   0
                   0
                   0
                   0
                   0
                   0
                   0
                   0
                   0
                   0
                   0
                   0
                   0
                   0
                   0
                   0
                   0
                   0
                   0
                   0
                   0
                   0
                   0
                   0
                   0
                   0
                   0
                   0
                   0
                   0
                   0
                   0
                   0
                   0
                   0
                   0
                   0
                   0
                   0
                   0
                   0
                   0
                   0
                   0
                   0
                   0
                   0
                   0
                   0
                   0
                   0
                   0
                   0
                   0
                   0
                   0
                   0
                   0
                   0
                   0
                   0
                   0
                   0
                   0
                   0
                   0
                   0
                   0
                   0
                   0
                   0
                   0
                   0
                   0
                   0
                   0
                   0
                   0
                   0
                   0
                   0
                   0
                   0
                   0
                   0
                   0
                   0
                   0
                   0
                   0
                   0
                   0
                   0
                   0
                   0
                   0
                   0
                   0
                   0
                   0
                   0
                   0
                   0
                   0
                   0
                   0
                   0
                   0
                   0
                   0
                   0
                   0
                   0
                   0
                   0
                   0
                   0
                   0
                   0
                   0
                   0
                   0
                   0
                   0
                   0
                   0
                   0
                   0
                   0
                   0
                   0
                   0
                   0
                   0
                   0
                   0
                   0
                   0
                   0
                   0
                   0
                   0
                   0
                   0
                   0
                   0
                   0
                   0
                   0
                   0
                   0
                   0
                   0
                   0
                   0
                   0
                   0
                   0
                   0
                   0
                   0
                   0
                   0
                   0
                   0
                   0
                   0
                   0
                   0
                   0
                   0
                   0
                   0
                   0
                   0
                   0
                   0
                   0
                   0
                   0
                   0
                   0
                   0
                   0
                   0
                   0
                   0
                   0
                   0
                   0
                   0
                   0
                   0
                   0
                   0
                   0
                   0
                   0
                   0
                   0
                   0
                   0
                   0
                   0
                   0
                   0
                   0
                   0
                   0
                   0
                   0
                   0
                   0
                   0
                   0
                   0
                   0
                   0
                   0
                   0
                   0
                   0
                   0
                   0
                   0
                   0
                   0
                   0
                   0
                   0
                   0
                   0
                   0
                   0
                   0
                   0
                   0
                   0
                   0
                   0
                   0
                   0
                   0
                   0
                   0
                   0
                   0
                   0
                   0
                   0
                   0
                   0
                   0
                   0
                   0
                   0
                   0
                   0
                   0
                   0
                   0
                   0
                   0
                   0
                   0
                   0
                   0
                   0
                   0
                   0
                   0
                   0
                   0
                   0
                   0
                   0
                   0
                   0
                   0
                   0
                   0
                   0
                   0
                   0
                   0
                   0
                   0
                   0
                   0
                   0
                   0
                   0
                   0
                   0
                   0
                   0
                   0
                   0
                   0
                   0
                   0
                   0
                   0
                   0
                   0
                   0
                   0
                   0
                   0
                   0
                   0
                   0
                   0
                   0
                   0
                   0
                   0
                   0
                   0
                   0
                   0
                   0
                   0
                   0
                   0
                   0
                   0
                   0
                   0
                   0
                   0
                   0
                   0
                   0
                   0
                   0
                   0
                   0
                   0
                   0
                   0
                   0
                   0
                   0
                   0
                   0
                   0
                   0
                   0
                   0
                   0
                   0
                   0
                   0
                   0
                   0
                   0
                   0
                   0
                   0
                   0
                   0
                   0
                   0
                   0
                   0
                   0
                   0
                   0
                   0
                   0
                   0
                   0
                   0
                   0
                   0
                   0
                   0
                   0
                   0
                   0
                   0
                   0
                   0
                   0
                   0
                   0
                   0
                   0
                   0
                   0
                   0
                   0
                   0
                   0
                   0
                   0
                   0
                   0
                   0
                   0
                   0
                   0
                   0
                   0
                   0
                   0
                   0
                   0
                   0
                   0
                   0
                   0
                   0
                   0
                   0
                   0
                   0
                   0
                   0
                   0
                   0
                   0
                   0
                   0
                   0
                   0
                   0
                   0
                   0
                   0
                   0
                   0
                   0
                   0
                   0
                   0
                   0
                   0
                   0
                   0
                   0
                   0
                   0
                   0
                   0
                   0
                   0
                   0
                   0
                   0
                   0
                   0
                   0
                   0
                   0
                   0
                   0
                   0
                   0
                   0
                   0
                   0
                   0
                   0
                   0
                   0
                   0
                   0
                   0
                   0
                   0
                   0
                   0
                   0
                   0
                   0
                   0
                   0
                   0
                   0
                   0
                   0
                   0
                   0
                   0
                   0
                   0
                   0
                   0
                   0
                   0
                   0
                   0
                   0
                   0
                   0
                   0
                   0
                   0
                   0
                   0
                   0
                   0
                   0
                   0
                   0
                   0
                   0
                   0
                   0
                   0
                   0
                   0
                   0
                   0
                   0
                   0
                   0
                   0
                   0
                   0
                   0
                   0
                   0
                   0
                   0
                   0
                   0
                   0
                   0
                   0
                   0
                   0
                   0
                   0
                   0
                   0
                   0
                   0
                   0
                   0
                   0
                   0
                   0
                   0
                   0
                   0
                   0
                   0
                   0
                   0
                   0
                   0
                   0
                   0
                   0
                   0
                   0
                   0
                   0
                   0
                   0
                   0
                   0
                   0
                   0
                   0
                   0
                   0
                   0
                   0
                   0
                   0
                   0
                   0
                   0
                   0
                   0
                   0
                   0
                   0
                   0
                   0
                   0
                   0
                   0
                   0
                   0
                   0
                   0
                   0
                   0
                   0
                   0
                   0
                   0
                   0
                   0
                   0
                   0
                   0
                   0
                   0
                   0
                   0
                   0
                   0
                   0
                   0
                   0
                   0
                   0
                   0
                   0
                   0
                   0
                   0
                   0
                   0
                   0
                   0
                   0
                   0
                   0
                   0
                   0
                   0
                   0
                   0
                   0
                   0
                   0
                   0
                   0
                   0
                   0
                   0
                   0
                   0
                   0
                   0
                   0
                   0
                   0
                   0
                   0
                   0
                   0
                   0
                   0
                   0
                   0
                   0
                   0
                   0
                   0
                   0
                   0
                   0
                   0
                   0
                   0
                   0
                   0
                   0
                   0
                   0
                   0
                   0
                   0
                   0
                   0
                   0
                   0
                   0
                   0
                   0
                   0
                   0
                   0
                   0
                   0
                   0
                   0
                   0
                   0
                   0
                   0
                   0
                   0
                   0
                   0
                   0
                   0
                   0
                   0
                   0
                   0
                   0
                   0
                   0
                   0
                   0
                   0
                   0
                   0
                   0
                   0
                   0
                   0
                   0
                   0
                   0
                   0
                   0
                   0
                   0
                   0
                   0
                   0
                   0
                   0
                   0
                   0
                   0
                   0
                   0
                   0
                   0
                   0
                   0
                   0
                   0
                   0
                   0
                   0
                   0
                   0
                   0
                   0
                   0
                   0
                   0
                   0
                   0
                   0
                   0
                   0
                   0
                   0
                   0
                   0
                   0
                   0
                   0
                   0
                   0
                   0
                   0
                   0
                   0
                   0
                   0
                   0
                   0
                   0
                   0
                   0
                   0
                   0
                   0
                   0
                   0
                   0
                   0
                   0
                   0
                   0
                   0
                   0
                   0
                   0
                   0
                   0
                   0
                   0
                   0
                   0
                   0
                   0
                   0
                   0
                   0
                   0
                   0
                   0
                   0
                   0
                   0
                   0
                   0
                   0
                   0
                   0
                   0
                   0
                   0
                   0
                   0
                   0
                   0
                   0
                   0
                   0
                   0
                   0
                   0
                   0
                   0
                   0
                   0
                   0
                   0
                   0
                   0
                   0
                   0
                   0
                   0
                   0
                   0
                   0
                   0
                   0
                   0
                   0
                   0
                   0
                   0
                   0
                   0
                   0
                   0
                   0
                   0
                   0
                   0
                   0
                   0
                   0
                   0
                   0
                   0
                   0
                   0
                   0
                   0
                   0
                   0
                   0
                   0
                   0
                   0
                   0
                   0
                   0
                   0
                   0
                   0
                   0
                   0
                   0
                   0
                   0
                   0
                   0
                   0
                   0
                   0
                   0
                   0
                   0
                   0
                   0
                   0
                   0
                   0
                   0
                   0
                   0
                   0
                   0
                   0
                   0
                   0
                   0
                   0
                   0
                   0
                   0
                   0
                   0
                   0
                   0
                   0
                   0
                   0
                   0
                   0
                   0
                   0
                   0
                   0
                   0
                   0
                   0
                   0
                   0
                   0
                   0
                   0
                   0
                   0
                   0
                   0
                   0
                   0
                   0
                   0
                   0
                   0
                   0
                   0
                   0
                   0
                   0
                   0
                   0
                   0
                   0
                   0
                   0
                   0
                   0
                   0
                   0
                   0
                   0
                   0
                   0
                   0
                   0
                   0
                   0
                   0
                   0
                   0
                   0
                   0
                   0
                   0
                   0
                   0
                   0
                   0
                   0
                   0
                   0
                   0
                   0
                   0
                   0
                   0
                   0
                   0
                   0
                   0
                   0
                   0
                   0
                   0
                   0
                   0
                   0
                   0
                   0
                   0
                   0
                   0
                   0
                   0
                   0
                   0
                   0
                   0
                   0
                   0
                   0
                   0
                   0
                   0
                   0
                   0
                   0
                   0
                   0
                   0
                   0
                   0
                   0
                   0
                   0
                   0
                   0
                   0
                   0
                   0
                   0
                   0
                   0
                   0
                   0
                   0
                   0
                   0
                   0
                   0
                   0
                   0
                   0
                   0
                   0
                   0
                   0
                   0
                   0
                   0
                   0
                   0
                   0
                   0
                   0
                   0
                   0
                   0
                   0
                   0
                   0
                   0
                   0
                   0
                   0
                   0
                   0
                   0
                   0
                   0
                   0
                   0
                   0
                   0
                   0
                   0
                   0
                   0
                   0
                   0
                   0
                   0
                   0
                   0
                   0
                   0
                   0
                   0
                   0
                   0
                   0
                   0
                   0
                   0
                   0
                   0
                   0
                   0
                   0
                   0
                   0
                   0
                   0
                   0
                   0
                   0
                   0
                   0
                   0
                   0
                   0
                   0
                   0
                   0
                   0
                   0
                   0
                   0
                   0
                   0
                   0
                   0
                   0
                   0
                   0
                   0
                   0
                   0
                   0
                   0
                   0
                   0
                   0
                   0
                   0
                   0
                   0
                   0
                   0
                   0
                   0
                   0
                   0
                   0
                   0
                   0
                   0
                   0
                   0
                   0
                   0
                   0
                   0
                   0
                   0
                   0
                   0
                   0
                   0
                   0
                   0
                   0
                   0
                   0
                   0
                   0
                   0
                   0
                   0
                   0
                   0
                   0
                   0
                   0
                   0
                   0
                   0
                   0
                   0
                   0
                   0
                   0
                   0
                   0
                   0
                   0
                   0
                   0
                   0
                   0
                   0
                   0
                   0
                   0
                   0
                   0
                   0
                   0
                   0
                   0
                   0
                   0
                   0
                   0
                   0
                   0
                   0
                   0
                   0
                   0
                   0
                   0
                   0
                   0
                   0
                   0
                   0
                   0
                   0
                   0
                   0
                   0
                   0
                   0
                   0
                   0
                   0
                   0
                   0
                   0
                   0
                   0
                   0
                   0
                   0
                   0
                   0
                   0
                   0
                   0
                   0
                   0
                   0
                   0
                   0
                   0
                   0
                   0
                   0
                   0
                   0
                   0
                   0
                   0
                   0
                   0
                   0
                   0
                   0
                   0
                   0
                   0
                   0
                   0
                   0
                   0
                   0
                   0
                   0
                   0
                   0
                   0
                   0
                   0
                   0
                   0
                   0
                   0
                   0
                   0
                   0
                   0
                   0
                   0
                   0
                   0
                   0
                   0
                   0
                   0
                   0
                   0
                   0
                   0
                   0
                   0
                   0
                   0
                   0
                   0
                   0
                   0
                   0
                   0
                   0
                   0
                   0
                   0
                   0
                   0
                   0
                   0
                   0
                   0
                   0
                   0
                   0
                   0
                   0
                   0
                   0
                   0
                   0
                   0
                   0
                   0
                   0
                   0
                   0
                   0
                   0
                   0
                   0
                   0
                   0
                   0
                   0
                   0
                   0
                   0
                   0
                   0
                   0
                   0
                   0
                   0
                   0
                   0
                   0
                   0
                   0
                   0
                   0
                   0
                   0
                   0
                   0
                   0
                   0
                   0
                   0
                   0
                   0
                   0
                   0
                   0
                   0
                   0
                   0
                   0
                   0
                   0
                   0
                   0
                   0
                   0
                   0
                   0
                   0
                   0
                   0
                   0
                   0
                   0
                   0
                   0
                   0
                   0
                   0
                   0
                   0
                   0
                   0
                   0
                   0
                   0
                   0
                   0
                   0
                   0
                   0
                   0
                   0
                   0
                   0
                   0
                   0
                   0
                   0
                   0
                   0
                   0
                   0
                   0
                   0
                   0
                   0
                   0
                   0
                   0
                   0
                   0
                   0
                   0
                   0
                   0
                   0
                   0
                   0
                   0
                   0
                   0
                   0
                   0
                   0
                   0
                   0
                   0
                   0
                   0
                   0
                   0
                   0
                   0
                   0
                   0
                   0
                   0
                   0
                   0
                   0
                   0
                   0
                   0
                   0
                   0
                   0
                   0
                   0
                   0
                   0
                   0
                   0
                   0
                   0
                   0
                   0
                   0
                   0
                   0
                   0
                   0
                   0
                   0
                   0
                   0
                   0
                   0
                   0
                   0
                   0
                   0
                   0
                   0
                   0
                   0
                   0
                   0
                   0
                   0
                   0
                   0
                   0
                   0
                   0
                   0
                   0
                   0
                   0
                   0
                   0
                   0
                   0
                   0
                   0
                   0
                   0
                   0
                   0
                   0
                   0
                   0
                   0
                   0
                   0
                   0
                   0
                   0
                   0
                   0
                   0
                   0
                   0
                   0
                   0
                   0
                   0
                   0
                   0
                   0
                   0
                   0
                   0
                   0
                   0
                   0
                   0
                   0
                   0
                   0
                   0
                   0
                   0
                   0
                   0
                   0
                   0
                   0
                   0
                   0
                   0
                   0
                   0
                   0
                   0
                   0
                   0
                   0
                   0
                   0
                   0
                   0
                   0
                   0
                   0
                   0
                   0
                   0
                   0
                   0
                   0
                   0
                   0
                   0
                   0
                   0
                   0
                   0
                   0
                   0
                   0
                   0
                   0
                   0
                   0
                   0
                   0
                   0
                   0
                   0
                   0
                   0
                   0
                   0
                   0
                   0
                   0
                   0
                   0
                   0
                   0
                   0
                   0
                   0
                   0
                   0
                   0
                   0
                   0
                   0
                   0
                   0
                   0
                   0
                   0
                   0
                   0
                   0
                   0
                   0
                   0
                   0
                   0
                   0
                   0
                   0
                   0
                   0
                   0
                   0
                   0
                   0
                   0
                   0
                   0
                   0
                   0
                   0
                   0
                   0
                   0
                   0
                   0
                   0
                   0
                   0
                   0
                   0
                   0
                   0
                   0
                   0
                   0
                   0
                   0
                   0
                   0
                   0
                   0
                   0
                   0
                   0
                   0
                   0
                   0
                   0
                   0
                   0
                   0
                   0
                   0
                   0
                   0
                   0
                   0
                   0
                   0
                   0
                   0
                   0
                   0
                   0
                   0
                   0
                   0
                   0
                   0
                   0
                   0
                   0
                   0
                   0
                   0
                   0
                   0
                   0
                   0
                   0
                   0
                   0
                   0
                   0
                   0
                   0
                   0
                   0
                   0
                   0
                   0
                   0
                   0
                   0
                   0
                   0
                   0
                   0
                   0
                   0
                   0
                   0
                   0
                   0
                   0
                   0
                   0
                   0
                   0
                   0
                   0
                   0
                   0
                   0
                   0
                   0
                   0
                   0
                   0
                   0
                   0
                   0
                   0
                   0
                   0
                   0
                   0
                   0
                   0
                   0
                   0
                   0
                   0
                   0
                   0
                   0
                   0
                   0
                   0
                   0
                   0
                   0
                   0
  
SCALARS                         Ispace  double 1
LOOKUP_TABLE default
                  12
                  12
                  12
                  12
                  12
                  12
                  12
                  12
                  12
                  12
                  12
                  12
                  12
                  11
                  12
                  11
                  11
                  11
                  11
                  11
                  11
                  12
                  12
                  11
                  12
                  12
                  11
                  11
                  11
                  11
                  11
                  11
                  11
                  11
                  11
                  11
                  11
                  11
                  11
                  11
                  11
                  11
                  11
                  11
                  11
                  11
                  11
                  11
                  11
                  11
                  11
                  11
                  11
                  11
                  11
                  11
                  11
                  11
                  11
                  11
                  11
                  11
                  11
                  11
                  11
                  11
                  12
                  12
                  12
                  12
                  12
                  12
                  12
                  12
                  11
                  11
                  11
                  11
                  11
                  11
                  11
                  11
                  11
                  11
                  11
                  11
                  11
                  11
                  11
                  11
                  11
                  11
                  11
                  11
                  11
                  11
                  12
                  12
                  12
                  12
                  12
                  12
                  12
                  12
                  12
                  12
                  12
                  12
                  12
                  12
                  12
                  12
                  12
                  12
                  12
                  12
                  11
                  11
                  11
                  11
                  11
                  11
                  11
                  11
                  11
                  11
                  11
                  11
                  11
                  11
                  11
                  11
                  11
                  11
                  11
                  11
                  11
                  11
                  11
                  11
                  11
                  11
                  11
                  11
                  11
                  11
                  12
                  12
                  12
                  12
                  12
                  12
                  12
                  12
                  12
                  12
                  12
                  12
                  12
                  12
                  12
                  12
                  12
                  11
                  11
                  11
                  11
                  12
                  12
                  11
                  11
                  11
                  11
                  11
                  11
                  11
                  11
                  11
                  11
                  11
                  11
                  11
                  11
                  11
                  11
                  11
                  11
                  11
                  11
                  12
                  12
                  12
                  12
                  11
                  11
                  11
                  11
                  11
                  11
                  11
                  11
                  11
                  11
                  11
                  12
                  12
                  12
                  12
                  12
                  12
                  12
                  12
                  12
                  12
                  11
                  11
                  11
                  11
                  11
                  11
                  11
                  11
                  11
                  11
                  11
                  11
                  11
                  11
                  11
                  12
                  12
                  12
                  12
                  12
                  12
                  12
                  12
                  12
                  12
                  12
                  12
                  11
                  11
                  11
                  11
                  12
                  12
                  11
                  11
                  11
                  11
                  11
                  11
                  11
                  11
                  11
                  11
                  11
                  11
                  11
                  11
                  11
                  11
                  11
                  11
                  11
                  11
                  12
                  12
                  12
                  12
                  11
                  11
                  11
                  11
                  11
                  11
                  11
                  11
                  11
                  11
                  11
                  12
                  12
                  12
                  12
                  12
                  12
                  12
                  12
                  12
                  12
                  11
                  11
                  11
                  11
                  11
                  11
                  11
                  11
                  11
                  11
                  11
                  11
                  11
                  11
                  11
                  12
                  12
                  12
                  12
                  12
                  12
                  12
                  12
                  12
                  12
                  12
                  12
                  11
                  11
                  11
                  11
                  12
                  12
                  11
                  11
                  11
                  11
                  11
                  11
                  11
                  11
                  11
                  11
                  11
                  11
                  11
                  11
                  11
                  11
                  11
                  11
                  11
                  11
                  12
                  12
                  12
                  12
                  11
                  11
                  11
                  11
                  11
                  11
                  11
                  11
                  11
                  11
                  11
                  12
                  12
                  12
                  12
                  12
                  12
                  12
                  12
                  12
                  12
                  11
                  11
                  11
                  11
                  11
                  11
                  11
                  11
                  11
                  11
                  11
                  11
                  11
                  11
                  11
                  12
                  12
                  12
                  12
                  12
                  12
                  12
                  12
                  12
                  12
                  12
                  12
                  11
                  11
                  11
                  11
                  12
                  12
                  11
                  11
                  11
                  11
                  11
                  11
                  11
                  11
                  11
                  11
                  11
                  11
                  11
                  11
                  11
                  11
                  11
                  11
                  11
                  11
                  12
                  12
                  12
                  12
                  11
                  11
                  11
                  11
                  11
                  11
                  11
                  11
                  11
                  11
                  11
                  12
                  12
                  12
                  12
                  12
                  12
                  12
                  12
                  12
                  12
                  11
                  11
                  11
                  11
                  11
                  11
                  11
                  11
                  11
                  11
                  11
                  11
                  11
                  11
                  11
                  12
                  12
                  12
                  12
                  12
                  12
                  12
                  12
                  12
                  12
                  12
                  12
                  11
                  11
                  11
                  11
                  12
                  12
                  11
                  11
                  11
                  11
                  11
                  11
                  11
                  11
                  11
                  11
                  11
                  11
                  11
                  11
                  11
                  11
                  11
                  11
                  11
                  11
                  12
                  12
                  12
                  12
                  11
                  11
                  11
                  11
                  11
                  11
                  11
                  11
                  11
                  11
                  11
                  12
                  12
                  12
                  12
                  12
                  12
                  12
                  12
                  12
                  12
                  11
                  11
                  11
                  11
                  11
                  11
                  11
                  11
                  11
                  11
                  11
                  11
                  11
                  11
                  11
                  12
                  12
                  12
                  12
                  12
                  12
                  12
                  12
                  12
                  12
                  12
                  12
                  11
                  11
                  11
                  11
                  12
                  12
                  11
                  11
                  11
                  11
                  11
                  11
                  11
                  11
                  11
                  11
                  11
                  11
                  11
                  11
                  11
                  11
                  11
                  11
                  11
                  11
                  12
                  12
                  12
                  12
                  11
                  11
                  11
                  11
                  11
                  11
                  11
                  11
                  11
                  11
                  11
                  12
                  12
                  12
                  12
                  12
                  12
                  12
                  12
                  12
                  12
                  11
                  11
                  11
                  11
                  11
                  11
                  11
                  11
                  11
                  11
                  11
                  11
                  11
                  11
                  11
                  12
                  12
                  12
                  12
                  12
                  12
                  12
                  12
                  12
                  12
                  12
                  12
                  11
                  11
                  11
                  11
                  12
                  12
                  11
                  11
                  11
                  11
                  11
                  11
                  11
                  11
                  11
                  11
                  11
                  11
                  11
                  11
                  11
                  11
                  11
                  11
                  11
                  11
                  12
                  12
                  12
                  12
                  11
                  11
                  11
                  11
                  11
                  11
                  11
                  11
                  11
                  11
                  11
                  12
                  12
                  12
                  12
                  12
                  12
                  12
                  12
                  12
                  12
                  11
                  11
                  11
                  11
                  11
                  11
                  11
                  11
                  11
                  11
                  11
                  11
                  11
                  11
                  11
                  12
                  12
                  12
                  12
                  12
                  12
                  12
                  12
                  12
                  12
                  12
                  12
                  11
                  11
                  11
                  11
                  12
                  12
                  11
                  11
                  11
                  11
                  11
                  11
                  11
                  11
                  11
                  11
                  11
                  11
                  11
                  11
                  11
                  11
                  11
                  11
                  11
                  11
                  12
                  12
                  12
                  12
                  11
                  11
                  11
                  11
                  11
                  11
                  11
                  11
                  11
                  11
                  11
                  12
                  12
                  12
                  12
                  12
                  12
                  12
                  12
                  12
                  12
                  11
                  11
                  11
                  11
                  11
                  11
                  11
                  11
                  11
                  11
                  11
                  11
                  11
                  11
                  11
                  12
                  12
                  12
                  12
                  12
                  12
                  12
                  12
                  12
                  12
                  12
                  12
                  11
                  11
                  11
                  11
                  12
                  12
                  11
                  11
                  11
                  11
                  11
                  11
                  11
                  11
                  11
                  11
                  11
                  11
                  11
                  11
                  11
                  11
                  11
                  11
                  11
                  11
                  12
                  12
                  12
                  12
                  11
                  11
                  11
                  11
                  11
                  11
                  11
                  11
                  11
                  11
                  11
                  12
                  12
                  12
                  12
                  12
                  12
                  12
                  12
                  12
                  12
                  11
                  11
                  11
                  11
                  11
                  11
                  11
                  11
                  11
                  11
                  11
                  11
                  11
                  11
                  11
                  12
                  12
                  12
                  12
                  12
                  12
                  12
                  12
                  12
                  12
                  12
                  12
                  11
                  11
                  11
                  11
                  12
                  12
                  11
                  11
                  11
                  11
                  11
                  11
                  11
                  11
                  11
                  11
                  11
                  11
                  11
                  11
                  11
                  11
                  11
                  11
                  11
                  11
                  12
                  12
                  12
                  12
                  11
                  11
                  11
                  11
                  11
                  11
                  11
                  11
                  11
                  11
                  11
                  12
                  12
                  12
                  12
                  12
                  12
                  12
                  12
                  12
                  12
                  11
                  11
                  11
                  11
                  11
                  11
                  11
                  11
                  11
                  11
                  11
                  11
                  11
                  11
                  11
                  12
                  12
                  12
                  12
                  12
                  12
                  12
                  12
                  12
                  12
                  12
                  12
                  11
                  11
                  11
                  11
                  12
                  12
                  11
                  11
                  11
                  11
                  11
                  11
                  11
                  11
                  11
                  11
                  11
                  11
                  11
                  11
                  11
                  11
                  11
                  11
                  11
                  11
                  12
                  12
                  12
                  12
                  11
                  11
                  11
                  11
                  11
                  11
                  11
                  11
                  11
                  11
                  11
                  12
                  12
                  12
                  12
                  12
                  12
                  12
                  12
                  12
                  12
                  11
                  11
                  11
                  11
                  11
                  11
                  11
                  11
                  11
                  11
                  11
                  11
                  11
                  11
                  11
                  12
                  12
                  12
                  12
                  12
                  12
                  12
                  12
                  12
                  12
                  12
                  12
                  11
                  11
                  11
                  11
                  12
                  12
                  11
                  11
                  11
                  11
                  11
                  11
                  11
                  11
                  11
                  11
                  11
                  11
                  11
                  11
                  11
                  11
                  11
                  11
                  11
                  11
                  12
                  12
                  12
                  12
                  11
                  11
                  11
                  11
                  11
                  11
                  11
                  11
                  11
                  11
                  11
                  12
                  12
                  12
                  12
                  12
                  12
                  12
                  12
                  12
                  12
                  11
                  11
                  11
                  11
                  11
                  11
                  11
                  11
                  11
                  11
                  11
                  11
                  11
                  11
                  11
                  12
                  12
                  12
                  12
                  12
                  12
                  12
                  12
                  12
                  12
                  12
                  12
                  11
                  11
                  11
                  11
                  12
                  12
                  11
                  11
                  11
                  11
                  11
                  11
                  11
                  11
                  11
                  11
                  11
                  11
                  11
                  11
                  11
                  11
                  11
                  11
                  11
                  11
                  12
                  12
                  12
                  12
                  11
                  11
                  11
                  11
                  11
                  11
                  11
                  11
                  11
                  11
                  11
                  12
                  12
                  12
                  12
                  12
                  12
                  12
                  12
                  12
                  12
                  11
                  11
                  11
                  11
                  11
                  11
                  11
                  11
                  11
                  11
                  11
                  11
                  11
                  11
                  11
                  12
                  12
                  12
                  12
                  12
                  12
                  12
                  12
                  12
                  12
                  12
                  12
                  11
                  11
                  11
                  11
                  12
                  12
                  11
                  11
                  11
                  11
                  11
                  11
                  11
                  11
                  11
                  11
                  11
                  11
                  11
                  11
                  11
                  11
                  11
                  11
                  11
                  11
                  12
                  12
                  12
                  12
                  11
                  11
                  11
                  11
                  11
                  11
                  11
                  11
                  11
                  11
                  11
                  12
                  12
                  12
                  12
                  12
                  12
                  12
                  12
                  12
                  12
                  11
                  11
                  11
                  11
                  11
                  11
                  11
                  11
                  11
                  11
                  11
                  11
                  11
                  11
                  11
                  12
                  12
                  12
                  12
                  12
                  12
                  12
                  12
                  12
                  12
                  12
                  12
                  11
                  11
                  11
                  11
                  12
                  12
                  11
                  11
                  11
                  11
                  11
                  11
                  11
                  11
                  11
                  11
                  11
                  11
                  11
                  11
                  11
                  11
                  11
                  11
                  11
                  11
                  12
                  12
                  12
                  12
                  11
                  11
                  11
                  11
                  11
                  11
                  11
                  11
                  11
                  11
                  11
                  12
                  12
                  12
                  12
                  12
                  12
                  12
                  12
                  12
                  12
                  11
                  11
                  11
                  11
                  11
                  11
                  11
                  11
                  11
                  11
                  11
                  11
                  11
                  11
                  11
                  12
                  12
                  12
                  12
                  12
                  12
                  12
                  12
                  12
                  12
                  12
                  12
                  11
                  11
                  11
                  11
                  12
                  12
                  11
                  11
                  11
                  11
                  11
                  11
                  11
                  11
                  11
                  11
                  11
                  11
                  11
                  11
                  11
                  11
                  11
                  11
                  11
                  11
                  12
                  12
                  12
                  12
                  11
                  11
                  11
                  11
                  11
                  11
                  11
                  11
                  11
                  11
                  11
                  12
                  12
                  12
                  12
                  12
                  12
                  12
                  12
                  12
                  12
                  11
                  11
                  11
                  11
                  11
                  11
                  11
                  11
                  11
                  11
                  11
                  11
                  11
                  11
                  11
                  12
                  12
                  12
                  12
                  12
                  12
                  12
                  12
                  12
                  12
                  12
                  12
                  11
                  11
                  11
                  11
                  12
                  12
                  11
                  11
                  11
                  11
                  11
                  11
                  11
                  11
                  11
                  11
                  11
                  11
                  11
                  11
                  11
                  11
                  11
                  11
                  11
                  11
                  12
                  12
                  12
                  12
                  11
                  11
                  11
                  11
                  11
                  11
                  11
                  11
                  11
                  11
                  11
                  12
                  12
                  12
                  12
                  12
                  12
                  12
                  12
                  12
                  12
                  11
                  11
                  11
                  11
                  11
                  11
                  11
                  11
                  11
                  11
                  11
                  11
                  11
                  11
                  11
                  12
                  12
                  12
                  12
                  12
                  12
                  12
                  12
                  12
                  12
                  12
                  12
                  11
                  11
                  11
                  11
                  12
                  12
                  11
                  11
                  11
                  11
                  11
                  11
                  11
                  11
                  11
                  11
                  11
                  11
                  11
                  11
                  11
                  11
                  11
                  11
                  11
                  11
                  12
                  12
                  12
                  12
                  11
                  11
                  11
                  11
                  11
                  11
                  11
                  11
                  11
                  11
                  11
                  12
                  12
                  12
                  12
                  12
                  12
                  12
                  12
                  12
                  12
                  11
                  11
                  11
                  11
                  11
                  11
                  11
                  11
                  11
                  11
                  11
                  11
                  11
                  11
                  11
                  12
                  12
                  12
                  12
                  12
                  12
                  12
                  12
                  12
                  12
                  12
                  12
                  11
                  11
                  11
                  11
                  12
                  12
                  11
                  11
                  11
                  11
                  11
                  11
                  11
                  11
                  11
                  11
                  11
                  11
                  11
                  11
                  11
                  11
                  11
                  11
                  11
                  11
                  12
                  12
                  12
                  12
                  11
                  11
                  11
                  11
                  11
                  11
                  11
                  11
                  11
                  11
                  11
                  12
                  12
                  12
                  12
                  12
                  12
                  12
                  12
                  12
                  12
                  11
                  11
                  11
                  11
                  11
                  11
                  11
                  11
                  11
                  11
                  11
                  11
                  11
                  11
                  11
                  12
                  12
                  12
                  12
                  12
                  12
                  12
                  12
                  12
                  12
                  12
                  12
                  11
                  11
                  11
                  11
                  12
                  12
                  11
                  11
                  11
                  11
                  11
                  11
                  11
                  11
                  11
                  11
                  11
                  11
                  11
                  11
                  11
                  11
                  11
                  11
                  11
                  11
                  12
                  12
                  12
                  12
                  11
                  11
                  11
                  11
                  11
                  11
                  11
                  11
                  11
                  11
                  11
                  12
                  12
                  12
                  12
                  12
                  12
                  12
                  12
                  12
                  12
                  11
                  11
                  11
                  11
                  11
                  11
                  11
                  11
                  11
                  11
                  11
                  11
                  11
                  11
                  11
                  12
                  12
                  12
                  12
                  12
                  12
                  12
                  12
                  12
                  12
                  12
                  12
                  11
                  11
                  11
                  11
                  12
                  12
                  11
                  11
                  11
                  11
                  11
                  11
                  11
                  11
                  11
                  11
                  11
                  11
                  11
                  11
                  11
                  11
                  11
                  11
                  11
                  11
                  12
                  12
                  12
                  12
                  11
                  11
                  11
                  11
                  11
                  11
                  11
                  11
                  11
                  11
                  11
                  12
                  12
                  12
                  12
                  12
                  12
                  12
                  12
                  12
                  12
                  11
                  11
                  11
                  11
                  11
                  11
                  11
                  11
                  11
                  11
                  11
                  11
                  11
                  11
                  11
                  12
                  12
                  12
                  12
                  12
                  12
                  12
                  12
                  12
                  12
                  12
                  12
                  11
                  11
                  11
                  11
                  12
                  12
                  11
                  11
                  11
                  11
                  11
                  11
                  11
                  11
                  11
                  11
                  11
                  11
                  11
                  11
                  11
                  11
                  11
                  11
                  11
                  11
                  12
                  12
                  12
                  12
                  11
                  11
                  11
                  11
                  11
                  11
                  11
                  11
                  11
                  11
                  11
                  12
                  12
                  12
                  12
                  12
                  12
                  12
                  12
                  12
                  12
                  11
                  11
                  11
                  11
                  11
                  11
                  11
                  11
                  11
                  11
                  11
                  11
                  11
                  11
                  11
                  12
                  12
                  12
                  12
                  12
                  12
                  12
                  12
                  12
                  12
                  12
                  12
                  11
                  11
                  11
                  11
                  12
                  12
                  11
                  11
                  11
                  11
                  11
                  11
                  11
                  11
                  11
                  11
                  11
                  11
                  11
                  11
                  11
                  11
                  11
                  11
                  11
                  11
                  12
                  12
                  12
                  12
                  11
                  11
                  11
                  11
                  11
                  11
                  11
                  11
                  11
                  11
                  11
                  12
                  12
                  12
                  12
                  12
                  12
                  12
                  12
                  12
                  12
                  11
                  11
                  11
                  11
                  11
                  11
                  11
                  11
                  11
                  11
                  11
                  11
                  11
                  11
                  11
                  12
                  12
                  12
                  12
                  12
  
SCALARS                         Jspace  double 1
LOOKUP_TABLE default
                  11
                  12
                  11
                  11
                  11
                  12
                  11
                  11
                  11
                  11
                  11
                  11
                  12
                  12
                  12
                  12
                  11
                  12
                  11
                  12
                  12
                  12
                  12
                  12
                  12
                  12
                  12
                  12
                  12
                  12
                  11
                  11
                  11
                  11
                  11
                  11
                  11
                  11
                  11
                  11
                  11
                  11
                  11
                  11
                  11
                  11
                  11
                  11
                  11
                  11
                  11
                  11
                  12
                  12
                  12
                  12
                  12
                  11
                  12
                  11
                  11
                  11
                  11
                  11
                  11
                  11
                  11
                  11
                  11
                  12
                  11
                  12
                  12
                  12
                  12
                  12
                  12
                  12
                  12
                  12
                  12
                  12
                  12
                  12
                  11
                  11
                  11
                  11
                  11
                  11
                  11
                  11
                  11
                  11
                  11
                  11
                  11
                  11
                  11
                  11
                  11
                  11
                  11
                  11
                  11
                  11
                  11
                  11
                  12
                  12
                  12
                  12
                  12
                  12
                  12
                  12
                  12
                  12
                  12
                  12
                  12
                  12
                  12
                  12
                  12
                  12
                  12
                  12
                  11
                  11
                  11
                  11
                  11
                  11
                  11
                  11
                  11
                  11
                  11
                  11
                  11
                  11
                  11
                  11
                  11
                  11
                  11
                  11
                  11
                  11
                  11
                  11
                  11
                  11
                  11
                  11
                  11
                  12
                  11
                  11
                  11
                  11
                  12
                  12
                  11
                  12
                  12
                  12
                  12
                  12
                  12
                  11
                  11
                  11
                  11
                  11
                  11
                  11
                  11
                  11
                  11
                  11
                  12
                  12
                  12
                  11
                  11
                  11
                  11
                  11
                  11
                  12
                  12
                  12
                  12
                  12
                  12
                  12
                  11
                  11
                  11
                  11
                  11
                  11
                  11
                  11
                  11
                  11
                  11
                  11
                  12
                  12
                  12
                  12
                  12
                  12
                  12
                  12
                  12
                  12
                  11
                  11
                  11
                  11
                  11
                  11
                  11
                  11
                  11
                  11
                  11
                  11
                  11
                  11
                  11
                  12
                  11
                  11
                  11
                  11
                  12
                  12
                  11
                  12
                  12
                  12
                  12
                  12
                  12
                  11
                  11
                  11
                  11
                  11
                  11
                  11
                  11
                  11
                  11
                  11
                  12
                  12
                  12
                  11
                  11
                  11
                  11
                  11
                  11
                  12
                  12
                  12
                  12
                  12
                  12
                  12
                  11
                  11
                  11
                  11
                  11
                  11
                  11
                  11
                  11
                  11
                  11
                  11
                  12
                  12
                  12
                  12
                  12
                  12
                  12
                  12
                  12
                  12
                  11
                  11
                  11
                  11
                  11
                  11
                  11
                  11
                  11
                  11
                  11
                  11
                  11
                  11
                  11
                  12
                  11
                  11
                  11
                  11
                  12
                  12
                  11
                  12
                  12
                  12
                  12
                  12
                  12
                  11
                  11
                  11
                  11
                  11
                  11
                  11
                  11
                  11
                  11
                  11
                  12
                  12
                  12
                  11
                  11
                  11
                  11
                  11
                  11
                  12
                  12
                  12
                  12
                  12
                  12
                  12
                  11
                  11
                  11
                  11
                  11
                  11
                  11
                  11
                  11
                  11
                  11
                  11
                  12
                  12
                  12
                  12
                  12
                  12
                  12
                  12
                  12
                  12
                  11
                  11
                  11
                  11
                  11
                  11
                  11
                  11
                  11
                  11
                  11
                  11
                  11
                  11
                  11
                  12
                  11
                  11
                  11
                  11
                  12
                  12
                  11
                  12
                  12
                  12
                  12
                  12
                  12
                  11
                  11
                  11
                  11
                  11
                  11
                  11
                  11
                  11
                  11
                  11
                  12
                  12
                  12
                  11
                  11
                  11
                  11
                  11
                  11
                  12
                  12
                  12
                  12
                  12
                  12
                  12
                  11
                  11
                  11
                  11
                  11
                  11
                  11
                  11
                  11
                  11
                  11
                  11
                  12
                  12
                  12
                  12
                  12
                  12
                  12
                  12
                  12
                  12
                  11
                  11
                  11
                  11
                  11
                  11
                  11
                  11
                  11
                  11
                  11
                  11
                  11
                  11
                  11
                  12
                  11
                  11
                  11
                  11
                  12
                  12
                  11
                  12
                  12
                  12
                  12
                  12
                  12
                  11
                  11
                  11
                  11
                  11
                  11
                  11
                  11
                  11
                  11
                  11
                  12
                  12
                  12
                  11
                  11
                  11
                  11
                  11
                  11
                  12
                  12
                  12
                  12
                  12
                  12
                  12
                  11
                  11
                  11
                  11
                  11
                  11
                  11
                  11
                  11
                  11
                  11
                  11
                  12
                  12
                  12
                  12
                  12
                  12
                  12
                  12
                  12
                  12
                  11
                  11
                  11
                  11
                  11
                  11
                  11
                  11
                  11
                  11
                  11
                  11
                  11
                  11
                  11
                  12
                  11
                  11
                  11
                  11
                  12
                  12
                  11
                  12
                  12
                  12
                  12
                  12
                  12
                  11
                  11
                  11
                  11
                  11
                  11
                  11
                  11
                  11
                  11
                  11
                  12
                  12
                  12
                  11
                  11
                  11
                  11
                  11
                  11
                  12
                  12
                  12
                  12
                  12
                  12
                  12
                  11
                  11
                  11
                  11
                  11
                  11
                  11
                  11
                  11
                  11
                  11
                  11
                  12
                  12
                  12
                  12
                  12
                  12
                  12
                  12
                  12
                  12
                  11
                  11
                  11
                  11
                  11
                  11
                  11
                  11
                  11
                  11
                  11
                  11
                  11
                  11
                  11
                  12
                  11
                  11
                  11
                  11
                  12
                  12
                  11
                  12
                  12
                  12
                  12
                  12
                  12
                  11
                  11
                  11
                  11
                  11
                  11
                  11
                  11
                  11
                  11
                  11
                  12
                  12
                  12
                  11
                  11
                  11
                  11
                  11
                  11
                  12
                  12
                  12
                  12
                  12
                  12
                  12
                  11
                  11
                  11
                  11
                  11
                  11
                  11
                  11
                  11
                  11
                  11
                  11
                  12
                  12
                  12
                  12
                  12
                  12
                  12
                  12
                  12
                  12
                  11
                  11
                  11
                  11
                  11
                  11
                  11
                  11
                  11
                  11
                  11
                  11
                  11
                  11
                  11
                  12
                  11
                  11
                  11
                  11
                  12
                  12
                  11
                  12
                  12
                  12
                  12
                  12
                  12
                  11
                  11
                  11
                  11
                  11
                  11
                  11
                  11
                  11
                  11
                  11
                  12
                  12
                  12
                  11
                  11
                  11
                  11
                  11
                  11
                  12
                  12
                  12
                  12
                  12
                  12
                  12
                  11
                  11
                  11
                  11
                  11
                  11
                  11
                  11
                  11
                  11
                  11
                  11
                  12
                  12
                  12
                  12
                  12
                  12
                  12
                  12
                  12
                  12
                  11
                  11
                  11
                  11
                  11
                  11
                  11
                  11
                  11
                  11
                  11
                  11
                  11
                  11
                  11
                  12
                  11
                  11
                  11
                  11
                  12
                  12
                  11
                  12
                  12
                  12
                  12
                  12
                  12
                  11
                  11
                  11
                  11
                  11
                  11
                  11
                  11
                  11
                  11
                  11
                  12
                  12
                  12
                  11
                  11
                  11
                  11
                  11
                  11
                  12
                  12
                  12
                  12
                  12
                  12
                  12
                  11
                  11
                  11
                  11
                  11
                  11
                  11
                  11
                  11
                  11
                  11
                  11
                  12
                  12
                  12
                  12
                  12
                  12
                  12
                  12
                  12
                  12
                  11
                  11
                  11
                  11
                  11
                  11
                  11
                  11
                  11
                  11
                  11
                  11
                  11
                  11
                  11
                  12
                  11
                  11
                  11
                  11
                  12
                  12
                  11
                  12
                  12
                  12
                  12
                  12
                  12
                  11
                  11
                  11
                  11
                  11
                  11
                  11
                  11
                  11
                  11
                  11
                  12
                  12
                  12
                  11
                  11
                  11
                  11
                  11
                  11
                  12
                  12
                  12
                  12
                  12
                  12
                  12
                  11
                  11
                  11
                  11
                  11
                  11
                  11
                  11
                  11
                  11
                  11
                  11
                  12
                  12
                  12
                  12
                  12
                  12
                  12
                  12
                  12
                  12
                  11
                  11
                  11
                  11
                  11
                  11
                  11
                  11
                  11
                  11
                  11
                  11
                  11
                  11
                  11
                  12
                  11
                  11
                  11
                  11
                  12
                  12
                  11
                  12
                  12
                  12
                  12
                  12
                  12
                  11
                  11
                  11
                  11
                  11
                  11
                  11
                  11
                  11
                  11
                  11
                  12
                  12
                  12
                  11
                  11
                  11
                  11
                  11
                  11
                  12
                  12
                  12
                  12
                  12
                  12
                  12
                  11
                  11
                  11
                  11
                  11
                  11
                  11
                  11
                  11
                  11
                  11
                  11
                  12
                  12
                  12
                  12
                  12
                  12
                  12
                  12
                  12
                  12
                  11
                  11
                  11
                  11
                  11
                  11
                  11
                  11
                  11
                  11
                  11
                  11
                  11
                  11
                  11
                  12
                  11
                  11
                  11
                  11
                  12
                  12
                  11
                  12
                  12
                  12
                  12
                  12
                  12
                  11
                  11
                  11
                  11
                  11
                  11
                  11
                  11
                  11
                  11
                  11
                  12
                  12
                  12
                  11
                  11
                  11
                  11
                  11
                  11
                  12
                  12
                  12
                  12
                  12
                  12
                  12
                  11
                  11
                  11
                  11
                  11
                  11
                  11
                  11
                  11
                  11
                  11
                  11
                  12
                  12
                  12
                  12
                  12
                  12
                  12
                  12
                  12
                  12
                  11
                  11
                  11
                  11
                  11
                  11
                  11
                  11
                  11
                  11
                  11
                  11
                  11
                  11
                  11
                  12
                  11
                  11
                  11
                  11
                  12
                  12
                  11
                  12
                  12
                  12
                  12
                  12
                  12
                  11
                  11
                  11
                  11
                  11
                  11
                  11
                  11
                  11
                  11
                  11
                  12
                  12
                  12
                  11
                  11
                  11
                  11
                  11
                  11
                  12
                  12
                  12
                  12
                  12
                  12
                  12
                  11
                  11
                  11
                  11
                  11
                  11
                  11
                  11
                  11
                  11
                  11
                  11
                  12
                  12
                  12
                  12
                  12
                  12
                  12
                  12
                  12
                  12
                  11
                  11
                  11
                  11
                  11
                  11
                  11
                  11
                  11
                  11
                  11
                  11
                  11
                  11
                  11
                  12
                  11
                  11
                  11
                  11
                  12
                  12
                  11
                  12
                  12
                  12
                  12
                  12
                  12
                  11
                  11
                  11
                  11
                  11
                  11
                  11
                  11
                  11
                  11
                  11
                  12
                  12
                  12
                  11
                  11
                  11
                  11
                  11
                  11
                  12
                  12
                  12
                  12
                  12
                  12
                  12
                  11
                  11
                  11
                  11
                  11
                  11
                  11
                  11
                  11
                  11
                  11
                  11
                  12
                  12
                  12
                  12
                  12
                  12
                  12
                  12
                  12
                  12
                  11
                  11
                  11
                  11
                  11
                  11
                  11
                  11
                  11
                  11
                  11
                  11
                  11
                  11
                  11
                  12
                  11
                  11
                  11
                  11
                  12
                  12
                  11
                  12
                  12
                  12
                  12
                  12
                  12
                  11
                  11
                  11
                  11
                  11
                  11
                  11
                  11
                  11
                  11
                  11
                  12
                  12
                  12
                  11
                  11
                  11
                  11
                  11
                  11
                  12
                  12
                  12
                  12
                  12
                  12
                  12
                  11
                  11
                  11
                  11
                  11
                  11
                  11
                  11
                  11
                  11
                  11
                  11
                  12
                  12
                  12
                  12
                  12
                  12
                  12
                  12
                  12
                  12
                  11
                  11
                  11
                  11
                  11
                  11
                  11
                  11
                  11
                  11
                  11
                  11
                  11
                  11
                  11
                  12
                  11
                  11
                  11
                  11
                  12
                  12
                  11
                  12
                  12
                  12
                  12
                  12
                  12
                  11
                  11
                  11
                  11
                  11
                  11
                  11
                  11
                  11
                  11
                  11
                  12
                  12
                  12
                  11
                  11
                  11
                  11
                  11
                  11
                  12
                  12
                  12
                  12
                  12
                  12
                  12
                  11
                  11
                  11
                  11
                  11
                  11
                  11
                  11
                  11
                  11
                  11
                  11
                  12
                  12
                  12
                  12
                  12
                  12
                  12
                  12
                  12
                  12
                  11
                  11
                  11
                  11
                  11
                  11
                  11
                  11
                  11
                  11
                  11
                  11
                  11
                  11
                  11
                  12
                  11
                  11
                  11
                  11
                  12
                  12
                  11
                  12
                  12
                  12
                  12
                  12
                  12
                  11
                  11
                  11
                  11
                  11
                  11
                  11
                  11
                  11
                  11
                  11
                  12
                  12
                  12
                  11
                  11
                  11
                  11
                  11
                  11
                  12
                  12
                  12
                  12
                  12
                  12
                  12
                  11
                  11
                  11
                  11
                  11
                  11
                  11
                  11
                  11
                  11
                  11
                  11
                  12
                  12
                  12
                  12
                  12
                  12
                  12
                  12
                  12
                  12
                  11
                  11
                  11
                  11
                  11
                  11
                  11
                  11
                  11
                  11
                  11
                  11
                  11
                  11
                  11
                  12
                  11
                  11
                  11
                  11
                  12
                  12
                  11
                  12
                  12
                  12
                  12
                  12
                  12
                  11
                  11
                  11
                  11
                  11
                  11
                  11
                  11
                  11
                  11
                  11
                  12
                  12
                  12
                  11
                  11
                  11
                  11
                  11
                  11
                  12
                  12
                  12
                  12
                  12
                  12
                  12
                  11
                  11
                  11
                  11
                  11
                  11
                  11
                  11
                  11
                  11
                  11
                  11
                  12
                  12
                  12
                  12
                  12
                  12
                  12
                  12
                  12
                  12
                  11
                  11
                  11
                  11
                  11
                  11
                  11
                  11
                  11
                  11
                  11
                  11
                  11
                  11
                  11
                  12
                  11
                  11
                  11
                  11
                  12
                  12
                  11
                  12
                  12
                  12
                  12
                  12
                  12
                  11
                  11
                  11
                  11
                  11
                  11
                  11
                  11
                  11
                  11
                  11
                  12
                  12
                  12
                  11
                  11
                  11
                  11
                  11
                  11
                  12
                  12
                  12
                  12
                  12
                  12
                  12
                  11
                  11
                  11
                  11
                  11
                  11
                  11
                  11
                  11
                  11
                  11
                  11
                  12
                  12
                  12
                  12
                  12
                  12
                  12
                  12
                  12
                  12
                  11
                  11
                  11
                  11
                  11
                  11
                  11
                  11
                  11
                  11
                  11
                  11
                  11
                  11
                  11
                  12
                  11
                  11
                  11
                  11
                  12
                  12
                  11
                  12
                  12
                  12
                  12
                  12
                  12
                  11
                  11
                  11
                  11
                  11
                  11
                  11
                  11
                  11
                  11
                  11
                  12
                  12
                  12
                  11
                  11
                  11
                  11
                  11
                  11
                  12
                  12
                  12
                  12
                  12
                  12
                  12
                  11
                  11
                  11
                  11
                  11
                  11
                  11
                  11
                  11
                  11
                  11
                  11
                  12
                  12
                  12
                  12
                  12
                  12
                  12
                  12
                  12
                  12
                  11
                  11
                  11
                  11
                  11
                  11
                  11
                  11
                  11
                  11
                  11
                  11
                  11
                  11
                  11
                  12
                  11
                  11
                  11
                  11
                  12
                  12
                  11
                  12
                  12
                  12
                  12
                  12
                  12
                  11
                  11
                  11
                  11
                  11
                  11
                  11
                  11
                  11
                  11
                  11
                  12
                  12
                  12
                  11
                  11
                  11
                  11
                  11
                  11
                  12
                  12
                  12
                  12
                  12
                  12
                  12
                  11
                  11
                  11
                  11
                  11
                  11
                  11
                  11
                  11
                  11
                  11
                  11
                  12
                  12
                  12
                  12
                  12
                  12
                  12
                  12
                  12
                  12
                  11
                  11
                  11
                  11
                  11
                  11
                  11
                  11
                  11
                  11
                  11
                  11
                  11
                  11
                  11
                  12
                  11
                  11
                  11
                  11
                  12
                  12
                  11
                  12
                  12
                  12
                  12
                  12
                  12
                  11
                  11
                  11
                  11
                  11
                  11
                  11
                  11
                  11
                  11
                  11
                  12
                  12
                  12
                  11
                  11
                  11
                  11
                  11
                  11
                  12
                  12
                  12
                  12
                  12
                  12
                  12
                  11
                  11
                  11
                  11
                  11
                  11
                  11
                  11
                  11
                  11
                  11
                  11
                  12
                  12
                  12
                  12
                  12
                  12
                  12
                  12
                  12
                  12
                  11
                  11
                  11
                  11
                  11
                  11
                  11
                  11
                  11
                  11
                  11
                  11
                  11
                  11
                  11
                  12
                  11
                  11
                  11
                  11
                  12
                  12
                  11
                  12
                  12
                  12
                  12
                  12
                  12
                  11
                  11
                  11
                  11
                  11
                  11
                  11
                  11
                  11
                  11
                  11
                  12
                  12
                  12
                  11
                  11
                  11
                  11
                  11
                  11
                  12
                  12
                  12
                  12
                  12
                  12
                  12
                  11
                  11
                  11
                  11
                  11
                  11
                  11
                  11
                  11
                  11
                  11
                  11
                  12
                  12
                  12
                  12
                  12
                  12
                  12
                  12
                  12
                  12
                  11
                  11
                  11
                  11
                  11
                  11
                  11
                  11
                  11
                  11
                  11
                  11
                  11
                  11
  
SCALARS                         Kspace  double 1
LOOKUP_TABLE default
                  11
                  11
                  11
                  11
                  11
                  11
                  11
                  11
                  11
                  11
                  11
                  11
                  11
                  11
                  11
                  11
                  11
                  11
                  11
                  11
                  11
                  11
                  11
                  11
                  11
                  11
                  11
                  11
                  11
                  11
                  11
                  11
                  11
                  11
                  11
                  11
                  11
                  11
                  11
                  11
                  11
                  11
                  11
                  11
                  11
                  11
                  11
                  11
                  11
                  11
                  11
                  11
                  11
                  11
                  11
                  11
                  11
                  11
                  11
                  11
                  11
                  11
                  11
                  11
                  11
                  11
                  11
                  11
                  11
                  11
                  11
                  11
                  11
                  11
                  11
                  11
                  11
                  11
                  11
                  11
                  11
                  11
                  11
                  11
                  11
                  11
                  11
                  11
                  11
                  11
                  11
                  11
                  11
                  11
                  11
                  11
                  11
                  11
                  11
                  11
                  11
                  11
                  11
                  11
                  11
                  11
                  11
                  11
                  11
                  11
                  11
                  11
                  11
                  11
                  11
                  11
                  11
                  11
                  11
                  11
                  11
                  11
                  11
                  11
                  11
                  11
                  11
                  11
                  11
                  11
                  11
                  11
                  11
                  11
                  11
                  11
                  11
                  11
                  11
                  11
                  11
                  11
                  11
                  11
                  11
                  11
                  11
                  11
                  11
                  11
                  11
                  11
                  11
                  11
                  11
                  11
                  11
                  11
                  11
                  11
                  11
                  11
                  11
                  11
                  11
                  11
                  11
                  11
                  11
                  11
                  11
                  11
                  11
                  11
                  11
                  11
                  11
                  11
                  11
                  11
                  11
                  11
                  11
                  11
                  11
                  11
                  11
                  11
                  11
                  11
                  11
                  11
                  11
                  11
                  11
                  11
                  11
                  11
                  11
                  11
                  11
                  11
                  11
                  11
                  11
                  11
                  11
                  11
                  11
                  11
                  11
                  11
                  11
                  11
                  11
                  11
                  11
                  11
                  11
                  11
                  11
                  11
                  11
                  11
                  11
                  11
                  11
                  11
                  11
                  11
                  11
                  11
                  11
                  11
                  11
                  11
                  11
                  11
                  11
                  11
                  11
                  11
                  11
                  11
                  11
                  11
                  11
                  11
                  11
                  11
                  11
                  11
                  11
                  11
                  11
                  11
                  11
                  11
                  11
                  11
                  11
                  11
                  11
                  11
                  11
                  11
                  11
                  11
                  11
                  11
                  11
                  11
                  11
                  11
                  11
                  11
                  11
                  11
                  11
                  11
                  11
                  11
                  11
                  11
                  11
                  11
                  11
                  11
                  11
                  11
                  11
                  11
                  11
                  11
                  11
                  11
                  11
                  11
                  11
                  11
                  11
                  11
                  11
                  11
                  11
                  11
                  11
                  11
                  11
                  11
                  11
                  11
                  12
                  12
                  12
                  12
                  12
                  12
                  12
                  12
                  12
                  12
                  12
                  12
                  12
                  12
                  12
                  12
                  12
                  12
                  12
                  12
                  12
                  12
                  12
                  12
                  12
                  12
                  12
                  12
                  12
                  12
                  12
                  12
                  12
                  12
                  12
                  12
                  12
                  12
                  12
                  12
                  12
                  12
                  12
                  12
                  12
                  12
                  12
                  12
                  12
                  12
                  12
                  12
                  12
                  12
                  12
                  12
                  12
                  12
                  12
                  12
                  12
                  12
                  12
                  12
                  12
                  12
                  12
                  12
                  12
                  12
                  12
                  12
                  12
                  12
                  12
                  12
                  12
                  12
                  12
                  12
                  12
                  12
                  12
                  12
                  12
                  12
                  12
                  12
                  12
                  12
                  12
                  12
                  12
                  12
                  12
                  12
                  12
                  12
                  12
                  12
                  12
                  12
                  12
                  12
                  12
                  12
                  12
                  12
                  12
                  12
                  12
                  12
                  12
                  12
                  12
                  12
                  12
                  12
                  12
                  12
                  12
                  12
                  12
                  12
                  12
                  12
                  12
                  12
                  12
                  12
                  12
                  12
                  12
                  12
                  12
                  12
                  12
                  12
                  12
                  12
                  12
                  12
                  12
                  12
                  12
                  12
                  12
                  12
                  12
                  12
                  12
                  12
                  12
                  12
                  12
                  12
                  12
                  12
                  12
                  12
                  12
                  12
                  12
                  12
                  12
                  12
                  12
                  12
                  12
                  12
                  12
                  12
                  12
                  12
                  12
                  12
                  12
                  12
                  12
                  12
                  12
                  12
                  12
                  12
                  12
                  12
                  12
                  12
                  12
                  12
                  12
                  12
                  12
                  12
                  12
                  12
                  12
                  12
                  12
                  12
                  12
                  12
                  12
                  12
                  12
                  12
                  12
                  12
                  12
                  12
                  12
                  12
                  12
                  12
                  12
                  12
                  12
                  12
                  12
                  12
                  12
                  12
                  12
                  12
                  12
                  12
                  12
                  12
                  12
                  12
                  12
                  12
                  12
                  12
                  13
                  13
                  13
                  13
                  13
                  13
                  13
                  13
                  13
                  13
                  13
                  13
                  13
                  13
                  13
                  13
                  13
                  13
                  13
                  13
                  13
                  13
                  13
                  13
                  13
                  13
                  13
                  13
                  13
                  13
                  13
                  13
                  13
                  13
                  13
                  13
                  13
                  13
                  13
                  13
                  13
                  13
                  13
                  13
                  13
                  13
                  13
                  13
                  13
                  13
                  13
                  13
                  13
                  13
                  13
                  13
                  13
                  13
                  13
                  13
                  13
                  13
                  13
                  13
                  13
                  13
                  13
                  13
                  13
                  13
                  13
                  13
                  13
                  13
                  13
                  13
                  13
                  13
                  13
                  13
                  13
                  13
                  13
                  13
                  13
                  13
                  13
                  13
                  13
                  13
                  13
                  13
                  13
                  13
                  13
                  13
                  13
                  13
                  13
                  13
                  13
                  13
                  13
                  13
                  13
                  13
                  13
                  13
                  13
                  13
                  13
                  13
                  13
                  13
                  13
                  13
                  13
                  13
                  13
                  13
                  13
                  13
                  13
                  13
                  13
                  13
                  13
                  13
                  13
                  13
                  13
                  13
                  13
                  13
                  13
                  13
                  13
                  13
                  13
                  13
                  13
                  13
                  13
                  13
                  13
                  13
                  13
                  13
                  13
                  13
                  13
                  13
                  13
                  13
                  13
                  13
                  13
                  13
                  13
                  13
                  13
                  13
                  13
                  13
                  13
                  13
                  13
                  13
                  13
                  13
                  13
                  13
                  13
                  13
                  13
                  13
                  13
                  13
                  13
                  13
                  13
                  13
                  13
                  13
                  13
                  13
                  13
                  13
                  13
                  13
                  13
                  13
                  13
                  13
                  13
                  13
                  13
                  13
                  13
                  13
                  13
                  13
                  13
                  13
                  13
                  13
                  13
                  13
                  13
                  13
                  13
                  13
                  13
                  13
                  13
                  13
                  13
                  13
                  13
                  13
                  13
                  13
                  13
                  13
                  13
                  13
                  13
                  13
                  13
                  13
                  13
                  13
                  13
                  13
                  14
                  14
                  14
                  14
                  14
                  14
                  14
                  14
                  14
                  14
                  14
                  14
                  14
                  14
                  14
                  14
                  14
                  14
                  14
                  14
                  14
                  14
                  14
                  14
                  14
                  14
                  14
                  14
                  14
                  14
                  14
                  14
                  14
                  14
                  14
                  14
                  14
                  14
                  14
                  14
                  14
                  14
                  14
                  14
                  14
                  14
                  14
                  14
                  14
                  14
                  14
                  14
                  14
                  14
                  14
                  14
                  14
                  14
                  14
                  14
                  14
                  14
                  14
                  14
                  14
                  14
                  14
                  14
                  14
                  14
                  14
                  14
                  14
                  14
                  14
                  14
                  14
                  14
                  14
                  14
                  14
                  14
                  14
                  14
                  14
                  14
                  14
                  14
                  14
                  14
                  14
                  14
                  14
                  14
                  14
                  14
                  14
                  14
                  14
                  14
                  14
                  14
                  14
                  14
                  14
                  14
                  14
                  14
                  14
                  14
                  14
                  14
                  14
                  14
                  14
                  14
                  14
                  14
                  14
                  14
                  14
                  14
                  14
                  14
                  14
                  14
                  14
                  14
                  14
                  14
                  14
                  14
                  14
                  14
                  14
                  14
                  14
                  14
                  14
                  14
                  14
                  14
                  14
                  14
                  14
                  14
                  14
                  14
                  14
                  14
                  14
                  14
                  14
                  14
                  14
                  14
                  14
                  14
                  14
                  14
                  14
                  14
                  14
                  14
                  14
                  14
                  14
                  14
                  14
                  14
                  14
                  14
                  14
                  14
                  14
                  14
                  14
                  14
                  14
                  14
                  14
                  14
                  14
                  14
                  14
                  14
                  14
                  14
                  14
                  14
                  14
                  14
                  14
                  14
                  14
                  14
                  14
                  14
                  14
                  14
                  14
                  14
                  14
                  14
                  14
                  14
                  14
                  14
                  14
                  14
                  14
                  14
                  14
                  14
                  14
                  14
                  14
                  14
                  14
                  14
                  14
                  14
                  14
                  14
                  14
                  14
                  14
                  14
                  14
                  14
                  14
                  14
                  14
                  14
                  15
                  15
                  15
                  15
                  15
                  15
                  15
                  15
                  15
                  15
                  15
                  15
                  15
                  15
                  15
                  15
                  15
                  15
                  15
                  15
                  15
                  15
                  15
                  15
                  15
                  15
                  15
                  15
                  15
                  15
                  15
                  15
                  15
                  15
                  15
                  15
                  15
                  15
                  15
                  15
                  15
                  15
                  15
                  15
                  15
                  15
                  15
                  15
                  15
                  15
                  15
                  15
                  15
                  15
                  15
                  15
                  15
                  15
                  15
                  15
                  15
                  15
                  15
                  15
                  15
                  15
                  15
                  15
                  15
                  15
                  15
                  15
                  15
                  15
                  15
                  15
                  15
                  15
                  15
                  15
                  15
                  15
                  15
                  15
                  15
                  15
                  15
                  15
                  15
                  15
                  15
                  15
                  15
                  15
                  15
                  15
                  15
                  15
                  15
                  15
                  15
                  15
                  15
                  15
                  15
                  15
                  15
                  15
                  15
                  15
                  15
                  15
                  15
                  15
                  15
                  15
                  15
                  15
                  15
                  15
                  15
                  15
                  15
                  15
                  15
                  15
                  15
                  15
                  15
                  15
                  15
                  15
                  15
                  15
                  15
                  15
                  15
                  15
                  15
                  15
                  15
                  15
                  15
                  15
                  15
                  15
                  15
                  15
                  15
                  15
                  15
                  15
                  15
                  15
                  15
                  15
                  15
                  15
                  15
                  15
                  15
                  15
                  15
                  15
                  15
                  15
                  15
                  15
                  15
                  15
                  15
                  15
                  15
                  15
                  15
                  15
                  15
                  15
                  15
                  15
                  15
                  15
                  15
                  15
                  15
                  15
                  15
                  15
                  15
                  15
                  15
                  15
                  15
                  15
                  15
                  15
                  15
                  15
                  15
                  15
                  15
                  15
                  15
                  15
                  15
                  15
                  15
                  15
                  15
                  15
                  15
                  15
                  15
                  15
                  15
                  15
                  15
                  15
                  15
                  15
                  15
                  15
                  15
                  15
                  15
                  15
                  15
                  15
                  15
                  15
                  15
                  15
                  15
                  15
                  15
                  15
                  15
                  15
                  15
                  15
                  15
                  15
                  15
                  15
                  15
                  15
                  15
                  15
                  15
                  15
                  15
                  15
                  15
                  15
                  15
                  15
                  15
                  15
                  15
                  15
                  15
                  15
                  15
                  15
                  15
                  15
                  15
                  15
                  15
                  15
                  15
                  15
                  15
                  15
                  15
                  15
                  15
                  15
                  15
                  15
                  15
                  15
                  15
                  15
                  15
                  15
                  15
                  15
                  15
                  15
                  15
                  15
                  15
                  15
                  15
                  15
                  15
                  15
                  15
                  15
                  15
                  15
                  15
                  15
                  15
                  15
                  15
                  15
                  15
                  15
                  15
                  15
                  16
                  16
                  16
                  16
                  16
                  16
                  16
                  16
                  16
                  16
                  16
                  16
                  16
                  16
                  16
                  16
                  16
                  16
                  16
                  16
                  16
                  16
                  16
                  16
                  16
                  16
                  16
                  16
                  16
                  16
                  16
                  16
                  16
                  16
                  16
                  16
                  16
                  16
                  16
                  16
                  16
                  16
                  16
                  16
                  16
                  16
                  16
                  16
                  16
                  16
                  16
                  16
                  16
                  16
                  16
                  16
                  16
                  16
                  16
                  16
                  16
                  16
                  16
                  16
                  16
                  16
                  16
                  16
                  16
                  16
                  16
                  16
                  16
                  16
                  16
                  16
                  16
                  16
                  16
                  16
                  16
                  16
                  16
                  16
                  16
                  16
                  16
                  16
                  16
                  16
                  16
                  16
                  16
                  16
                  16
                  16
                  16
                  16
                  16
                  16
                  16
                  16
                  16
                  16
                  16
                  16
                  16
                  16
                  16
                  16
                  16
                  16
                  16
                  16
                  16
                  16
                  16
                  16
                  16
                  16
                  16
                  16
                  16
                  16
                  16
                  16
                  16
                  16
                  16
                  16
                  16
                  16
                  16
                  16
                  16
                  16
                  16
                  16
                  16
                  16
                  16
                  16
                  16
                  16
                  16
                  16
                  16
                  16
                  16
                  16
                  16
                  16
                  16
                  16
                  16
                  16
                  16
                  16
                  16
                  16
                  16
                  16
                  16
                  16
                  16
                  16
                  16
                  16
                  16
                  16
                  16
                  16
                  16
                  16
                  16
                  16
                  16
                  16
                  16
                  16
                  16
                  16
                  16
                  16
                  16
                  16
                  16
                  16
                  16
                  16
                  16
                  16
                  16
                  16
                  16
                  16
                  16
                  16
                  16
                  16
                  16
                  16
                  16
                  16
                  16
                  16
                  16
                  16
                  16
                  16
                  16
                  16
                  16
                  16
                  16
                  16
                  16
                  16
                  16
                  16
                  16
                  16
                  16
                  16
                  16
                  16
                  16
                  16
                  16
                  16
                  16
                  16
                  16
                  16
                  17
                  17
                  17
                  17
                  17
                  17
                  17
                  17
                  17
                  17
                  17
                  17
                  17
                  17
                  17
                  17
                  17
                  17
                  17
                  17
                  17
                  17
                  17
                  17
                  17
                  17
                  17
                  17
                  17
                  17
                  17
                  17
                  17
                  17
                  17
                  17
                  17
                  17
                  17
                  17
                  17
                  17
                  17
                  17
                  17
                  17
                  17
                  17
                  17
                  17
                  17
                  17
                  17
                  17
                  17
                  17
                  17
                  17
                  17
                  17
                  17
                  17
                  17
                  17
                  17
                  17
                  17
                  17
                  17
                  17
                  17
                  17
                  17
                  17
                  17
                  17
                  17
                  17
                  17
                  17
                  17
                  17
                  17
                  17
                  17
                  17
                  17
                  17
                  17
                  17
                  17
                  17
                  17
                  17
                  17
                  17
                  17
                  17
                  17
                  17
                  17
                  17
                  17
                  17
                  17
                  17
                  17
                  17
                  17
                  17
                  17
                  17
                  17
                  17
                  17
                  17
                  17
                  17
                  17
                  17
                  17
                  17
                  17
                  17
                  17
                  17
                  17
                  17
                  17
                  17
                  17
                  17
                  17
                  17
                  17
                  17
                  17
                  17
                  17
                  17
                  17
                  17
                  17
                  17
                  17
                  17
                  17
                  17
                  17
                  17
                  17
                  17
                  17
                  17
                  17
                  17
                  17
                  17
                  17
                  17
                  17
                  17
                  17
                  17
                  17
                  17
                  17
                  17
                  17
                  17
                  17
                  17
                  17
                  17
                  17
                  17
                  17
                  17
                  17
                  17
                  17
                  17
                  17
                  17
                  17
                  17
                  17
                  17
                  17
                  17
                  17
                  17
                  17
                  17
                  17
                  17
                  17
                  17
                  17
                  17
                  17
                  17
                  17
                  17
                  17
                  17
                  17
                  17
                  17
                  17
                  17
                  17
                  17
                  17
                  17
                  17
                  17
                  17
                  17
                  17
                  17
                  17
                  17
                  17
                  17
                  17
                  17
                  17
                  17
                  17
                  17
                  17
                  17
                  17
                  18
                  18
                  18
                  18
                  18
                  18
                  18
                  18
                  18
                  18
                  18
                  18
                  18
                  18
                  18
                  18
                  18
                  18
                  18
                  18
                  18
                  18
                  18
                  18
                  18
                  18
                  18
                  18
                  18
                  18
                  18
                  18
                  18
                  18
                  18
                  18
                  18
                  18
                  18
                  18
                  18
                  18
                  18
                  18
                  18
                  18
                  18
                  18
                  18
                  18
                  18
                  18
                  18
                  18
                  18
                  18
                  18
                  18
                  18
                  18
                  18
                  18
                  18
                  18
                  18
                  18
                  18
                  18
                  18
                  18
                  18
                  18
                  18
                  18
                  18
                  18
                  18
                  18
                  18
                  18
                  18
                  18
                  18
                  18
                  18
                  18
                  18
                  18
                  18
                  18
                  18
                  18
                  18
                  18
                  18
                  18
                  18
                  18
                  18
                  18
                  18
                  18
                  18
                  18
                  18
                  18
                  18
                  18
                  18
                  18
                  18
                  18
                  18
                  18
                  18
                  18
                  18
                  18
                  18
                  18
                  18
                  18
                  18
                  18
                  18
                  18
                  18
                  18
                  18
                  18
                  18
                  18
                  18
                  18
                  18
                  18
                  18
                  18
                  18
                  18
                  18
                  18
                  18
                  18
                  18
                  18
                  18
                  18
                  18
                  18
                  18
                  18
                  18
                  18
                  18
                  18
  
SCALARS                 displacement_x  double 1
LOOKUP_TABLE default
         0.00000E+00
         0.00000E+00
         0.00000E+00
         0.00000E+00
         0.00000E+00
         0.00000E+00
         0.00000E+00
         0.00000E+00
         0.00000E+00
         0.00000E+00
         0.00000E+00
         0.00000E+00
         0.00000E+00
         0.00000E+00
         0.00000E+00
         0.00000E+00
         0.00000E+00
         0.00000E+00
         0.00000E+00
         0.00000E+00
         0.00000E+00
         0.00000E+00
         0.00000E+00
         0.00000E+00
         0.00000E+00
         0.00000E+00
         0.00000E+00
         0.00000E+00
         0.00000E+00
         0.00000E+00
         0.00000E+00
         0.00000E+00
         0.00000E+00
         0.00000E+00
         0.00000E+00
         0.00000E+00
         0.00000E+00
         0.00000E+00
         0.00000E+00
         0.00000E+00
         0.00000E+00
         0.00000E+00
         0.00000E+00
         0.00000E+00
         0.00000E+00
         0.00000E+00
         0.00000E+00
         0.00000E+00
         0.00000E+00
         0.00000E+00
         0.00000E+00
         0.00000E+00
         0.00000E+00
         0.00000E+00
         0.00000E+00
         0.00000E+00
         0.00000E+00
         0.00000E+00
         0.00000E+00
         0.00000E+00
         0.00000E+00
         0.00000E+00
         0.00000E+00
         0.00000E+00
         0.00000E+00
         0.00000E+00
         0.00000E+00
         0.00000E+00
         0.00000E+00
         0.00000E+00
         0.00000E+00
         0.00000E+00
         0.00000E+00
         0.00000E+00
         0.00000E+00
         0.00000E+00
         0.00000E+00
         0.00000E+00
         0.00000E+00
         0.00000E+00
         0.00000E+00
         0.00000E+00
         0.00000E+00
         0.00000E+00
         0.00000E+00
         0.00000E+00
         0.00000E+00
         0.00000E+00
         0.00000E+00
         0.00000E+00
         0.00000E+00
         0.00000E+00
         0.00000E+00
         0.00000E+00
         0.00000E+00
         0.00000E+00
         0.00000E+00
         0.00000E+00
         0.00000E+00
         0.00000E+00
         0.00000E+00
         0.00000E+00
         0.00000E+00
         0.00000E+00
         0.00000E+00
         0.00000E+00
         0.00000E+00
         0.00000E+00
         0.00000E+00
         0.00000E+00
         0.00000E+00
         0.00000E+00
         0.00000E+00
         0.00000E+00
         0.00000E+00
         0.00000E+00
         0.00000E+00
         0.00000E+00
         0.00000E+00
         0.00000E+00
         0.00000E+00
         0.00000E+00
         0.00000E+00
         0.00000E+00
         0.00000E+00
         0.00000E+00
         0.00000E+00
         0.00000E+00
         0.00000E+00
         0.00000E+00
         0.00000E+00
         0.00000E+00
         0.00000E+00
         0.00000E+00
         0.00000E+00
         0.00000E+00
         0.00000E+00
         0.00000E+00
         0.00000E+00
         0.00000E+00
         0.00000E+00
         0.00000E+00
         0.00000E+00
         0.00000E+00
         0.00000E+00
         0.00000E+00
         0.00000E+00
         0.00000E+00
         0.00000E+00
         0.00000E+00
         0.00000E+00
         0.00000E+00
         0.00000E+00
         0.00000E+00
         0.00000E+00
         0.00000E+00
         0.00000E+00
         0.00000E+00
         0.00000E+00
         0.00000E+00
         0.00000E+00
         0.00000E+00
         0.00000E+00
         0.00000E+00
         0.00000E+00
         0.00000E+00
         0.00000E+00
         0.00000E+00
         0.00000E+00
         0.00000E+00
         0.00000E+00
         0.00000E+00
         0.00000E+00
         0.00000E+00
         0.00000E+00
         0.00000E+00
         0.00000E+00
         0.00000E+00
         0.00000E+00
         0.00000E+00
         0.00000E+00
         0.00000E+00
         0.00000E+00
         0.00000E+00
         0.00000E+00
         0.00000E+00
         0.00000E+00
         0.00000E+00
         0.00000E+00
         0.00000E+00
         0.00000E+00
         0.00000E+00
         0.00000E+00
         0.00000E+00
         0.00000E+00
         0.00000E+00
         0.00000E+00
         0.00000E+00
         0.00000E+00
         0.00000E+00
         0.00000E+00
         0.00000E+00
         0.00000E+00
         0.00000E+00
         0.00000E+00
         0.00000E+00
         0.00000E+00
         0.00000E+00
         0.00000E+00
         0.00000E+00
         0.00000E+00
         0.00000E+00
         0.00000E+00
         0.00000E+00
         0.00000E+00
         0.00000E+00
         0.00000E+00
         0.00000E+00
         0.00000E+00
         0.00000E+00
         0.00000E+00
         0.00000E+00
         0.00000E+00
         0.00000E+00
         0.00000E+00
         0.00000E+00
         0.00000E+00
         0.00000E+00
         0.00000E+00
         0.00000E+00
         0.00000E+00
         0.00000E+00
         0.00000E+00
         0.00000E+00
         0.00000E+00
         0.00000E+00
         0.00000E+00
         0.00000E+00
         0.00000E+00
         0.00000E+00
         0.00000E+00
         0.00000E+00
         0.00000E+00
         0.00000E+00
         0.00000E+00
         0.00000E+00
         0.00000E+00
         0.00000E+00
         0.00000E+00
         0.00000E+00
         0.00000E+00
         0.00000E+00
         0.00000E+00
         0.00000E+00
         0.00000E+00
         0.00000E+00
         0.00000E+00
         0.00000E+00
         0.00000E+00
         0.00000E+00
         0.00000E+00
         0.00000E+00
         0.00000E+00
         0.00000E+00
         0.00000E+00
         0.00000E+00
         0.00000E+00
         0.00000E+00
         0.00000E+00
         0.00000E+00
         0.00000E+00
         0.00000E+00
         0.00000E+00
         0.00000E+00
         0.00000E+00
         0.00000E+00
         0.00000E+00
         0.00000E+00
         0.00000E+00
         0.00000E+00
         0.00000E+00
         0.00000E+00
         0.00000E+00
         0.00000E+00
         0.00000E+00
         0.00000E+00
         0.00000E+00
         0.00000E+00
         0.00000E+00
         0.00000E+00
         0.00000E+00
         0.00000E+00
         0.00000E+00
         0.00000E+00
         0.00000E+00
         0.00000E+00
         0.00000E+00
         0.00000E+00
         0.00000E+00
         0.00000E+00
         0.00000E+00
         0.00000E+00
         0.00000E+00
         0.00000E+00
         0.00000E+00
         0.00000E+00
         0.00000E+00
         0.00000E+00
         0.00000E+00
         0.00000E+00
         0.00000E+00
         0.00000E+00
         0.00000E+00
         0.00000E+00
         0.00000E+00
         0.00000E+00
         0.00000E+00
         0.00000E+00
         0.00000E+00
         0.00000E+00
         0.00000E+00
         0.00000E+00
         0.00000E+00
         0.00000E+00
         0.00000E+00
         0.00000E+00
         0.00000E+00
         0.00000E+00
         0.00000E+00
         0.00000E+00
         0.00000E+00
         0.00000E+00
         0.00000E+00
         0.00000E+00
         0.00000E+00
         0.00000E+00
         0.00000E+00
         0.00000E+00
         0.00000E+00
         0.00000E+00
         0.00000E+00
         0.00000E+00
         0.00000E+00
         0.00000E+00
         0.00000E+00
         0.00000E+00
         0.00000E+00
         0.00000E+00
         0.00000E+00
         0.00000E+00
         0.00000E+00
         0.00000E+00
         0.00000E+00
         0.00000E+00
         0.00000E+00
         0.00000E+00
         0.00000E+00
         0.00000E+00
         0.00000E+00
         0.00000E+00
         0.00000E+00
         0.00000E+00
         0.00000E+00
         0.00000E+00
         0.00000E+00
         0.00000E+00
         0.00000E+00
         0.00000E+00
         0.00000E+00
         0.00000E+00
         0.00000E+00
         0.00000E+00
         0.00000E+00
         0.00000E+00
         0.00000E+00
         0.00000E+00
         0.00000E+00
         0.00000E+00
         0.00000E+00
         0.00000E+00
         0.00000E+00
         0.00000E+00
         0.00000E+00
         0.00000E+00
         0.00000E+00
         0.00000E+00
         0.00000E+00
         0.00000E+00
         0.00000E+00
         0.00000E+00
         0.00000E+00
         0.00000E+00
         0.00000E+00
         0.00000E+00
         0.00000E+00
         0.00000E+00
         0.00000E+00
         0.00000E+00
         0.00000E+00
         0.00000E+00
         0.00000E+00
         0.00000E+00
         0.00000E+00
         0.00000E+00
         0.00000E+00
         0.00000E+00
         0.00000E+00
         0.00000E+00
         0.00000E+00
         0.00000E+00
         0.00000E+00
         0.00000E+00
         0.00000E+00
         0.00000E+00
         0.00000E+00
         0.00000E+00
         0.00000E+00
         0.00000E+00
         0.00000E+00
         0.00000E+00
         0.00000E+00
         0.00000E+00
         0.00000E+00
         0.00000E+00
         0.00000E+00
         0.00000E+00
         0.00000E+00
         0.00000E+00
         0.00000E+00
         0.00000E+00
         0.00000E+00
         0.00000E+00
         0.00000E+00
         0.00000E+00
         0.00000E+00
         0.00000E+00
         0.00000E+00
         0.00000E+00
         0.00000E+00
         0.00000E+00
         0.00000E+00
         0.00000E+00
         0.00000E+00
         0.00000E+00
         0.00000E+00
         0.00000E+00
         0.00000E+00
         0.00000E+00
         0.00000E+00
         0.00000E+00
         0.00000E+00
         0.00000E+00
         0.00000E+00
         0.00000E+00
         0.00000E+00
         0.00000E+00
         0.00000E+00
         0.00000E+00
         0.00000E+00
         0.00000E+00
         0.00000E+00
         0.00000E+00
         0.00000E+00
         0.00000E+00
         0.00000E+00
         0.00000E+00
         0.00000E+00
         0.00000E+00
         0.00000E+00
         0.00000E+00
         0.00000E+00
         0.00000E+00
         0.00000E+00
         0.00000E+00
         0.00000E+00
         0.00000E+00
         0.00000E+00
         0.00000E+00
         0.00000E+00
         0.00000E+00
         0.00000E+00
         0.00000E+00
         0.00000E+00
         0.00000E+00
         0.00000E+00
         0.00000E+00
         0.00000E+00
         0.00000E+00
         0.00000E+00
         0.00000E+00
         0.00000E+00
         0.00000E+00
         0.00000E+00
         0.00000E+00
         0.00000E+00
         0.00000E+00
         0.00000E+00
         0.00000E+00
         0.00000E+00
         0.00000E+00
         0.00000E+00
         0.00000E+00
         0.00000E+00
         0.00000E+00
         0.00000E+00
         0.00000E+00
         0.00000E+00
         0.00000E+00
         0.00000E+00
         0.00000E+00
         0.00000E+00
         0.00000E+00
         0.00000E+00
         0.00000E+00
         0.00000E+00
         0.00000E+00
         0.00000E+00
         0.00000E+00
         0.00000E+00
         0.00000E+00
         0.00000E+00
         0.00000E+00
         0.00000E+00
         0.00000E+00
         0.00000E+00
         0.00000E+00
         0.00000E+00
         0.00000E+00
         0.00000E+00
         0.00000E+00
         0.00000E+00
         0.00000E+00
         0.00000E+00
         0.00000E+00
         0.00000E+00
         0.00000E+00
         0.00000E+00
         0.00000E+00
         0.00000E+00
         0.00000E+00
         0.00000E+00
         0.00000E+00
         0.00000E+00
         0.00000E+00
         0.00000E+00
         0.00000E+00
         0.00000E+00
         0.00000E+00
         0.00000E+00
         0.00000E+00
         0.00000E+00
         0.00000E+00
         0.00000E+00
         0.00000E+00
         0.00000E+00
         0.00000E+00
         0.00000E+00
         0.00000E+00
         0.00000E+00
         0.00000E+00
         0.00000E+00
         0.00000E+00
         0.00000E+00
         0.00000E+00
         0.00000E+00
         0.00000E+00
         0.00000E+00
         0.00000E+00
         0.00000E+00
         0.00000E+00
         0.00000E+00
         0.00000E+00
         0.00000E+00
         0.00000E+00
         0.00000E+00
         0.00000E+00
         0.00000E+00
         0.00000E+00
         0.00000E+00
         0.00000E+00
         0.00000E+00
         0.00000E+00
         0.00000E+00
         0.00000E+00
         0.00000E+00
         0.00000E+00
         0.00000E+00
         0.00000E+00
         0.00000E+00
         0.00000E+00
         0.00000E+00
         0.00000E+00
         0.00000E+00
         0.00000E+00
         0.00000E+00
         0.00000E+00
         0.00000E+00
         0.00000E+00
         0.00000E+00
         0.00000E+00
         0.00000E+00
         0.00000E+00
         0.00000E+00
         0.00000E+00
         0.00000E+00
         0.00000E+00
         0.00000E+00
         0.00000E+00
         0.00000E+00
         0.00000E+00
         0.00000E+00
         0.00000E+00
         0.00000E+00
         0.00000E+00
         0.00000E+00
         0.00000E+00
         0.00000E+00
         0.00000E+00
         0.00000E+00
         0.00000E+00
         0.00000E+00
         0.00000E+00
         0.00000E+00
         0.00000E+00
         0.00000E+00
         0.00000E+00
         0.00000E+00
         0.00000E+00
         0.00000E+00
         0.00000E+00
         0.00000E+00
         0.00000E+00
         0.00000E+00
         0.00000E+00
         0.00000E+00
         0.00000E+00
         0.00000E+00
         0.00000E+00
         0.00000E+00
         0.00000E+00
         0.00000E+00
         0.00000E+00
         0.00000E+00
         0.00000E+00
         0.00000E+00
         0.00000E+00
         0.00000E+00
         0.00000E+00
         0.00000E+00
         0.00000E+00
         0.00000E+00
         0.00000E+00
         0.00000E+00
         0.00000E+00
         0.00000E+00
         0.00000E+00
         0.00000E+00
         0.00000E+00
         0.00000E+00
         0.00000E+00
         0.00000E+00
         0.00000E+00
         0.00000E+00
         0.00000E+00
         0.00000E+00
         0.00000E+00
         0.00000E+00
         0.00000E+00
         0.00000E+00
         0.00000E+00
         0.00000E+00
         0.00000E+00
         0.00000E+00
         0.00000E+00
         0.00000E+00
         0.00000E+00
         0.00000E+00
         0.00000E+00
         0.00000E+00
         0.00000E+00
         0.00000E+00
         0.00000E+00
         0.00000E+00
         0.00000E+00
         0.00000E+00
         0.00000E+00
         0.00000E+00
         0.00000E+00
         0.00000E+00
         0.00000E+00
         0.00000E+00
         0.00000E+00
         0.00000E+00
         0.00000E+00
         0.00000E+00
         0.00000E+00
         0.00000E+00
         0.00000E+00
         0.00000E+00
         0.00000E+00
         0.00000E+00
         0.00000E+00
         0.00000E+00
         0.00000E+00
         0.00000E+00
         0.00000E+00
         0.00000E+00
         0.00000E+00
         0.00000E+00
         0.00000E+00
         0.00000E+00
         0.00000E+00
         0.00000E+00
         0.00000E+00
         0.00000E+00
         0.00000E+00
         0.00000E+00
         0.00000E+00
         0.00000E+00
         0.00000E+00
         0.00000E+00
         0.00000E+00
         0.00000E+00
         0.00000E+00
         0.00000E+00
         0.00000E+00
         0.00000E+00
         0.00000E+00
         0.00000E+00
         0.00000E+00
         0.00000E+00
         0.00000E+00
         0.00000E+00
         0.00000E+00
         0.00000E+00
         0.00000E+00
         0.00000E+00
         0.00000E+00
         0.00000E+00
         0.00000E+00
         0.00000E+00
         0.00000E+00
         0.00000E+00
         0.00000E+00
         0.00000E+00
         0.00000E+00
         0.00000E+00
         0.00000E+00
         0.00000E+00
         0.00000E+00
         0.00000E+00
         0.00000E+00
         0.00000E+00
         0.00000E+00
         0.00000E+00
         0.00000E+00
         0.00000E+00
         0.00000E+00
         0.00000E+00
         0.00000E+00
         0.00000E+00
         0.00000E+00
         0.00000E+00
         0.00000E+00
         0.00000E+00
         0.00000E+00
         0.00000E+00
         0.00000E+00
         0.00000E+00
         0.00000E+00
         0.00000E+00
         0.00000E+00
         0.00000E+00
         0.00000E+00
         0.00000E+00
         0.00000E+00
         0.00000E+00
         0.00000E+00
         0.00000E+00
         0.00000E+00
         0.00000E+00
         0.00000E+00
         0.00000E+00
         0.00000E+00
         0.00000E+00
         0.00000E+00
         0.00000E+00
         0.00000E+00
         0.00000E+00
         0.00000E+00
         0.00000E+00
         0.00000E+00
         0.00000E+00
         0.00000E+00
         0.00000E+00
         0.00000E+00
         0.00000E+00
         0.00000E+00
         0.00000E+00
         0.00000E+00
         0.00000E+00
         0.00000E+00
         0.00000E+00
         0.00000E+00
         0.00000E+00
         0.00000E+00
         0.00000E+00
         0.00000E+00
         0.00000E+00
         0.00000E+00
         0.00000E+00
         0.00000E+00
         0.00000E+00
         0.00000E+00
         0.00000E+00
         0.00000E+00
         0.00000E+00
         0.00000E+00
         0.00000E+00
         0.00000E+00
         0.00000E+00
         0.00000E+00
         0.00000E+00
         0.00000E+00
         0.00000E+00
         0.00000E+00
         0.00000E+00
         0.00000E+00
         0.00000E+00
         0.00000E+00
         0.00000E+00
         0.00000E+00
         0.00000E+00
         0.00000E+00
         0.00000E+00
         0.00000E+00
         0.00000E+00
         0.00000E+00
         0.00000E+00
         0.00000E+00
         0.00000E+00
         0.00000E+00
         0.00000E+00
         0.00000E+00
         0.00000E+00
         0.00000E+00
         0.00000E+00
         0.00000E+00
         0.00000E+00
         0.00000E+00
         0.00000E+00
         0.00000E+00
         0.00000E+00
         0.00000E+00
         0.00000E+00
         0.00000E+00
         0.00000E+00
         0.00000E+00
         0.00000E+00
         0.00000E+00
         0.00000E+00
         0.00000E+00
         0.00000E+00
         0.00000E+00
         0.00000E+00
         0.00000E+00
         0.00000E+00
         0.00000E+00
         0.00000E+00
         0.00000E+00
         0.00000E+00
         0.00000E+00
         0.00000E+00
         0.00000E+00
         0.00000E+00
         0.00000E+00
         0.00000E+00
         0.00000E+00
         0.00000E+00
         0.00000E+00
         0.00000E+00
         0.00000E+00
         0.00000E+00
         0.00000E+00
         0.00000E+00
         0.00000E+00
         0.00000E+00
         0.00000E+00
         0.00000E+00
         0.00000E+00
         0.00000E+00
         0.00000E+00
         0.00000E+00
         0.00000E+00
         0.00000E+00
         0.00000E+00
         0.00000E+00
         0.00000E+00
         0.00000E+00
         0.00000E+00
         0.00000E+00
         0.00000E+00
         0.00000E+00
         0.00000E+00
         0.00000E+00
         0.00000E+00
         0.00000E+00
         0.00000E+00
         0.00000E+00
         0.00000E+00
         0.00000E+00
         0.00000E+00
         0.00000E+00
         0.00000E+00
         0.00000E+00
         0.00000E+00
         0.00000E+00
         0.00000E+00
         0.00000E+00
         0.00000E+00
         0.00000E+00
         0.00000E+00
         0.00000E+00
         0.00000E+00
         0.00000E+00
         0.00000E+00
         0.00000E+00
         0.00000E+00
         0.00000E+00
         0.00000E+00
         0.00000E+00
         0.00000E+00
         0.00000E+00
         0.00000E+00
         0.00000E+00
         0.00000E+00
         0.00000E+00
         0.00000E+00
         0.00000E+00
         0.00000E+00
         0.00000E+00
         0.00000E+00
         0.00000E+00
         0.00000E+00
         0.00000E+00
         0.00000E+00
         0.00000E+00
         0.00000E+00
         0.00000E+00
         0.00000E+00
         0.00000E+00
         0.00000E+00
         0.00000E+00
         0.00000E+00
         0.00000E+00
         0.00000E+00
         0.00000E+00
         0.00000E+00
         0.00000E+00
         0.00000E+00
         0.00000E+00
         0.00000E+00
         0.00000E+00
         0.00000E+00
         0.00000E+00
         0.00000E+00
         0.00000E+00
         0.00000E+00
         0.00000E+00
         0.00000E+00
         0.00000E+00
         0.00000E+00
         0.00000E+00
         0.00000E+00
         0.00000E+00
         0.00000E+00
         0.00000E+00
         0.00000E+00
         0.00000E+00
         0.00000E+00
         0.00000E+00
         0.00000E+00
         0.00000E+00
         0.00000E+00
         0.00000E+00
         0.00000E+00
         0.00000E+00
         0.00000E+00
         0.00000E+00
         0.00000E+00
         0.00000E+00
         0.00000E+00
         0.00000E+00
         0.00000E+00
         0.00000E+00
         0.00000E+00
         0.00000E+00
         0.00000E+00
         0.00000E+00
         0.00000E+00
         0.00000E+00
         0.00000E+00
         0.00000E+00
         0.00000E+00
         0.00000E+00
         0.00000E+00
         0.00000E+00
         0.00000E+00
         0.00000E+00
         0.00000E+00
         0.00000E+00
         0.00000E+00
         0.00000E+00
         0.00000E+00
         0.00000E+00
         0.00000E+00
         0.00000E+00
         0.00000E+00
         0.00000E+00
         0.00000E+00
         0.00000E+00
         0.00000E+00
         0.00000E+00
         0.00000E+00
         0.00000E+00
         0.00000E+00
         0.00000E+00
         0.00000E+00
         0.00000E+00
         0.00000E+00
         0.00000E+00
         0.00000E+00
         0.00000E+00
         0.00000E+00
         0.00000E+00
         0.00000E+00
         0.00000E+00
         0.00000E+00
         0.00000E+00
         0.00000E+00
         0.00000E+00
         0.00000E+00
         0.00000E+00
         0.00000E+00
         0.00000E+00
         0.00000E+00
         0.00000E+00
         0.00000E+00
         0.00000E+00
         0.00000E+00
         0.00000E+00
         0.00000E+00
         0.00000E+00
         0.00000E+00
         0.00000E+00
         0.00000E+00
         0.00000E+00
         0.00000E+00
         0.00000E+00
         0.00000E+00
         0.00000E+00
         0.00000E+00
         0.00000E+00
         0.00000E+00
         0.00000E+00
         0.00000E+00
         0.00000E+00
         0.00000E+00
         0.00000E+00
         0.00000E+00
         0.00000E+00
         0.00000E+00
         0.00000E+00
         0.00000E+00
         0.00000E+00
         0.00000E+00
         0.00000E+00
         0.00000E+00
         0.00000E+00
         0.00000E+00
         0.00000E+00
         0.00000E+00
         0.00000E+00
         0.00000E+00
         0.00000E+00
         0.00000E+00
         0.00000E+00
         0.00000E+00
         0.00000E+00
         0.00000E+00
         0.00000E+00
         0.00000E+00
         0.00000E+00
         0.00000E+00
         0.00000E+00
         0.00000E+00
         0.00000E+00
         0.00000E+00
         0.00000E+00
         0.00000E+00
         0.00000E+00
         0.00000E+00
         0.00000E+00
         0.00000E+00
         0.00000E+00
         0.00000E+00
         0.00000E+00
         0.00000E+00
         0.00000E+00
         0.00000E+00
         0.00000E+00
         0.00000E+00
         0.00000E+00
         0.00000E+00
         0.00000E+00
         0.00000E+00
         0.00000E+00
         0.00000E+00
         0.00000E+00
         0.00000E+00
         0.00000E+00
         0.00000E+00
         0.00000E+00
         0.00000E+00
         0.00000E+00
         0.00000E+00
         0.00000E+00
         0.00000E+00
         0.00000E+00
         0.00000E+00
         0.00000E+00
         0.00000E+00
         0.00000E+00
         0.00000E+00
         0.00000E+00
         0.00000E+00
         0.00000E+00
         0.00000E+00
         0.00000E+00
         0.00000E+00
         0.00000E+00
         0.00000E+00
         0.00000E+00
         0.00000E+00
         0.00000E+00
         0.00000E+00
         0.00000E+00
         0.00000E+00
         0.00000E+00
         0.00000E+00
         0.00000E+00
         0.00000E+00
         0.00000E+00
         0.00000E+00
         0.00000E+00
         0.00000E+00
         0.00000E+00
         0.00000E+00
         0.00000E+00
         0.00000E+00
         0.00000E+00
         0.00000E+00
         0.00000E+00
         0.00000E+00
         0.00000E+00
         0.00000E+00
         0.00000E+00
         0.00000E+00
         0.00000E+00
         0.00000E+00
         0.00000E+00
         0.00000E+00
         0.00000E+00
         0.00000E+00
         0.00000E+00
         0.00000E+00
         0.00000E+00
         0.00000E+00
         0.00000E+00
         0.00000E+00
         0.00000E+00
         0.00000E+00
         0.00000E+00
         0.00000E+00
         0.00000E+00
         0.00000E+00
         0.00000E+00
         0.00000E+00
         0.00000E+00
         0.00000E+00
         0.00000E+00
         0.00000E+00
         0.00000E+00
         0.00000E+00
         0.00000E+00
         0.00000E+00
         0.00000E+00
         0.00000E+00
         0.00000E+00
         0.00000E+00
         0.00000E+00
         0.00000E+00
         0.00000E+00
         0.00000E+00
         0.00000E+00
         0.00000E+00
         0.00000E+00
         0.00000E+00
         0.00000E+00
         0.00000E+00
         0.00000E+00
         0.00000E+00
         0.00000E+00
         0.00000E+00
         0.00000E+00
         0.00000E+00
         0.00000E+00
         0.00000E+00
         0.00000E+00
         0.00000E+00
         0.00000E+00
         0.00000E+00
         0.00000E+00
         0.00000E+00
         0.00000E+00
         0.00000E+00
         0.00000E+00
         0.00000E+00
         0.00000E+00
         0.00000E+00
         0.00000E+00
         0.00000E+00
         0.00000E+00
         0.00000E+00
         0.00000E+00
         0.00000E+00
         0.00000E+00
         0.00000E+00
         0.00000E+00
         0.00000E+00
         0.00000E+00
         0.00000E+00
         0.00000E+00
         0.00000E+00
         0.00000E+00
         0.00000E+00
         0.00000E+00
         0.00000E+00
         0.00000E+00
         0.00000E+00
         0.00000E+00
         0.00000E+00
         0.00000E+00
         0.00000E+00
         0.00000E+00
         0.00000E+00
         0.00000E+00
         0.00000E+00
         0.00000E+00
         0.00000E+00
         0.00000E+00
         0.00000E+00
         0.00000E+00
         0.00000E+00
         0.00000E+00
         0.00000E+00
         0.00000E+00
         0.00000E+00
         0.00000E+00
         0.00000E+00
         0.00000E+00
         0.00000E+00
         0.00000E+00
         0.00000E+00
         0.00000E+00
         0.00000E+00
         0.00000E+00
         0.00000E+00
         0.00000E+00
         0.00000E+00
         0.00000E+00
         0.00000E+00
         0.00000E+00
         0.00000E+00
         0.00000E+00
         0.00000E+00
         0.00000E+00
         0.00000E+00
         0.00000E+00
         0.00000E+00
         0.00000E+00
         0.00000E+00
         0.00000E+00
         0.00000E+00
         0.00000E+00
         0.00000E+00
         0.00000E+00
         0.00000E+00
         0.00000E+00
         0.00000E+00
         0.00000E+00
         0.00000E+00
         0.00000E+00
         0.00000E+00
         0.00000E+00
         0.00000E+00
         0.00000E+00
         0.00000E+00
         0.00000E+00
         0.00000E+00
         0.00000E+00
         0.00000E+00
         0.00000E+00
         0.00000E+00
         0.00000E+00
         0.00000E+00
         0.00000E+00
         0.00000E+00
         0.00000E+00
         0.00000E+00
         0.00000E+00
         0.00000E+00
         0.00000E+00
         0.00000E+00
         0.00000E+00
         0.00000E+00
         0.00000E+00
         0.00000E+00
         0.00000E+00
         0.00000E+00
         0.00000E+00
         0.00000E+00
         0.00000E+00
         0.00000E+00
         0.00000E+00
         0.00000E+00
         0.00000E+00
         0.00000E+00
         0.00000E+00
         0.00000E+00
         0.00000E+00
         0.00000E+00
         0.00000E+00
         0.00000E+00
         0.00000E+00
         0.00000E+00
         0.00000E+00
         0.00000E+00
         0.00000E+00
         0.00000E+00
         0.00000E+00
         0.00000E+00
         0.00000E+00
         0.00000E+00
         0.00000E+00
         0.00000E+00
         0.00000E+00
         0.00000E+00
         0.00000E+00
         0.00000E+00
         0.00000E+00
         0.00000E+00
         0.00000E+00
         0.00000E+00
         0.00000E+00
         0.00000E+00
         0.00000E+00
         0.00000E+00
         0.00000E+00
         0.00000E+00
         0.00000E+00
         0.00000E+00
         0.00000E+00
         0.00000E+00
         0.00000E+00
         0.00000E+00
         0.00000E+00
         0.00000E+00
         0.00000E+00
         0.00000E+00
         0.00000E+00
         0.00000E+00
         0.00000E+00
         0.00000E+00
         0.00000E+00
         0.00000E+00
         0.00000E+00
         0.00000E+00
         0.00000E+00
         0.00000E+00
         0.00000E+00
         0.00000E+00
         0.00000E+00
         0.00000E+00
         0.00000E+00
         0.00000E+00
         0.00000E+00
         0.00000E+00
         0.00000E+00
         0.00000E+00
         0.00000E+00
         0.00000E+00
         0.00000E+00
         0.00000E+00
         0.00000E+00
         0.00000E+00
         0.00000E+00
         0.00000E+00
         0.00000E+00
         0.00000E+00
         0.00000E+00
         0.00000E+00
         0.00000E+00
         0.00000E+00
         0.00000E+00
         0.00000E+00
         0.00000E+00
         0.00000E+00
         0.00000E+00
         0.00000E+00
         0.00000E+00
         0.00000E+00
         0.00000E+00
         0.00000E+00
         0.00000E+00
         0.00000E+00
         0.00000E+00
         0.00000E+00
         0.00000E+00
         0.00000E+00
         0.00000E+00
         0.00000E+00
         0.00000E+00
         0.00000E+00
         0.00000E+00
         0.00000E+00
         0.00000E+00
         0.00000E+00
         0.00000E+00
         0.00000E+00
         0.00000E+00
         0.00000E+00
         0.00000E+00
         0.00000E+00
         0.00000E+00
         0.00000E+00
         0.00000E+00
         0.00000E+00
         0.00000E+00
         0.00000E+00
         0.00000E+00
         0.00000E+00
         0.00000E+00
         0.00000E+00
         0.00000E+00
         0.00000E+00
         0.00000E+00
         0.00000E+00
         0.00000E+00
         0.00000E+00
         0.00000E+00
         0.00000E+00
         0.00000E+00
         0.00000E+00
         0.00000E+00
         0.00000E+00
         0.00000E+00
         0.00000E+00
         0.00000E+00
         0.00000E+00
         0.00000E+00
         0.00000E+00
         0.00000E+00
         0.00000E+00
         0.00000E+00
         0.00000E+00
         0.00000E+00
         0.00000E+00
         0.00000E+00
         0.00000E+00
         0.00000E+00
         0.00000E+00
         0.00000E+00
         0.00000E+00
         0.00000E+00
         0.00000E+00
         0.00000E+00
         0.00000E+00
         0.00000E+00
         0.00000E+00
         0.00000E+00
         0.00000E+00
         0.00000E+00
         0.00000E+00
         0.00000E+00
         0.00000E+00
         0.00000E+00
         0.00000E+00
         0.00000E+00
         0.00000E+00
         0.00000E+00
         0.00000E+00
         0.00000E+00
         0.00000E+00
         0.00000E+00
         0.00000E+00
         0.00000E+00
         0.00000E+00
         0.00000E+00
         0.00000E+00
         0.00000E+00
         0.00000E+00
         0.00000E+00
         0.00000E+00
         0.00000E+00
         0.00000E+00
         0.00000E+00
         0.00000E+00
         0.00000E+00
         0.00000E+00
         0.00000E+00
         0.00000E+00
         0.00000E+00
         0.00000E+00
         0.00000E+00
         0.00000E+00
         0.00000E+00
         0.00000E+00
         0.00000E+00
         0.00000E+00
         0.00000E+00
         0.00000E+00
         0.00000E+00
         0.00000E+00
         0.00000E+00
         0.00000E+00
         0.00000E+00
         0.00000E+00
         0.00000E+00
         0.00000E+00
         0.00000E+00
         0.00000E+00
         0.00000E+00
         0.00000E+00
         0.00000E+00
         0.00000E+00
         0.00000E+00
         0.00000E+00
         0.00000E+00
         0.00000E+00
         0.00000E+00
         0.00000E+00
         0.00000E+00
         0.00000E+00
         0.00000E+00
         0.00000E+00
         0.00000E+00
         0.00000E+00
         0.00000E+00
         0.00000E+00
         0.00000E+00
         0.00000E+00
         0.00000E+00
         0.00000E+00
         0.00000E+00
         0.00000E+00
         0.00000E+00
         0.00000E+00
         0.00000E+00
         0.00000E+00
         0.00000E+00
         0.00000E+00
         0.00000E+00
         0.00000E+00
         0.00000E+00
         0.00000E+00
         0.00000E+00
         0.00000E+00
         0.00000E+00
         0.00000E+00
         0.00000E+00
         0.00000E+00
         0.00000E+00
         0.00000E+00
         0.00000E+00
         0.00000E+00
         0.00000E+00
         0.00000E+00
         0.00000E+00
         0.00000E+00
         0.00000E+00
         0.00000E+00
         0.00000E+00
         0.00000E+00
         0.00000E+00
         0.00000E+00
         0.00000E+00
         0.00000E+00
         0.00000E+00
         0.00000E+00
         0.00000E+00
         0.00000E+00
         0.00000E+00
         0.00000E+00
         0.00000E+00
         0.00000E+00
         0.00000E+00
         0.00000E+00
         0.00000E+00
         0.00000E+00
         0.00000E+00
         0.00000E+00
         0.00000E+00
         0.00000E+00
         0.00000E+00
         0.00000E+00
         0.00000E+00
         0.00000E+00
         0.00000E+00
         0.00000E+00
         0.00000E+00
         0.00000E+00
         0.00000E+00
         0.00000E+00
         0.00000E+00
         0.00000E+00
         0.00000E+00
         0.00000E+00
         0.00000E+00
         0.00000E+00
         0.00000E+00
         0.00000E+00
         0.00000E+00
         0.00000E+00
         0.00000E+00
         0.00000E+00
         0.00000E+00
         0.00000E+00
         0.00000E+00
         0.00000E+00
         0.00000E+00
         0.00000E+00
         0.00000E+00
         0.00000E+00
         0.00000E+00
         0.00000E+00
         0.00000E+00
         0.00000E+00
         0.00000E+00
         0.00000E+00
         0.00000E+00
         0.00000E+00
         0.00000E+00
         0.00000E+00
         0.00000E+00
         0.00000E+00
         0.00000E+00
         0.00000E+00
         0.00000E+00
         0.00000E+00
         0.00000E+00
         0.00000E+00
         0.00000E+00
         0.00000E+00
         0.00000E+00
         0.00000E+00
         0.00000E+00
         0.00000E+00
         0.00000E+00
         0.00000E+00
         0.00000E+00
         0.00000E+00
         0.00000E+00
         0.00000E+00
         0.00000E+00
         0.00000E+00
         0.00000E+00
         0.00000E+00
         0.00000E+00
         0.00000E+00
         0.00000E+00
         0.00000E+00
         0.00000E+00
         0.00000E+00
         0.00000E+00
         0.00000E+00
         0.00000E+00
         0.00000E+00
         0.00000E+00
         0.00000E+00
         0.00000E+00
         0.00000E+00
         0.00000E+00
         0.00000E+00
         0.00000E+00
         0.00000E+00
         0.00000E+00
         0.00000E+00
         0.00000E+00
         0.00000E+00
         0.00000E+00
         0.00000E+00
         0.00000E+00
         0.00000E+00
         0.00000E+00
         0.00000E+00
         0.00000E+00
         0.00000E+00
         0.00000E+00
         0.00000E+00
         0.00000E+00
         0.00000E+00
         0.00000E+00
         0.00000E+00
         0.00000E+00
         0.00000E+00
         0.00000E+00
         0.00000E+00
         0.00000E+00
         0.00000E+00
         0.00000E+00
         0.00000E+00
         0.00000E+00
         0.00000E+00
         0.00000E+00
         0.00000E+00
         0.00000E+00
         0.00000E+00
         0.00000E+00
         0.00000E+00
         0.00000E+00
         0.00000E+00
         0.00000E+00
         0.00000E+00
         0.00000E+00
         0.00000E+00
         0.00000E+00
         0.00000E+00
         0.00000E+00
         0.00000E+00
         0.00000E+00
         0.00000E+00
         0.00000E+00
         0.00000E+00
         0.00000E+00
         0.00000E+00
         0.00000E+00
         0.00000E+00
         0.00000E+00
         0.00000E+00
         0.00000E+00
         0.00000E+00
         0.00000E+00
         0.00000E+00
         0.00000E+00
         0.00000E+00
         0.00000E+00
         0.00000E+00
         0.00000E+00
         0.00000E+00
         0.00000E+00
         0.00000E+00
         0.00000E+00
         0.00000E+00
         0.00000E+00
         0.00000E+00
         0.00000E+00
         0.00000E+00
         0.00000E+00
         0.00000E+00
         0.00000E+00
         0.00000E+00
         0.00000E+00
         0.00000E+00
         0.00000E+00
         0.00000E+00
         0.00000E+00
         0.00000E+00
         0.00000E+00
         0.00000E+00
         0.00000E+00
         0.00000E+00
         0.00000E+00
         0.00000E+00
         0.00000E+00
         0.00000E+00
         0.00000E+00
         0.00000E+00
         0.00000E+00
         0.00000E+00
         0.00000E+00
         0.00000E+00
         0.00000E+00
         0.00000E+00
         0.00000E+00
         0.00000E+00
         0.00000E+00
         0.00000E+00
         0.00000E+00
         0.00000E+00
         0.00000E+00
         0.00000E+00
         0.00000E+00
         0.00000E+00
         0.00000E+00
         0.00000E+00
         0.00000E+00
         0.00000E+00
         0.00000E+00
         0.00000E+00
         0.00000E+00
         0.00000E+00
         0.00000E+00
         0.00000E+00
         0.00000E+00
         0.00000E+00
         0.00000E+00
         0.00000E+00
         0.00000E+00
         0.00000E+00
         0.00000E+00
         0.00000E+00
         0.00000E+00
         0.00000E+00
         0.00000E+00
         0.00000E+00
         0.00000E+00
         0.00000E+00
         0.00000E+00
         0.00000E+00
         0.00000E+00
         0.00000E+00
         0.00000E+00
         0.00000E+00
         0.00000E+00
         0.00000E+00
         0.00000E+00
         0.00000E+00
         0.00000E+00
         0.00000E+00
         0.00000E+00
         0.00000E+00
         0.00000E+00
         0.00000E+00
         0.00000E+00
         0.00000E+00
         0.00000E+00
         0.00000E+00
         0.00000E+00
         0.00000E+00
         0.00000E+00
         0.00000E+00
         0.00000E+00
         0.00000E+00
         0.00000E+00
         0.00000E+00
         0.00000E+00
         0.00000E+00
         0.00000E+00
         0.00000E+00
         0.00000E+00
         0.00000E+00
         0.00000E+00
         0.00000E+00
         0.00000E+00
         0.00000E+00
         0.00000E+00
         0.00000E+00
         0.00000E+00
         0.00000E+00
         0.00000E+00
         0.00000E+00
         0.00000E+00
         0.00000E+00
         0.00000E+00
         0.00000E+00
         0.00000E+00
         0.00000E+00
         0.00000E+00
         0.00000E+00
         0.00000E+00
         0.00000E+00
         0.00000E+00
         0.00000E+00
         0.00000E+00
         0.00000E+00
         0.00000E+00
         0.00000E+00
         0.00000E+00
         0.00000E+00
         0.00000E+00
         0.00000E+00
         0.00000E+00
         0.00000E+00
         0.00000E+00
         0.00000E+00
         0.00000E+00
         0.00000E+00
         0.00000E+00
         0.00000E+00
         0.00000E+00
         0.00000E+00
         0.00000E+00
         0.00000E+00
         0.00000E+00
         0.00000E+00
         0.00000E+00
         0.00000E+00
         0.00000E+00
         0.00000E+00
         0.00000E+00
         0.00000E+00
         0.00000E+00
         0.00000E+00
         0.00000E+00
         0.00000E+00
         0.00000E+00
         0.00000E+00
         0.00000E+00
         0.00000E+00
         0.00000E+00
         0.00000E+00
         0.00000E+00
         0.00000E+00
         0.00000E+00
         0.00000E+00
         0.00000E+00
         0.00000E+00
         0.00000E+00
         0.00000E+00
         0.00000E+00
         0.00000E+00
         0.00000E+00
         0.00000E+00
         0.00000E+00
         0.00000E+00
         0.00000E+00
         0.00000E+00
         0.00000E+00
         0.00000E+00
         0.00000E+00
         0.00000E+00
         0.00000E+00
         0.00000E+00
         0.00000E+00
         0.00000E+00
         0.00000E+00
         0.00000E+00
         0.00000E+00
         0.00000E+00
  
SCALARS                 displacement_y  double 1
LOOKUP_TABLE default
         0.00000E+00
         0.00000E+00
         0.00000E+00
         0.00000E+00
         0.00000E+00
         0.00000E+00
         0.00000E+00
         0.00000E+00
         0.00000E+00
         0.00000E+00
         0.00000E+00
         0.00000E+00
         0.00000E+00
         0.00000E+00
         0.00000E+00
         0.00000E+00
         0.00000E+00
         0.00000E+00
         0.00000E+00
         0.00000E+00
         0.00000E+00
         0.00000E+00
         0.00000E+00
         0.00000E+00
         0.00000E+00
         0.00000E+00
         0.00000E+00
         0.00000E+00
         0.00000E+00
         0.00000E+00
         0.00000E+00
         0.00000E+00
         0.00000E+00
         0.00000E+00
         0.00000E+00
         0.00000E+00
         0.00000E+00
         0.00000E+00
         0.00000E+00
         0.00000E+00
         0.00000E+00
         0.00000E+00
         0.00000E+00
         0.00000E+00
         0.00000E+00
         0.00000E+00
         0.00000E+00
         0.00000E+00
         0.00000E+00
         0.00000E+00
         0.00000E+00
         0.00000E+00
         0.00000E+00
         0.00000E+00
         0.00000E+00
         0.00000E+00
         0.00000E+00
         0.00000E+00
         0.00000E+00
         0.00000E+00
         0.00000E+00
         0.00000E+00
         0.00000E+00
         0.00000E+00
         0.00000E+00
         0.00000E+00
         0.00000E+00
         0.00000E+00
         0.00000E+00
         0.00000E+00
         0.00000E+00
         0.00000E+00
         0.00000E+00
         0.00000E+00
         0.00000E+00
         0.00000E+00
         0.00000E+00
         0.00000E+00
         0.00000E+00
         0.00000E+00
         0.00000E+00
         0.00000E+00
         0.00000E+00
         0.00000E+00
         0.00000E+00
         0.00000E+00
         0.00000E+00
         0.00000E+00
         0.00000E+00
         0.00000E+00
         0.00000E+00
         0.00000E+00
         0.00000E+00
         0.00000E+00
         0.00000E+00
         0.00000E+00
         0.00000E+00
         0.00000E+00
         0.00000E+00
         0.00000E+00
         0.00000E+00
         0.00000E+00
         0.00000E+00
         0.00000E+00
         0.00000E+00
         0.00000E+00
         0.00000E+00
         0.00000E+00
         0.00000E+00
         0.00000E+00
         0.00000E+00
         0.00000E+00
         0.00000E+00
         0.00000E+00
         0.00000E+00
         0.00000E+00
         0.00000E+00
         0.00000E+00
         0.00000E+00
         0.00000E+00
         0.00000E+00
         0.00000E+00
         0.00000E+00
         0.00000E+00
         0.00000E+00
         0.00000E+00
         0.00000E+00
         0.00000E+00
         0.00000E+00
         0.00000E+00
         0.00000E+00
         0.00000E+00
         0.00000E+00
         0.00000E+00
         0.00000E+00
         0.00000E+00
         0.00000E+00
         0.00000E+00
         0.00000E+00
         0.00000E+00
         0.00000E+00
         0.00000E+00
         0.00000E+00
         0.00000E+00
         0.00000E+00
         0.00000E+00
         0.00000E+00
         0.00000E+00
         0.00000E+00
         0.00000E+00
         0.00000E+00
         0.00000E+00
         0.00000E+00
         0.00000E+00
         0.00000E+00
         0.00000E+00
         0.00000E+00
         0.00000E+00
         0.00000E+00
         0.00000E+00
         0.00000E+00
         0.00000E+00
         0.00000E+00
         0.00000E+00
         0.00000E+00
         0.00000E+00
         0.00000E+00
         0.00000E+00
         0.00000E+00
         0.00000E+00
         0.00000E+00
         0.00000E+00
         0.00000E+00
         0.00000E+00
         0.00000E+00
         0.00000E+00
         0.00000E+00
         0.00000E+00
         0.00000E+00
         0.00000E+00
         0.00000E+00
         0.00000E+00
         0.00000E+00
         0.00000E+00
         0.00000E+00
         0.00000E+00
         0.00000E+00
         0.00000E+00
         0.00000E+00
         0.00000E+00
         0.00000E+00
         0.00000E+00
         0.00000E+00
         0.00000E+00
         0.00000E+00
         0.00000E+00
         0.00000E+00
         0.00000E+00
         0.00000E+00
         0.00000E+00
         0.00000E+00
         0.00000E+00
         0.00000E+00
         0.00000E+00
         0.00000E+00
         0.00000E+00
         0.00000E+00
         0.00000E+00
         0.00000E+00
         0.00000E+00
         0.00000E+00
         0.00000E+00
         0.00000E+00
         0.00000E+00
         0.00000E+00
         0.00000E+00
         0.00000E+00
         0.00000E+00
         0.00000E+00
         0.00000E+00
         0.00000E+00
         0.00000E+00
         0.00000E+00
         0.00000E+00
         0.00000E+00
         0.00000E+00
         0.00000E+00
         0.00000E+00
         0.00000E+00
         0.00000E+00
         0.00000E+00
         0.00000E+00
         0.00000E+00
         0.00000E+00
         0.00000E+00
         0.00000E+00
         0.00000E+00
         0.00000E+00
         0.00000E+00
         0.00000E+00
         0.00000E+00
         0.00000E+00
         0.00000E+00
         0.00000E+00
         0.00000E+00
         0.00000E+00
         0.00000E+00
         0.00000E+00
         0.00000E+00
         0.00000E+00
         0.00000E+00
         0.00000E+00
         0.00000E+00
         0.00000E+00
         0.00000E+00
         0.00000E+00
         0.00000E+00
         0.00000E+00
         0.00000E+00
         0.00000E+00
         0.00000E+00
         0.00000E+00
         0.00000E+00
         0.00000E+00
         0.00000E+00
         0.00000E+00
         0.00000E+00
         0.00000E+00
         0.00000E+00
         0.00000E+00
         0.00000E+00
         0.00000E+00
         0.00000E+00
         0.00000E+00
         0.00000E+00
         0.00000E+00
         0.00000E+00
         0.00000E+00
         0.00000E+00
         0.00000E+00
         0.00000E+00
         0.00000E+00
         0.00000E+00
         0.00000E+00
         0.00000E+00
         0.00000E+00
         0.00000E+00
         0.00000E+00
         0.00000E+00
         0.00000E+00
         0.00000E+00
         0.00000E+00
         0.00000E+00
         0.00000E+00
         0.00000E+00
         0.00000E+00
         0.00000E+00
         0.00000E+00
         0.00000E+00
         0.00000E+00
         0.00000E+00
         0.00000E+00
         0.00000E+00
         0.00000E+00
         0.00000E+00
         0.00000E+00
         0.00000E+00
         0.00000E+00
         0.00000E+00
         0.00000E+00
         0.00000E+00
         0.00000E+00
         0.00000E+00
         0.00000E+00
         0.00000E+00
         0.00000E+00
         0.00000E+00
         0.00000E+00
         0.00000E+00
         0.00000E+00
         0.00000E+00
         0.00000E+00
         0.00000E+00
         0.00000E+00
         0.00000E+00
         0.00000E+00
         0.00000E+00
         0.00000E+00
         0.00000E+00
         0.00000E+00
         0.00000E+00
         0.00000E+00
         0.00000E+00
         0.00000E+00
         0.00000E+00
         0.00000E+00
         0.00000E+00
         0.00000E+00
         0.00000E+00
         0.00000E+00
         0.00000E+00
         0.00000E+00
         0.00000E+00
         0.00000E+00
         0.00000E+00
         0.00000E+00
         0.00000E+00
         0.00000E+00
         0.00000E+00
         0.00000E+00
         0.00000E+00
         0.00000E+00
         0.00000E+00
         0.00000E+00
         0.00000E+00
         0.00000E+00
         0.00000E+00
         0.00000E+00
         0.00000E+00
         0.00000E+00
         0.00000E+00
         0.00000E+00
         0.00000E+00
         0.00000E+00
         0.00000E+00
         0.00000E+00
         0.00000E+00
         0.00000E+00
         0.00000E+00
         0.00000E+00
         0.00000E+00
         0.00000E+00
         0.00000E+00
         0.00000E+00
         0.00000E+00
         0.00000E+00
         0.00000E+00
         0.00000E+00
         0.00000E+00
         0.00000E+00
         0.00000E+00
         0.00000E+00
         0.00000E+00
         0.00000E+00
         0.00000E+00
         0.00000E+00
         0.00000E+00
         0.00000E+00
         0.00000E+00
         0.00000E+00
         0.00000E+00
         0.00000E+00
         0.00000E+00
         0.00000E+00
         0.00000E+00
         0.00000E+00
         0.00000E+00
         0.00000E+00
         0.00000E+00
         0.00000E+00
         0.00000E+00
         0.00000E+00
         0.00000E+00
         0.00000E+00
         0.00000E+00
         0.00000E+00
         0.00000E+00
         0.00000E+00
         0.00000E+00
         0.00000E+00
         0.00000E+00
         0.00000E+00
         0.00000E+00
         0.00000E+00
         0.00000E+00
         0.00000E+00
         0.00000E+00
         0.00000E+00
         0.00000E+00
         0.00000E+00
         0.00000E+00
         0.00000E+00
         0.00000E+00
         0.00000E+00
         0.00000E+00
         0.00000E+00
         0.00000E+00
         0.00000E+00
         0.00000E+00
         0.00000E+00
         0.00000E+00
         0.00000E+00
         0.00000E+00
         0.00000E+00
         0.00000E+00
         0.00000E+00
         0.00000E+00
         0.00000E+00
         0.00000E+00
         0.00000E+00
         0.00000E+00
         0.00000E+00
         0.00000E+00
         0.00000E+00
         0.00000E+00
         0.00000E+00
         0.00000E+00
         0.00000E+00
         0.00000E+00
         0.00000E+00
         0.00000E+00
         0.00000E+00
         0.00000E+00
         0.00000E+00
         0.00000E+00
         0.00000E+00
         0.00000E+00
         0.00000E+00
         0.00000E+00
         0.00000E+00
         0.00000E+00
         0.00000E+00
         0.00000E+00
         0.00000E+00
         0.00000E+00
         0.00000E+00
         0.00000E+00
         0.00000E+00
         0.00000E+00
         0.00000E+00
         0.00000E+00
         0.00000E+00
         0.00000E+00
         0.00000E+00
         0.00000E+00
         0.00000E+00
         0.00000E+00
         0.00000E+00
         0.00000E+00
         0.00000E+00
         0.00000E+00
         0.00000E+00
         0.00000E+00
         0.00000E+00
         0.00000E+00
         0.00000E+00
         0.00000E+00
         0.00000E+00
         0.00000E+00
         0.00000E+00
         0.00000E+00
         0.00000E+00
         0.00000E+00
         0.00000E+00
         0.00000E+00
         0.00000E+00
         0.00000E+00
         0.00000E+00
         0.00000E+00
         0.00000E+00
         0.00000E+00
         0.00000E+00
         0.00000E+00
         0.00000E+00
         0.00000E+00
         0.00000E+00
         0.00000E+00
         0.00000E+00
         0.00000E+00
         0.00000E+00
         0.00000E+00
         0.00000E+00
         0.00000E+00
         0.00000E+00
         0.00000E+00
         0.00000E+00
         0.00000E+00
         0.00000E+00
         0.00000E+00
         0.00000E+00
         0.00000E+00
         0.00000E+00
         0.00000E+00
         0.00000E+00
         0.00000E+00
         0.00000E+00
         0.00000E+00
         0.00000E+00
         0.00000E+00
         0.00000E+00
         0.00000E+00
         0.00000E+00
         0.00000E+00
         0.00000E+00
         0.00000E+00
         0.00000E+00
         0.00000E+00
         0.00000E+00
         0.00000E+00
         0.00000E+00
         0.00000E+00
         0.00000E+00
         0.00000E+00
         0.00000E+00
         0.00000E+00
         0.00000E+00
         0.00000E+00
         0.00000E+00
         0.00000E+00
         0.00000E+00
         0.00000E+00
         0.00000E+00
         0.00000E+00
         0.00000E+00
         0.00000E+00
         0.00000E+00
         0.00000E+00
         0.00000E+00
         0.00000E+00
         0.00000E+00
         0.00000E+00
         0.00000E+00
         0.00000E+00
         0.00000E+00
         0.00000E+00
         0.00000E+00
         0.00000E+00
         0.00000E+00
         0.00000E+00
         0.00000E+00
         0.00000E+00
         0.00000E+00
         0.00000E+00
         0.00000E+00
         0.00000E+00
         0.00000E+00
         0.00000E+00
         0.00000E+00
         0.00000E+00
         0.00000E+00
         0.00000E+00
         0.00000E+00
         0.00000E+00
         0.00000E+00
         0.00000E+00
         0.00000E+00
         0.00000E+00
         0.00000E+00
         0.00000E+00
         0.00000E+00
         0.00000E+00
         0.00000E+00
         0.00000E+00
         0.00000E+00
         0.00000E+00
         0.00000E+00
         0.00000E+00
         0.00000E+00
         0.00000E+00
         0.00000E+00
         0.00000E+00
         0.00000E+00
         0.00000E+00
         0.00000E+00
         0.00000E+00
         0.00000E+00
         0.00000E+00
         0.00000E+00
         0.00000E+00
         0.00000E+00
         0.00000E+00
         0.00000E+00
         0.00000E+00
         0.00000E+00
         0.00000E+00
         0.00000E+00
         0.00000E+00
         0.00000E+00
         0.00000E+00
         0.00000E+00
         0.00000E+00
         0.00000E+00
         0.00000E+00
         0.00000E+00
         0.00000E+00
         0.00000E+00
         0.00000E+00
         0.00000E+00
         0.00000E+00
         0.00000E+00
         0.00000E+00
         0.00000E+00
         0.00000E+00
         0.00000E+00
         0.00000E+00
         0.00000E+00
         0.00000E+00
         0.00000E+00
         0.00000E+00
         0.00000E+00
         0.00000E+00
         0.00000E+00
         0.00000E+00
         0.00000E+00
         0.00000E+00
         0.00000E+00
         0.00000E+00
         0.00000E+00
         0.00000E+00
         0.00000E+00
         0.00000E+00
         0.00000E+00
         0.00000E+00
         0.00000E+00
         0.00000E+00
         0.00000E+00
         0.00000E+00
         0.00000E+00
         0.00000E+00
         0.00000E+00
         0.00000E+00
         0.00000E+00
         0.00000E+00
         0.00000E+00
         0.00000E+00
         0.00000E+00
         0.00000E+00
         0.00000E+00
         0.00000E+00
         0.00000E+00
         0.00000E+00
         0.00000E+00
         0.00000E+00
         0.00000E+00
         0.00000E+00
         0.00000E+00
         0.00000E+00
         0.00000E+00
         0.00000E+00
         0.00000E+00
         0.00000E+00
         0.00000E+00
         0.00000E+00
         0.00000E+00
         0.00000E+00
         0.00000E+00
         0.00000E+00
         0.00000E+00
         0.00000E+00
         0.00000E+00
         0.00000E+00
         0.00000E+00
         0.00000E+00
         0.00000E+00
         0.00000E+00
         0.00000E+00
         0.00000E+00
         0.00000E+00
         0.00000E+00
         0.00000E+00
         0.00000E+00
         0.00000E+00
         0.00000E+00
         0.00000E+00
         0.00000E+00
         0.00000E+00
         0.00000E+00
         0.00000E+00
         0.00000E+00
         0.00000E+00
         0.00000E+00
         0.00000E+00
         0.00000E+00
         0.00000E+00
         0.00000E+00
         0.00000E+00
         0.00000E+00
         0.00000E+00
         0.00000E+00
         0.00000E+00
         0.00000E+00
         0.00000E+00
         0.00000E+00
         0.00000E+00
         0.00000E+00
         0.00000E+00
         0.00000E+00
         0.00000E+00
         0.00000E+00
         0.00000E+00
         0.00000E+00
         0.00000E+00
         0.00000E+00
         0.00000E+00
         0.00000E+00
         0.00000E+00
         0.00000E+00
         0.00000E+00
         0.00000E+00
         0.00000E+00
         0.00000E+00
         0.00000E+00
         0.00000E+00
         0.00000E+00
         0.00000E+00
         0.00000E+00
         0.00000E+00
         0.00000E+00
         0.00000E+00
         0.00000E+00
         0.00000E+00
         0.00000E+00
         0.00000E+00
         0.00000E+00
         0.00000E+00
         0.00000E+00
         0.00000E+00
         0.00000E+00
         0.00000E+00
         0.00000E+00
         0.00000E+00
         0.00000E+00
         0.00000E+00
         0.00000E+00
         0.00000E+00
         0.00000E+00
         0.00000E+00
         0.00000E+00
         0.00000E+00
         0.00000E+00
         0.00000E+00
         0.00000E+00
         0.00000E+00
         0.00000E+00
         0.00000E+00
         0.00000E+00
         0.00000E+00
         0.00000E+00
         0.00000E+00
         0.00000E+00
         0.00000E+00
         0.00000E+00
         0.00000E+00
         0.00000E+00
         0.00000E+00
         0.00000E+00
         0.00000E+00
         0.00000E+00
         0.00000E+00
         0.00000E+00
         0.00000E+00
         0.00000E+00
         0.00000E+00
         0.00000E+00
         0.00000E+00
         0.00000E+00
         0.00000E+00
         0.00000E+00
         0.00000E+00
         0.00000E+00
         0.00000E+00
         0.00000E+00
         0.00000E+00
         0.00000E+00
         0.00000E+00
         0.00000E+00
         0.00000E+00
         0.00000E+00
         0.00000E+00
         0.00000E+00
         0.00000E+00
         0.00000E+00
         0.00000E+00
         0.00000E+00
         0.00000E+00
         0.00000E+00
         0.00000E+00
         0.00000E+00
         0.00000E+00
         0.00000E+00
         0.00000E+00
         0.00000E+00
         0.00000E+00
         0.00000E+00
         0.00000E+00
         0.00000E+00
         0.00000E+00
         0.00000E+00
         0.00000E+00
         0.00000E+00
         0.00000E+00
         0.00000E+00
         0.00000E+00
         0.00000E+00
         0.00000E+00
         0.00000E+00
         0.00000E+00
         0.00000E+00
         0.00000E+00
         0.00000E+00
         0.00000E+00
         0.00000E+00
         0.00000E+00
         0.00000E+00
         0.00000E+00
         0.00000E+00
         0.00000E+00
         0.00000E+00
         0.00000E+00
         0.00000E+00
         0.00000E+00
         0.00000E+00
         0.00000E+00
         0.00000E+00
         0.00000E+00
         0.00000E+00
         0.00000E+00
         0.00000E+00
         0.00000E+00
         0.00000E+00
         0.00000E+00
         0.00000E+00
         0.00000E+00
         0.00000E+00
         0.00000E+00
         0.00000E+00
         0.00000E+00
         0.00000E+00
         0.00000E+00
         0.00000E+00
         0.00000E+00
         0.00000E+00
         0.00000E+00
         0.00000E+00
         0.00000E+00
         0.00000E+00
         0.00000E+00
         0.00000E+00
         0.00000E+00
         0.00000E+00
         0.00000E+00
         0.00000E+00
         0.00000E+00
         0.00000E+00
         0.00000E+00
         0.00000E+00
         0.00000E+00
         0.00000E+00
         0.00000E+00
         0.00000E+00
         0.00000E+00
         0.00000E+00
         0.00000E+00
         0.00000E+00
         0.00000E+00
         0.00000E+00
         0.00000E+00
         0.00000E+00
         0.00000E+00
         0.00000E+00
         0.00000E+00
         0.00000E+00
         0.00000E+00
         0.00000E+00
         0.00000E+00
         0.00000E+00
         0.00000E+00
         0.00000E+00
         0.00000E+00
         0.00000E+00
         0.00000E+00
         0.00000E+00
         0.00000E+00
         0.00000E+00
         0.00000E+00
         0.00000E+00
         0.00000E+00
         0.00000E+00
         0.00000E+00
         0.00000E+00
         0.00000E+00
         0.00000E+00
         0.00000E+00
         0.00000E+00
         0.00000E+00
         0.00000E+00
         0.00000E+00
         0.00000E+00
         0.00000E+00
         0.00000E+00
         0.00000E+00
         0.00000E+00
         0.00000E+00
         0.00000E+00
         0.00000E+00
         0.00000E+00
         0.00000E+00
         0.00000E+00
         0.00000E+00
         0.00000E+00
         0.00000E+00
         0.00000E+00
         0.00000E+00
         0.00000E+00
         0.00000E+00
         0.00000E+00
         0.00000E+00
         0.00000E+00
         0.00000E+00
         0.00000E+00
         0.00000E+00
         0.00000E+00
         0.00000E+00
         0.00000E+00
         0.00000E+00
         0.00000E+00
         0.00000E+00
         0.00000E+00
         0.00000E+00
         0.00000E+00
         0.00000E+00
         0.00000E+00
         0.00000E+00
         0.00000E+00
         0.00000E+00
         0.00000E+00
         0.00000E+00
         0.00000E+00
         0.00000E+00
         0.00000E+00
         0.00000E+00
         0.00000E+00
         0.00000E+00
         0.00000E+00
         0.00000E+00
         0.00000E+00
         0.00000E+00
         0.00000E+00
         0.00000E+00
         0.00000E+00
         0.00000E+00
         0.00000E+00
         0.00000E+00
         0.00000E+00
         0.00000E+00
         0.00000E+00
         0.00000E+00
         0.00000E+00
         0.00000E+00
         0.00000E+00
         0.00000E+00
         0.00000E+00
         0.00000E+00
         0.00000E+00
         0.00000E+00
         0.00000E+00
         0.00000E+00
         0.00000E+00
         0.00000E+00
         0.00000E+00
         0.00000E+00
         0.00000E+00
         0.00000E+00
         0.00000E+00
         0.00000E+00
         0.00000E+00
         0.00000E+00
         0.00000E+00
         0.00000E+00
         0.00000E+00
         0.00000E+00
         0.00000E+00
         0.00000E+00
         0.00000E+00
         0.00000E+00
         0.00000E+00
         0.00000E+00
         0.00000E+00
         0.00000E+00
         0.00000E+00
         0.00000E+00
         0.00000E+00
         0.00000E+00
         0.00000E+00
         0.00000E+00
         0.00000E+00
         0.00000E+00
         0.00000E+00
         0.00000E+00
         0.00000E+00
         0.00000E+00
         0.00000E+00
         0.00000E+00
         0.00000E+00
         0.00000E+00
         0.00000E+00
         0.00000E+00
         0.00000E+00
         0.00000E+00
         0.00000E+00
         0.00000E+00
         0.00000E+00
         0.00000E+00
         0.00000E+00
         0.00000E+00
         0.00000E+00
         0.00000E+00
         0.00000E+00
         0.00000E+00
         0.00000E+00
         0.00000E+00
         0.00000E+00
         0.00000E+00
         0.00000E+00
         0.00000E+00
         0.00000E+00
         0.00000E+00
         0.00000E+00
         0.00000E+00
         0.00000E+00
         0.00000E+00
         0.00000E+00
         0.00000E+00
         0.00000E+00
         0.00000E+00
         0.00000E+00
         0.00000E+00
         0.00000E+00
         0.00000E+00
         0.00000E+00
         0.00000E+00
         0.00000E+00
         0.00000E+00
         0.00000E+00
         0.00000E+00
         0.00000E+00
         0.00000E+00
         0.00000E+00
         0.00000E+00
         0.00000E+00
         0.00000E+00
         0.00000E+00
         0.00000E+00
         0.00000E+00
         0.00000E+00
         0.00000E+00
         0.00000E+00
         0.00000E+00
         0.00000E+00
         0.00000E+00
         0.00000E+00
         0.00000E+00
         0.00000E+00
         0.00000E+00
         0.00000E+00
         0.00000E+00
         0.00000E+00
         0.00000E+00
         0.00000E+00
         0.00000E+00
         0.00000E+00
         0.00000E+00
         0.00000E+00
         0.00000E+00
         0.00000E+00
         0.00000E+00
         0.00000E+00
         0.00000E+00
         0.00000E+00
         0.00000E+00
         0.00000E+00
         0.00000E+00
         0.00000E+00
         0.00000E+00
         0.00000E+00
         0.00000E+00
         0.00000E+00
         0.00000E+00
         0.00000E+00
         0.00000E+00
         0.00000E+00
         0.00000E+00
         0.00000E+00
         0.00000E+00
         0.00000E+00
         0.00000E+00
         0.00000E+00
         0.00000E+00
         0.00000E+00
         0.00000E+00
         0.00000E+00
         0.00000E+00
         0.00000E+00
         0.00000E+00
         0.00000E+00
         0.00000E+00
         0.00000E+00
         0.00000E+00
         0.00000E+00
         0.00000E+00
         0.00000E+00
         0.00000E+00
         0.00000E+00
         0.00000E+00
         0.00000E+00
         0.00000E+00
         0.00000E+00
         0.00000E+00
         0.00000E+00
         0.00000E+00
         0.00000E+00
         0.00000E+00
         0.00000E+00
         0.00000E+00
         0.00000E+00
         0.00000E+00
         0.00000E+00
         0.00000E+00
         0.00000E+00
         0.00000E+00
         0.00000E+00
         0.00000E+00
         0.00000E+00
         0.00000E+00
         0.00000E+00
         0.00000E+00
         0.00000E+00
         0.00000E+00
         0.00000E+00
         0.00000E+00
         0.00000E+00
         0.00000E+00
         0.00000E+00
         0.00000E+00
         0.00000E+00
         0.00000E+00
         0.00000E+00
         0.00000E+00
         0.00000E+00
         0.00000E+00
         0.00000E+00
         0.00000E+00
         0.00000E+00
         0.00000E+00
         0.00000E+00
         0.00000E+00
         0.00000E+00
         0.00000E+00
         0.00000E+00
         0.00000E+00
         0.00000E+00
         0.00000E+00
         0.00000E+00
         0.00000E+00
         0.00000E+00
         0.00000E+00
         0.00000E+00
         0.00000E+00
         0.00000E+00
         0.00000E+00
         0.00000E+00
         0.00000E+00
         0.00000E+00
         0.00000E+00
         0.00000E+00
         0.00000E+00
         0.00000E+00
         0.00000E+00
         0.00000E+00
         0.00000E+00
         0.00000E+00
         0.00000E+00
         0.00000E+00
         0.00000E+00
         0.00000E+00
         0.00000E+00
         0.00000E+00
         0.00000E+00
         0.00000E+00
         0.00000E+00
         0.00000E+00
         0.00000E+00
         0.00000E+00
         0.00000E+00
         0.00000E+00
         0.00000E+00
         0.00000E+00
         0.00000E+00
         0.00000E+00
         0.00000E+00
         0.00000E+00
         0.00000E+00
         0.00000E+00
         0.00000E+00
         0.00000E+00
         0.00000E+00
         0.00000E+00
         0.00000E+00
         0.00000E+00
         0.00000E+00
         0.00000E+00
         0.00000E+00
         0.00000E+00
         0.00000E+00
         0.00000E+00
         0.00000E+00
         0.00000E+00
         0.00000E+00
         0.00000E+00
         0.00000E+00
         0.00000E+00
         0.00000E+00
         0.00000E+00
         0.00000E+00
         0.00000E+00
         0.00000E+00
         0.00000E+00
         0.00000E+00
         0.00000E+00
         0.00000E+00
         0.00000E+00
         0.00000E+00
         0.00000E+00
         0.00000E+00
         0.00000E+00
         0.00000E+00
         0.00000E+00
         0.00000E+00
         0.00000E+00
         0.00000E+00
         0.00000E+00
         0.00000E+00
         0.00000E+00
         0.00000E+00
         0.00000E+00
         0.00000E+00
         0.00000E+00
         0.00000E+00
         0.00000E+00
         0.00000E+00
         0.00000E+00
         0.00000E+00
         0.00000E+00
         0.00000E+00
         0.00000E+00
         0.00000E+00
         0.00000E+00
         0.00000E+00
         0.00000E+00
         0.00000E+00
         0.00000E+00
         0.00000E+00
         0.00000E+00
         0.00000E+00
         0.00000E+00
         0.00000E+00
         0.00000E+00
         0.00000E+00
         0.00000E+00
         0.00000E+00
         0.00000E+00
         0.00000E+00
         0.00000E+00
         0.00000E+00
         0.00000E+00
         0.00000E+00
         0.00000E+00
         0.00000E+00
         0.00000E+00
         0.00000E+00
         0.00000E+00
         0.00000E+00
         0.00000E+00
         0.00000E+00
         0.00000E+00
         0.00000E+00
         0.00000E+00
         0.00000E+00
         0.00000E+00
         0.00000E+00
         0.00000E+00
         0.00000E+00
         0.00000E+00
         0.00000E+00
         0.00000E+00
         0.00000E+00
         0.00000E+00
         0.00000E+00
         0.00000E+00
         0.00000E+00
         0.00000E+00
         0.00000E+00
         0.00000E+00
         0.00000E+00
         0.00000E+00
         0.00000E+00
         0.00000E+00
         0.00000E+00
         0.00000E+00
         0.00000E+00
         0.00000E+00
         0.00000E+00
         0.00000E+00
         0.00000E+00
         0.00000E+00
         0.00000E+00
         0.00000E+00
         0.00000E+00
         0.00000E+00
         0.00000E+00
         0.00000E+00
         0.00000E+00
         0.00000E+00
         0.00000E+00
         0.00000E+00
         0.00000E+00
         0.00000E+00
         0.00000E+00
         0.00000E+00
         0.00000E+00
         0.00000E+00
         0.00000E+00
         0.00000E+00
         0.00000E+00
         0.00000E+00
         0.00000E+00
         0.00000E+00
         0.00000E+00
         0.00000E+00
         0.00000E+00
         0.00000E+00
         0.00000E+00
         0.00000E+00
         0.00000E+00
         0.00000E+00
         0.00000E+00
         0.00000E+00
         0.00000E+00
         0.00000E+00
         0.00000E+00
         0.00000E+00
         0.00000E+00
         0.00000E+00
         0.00000E+00
         0.00000E+00
         0.00000E+00
         0.00000E+00
         0.00000E+00
         0.00000E+00
         0.00000E+00
         0.00000E+00
         0.00000E+00
         0.00000E+00
         0.00000E+00
         0.00000E+00
         0.00000E+00
         0.00000E+00
         0.00000E+00
         0.00000E+00
         0.00000E+00
         0.00000E+00
         0.00000E+00
         0.00000E+00
         0.00000E+00
         0.00000E+00
         0.00000E+00
         0.00000E+00
         0.00000E+00
         0.00000E+00
         0.00000E+00
         0.00000E+00
         0.00000E+00
         0.00000E+00
         0.00000E+00
         0.00000E+00
         0.00000E+00
         0.00000E+00
         0.00000E+00
         0.00000E+00
         0.00000E+00
         0.00000E+00
         0.00000E+00
         0.00000E+00
         0.00000E+00
         0.00000E+00
         0.00000E+00
         0.00000E+00
         0.00000E+00
         0.00000E+00
         0.00000E+00
         0.00000E+00
         0.00000E+00
         0.00000E+00
         0.00000E+00
         0.00000E+00
         0.00000E+00
         0.00000E+00
         0.00000E+00
         0.00000E+00
         0.00000E+00
         0.00000E+00
         0.00000E+00
         0.00000E+00
         0.00000E+00
         0.00000E+00
         0.00000E+00
         0.00000E+00
         0.00000E+00
         0.00000E+00
         0.00000E+00
         0.00000E+00
         0.00000E+00
         0.00000E+00
         0.00000E+00
         0.00000E+00
         0.00000E+00
         0.00000E+00
         0.00000E+00
         0.00000E+00
         0.00000E+00
         0.00000E+00
         0.00000E+00
         0.00000E+00
         0.00000E+00
         0.00000E+00
         0.00000E+00
         0.00000E+00
         0.00000E+00
         0.00000E+00
         0.00000E+00
         0.00000E+00
         0.00000E+00
         0.00000E+00
         0.00000E+00
         0.00000E+00
         0.00000E+00
         0.00000E+00
         0.00000E+00
         0.00000E+00
         0.00000E+00
         0.00000E+00
         0.00000E+00
         0.00000E+00
         0.00000E+00
         0.00000E+00
         0.00000E+00
         0.00000E+00
         0.00000E+00
         0.00000E+00
         0.00000E+00
         0.00000E+00
         0.00000E+00
         0.00000E+00
         0.00000E+00
         0.00000E+00
         0.00000E+00
         0.00000E+00
         0.00000E+00
         0.00000E+00
         0.00000E+00
         0.00000E+00
         0.00000E+00
         0.00000E+00
         0.00000E+00
         0.00000E+00
         0.00000E+00
         0.00000E+00
         0.00000E+00
         0.00000E+00
         0.00000E+00
         0.00000E+00
         0.00000E+00
         0.00000E+00
         0.00000E+00
         0.00000E+00
         0.00000E+00
         0.00000E+00
         0.00000E+00
         0.00000E+00
         0.00000E+00
         0.00000E+00
         0.00000E+00
         0.00000E+00
         0.00000E+00
         0.00000E+00
         0.00000E+00
         0.00000E+00
         0.00000E+00
         0.00000E+00
         0.00000E+00
         0.00000E+00
         0.00000E+00
         0.00000E+00
         0.00000E+00
         0.00000E+00
         0.00000E+00
         0.00000E+00
         0.00000E+00
         0.00000E+00
         0.00000E+00
         0.00000E+00
         0.00000E+00
         0.00000E+00
         0.00000E+00
         0.00000E+00
         0.00000E+00
         0.00000E+00
         0.00000E+00
         0.00000E+00
         0.00000E+00
         0.00000E+00
         0.00000E+00
         0.00000E+00
         0.00000E+00
         0.00000E+00
         0.00000E+00
         0.00000E+00
         0.00000E+00
         0.00000E+00
         0.00000E+00
         0.00000E+00
         0.00000E+00
         0.00000E+00
         0.00000E+00
         0.00000E+00
         0.00000E+00
         0.00000E+00
         0.00000E+00
         0.00000E+00
         0.00000E+00
         0.00000E+00
         0.00000E+00
         0.00000E+00
         0.00000E+00
         0.00000E+00
         0.00000E+00
         0.00000E+00
         0.00000E+00
         0.00000E+00
         0.00000E+00
         0.00000E+00
         0.00000E+00
         0.00000E+00
         0.00000E+00
         0.00000E+00
         0.00000E+00
         0.00000E+00
         0.00000E+00
         0.00000E+00
         0.00000E+00
         0.00000E+00
         0.00000E+00
         0.00000E+00
         0.00000E+00
         0.00000E+00
         0.00000E+00
         0.00000E+00
         0.00000E+00
         0.00000E+00
         0.00000E+00
         0.00000E+00
         0.00000E+00
         0.00000E+00
         0.00000E+00
         0.00000E+00
         0.00000E+00
         0.00000E+00
         0.00000E+00
         0.00000E+00
         0.00000E+00
         0.00000E+00
         0.00000E+00
         0.00000E+00
         0.00000E+00
         0.00000E+00
         0.00000E+00
         0.00000E+00
         0.00000E+00
         0.00000E+00
         0.00000E+00
         0.00000E+00
         0.00000E+00
         0.00000E+00
         0.00000E+00
         0.00000E+00
         0.00000E+00
         0.00000E+00
         0.00000E+00
         0.00000E+00
         0.00000E+00
         0.00000E+00
         0.00000E+00
         0.00000E+00
         0.00000E+00
         0.00000E+00
         0.00000E+00
         0.00000E+00
         0.00000E+00
         0.00000E+00
         0.00000E+00
         0.00000E+00
         0.00000E+00
         0.00000E+00
         0.00000E+00
         0.00000E+00
         0.00000E+00
         0.00000E+00
         0.00000E+00
         0.00000E+00
         0.00000E+00
         0.00000E+00
         0.00000E+00
         0.00000E+00
         0.00000E+00
         0.00000E+00
         0.00000E+00
         0.00000E+00
         0.00000E+00
         0.00000E+00
         0.00000E+00
         0.00000E+00
         0.00000E+00
         0.00000E+00
         0.00000E+00
         0.00000E+00
         0.00000E+00
         0.00000E+00
         0.00000E+00
         0.00000E+00
         0.00000E+00
         0.00000E+00
         0.00000E+00
         0.00000E+00
         0.00000E+00
         0.00000E+00
         0.00000E+00
         0.00000E+00
         0.00000E+00
         0.00000E+00
         0.00000E+00
         0.00000E+00
         0.00000E+00
         0.00000E+00
         0.00000E+00
         0.00000E+00
         0.00000E+00
         0.00000E+00
         0.00000E+00
         0.00000E+00
         0.00000E+00
         0.00000E+00
         0.00000E+00
         0.00000E+00
         0.00000E+00
         0.00000E+00
         0.00000E+00
         0.00000E+00
         0.00000E+00
         0.00000E+00
         0.00000E+00
         0.00000E+00
         0.00000E+00
         0.00000E+00
         0.00000E+00
         0.00000E+00
         0.00000E+00
         0.00000E+00
         0.00000E+00
         0.00000E+00
         0.00000E+00
         0.00000E+00
         0.00000E+00
         0.00000E+00
         0.00000E+00
         0.00000E+00
         0.00000E+00
         0.00000E+00
         0.00000E+00
         0.00000E+00
         0.00000E+00
         0.00000E+00
         0.00000E+00
         0.00000E+00
         0.00000E+00
         0.00000E+00
         0.00000E+00
         0.00000E+00
         0.00000E+00
         0.00000E+00
         0.00000E+00
         0.00000E+00
         0.00000E+00
         0.00000E+00
         0.00000E+00
         0.00000E+00
         0.00000E+00
         0.00000E+00
         0.00000E+00
         0.00000E+00
         0.00000E+00
         0.00000E+00
         0.00000E+00
         0.00000E+00
         0.00000E+00
         0.00000E+00
         0.00000E+00
         0.00000E+00
         0.00000E+00
         0.00000E+00
         0.00000E+00
         0.00000E+00
         0.00000E+00
         0.00000E+00
         0.00000E+00
         0.00000E+00
         0.00000E+00
         0.00000E+00
         0.00000E+00
         0.00000E+00
         0.00000E+00
         0.00000E+00
         0.00000E+00
         0.00000E+00
         0.00000E+00
         0.00000E+00
         0.00000E+00
         0.00000E+00
         0.00000E+00
         0.00000E+00
         0.00000E+00
         0.00000E+00
         0.00000E+00
         0.00000E+00
         0.00000E+00
         0.00000E+00
         0.00000E+00
         0.00000E+00
         0.00000E+00
         0.00000E+00
         0.00000E+00
         0.00000E+00
         0.00000E+00
         0.00000E+00
         0.00000E+00
         0.00000E+00
         0.00000E+00
         0.00000E+00
         0.00000E+00
         0.00000E+00
         0.00000E+00
         0.00000E+00
         0.00000E+00
         0.00000E+00
         0.00000E+00
         0.00000E+00
         0.00000E+00
         0.00000E+00
         0.00000E+00
         0.00000E+00
         0.00000E+00
         0.00000E+00
         0.00000E+00
         0.00000E+00
         0.00000E+00
         0.00000E+00
         0.00000E+00
         0.00000E+00
         0.00000E+00
         0.00000E+00
         0.00000E+00
         0.00000E+00
         0.00000E+00
         0.00000E+00
         0.00000E+00
         0.00000E+00
         0.00000E+00
         0.00000E+00
         0.00000E+00
         0.00000E+00
         0.00000E+00
         0.00000E+00
         0.00000E+00
         0.00000E+00
         0.00000E+00
         0.00000E+00
         0.00000E+00
         0.00000E+00
         0.00000E+00
         0.00000E+00
         0.00000E+00
         0.00000E+00
         0.00000E+00
         0.00000E+00
         0.00000E+00
         0.00000E+00
         0.00000E+00
         0.00000E+00
         0.00000E+00
         0.00000E+00
         0.00000E+00
         0.00000E+00
         0.00000E+00
         0.00000E+00
         0.00000E+00
         0.00000E+00
         0.00000E+00
         0.00000E+00
         0.00000E+00
         0.00000E+00
         0.00000E+00
         0.00000E+00
         0.00000E+00
         0.00000E+00
         0.00000E+00
         0.00000E+00
         0.00000E+00
         0.00000E+00
         0.00000E+00
         0.00000E+00
         0.00000E+00
         0.00000E+00
         0.00000E+00
         0.00000E+00
         0.00000E+00
         0.00000E+00
         0.00000E+00
         0.00000E+00
         0.00000E+00
         0.00000E+00
         0.00000E+00
         0.00000E+00
         0.00000E+00
         0.00000E+00
         0.00000E+00
         0.00000E+00
         0.00000E+00
         0.00000E+00
         0.00000E+00
         0.00000E+00
         0.00000E+00
         0.00000E+00
         0.00000E+00
         0.00000E+00
         0.00000E+00
         0.00000E+00
         0.00000E+00
         0.00000E+00
         0.00000E+00
         0.00000E+00
         0.00000E+00
         0.00000E+00
         0.00000E+00
         0.00000E+00
         0.00000E+00
         0.00000E+00
         0.00000E+00
         0.00000E+00
         0.00000E+00
         0.00000E+00
         0.00000E+00
         0.00000E+00
         0.00000E+00
         0.00000E+00
         0.00000E+00
         0.00000E+00
         0.00000E+00
         0.00000E+00
         0.00000E+00
         0.00000E+00
         0.00000E+00
         0.00000E+00
         0.00000E+00
         0.00000E+00
         0.00000E+00
         0.00000E+00
         0.00000E+00
         0.00000E+00
         0.00000E+00
         0.00000E+00
         0.00000E+00
         0.00000E+00
         0.00000E+00
         0.00000E+00
         0.00000E+00
         0.00000E+00
         0.00000E+00
         0.00000E+00
         0.00000E+00
         0.00000E+00
         0.00000E+00
         0.00000E+00
         0.00000E+00
         0.00000E+00
         0.00000E+00
         0.00000E+00
         0.00000E+00
         0.00000E+00
         0.00000E+00
         0.00000E+00
         0.00000E+00
         0.00000E+00
         0.00000E+00
         0.00000E+00
         0.00000E+00
         0.00000E+00
         0.00000E+00
         0.00000E+00
         0.00000E+00
         0.00000E+00
         0.00000E+00
  
SCALARS                 displacement_z  double 1
LOOKUP_TABLE default
        -0.22889E-02
        -0.22853E-02
        -0.22847E-02
        -0.22915E-02
        -0.14066E-16
        -0.15772E-16
        -0.15103E-16
        -0.13720E-16
        -0.22779E-02
        -0.22859E-02
        -0.14183E-16
        -0.13726E-16
        -0.22813E-02
        -0.22864E-02
        -0.16852E-16
        -0.15846E-16
        -0.22892E-02
        -0.22902E-02
        -0.12453E-16
        -0.13811E-16
        -0.22785E-02
        -0.22754E-02
        -0.22769E-02
        -0.16702E-16
        -0.14587E-16
        -0.15063E-16
        -0.22849E-02
        -0.22829E-02
        -0.16023E-16
        -0.13513E-16
        -0.22921E-02
        -0.22939E-02
        -0.22909E-02
        -0.13674E-16
        -0.12713E-16
        -0.12360E-16
        -0.22848E-02
        -0.22922E-02
        -0.14467E-16
        -0.13201E-16
        -0.22827E-02
        -0.22889E-02
        -0.12503E-16
        -0.11069E-16
        -0.22769E-02
        -0.22799E-02
        -0.13702E-16
        -0.15310E-16
        -0.22944E-02
        -0.13385E-16
        -0.22839E-02
        -0.15729E-16
        -0.22916E-02
        -0.14135E-16
        -0.22939E-02
        -0.13558E-16
        -0.22877E-02
        -0.22926E-02
        -0.13815E-16
        -0.13454E-16
        -0.22904E-02
        -0.22839E-02
        -0.13853E-16
        -0.15661E-16
        -0.22900E-02
        -0.13368E-16
        -0.22873E-02
        -0.14589E-16
        -0.22677E-02
        -0.22756E-02
        -0.14043E-16
        -0.14714E-16
        -0.22786E-02
        -0.14838E-16
        -0.22871E-02
        -0.11723E-16
        -0.22863E-02
        -0.11379E-16
        -0.22788E-02
        -0.11998E-16
        -0.22703E-02
        -0.22810E-02
        -0.11431E-16
        -0.11918E-16
        -0.22896E-02
        -0.11100E-16
        -0.22777E-02
        -0.14556E-16
        -0.22746E-02
        -0.14898E-16
        -0.22668E-02
        -0.22774E-02
        -0.14307E-16
        -0.14474E-16
        -0.22845E-02
        -0.13146E-16
        -0.22835E-02
        -0.12959E-16
        -0.22778E-02
        -0.13873E-16
        -0.22696E-02
        -0.22792E-02
        -0.13604E-16
        -0.14004E-16
        -0.22459E-02
        -0.22496E-02
        -0.10562E-16
        -0.99344E-17
        -0.22492E-02
        -0.10085E-16
        -0.22465E-02
        -0.96703E-17
        -0.22467E-02
        -0.95356E-17
        -0.22463E-02
        -0.90113E-17
        -0.22485E-02
        -0.80055E-17
        -0.22495E-02
        -0.72086E-17
        -0.22489E-02
        -0.71585E-17
        -0.22484E-02
        -0.77630E-17
        -0.22451E-02
        -0.81586E-17
        -0.22494E-02
        -0.74497E-17
        -0.22509E-02
        -0.67151E-17
        -0.22505E-02
        -0.67075E-17
        -0.22488E-02
        -0.74973E-17
        -0.22471E-02
        -0.85485E-17
        -0.22462E-02
        -0.91837E-17
        -0.22489E-02
        -0.99184E-17
        -0.22463E-02
        -0.10626E-16
        -0.22502E-02
        -0.97342E-17
        -0.22489E-02
        -0.85395E-17
        -0.22476E-02
        -0.85131E-17
        -0.22498E-02
        -0.93143E-17
        -0.22467E-02
        -0.99298E-17
        -0.22498E-02
        -0.94234E-17
        -0.22499E-02
        -0.91103E-17
        -0.32261E-02
        -0.32255E-02
        -0.32254E-02
        -0.32264E-02
        -0.32244E-02
        -0.32256E-02
        -0.32249E-02
        -0.32257E-02
        -0.32263E-02
        -0.32264E-02
        -0.32246E-02
        -0.32241E-02
        -0.32242E-02
        -0.32254E-02
        -0.32252E-02
        -0.32264E-02
        -0.32269E-02
        -0.32264E-02
        -0.32255E-02
        -0.32266E-02
        -0.32251E-02
        -0.32262E-02
        -0.32243E-02
        -0.32248E-02
        -0.32270E-02
        -0.32253E-02
        -0.32265E-02
        -0.32268E-02
        -0.32258E-02
        -0.32267E-02
        -0.32264E-02
        -0.32253E-02
        -0.32263E-02
        -0.32257E-02
        -0.32230E-02
        -0.32240E-02
        -0.32244E-02
        -0.32259E-02
        -0.32257E-02
        -0.32245E-02
        -0.32233E-02
        -0.32248E-02
        -0.32262E-02
        -0.32243E-02
        -0.32239E-02
        -0.32229E-02
        -0.32242E-02
        -0.32254E-02
        -0.32252E-02
        -0.32243E-02
        -0.32233E-02
        -0.32246E-02
        -0.32207E-02
        -0.32213E-02
        -0.32212E-02
        -0.32209E-02
        -0.32209E-02
        -0.32210E-02
        -0.32213E-02
        -0.32213E-02
        -0.32211E-02
        -0.32210E-02
        -0.32205E-02
        -0.32212E-02
        -0.32215E-02
        -0.32215E-02
        -0.32213E-02
        -0.32210E-02
        -0.32209E-02
        -0.32212E-02
        -0.32208E-02
        -0.32214E-02
        -0.32214E-02
        -0.32211E-02
        -0.32213E-02
        -0.32208E-02
        -0.32213E-02
        -0.32215E-02
        -0.33029E-02
        -0.33029E-02
        -0.33029E-02
        -0.33029E-02
        -0.33029E-02
        -0.33029E-02
        -0.33029E-02
        -0.33029E-02
        -0.33029E-02
        -0.33029E-02
        -0.33029E-02
        -0.33029E-02
        -0.33029E-02
        -0.33029E-02
        -0.33029E-02
        -0.33029E-02
        -0.33029E-02
        -0.33029E-02
        -0.33029E-02
        -0.33029E-02
        -0.33029E-02
        -0.33029E-02
        -0.33029E-02
        -0.33029E-02
        -0.33029E-02
        -0.33029E-02
        -0.33029E-02
        -0.33029E-02
        -0.33029E-02
        -0.33029E-02
        -0.33029E-02
        -0.33029E-02
        -0.33029E-02
        -0.33029E-02
        -0.33029E-02
        -0.33029E-02
        -0.33029E-02
        -0.33029E-02
        -0.33029E-02
        -0.33029E-02
        -0.33029E-02
        -0.33029E-02
        -0.33029E-02
        -0.33029E-02
        -0.33029E-02
        -0.33029E-02
        -0.33029E-02
        -0.33029E-02
        -0.33029E-02
        -0.33029E-02
        -0.33029E-02
        -0.33029E-02
        -0.33029E-02
        -0.33029E-02
        -0.33029E-02
        -0.33029E-02
        -0.33029E-02
        -0.33029E-02
        -0.33029E-02
        -0.33029E-02
        -0.33029E-02
        -0.33029E-02
        -0.33029E-02
        -0.33029E-02
        -0.33029E-02
        -0.33029E-02
        -0.33029E-02
        -0.33029E-02
        -0.33029E-02
        -0.33029E-02
        -0.33029E-02
        -0.33029E-02
        -0.33029E-02
        -0.33029E-02
        -0.33029E-02
        -0.33029E-02
        -0.33029E-02
        -0.33029E-02
        -0.33029E-02
        -0.33029E-02
        -0.33029E-02
        -0.33029E-02
        -0.33029E-02
        -0.33029E-02
        -0.33029E-02
        -0.33029E-02
        -0.33029E-02
        -0.33029E-02
        -0.33029E-02
        -0.33029E-02
        -0.33029E-02
        -0.33029E-02
        -0.33029E-02
        -0.33029E-02
        -0.33029E-02
        -0.33029E-02
        -0.33029E-02
        -0.33029E-02
        -0.33029E-02
        -0.33029E-02
        -0.33029E-02
        -0.33029E-02
        -0.33029E-02
        -0.33029E-02
        -0.33029E-02
        -0.33029E-02
        -0.33029E-02
        -0.33029E-02
        -0.33029E-02
        -0.33029E-02
        -0.33029E-02
        -0.33029E-02
        -0.33029E-02
        -0.33029E-02
        -0.33029E-02
        -0.33029E-02
        -0.33029E-02
        -0.33029E-02
        -0.33029E-02
        -0.33029E-02
        -0.33029E-02
        -0.33029E-02
        -0.33029E-02
        -0.33029E-02
        -0.33029E-02
        -0.33029E-02
        -0.33029E-02
        -0.33029E-02
        -0.33029E-02
        -0.33029E-02
        -0.33029E-02
        -0.33029E-02
        -0.33029E-02
        -0.33029E-02
        -0.33029E-02
        -0.33029E-02
        -0.33029E-02
        -0.33029E-02
        -0.33029E-02
        -0.33029E-02
        -0.33029E-02
        -0.33029E-02
        -0.33029E-02
        -0.33029E-02
        -0.33029E-02
        -0.33029E-02
        -0.33029E-02
        -0.33029E-02
        -0.33029E-02
        -0.33029E-02
        -0.33029E-02
        -0.33029E-02
        -0.33029E-02
        -0.33029E-02
        -0.33029E-02
        -0.33029E-02
        -0.33029E-02
        -0.33029E-02
        -0.33029E-02
        -0.33029E-02
        -0.33029E-02
        -0.33029E-02
        -0.33029E-02
        -0.33029E-02
        -0.33029E-02
        -0.33029E-02
        -0.33029E-02
        -0.33029E-02
        -0.33029E-02
        -0.33029E-02
        -0.33029E-02
        -0.33029E-02
        -0.33029E-02
        -0.33029E-02
        -0.33029E-02
        -0.33029E-02
        -0.33029E-02
        -0.33029E-02
        -0.33029E-02
        -0.33029E-02
        -0.33029E-02
        -0.33029E-02
        -0.33029E-02
        -0.33029E-02
        -0.33029E-02
        -0.33029E-02
        -0.33029E-02
        -0.33029E-02
        -0.33029E-02
        -0.33029E-02
        -0.33029E-02
        -0.33029E-02
        -0.33029E-02
        -0.33029E-02
        -0.33029E-02
        -0.33029E-02
        -0.33029E-02
        -0.33029E-02
        -0.33029E-02
        -0.33029E-02
        -0.33029E-02
        -0.33029E-02
        -0.33029E-02
        -0.33029E-02
        -0.33029E-02
        -0.33029E-02
        -0.33029E-02
        -0.33029E-02
        -0.33029E-02
        -0.33029E-02
        -0.33029E-02
        -0.33029E-02
        -0.33029E-02
        -0.33029E-02
        -0.33029E-02
        -0.33029E-02
        -0.33029E-02
        -0.33029E-02
        -0.33029E-02
        -0.33029E-02
        -0.33029E-02
        -0.33029E-02
        -0.33029E-02
        -0.33029E-02
        -0.33029E-02
        -0.33029E-02
        -0.33029E-02
        -0.33029E-02
        -0.33029E-02
        -0.33029E-02
        -0.33029E-02
        -0.33029E-02
        -0.33029E-02
        -0.33029E-02
        -0.33029E-02
        -0.33029E-02
        -0.33029E-02
        -0.33029E-02
        -0.33029E-02
        -0.33029E-02
        -0.33029E-02
        -0.33029E-02
        -0.33029E-02
        -0.33029E-02
        -0.33029E-02
        -0.33029E-02
        -0.33029E-02
        -0.33029E-02
        -0.33029E-02
        -0.33029E-02
        -0.33029E-02
        -0.33029E-02
        -0.33029E-02
        -0.33029E-02
        -0.33029E-02
        -0.33029E-02
        -0.33029E-02
        -0.33029E-02
        -0.33029E-02
        -0.33029E-02
        -0.33029E-02
        -0.33029E-02
        -0.33029E-02
        -0.33029E-02
        -0.33029E-02
        -0.33029E-02
        -0.33029E-02
        -0.33029E-02
        -0.33029E-02
        -0.33029E-02
        -0.33029E-02
        -0.33029E-02
        -0.33029E-02
        -0.33029E-02
        -0.33029E-02
        -0.33029E-02
        -0.33029E-02
        -0.33029E-02
        -0.33029E-02
        -0.33029E-02
        -0.33029E-02
        -0.33029E-02
        -0.33029E-02
        -0.33029E-02
        -0.33029E-02
        -0.33029E-02
        -0.33029E-02
        -0.33029E-02
        -0.33029E-02
        -0.33029E-02
        -0.33029E-02
        -0.33029E-02
        -0.33029E-02
        -0.33029E-02
        -0.33029E-02
        -0.33029E-02
        -0.33029E-02
        -0.33029E-02
        -0.33029E-02
        -0.33029E-02
        -0.33029E-02
        -0.33029E-02
        -0.33029E-02
        -0.33029E-02
        -0.33029E-02
        -0.33029E-02
        -0.33029E-02
        -0.33029E-02
        -0.33029E-02
        -0.33029E-02
        -0.33029E-02
        -0.33029E-02
        -0.33029E-02
        -0.33029E-02
        -0.33029E-02
        -0.33029E-02
        -0.33029E-02
        -0.33029E-02
        -0.33029E-02
        -0.33029E-02
        -0.33029E-02
        -0.33029E-02
        -0.33029E-02
        -0.33029E-02
        -0.33029E-02
        -0.33029E-02
        -0.33029E-02
        -0.33029E-02
        -0.33029E-02
        -0.33029E-02
        -0.33029E-02
        -0.33029E-02
        -0.33029E-02
        -0.33029E-02
        -0.33029E-02
        -0.33029E-02
        -0.33029E-02
        -0.33029E-02
        -0.33029E-02
        -0.33029E-02
        -0.33029E-02
        -0.33029E-02
        -0.33029E-02
        -0.33029E-02
        -0.33029E-02
        -0.33029E-02
        -0.33029E-02
        -0.33029E-02
        -0.33029E-02
        -0.33029E-02
        -0.33029E-02
        -0.33029E-02
        -0.33029E-02
        -0.33029E-02
        -0.33029E-02
        -0.33029E-02
        -0.33029E-02
        -0.33029E-02
        -0.33029E-02
        -0.33029E-02
        -0.33029E-02
        -0.33029E-02
        -0.33029E-02
        -0.33029E-02
        -0.33029E-02
        -0.33029E-02
        -0.33029E-02
        -0.33029E-02
        -0.33029E-02
        -0.33029E-02
        -0.33029E-02
        -0.33029E-02
        -0.33029E-02
        -0.33029E-02
        -0.33029E-02
        -0.33029E-02
        -0.33029E-02
        -0.33029E-02
        -0.33029E-02
        -0.33029E-02
        -0.33029E-02
        -0.33029E-02
        -0.33029E-02
        -0.33029E-02
        -0.33029E-02
        -0.33029E-02
        -0.33029E-02
        -0.33029E-02
        -0.33029E-02
        -0.33029E-02
        -0.33029E-02
        -0.33029E-02
        -0.33029E-02
        -0.33029E-02
        -0.33029E-02
        -0.33029E-02
        -0.33029E-02
        -0.33029E-02
        -0.33029E-02
        -0.33029E-02
        -0.33029E-02
        -0.33029E-02
        -0.33029E-02
        -0.33029E-02
        -0.33029E-02
        -0.33029E-02
        -0.33029E-02
        -0.33029E-02
        -0.33029E-02
        -0.33029E-02
        -0.33029E-02
        -0.33029E-02
        -0.33029E-02
        -0.33029E-02
        -0.33029E-02
        -0.33029E-02
        -0.33029E-02
        -0.33029E-02
        -0.33029E-02
        -0.33029E-02
        -0.33029E-02
        -0.33029E-02
        -0.33029E-02
        -0.33029E-02
        -0.33029E-02
        -0.33029E-02
        -0.33029E-02
        -0.33029E-02
        -0.33029E-02
        -0.33029E-02
        -0.33029E-02
        -0.33029E-02
        -0.33029E-02
        -0.33029E-02
        -0.33029E-02
        -0.33029E-02
        -0.33029E-02
        -0.33029E-02
        -0.33029E-02
        -0.33029E-02
        -0.33029E-02
        -0.33029E-02
        -0.33029E-02
        -0.33029E-02
        -0.33029E-02
        -0.33029E-02
        -0.33029E-02
        -0.33029E-02
        -0.33029E-02
        -0.33029E-02
        -0.33029E-02
        -0.33029E-02
        -0.33029E-02
        -0.33029E-02
        -0.33029E-02
        -0.33029E-02
        -0.33029E-02
        -0.33029E-02
        -0.33029E-02
        -0.33029E-02
        -0.33029E-02
        -0.33029E-02
        -0.33029E-02
        -0.33029E-02
        -0.33029E-02
        -0.33029E-02
        -0.33029E-02
        -0.33029E-02
        -0.33029E-02
        -0.33029E-02
        -0.33029E-02
        -0.33029E-02
        -0.33029E-02
        -0.33029E-02
        -0.33029E-02
        -0.33029E-02
        -0.33029E-02
        -0.33029E-02
        -0.33029E-02
        -0.33029E-02
        -0.33029E-02
        -0.33029E-02
        -0.33029E-02
        -0.33029E-02
        -0.33029E-02
        -0.33029E-02
        -0.33029E-02
        -0.33029E-02
        -0.33029E-02
        -0.33029E-02
        -0.33029E-02
        -0.33029E-02
        -0.33029E-02
        -0.33029E-02
        -0.33029E-02
        -0.33029E-02
        -0.33029E-02
        -0.33029E-02
        -0.33029E-02
        -0.33029E-02
        -0.33029E-02
        -0.33029E-02
        -0.33029E-02
        -0.33029E-02
        -0.33029E-02
        -0.33029E-02
        -0.33029E-02
        -0.33029E-02
        -0.33029E-02
        -0.33029E-02
        -0.33029E-02
        -0.33029E-02
        -0.33029E-02
        -0.33029E-02
        -0.33029E-02
        -0.33029E-02
        -0.33029E-02
        -0.33029E-02
        -0.33029E-02
        -0.33029E-02
        -0.33029E-02
        -0.33029E-02
        -0.33029E-02
        -0.33029E-02
        -0.33029E-02
        -0.33029E-02
        -0.33029E-02
        -0.33029E-02
        -0.33029E-02
        -0.33029E-02
        -0.33029E-02
        -0.33029E-02
        -0.33029E-02
        -0.33029E-02
        -0.33029E-02
        -0.33029E-02
        -0.33029E-02
        -0.33029E-02
        -0.33029E-02
        -0.33029E-02
        -0.33029E-02
        -0.33029E-02
        -0.33029E-02
        -0.33029E-02
        -0.33029E-02
        -0.33029E-02
        -0.33029E-02
        -0.33029E-02
        -0.33029E-02
        -0.33029E-02
        -0.33029E-02
        -0.33029E-02
        -0.33029E-02
        -0.33029E-02
        -0.33029E-02
        -0.33029E-02
        -0.33029E-02
        -0.33029E-02
        -0.33029E-02
        -0.33029E-02
        -0.33029E-02
        -0.33029E-02
        -0.33029E-02
        -0.33029E-02
        -0.33029E-02
        -0.33029E-02
        -0.33029E-02
        -0.33029E-02
        -0.33029E-02
        -0.33029E-02
        -0.33029E-02
        -0.33029E-02
        -0.33029E-02
        -0.33029E-02
        -0.33029E-02
        -0.33029E-02
        -0.33029E-02
        -0.33029E-02
        -0.33029E-02
        -0.33029E-02
        -0.33029E-02
        -0.33029E-02
        -0.33029E-02
        -0.33029E-02
        -0.33029E-02
        -0.33029E-02
        -0.33029E-02
        -0.33029E-02
        -0.33029E-02
        -0.33029E-02
        -0.33029E-02
        -0.33029E-02
        -0.33029E-02
        -0.33029E-02
        -0.33029E-02
        -0.33029E-02
        -0.33029E-02
        -0.33029E-02
        -0.33029E-02
        -0.33029E-02
        -0.33029E-02
        -0.33029E-02
        -0.33029E-02
        -0.33029E-02
        -0.33029E-02
        -0.33029E-02
        -0.33029E-02
        -0.33029E-02
        -0.33029E-02
        -0.33029E-02
        -0.33029E-02
        -0.33029E-02
        -0.33029E-02
        -0.33029E-02
        -0.33029E-02
        -0.33029E-02
        -0.33029E-02
        -0.33029E-02
        -0.33029E-02
        -0.33029E-02
        -0.33029E-02
        -0.33029E-02
        -0.33029E-02
        -0.33029E-02
        -0.33029E-02
        -0.33029E-02
        -0.33029E-02
        -0.33029E-02
        -0.33029E-02
        -0.33029E-02
        -0.33029E-02
        -0.33029E-02
        -0.33029E-02
        -0.33029E-02
        -0.33029E-02
        -0.33029E-02
        -0.33029E-02
        -0.33029E-02
        -0.33029E-02
        -0.33029E-02
        -0.33029E-02
        -0.33029E-02
        -0.33029E-02
        -0.33029E-02
        -0.33029E-02
        -0.33029E-02
        -0.33029E-02
        -0.33029E-02
        -0.33029E-02
        -0.33029E-02
        -0.33029E-02
        -0.33029E-02
        -0.33029E-02
        -0.33029E-02
        -0.33029E-02
        -0.33029E-02
        -0.33029E-02
        -0.33029E-02
        -0.33029E-02
        -0.33029E-02
        -0.33029E-02
        -0.33029E-02
        -0.33029E-02
        -0.33029E-02
        -0.33029E-02
        -0.33029E-02
        -0.33029E-02
        -0.33029E-02
        -0.33029E-02
        -0.33029E-02
        -0.33029E-02
        -0.33029E-02
        -0.33029E-02
        -0.33029E-02
        -0.33029E-02
        -0.33029E-02
        -0.33029E-02
        -0.33029E-02
        -0.33029E-02
        -0.33029E-02
        -0.33029E-02
        -0.33029E-02
        -0.33029E-02
        -0.33029E-02
        -0.33029E-02
        -0.33029E-02
        -0.33029E-02
        -0.33029E-02
        -0.33029E-02
        -0.33029E-02
        -0.33029E-02
        -0.33029E-02
        -0.33029E-02
        -0.33029E-02
        -0.33029E-02
        -0.33029E-02
        -0.33029E-02
        -0.33029E-02
        -0.33029E-02
        -0.33029E-02
        -0.33029E-02
        -0.33029E-02
        -0.33029E-02
        -0.33029E-02
        -0.33029E-02
        -0.33029E-02
        -0.33029E-02
        -0.33029E-02
        -0.33029E-02
        -0.33029E-02
        -0.33029E-02
        -0.33029E-02
        -0.33029E-02
        -0.33029E-02
        -0.33029E-02
        -0.33029E-02
        -0.33029E-02
        -0.33029E-02
        -0.33029E-02
        -0.33029E-02
        -0.33029E-02
        -0.33029E-02
        -0.33029E-02
        -0.33029E-02
        -0.33029E-02
        -0.33029E-02
        -0.33029E-02
        -0.33029E-02
        -0.33029E-02
        -0.33029E-02
        -0.33029E-02
        -0.33029E-02
        -0.33029E-02
        -0.33029E-02
        -0.33029E-02
        -0.33029E-02
        -0.33029E-02
        -0.33029E-02
        -0.33029E-02
        -0.33029E-02
        -0.33029E-02
        -0.33029E-02
        -0.33029E-02
        -0.33029E-02
        -0.33029E-02
        -0.33029E-02
        -0.33029E-02
        -0.33029E-02
        -0.33029E-02
        -0.33029E-02
        -0.33029E-02
        -0.33029E-02
        -0.33029E-02
        -0.33029E-02
        -0.33029E-02
        -0.33029E-02
        -0.33029E-02
        -0.33029E-02
        -0.33029E-02
        -0.33029E-02
        -0.33029E-02
        -0.33029E-02
        -0.33029E-02
        -0.33029E-02
        -0.33029E-02
        -0.33029E-02
        -0.33029E-02
        -0.33029E-02
        -0.33029E-02
        -0.33029E-02
        -0.33029E-02
        -0.33029E-02
        -0.33029E-02
        -0.33029E-02
        -0.33029E-02
        -0.33029E-02
        -0.33029E-02
        -0.33029E-02
        -0.33029E-02
        -0.33029E-02
        -0.33029E-02
        -0.33029E-02
        -0.33029E-02
        -0.33029E-02
        -0.33029E-02
        -0.33029E-02
        -0.33029E-02
        -0.33029E-02
        -0.33029E-02
        -0.33029E-02
        -0.33029E-02
        -0.33029E-02
        -0.33029E-02
        -0.33029E-02
        -0.33029E-02
        -0.33029E-02
        -0.33029E-02
        -0.33029E-02
        -0.33029E-02
        -0.33029E-02
        -0.33029E-02
        -0.33029E-02
        -0.33029E-02
        -0.33029E-02
        -0.33029E-02
        -0.33029E-02
        -0.33029E-02
        -0.33029E-02
        -0.33029E-02
        -0.33029E-02
        -0.33029E-02
        -0.33029E-02
        -0.33029E-02
        -0.33029E-02
        -0.33029E-02
        -0.33029E-02
        -0.33029E-02
        -0.33029E-02
        -0.33029E-02
        -0.33029E-02
        -0.33029E-02
        -0.33029E-02
        -0.33029E-02
        -0.33029E-02
        -0.33029E-02
        -0.33029E-02
        -0.33029E-02
        -0.33029E-02
        -0.33029E-02
        -0.33029E-02
        -0.33029E-02
        -0.33029E-02
        -0.33029E-02
        -0.33029E-02
        -0.33029E-02
        -0.33029E-02
        -0.33029E-02
        -0.33029E-02
        -0.33029E-02
        -0.33029E-02
        -0.33029E-02
        -0.33029E-02
        -0.33029E-02
        -0.33029E-02
        -0.33029E-02
        -0.33029E-02
        -0.33029E-02
        -0.33029E-02
        -0.33029E-02
        -0.33029E-02
        -0.33029E-02
        -0.33029E-02
        -0.33029E-02
        -0.33029E-02
        -0.33029E-02
        -0.33029E-02
        -0.33029E-02
        -0.33029E-02
        -0.33029E-02
        -0.33029E-02
        -0.33029E-02
        -0.33029E-02
        -0.33029E-02
        -0.33029E-02
        -0.33029E-02
        -0.33029E-02
        -0.33029E-02
        -0.33029E-02
        -0.33029E-02
        -0.33029E-02
        -0.33029E-02
        -0.33029E-02
        -0.33029E-02
        -0.33029E-02
        -0.33029E-02
        -0.33029E-02
        -0.33029E-02
        -0.33029E-02
        -0.33029E-02
        -0.33029E-02
        -0.33029E-02
        -0.33029E-02
        -0.33029E-02
        -0.33029E-02
        -0.33029E-02
        -0.33029E-02
        -0.33029E-02
        -0.33029E-02
        -0.33029E-02
        -0.33029E-02
        -0.33029E-02
        -0.33029E-02
        -0.33029E-02
        -0.33029E-02
        -0.33029E-02
        -0.33029E-02
        -0.33029E-02
        -0.33029E-02
        -0.33029E-02
        -0.33029E-02
        -0.33029E-02
        -0.33029E-02
        -0.33029E-02
        -0.33029E-02
        -0.33029E-02
        -0.33029E-02
        -0.33029E-02
        -0.33029E-02
        -0.33029E-02
        -0.33029E-02
        -0.33029E-02
        -0.33029E-02
        -0.33029E-02
        -0.33029E-02
        -0.33029E-02
        -0.33029E-02
        -0.33029E-02
        -0.33029E-02
        -0.33029E-02
        -0.33029E-02
        -0.33029E-02
        -0.33029E-02
        -0.33029E-02
        -0.33029E-02
        -0.33029E-02
        -0.33029E-02
        -0.33029E-02
        -0.33029E-02
        -0.33029E-02
        -0.33029E-02
        -0.33029E-02
        -0.33029E-02
        -0.33029E-02
        -0.33029E-02
        -0.33029E-02
        -0.33029E-02
        -0.33029E-02
        -0.33029E-02
        -0.33029E-02
        -0.33029E-02
        -0.33029E-02
        -0.33029E-02
        -0.33029E-02
        -0.33029E-02
        -0.33029E-02
        -0.33029E-02
        -0.33029E-02
        -0.33029E-02
        -0.33029E-02
        -0.33029E-02
        -0.33029E-02
        -0.33029E-02
        -0.33029E-02
        -0.33029E-02
        -0.33029E-02
        -0.33029E-02
        -0.33029E-02
        -0.33029E-02
        -0.33029E-02
        -0.33029E-02
        -0.33029E-02
        -0.33029E-02
        -0.33029E-02
        -0.33029E-02
        -0.33029E-02
        -0.33029E-02
        -0.33029E-02
        -0.33029E-02
        -0.33029E-02
        -0.33029E-02
        -0.33029E-02
        -0.33029E-02
        -0.33029E-02
        -0.33029E-02
        -0.33029E-02
        -0.33029E-02
        -0.33029E-02
        -0.33029E-02
        -0.33029E-02
        -0.33029E-02
        -0.33029E-02
        -0.33029E-02
        -0.33029E-02
        -0.33029E-02
        -0.33029E-02
        -0.33029E-02
        -0.33029E-02
        -0.33029E-02
        -0.33029E-02
        -0.33029E-02
        -0.33029E-02
        -0.33029E-02
        -0.33029E-02
        -0.33029E-02
        -0.33029E-02
        -0.33029E-02
        -0.33029E-02
        -0.33029E-02
        -0.33029E-02
        -0.33029E-02
        -0.33029E-02
        -0.33029E-02
        -0.33029E-02
        -0.33029E-02
        -0.33029E-02
        -0.33029E-02
        -0.33029E-02
        -0.33029E-02
        -0.33029E-02
        -0.33029E-02
        -0.33029E-02
        -0.33029E-02
        -0.33029E-02
        -0.33029E-02
        -0.33029E-02
        -0.33029E-02
        -0.33029E-02
        -0.33029E-02
        -0.33029E-02
        -0.33029E-02
        -0.33029E-02
        -0.33029E-02
        -0.33029E-02
        -0.33029E-02
        -0.33029E-02
        -0.33029E-02
        -0.33029E-02
        -0.33029E-02
        -0.33029E-02
        -0.33029E-02
        -0.33029E-02
        -0.33029E-02
        -0.33029E-02
        -0.33029E-02
        -0.33029E-02
        -0.33029E-02
        -0.33029E-02
        -0.33029E-02
        -0.33029E-02
        -0.33029E-02
        -0.33029E-02
        -0.33029E-02
        -0.33029E-02
        -0.33029E-02
        -0.33029E-02
        -0.33029E-02
        -0.33029E-02
        -0.33029E-02
        -0.33029E-02
        -0.33029E-02
        -0.33029E-02
        -0.33029E-02
        -0.33029E-02
        -0.33029E-02
        -0.33029E-02
        -0.33029E-02
        -0.33029E-02
        -0.33029E-02
        -0.33029E-02
        -0.33029E-02
        -0.33029E-02
        -0.33029E-02
        -0.33029E-02
        -0.33029E-02
        -0.33029E-02
        -0.33029E-02
        -0.33029E-02
        -0.33029E-02
        -0.33029E-02
        -0.33029E-02
        -0.33029E-02
        -0.33029E-02
        -0.33029E-02
        -0.33029E-02
        -0.33029E-02
        -0.33029E-02
        -0.33029E-02
        -0.33029E-02
        -0.33029E-02
        -0.33029E-02
        -0.33029E-02
        -0.33029E-02
        -0.33029E-02
        -0.33029E-02
        -0.33029E-02
        -0.33029E-02
        -0.33029E-02
        -0.33029E-02
        -0.33029E-02
        -0.33029E-02
        -0.33029E-02
        -0.33029E-02
        -0.33029E-02
        -0.33029E-02
        -0.33029E-02
        -0.33029E-02
        -0.33029E-02
        -0.33029E-02
        -0.33029E-02
        -0.33029E-02
        -0.33029E-02
        -0.33029E-02
        -0.33029E-02
        -0.33029E-02
        -0.33029E-02
        -0.33029E-02
        -0.33029E-02
        -0.33029E-02
        -0.33029E-02
        -0.33029E-02
        -0.33029E-02
        -0.33029E-02
        -0.33029E-02
        -0.33029E-02
        -0.33029E-02
        -0.33029E-02
        -0.33029E-02
        -0.33029E-02
        -0.33029E-02
        -0.33029E-02
        -0.33029E-02
        -0.33029E-02
        -0.33029E-02
        -0.33029E-02
        -0.33029E-02
        -0.33029E-02
        -0.33029E-02
        -0.33029E-02
        -0.33029E-02
        -0.33029E-02
        -0.33029E-02
        -0.33029E-02
        -0.33029E-02
        -0.33029E-02
        -0.33029E-02
        -0.33029E-02
        -0.33029E-02
        -0.33029E-02
        -0.33029E-02
        -0.33029E-02
        -0.33029E-02
        -0.33029E-02
        -0.33029E-02
        -0.33029E-02
        -0.33029E-02
        -0.33029E-02
        -0.33029E-02
        -0.33029E-02
        -0.33029E-02
        -0.33029E-02
        -0.33029E-02
        -0.33029E-02
        -0.33029E-02
        -0.33029E-02
        -0.33029E-02
        -0.33029E-02
        -0.33029E-02
        -0.33029E-02
        -0.33029E-02
        -0.33029E-02
        -0.33029E-02
        -0.33029E-02
        -0.33029E-02
        -0.33029E-02
        -0.33029E-02
        -0.33029E-02
        -0.33029E-02
        -0.33029E-02
        -0.33029E-02
        -0.33029E-02
        -0.33029E-02
        -0.33029E-02
        -0.33029E-02
        -0.33029E-02
        -0.33029E-02
        -0.33029E-02
        -0.33029E-02
        -0.33029E-02
        -0.33029E-02
        -0.33029E-02
        -0.33029E-02
        -0.33029E-02
        -0.33029E-02
        -0.33029E-02
        -0.33029E-02
        -0.33029E-02
        -0.33029E-02
        -0.33029E-02
        -0.33029E-02
        -0.33029E-02
        -0.33029E-02
        -0.33029E-02
        -0.33029E-02
        -0.33029E-02
        -0.33029E-02
        -0.33029E-02
        -0.33029E-02
        -0.33029E-02
        -0.33029E-02
        -0.33029E-02
        -0.33029E-02
        -0.33029E-02
        -0.33029E-02
        -0.33029E-02
        -0.33029E-02
        -0.33029E-02
        -0.33029E-02
        -0.33029E-02
        -0.33029E-02
        -0.33029E-02
        -0.33029E-02
        -0.33029E-02
        -0.33029E-02
        -0.33029E-02
        -0.33029E-02
        -0.33029E-02
        -0.33029E-02
        -0.33029E-02
        -0.33029E-02
        -0.33029E-02
        -0.33029E-02
        -0.33029E-02
        -0.33029E-02
        -0.33029E-02
        -0.33029E-02
        -0.33029E-02
        -0.33029E-02
        -0.33029E-02
        -0.33029E-02
        -0.33029E-02
        -0.33029E-02
        -0.33029E-02
        -0.33029E-02
        -0.33029E-02
        -0.33029E-02
        -0.33029E-02
        -0.33029E-02
        -0.33029E-02
        -0.33029E-02
        -0.33029E-02
        -0.33029E-02
        -0.33029E-02
        -0.33029E-02
        -0.33029E-02
        -0.33029E-02
        -0.33029E-02
        -0.33029E-02
        -0.33029E-02
        -0.33029E-02
        -0.33029E-02
        -0.33029E-02
        -0.33029E-02
        -0.33029E-02
        -0.33029E-02
        -0.33029E-02
        -0.33029E-02
        -0.33029E-02
        -0.33029E-02
        -0.33029E-02
        -0.33029E-02
        -0.33029E-02
        -0.33029E-02
        -0.33029E-02
        -0.33029E-02
        -0.33029E-02
        -0.33029E-02
        -0.33029E-02
        -0.33029E-02
        -0.33029E-02
        -0.33029E-02
        -0.33029E-02
        -0.33029E-02
        -0.33029E-02
        -0.33029E-02
        -0.33029E-02
        -0.33029E-02
        -0.33029E-02
        -0.33029E-02
        -0.33029E-02
        -0.33029E-02
        -0.33029E-02
        -0.33029E-02
        -0.33029E-02
        -0.33029E-02
        -0.33029E-02
        -0.33029E-02
        -0.33029E-02
        -0.33029E-02
        -0.33029E-02
        -0.33029E-02
        -0.33029E-02
        -0.33029E-02
        -0.33029E-02
        -0.33029E-02
        -0.33029E-02
        -0.33029E-02
        -0.33029E-02
        -0.33029E-02
        -0.33029E-02
        -0.33029E-02
        -0.33029E-02
        -0.33029E-02
        -0.33029E-02
        -0.33029E-02
        -0.33029E-02
        -0.33029E-02
        -0.33029E-02
        -0.33029E-02
        -0.33029E-02
        -0.33029E-02
        -0.33029E-02
        -0.33029E-02
        -0.33029E-02
        -0.33029E-02
        -0.33029E-02
        -0.33029E-02
        -0.33029E-02
        -0.33029E-02
        -0.33029E-02
        -0.33029E-02
        -0.33029E-02
        -0.33029E-02
        -0.33029E-02
        -0.33029E-02
        -0.33029E-02
        -0.33029E-02
        -0.33029E-02
        -0.33029E-02
        -0.33029E-02
        -0.33029E-02
        -0.33029E-02
        -0.33029E-02
        -0.33029E-02
        -0.33029E-02
        -0.33029E-02
        -0.33029E-02
        -0.33029E-02
        -0.33029E-02
        -0.33029E-02
        -0.33029E-02
        -0.33029E-02
        -0.33029E-02
        -0.33029E-02
        -0.33029E-02
        -0.33029E-02
        -0.33029E-02
        -0.33029E-02
        -0.33029E-02
        -0.33029E-02
        -0.33029E-02
        -0.33029E-02
        -0.33029E-02
        -0.33029E-02
        -0.33029E-02
        -0.33029E-02
        -0.33029E-02
        -0.33029E-02
        -0.33029E-02
        -0.33029E-02
        -0.33029E-02
        -0.33029E-02
        -0.33029E-02
        -0.33029E-02
        -0.33029E-02
        -0.33029E-02
        -0.33029E-02
        -0.33029E-02
        -0.33029E-02
        -0.33029E-02
        -0.33029E-02
        -0.33029E-02
        -0.33029E-02
        -0.33029E-02
        -0.33029E-02
        -0.33029E-02
        -0.33029E-02
        -0.33029E-02
        -0.33029E-02
        -0.33029E-02
        -0.33029E-02
        -0.33029E-02
        -0.33029E-02
        -0.33029E-02
        -0.33029E-02
        -0.33029E-02
        -0.33029E-02
        -0.33029E-02
        -0.33029E-02
        -0.33029E-02
        -0.33029E-02
        -0.33029E-02
        -0.33029E-02
        -0.33029E-02
        -0.33029E-02
        -0.33029E-02
        -0.33029E-02
        -0.33029E-02
        -0.33029E-02
        -0.33029E-02
        -0.33029E-02
        -0.33029E-02
        -0.33029E-02
        -0.33029E-02
        -0.33029E-02
        -0.33029E-02
        -0.33029E-02
        -0.33029E-02
        -0.33029E-02
        -0.33029E-02
        -0.33029E-02
        -0.33029E-02
        -0.33029E-02
        -0.33029E-02
        -0.33029E-02
        -0.33029E-02
        -0.33029E-02
        -0.33029E-02
        -0.33029E-02
        -0.33029E-02
        -0.33029E-02
        -0.33029E-02
        -0.33029E-02
        -0.33029E-02
        -0.33029E-02
        -0.33029E-02
        -0.33029E-02
        -0.33029E-02
        -0.33029E-02
        -0.33029E-02
        -0.33029E-02
        -0.33029E-02
        -0.33029E-02
        -0.33029E-02
        -0.33029E-02
        -0.33029E-02
        -0.33029E-02
        -0.33029E-02
        -0.33029E-02
        -0.33029E-02
        -0.33029E-02
        -0.33029E-02
        -0.33029E-02
        -0.33029E-02
        -0.33029E-02
        -0.33029E-02
        -0.33029E-02
        -0.33029E-02
        -0.33029E-02
        -0.33029E-02
        -0.33029E-02
        -0.33029E-02
        -0.33029E-02
        -0.33029E-02
        -0.33029E-02
        -0.33029E-02
        -0.33029E-02
        -0.33029E-02
        -0.33029E-02
        -0.33029E-02
        -0.33029E-02
        -0.33029E-02
        -0.33029E-02
        -0.33029E-02
        -0.33029E-02
        -0.33029E-02
        -0.33029E-02
        -0.33029E-02
        -0.33029E-02
        -0.33029E-02
        -0.33029E-02
        -0.33029E-02
        -0.33029E-02
        -0.33029E-02
        -0.33029E-02
        -0.33029E-02
        -0.33029E-02
        -0.33029E-02
        -0.33029E-02
        -0.33029E-02
        -0.33029E-02
        -0.33029E-02
        -0.33029E-02
        -0.33029E-02
        -0.33029E-02
        -0.33029E-02
        -0.33029E-02
        -0.33029E-02
        -0.33029E-02
        -0.33029E-02
        -0.33029E-02
        -0.33029E-02
        -0.33029E-02
        -0.33029E-02
        -0.33029E-02
        -0.33029E-02
        -0.33029E-02
        -0.33029E-02
        -0.33029E-02
        -0.33029E-02
        -0.33029E-02
        -0.33029E-02
        -0.33029E-02
        -0.33029E-02
        -0.33029E-02
        -0.33029E-02
        -0.33029E-02
        -0.33029E-02
        -0.33029E-02
        -0.33029E-02
        -0.33029E-02
        -0.33029E-02
        -0.33029E-02
        -0.33029E-02
        -0.33029E-02
        -0.33029E-02
        -0.33029E-02
        -0.33029E-02
        -0.33029E-02
        -0.33029E-02
        -0.33029E-02
        -0.33029E-02
        -0.33029E-02
        -0.33029E-02
        -0.33029E-02
        -0.33029E-02
        -0.33029E-02
        -0.33029E-02
        -0.33029E-02
        -0.33029E-02
        -0.33029E-02
        -0.33029E-02
        -0.33029E-02
        -0.33029E-02
        -0.33029E-02
        -0.33029E-02
        -0.33029E-02
        -0.33029E-02
        -0.33029E-02
        -0.33029E-02
        -0.33029E-02
        -0.33029E-02
        -0.33029E-02
        -0.33029E-02
        -0.33029E-02
        -0.33029E-02
        -0.33029E-02
        -0.33029E-02
        -0.33029E-02
        -0.33029E-02
        -0.33029E-02
        -0.33029E-02
        -0.33029E-02
        -0.33029E-02
        -0.33029E-02
        -0.33029E-02
        -0.33029E-02
        -0.33029E-02
        -0.33029E-02
        -0.33029E-02
        -0.33029E-02
        -0.33029E-02
        -0.33029E-02
        -0.33029E-02
        -0.33029E-02
        -0.33029E-02
        -0.33029E-02
        -0.33029E-02
        -0.33029E-02
        -0.33029E-02
        -0.33029E-02
        -0.33029E-02
        -0.33029E-02
        -0.33029E-02
        -0.33029E-02
        -0.33029E-02
        -0.33029E-02
        -0.33029E-02
        -0.33029E-02
        -0.33029E-02
        -0.33029E-02
        -0.33029E-02
        -0.33029E-02
        -0.33029E-02
        -0.33029E-02
        -0.33029E-02
        -0.33029E-02
        -0.33029E-02
        -0.33029E-02
        -0.33029E-02
        -0.33029E-02
        -0.33029E-02
        -0.33029E-02
        -0.33029E-02
        -0.33029E-02
        -0.33029E-02
        -0.33029E-02
        -0.33029E-02
        -0.33029E-02
        -0.33029E-02
        -0.33029E-02
        -0.33029E-02
        -0.33029E-02
        -0.33029E-02
        -0.33029E-02
        -0.33029E-02
        -0.33029E-02
        -0.33029E-02
        -0.33029E-02
        -0.33029E-02
        -0.33029E-02
        -0.33029E-02
        -0.33029E-02
        -0.33029E-02
        -0.33029E-02
        -0.33029E-02
        -0.33029E-02
        -0.33029E-02
        -0.33029E-02
        -0.33029E-02
        -0.33029E-02
        -0.33029E-02
        -0.33029E-02
        -0.33029E-02
        -0.33029E-02
        -0.33029E-02
        -0.33029E-02
        -0.33029E-02
        -0.33029E-02
        -0.33029E-02
        -0.33029E-02
        -0.33029E-02
        -0.33029E-02
        -0.33029E-02
        -0.33029E-02
        -0.33029E-02
        -0.33029E-02
        -0.33029E-02
        -0.33029E-02
        -0.33029E-02
        -0.33029E-02
        -0.33029E-02
        -0.33029E-02
        -0.33029E-02
        -0.33029E-02
        -0.33029E-02
        -0.33029E-02
        -0.33029E-02
        -0.33029E-02
        -0.33029E-02
        -0.33029E-02
        -0.33029E-02
        -0.33029E-02
        -0.33029E-02
        -0.33029E-02
        -0.33029E-02
        -0.33029E-02
        -0.33029E-02
        -0.33029E-02
        -0.33029E-02
        -0.33029E-02
        -0.33029E-02
        -0.33029E-02
        -0.33029E-02
        -0.33029E-02
        -0.33029E-02
        -0.33029E-02
        -0.33029E-02
        -0.33029E-02
        -0.33029E-02
        -0.33029E-02
        -0.33029E-02
        -0.33029E-02
        -0.33029E-02
        -0.33029E-02
        -0.33029E-02
        -0.33029E-02
        -0.33029E-02
        -0.33029E-02
        -0.33029E-02
        -0.33029E-02
        -0.33029E-02
        -0.33029E-02
        -0.33029E-02
        -0.33029E-02
        -0.33029E-02
        -0.33029E-02
        -0.33029E-02
        -0.33029E-02
        -0.33029E-02
        -0.33029E-02
        -0.33029E-02
        -0.33029E-02
        -0.33029E-02
        -0.33029E-02
        -0.33029E-02
        -0.33029E-02
        -0.33029E-02
        -0.33029E-02
        -0.33029E-02
        -0.33029E-02
        -0.33029E-02
        -0.33029E-02
        -0.33029E-02
        -0.33029E-02
        -0.33029E-02
        -0.33029E-02
        -0.33029E-02
        -0.33029E-02
        -0.33029E-02
        -0.33029E-02
        -0.33029E-02
        -0.33029E-02
        -0.33029E-02
        -0.33029E-02
        -0.33029E-02
        -0.33029E-02
  
SCALARS                     velocity_x  double 1
LOOKUP_TABLE default
         0.00000E+00
         0.00000E+00
         0.00000E+00
         0.00000E+00
         0.00000E+00
         0.00000E+00
         0.00000E+00
         0.00000E+00
         0.00000E+00
         0.00000E+00
         0.00000E+00
         0.00000E+00
         0.00000E+00
         0.00000E+00
         0.00000E+00
         0.00000E+00
         0.00000E+00
         0.00000E+00
         0.00000E+00
         0.00000E+00
         0.00000E+00
         0.00000E+00
         0.00000E+00
         0.00000E+00
         0.00000E+00
         0.00000E+00
         0.00000E+00
         0.00000E+00
         0.00000E+00
         0.00000E+00
         0.00000E+00
         0.00000E+00
         0.00000E+00
         0.00000E+00
         0.00000E+00
         0.00000E+00
         0.00000E+00
         0.00000E+00
         0.00000E+00
         0.00000E+00
         0.00000E+00
         0.00000E+00
         0.00000E+00
         0.00000E+00
         0.00000E+00
         0.00000E+00
         0.00000E+00
         0.00000E+00
         0.00000E+00
         0.00000E+00
         0.00000E+00
         0.00000E+00
         0.00000E+00
         0.00000E+00
         0.00000E+00
         0.00000E+00
         0.00000E+00
         0.00000E+00
         0.00000E+00
         0.00000E+00
         0.00000E+00
         0.00000E+00
         0.00000E+00
         0.00000E+00
         0.00000E+00
         0.00000E+00
         0.00000E+00
         0.00000E+00
         0.00000E+00
         0.00000E+00
         0.00000E+00
         0.00000E+00
         0.00000E+00
         0.00000E+00
         0.00000E+00
         0.00000E+00
         0.00000E+00
         0.00000E+00
         0.00000E+00
         0.00000E+00
         0.00000E+00
         0.00000E+00
         0.00000E+00
         0.00000E+00
         0.00000E+00
         0.00000E+00
         0.00000E+00
         0.00000E+00
         0.00000E+00
         0.00000E+00
         0.00000E+00
         0.00000E+00
         0.00000E+00
         0.00000E+00
         0.00000E+00
         0.00000E+00
         0.00000E+00
         0.00000E+00
         0.00000E+00
         0.00000E+00
         0.00000E+00
         0.00000E+00
         0.00000E+00
         0.00000E+00
         0.00000E+00
         0.00000E+00
         0.00000E+00
         0.00000E+00
         0.00000E+00
         0.00000E+00
         0.00000E+00
         0.00000E+00
         0.00000E+00
         0.00000E+00
         0.00000E+00
         0.00000E+00
         0.00000E+00
         0.00000E+00
         0.00000E+00
         0.00000E+00
         0.00000E+00
         0.00000E+00
         0.00000E+00
         0.00000E+00
         0.00000E+00
         0.00000E+00
         0.00000E+00
         0.00000E+00
         0.00000E+00
         0.00000E+00
         0.00000E+00
         0.00000E+00
         0.00000E+00
         0.00000E+00
         0.00000E+00
         0.00000E+00
         0.00000E+00
         0.00000E+00
         0.00000E+00
         0.00000E+00
         0.00000E+00
         0.00000E+00
         0.00000E+00
         0.00000E+00
         0.00000E+00
         0.00000E+00
         0.00000E+00
         0.00000E+00
         0.00000E+00
         0.00000E+00
         0.00000E+00
         0.00000E+00
         0.00000E+00
         0.00000E+00
         0.00000E+00
         0.00000E+00
         0.00000E+00
         0.00000E+00
         0.00000E+00
         0.00000E+00
         0.00000E+00
         0.00000E+00
         0.00000E+00
         0.00000E+00
         0.00000E+00
         0.00000E+00
         0.00000E+00
         0.00000E+00
         0.00000E+00
         0.00000E+00
         0.00000E+00
         0.00000E+00
         0.00000E+00
         0.00000E+00
         0.00000E+00
         0.00000E+00
         0.00000E+00
         0.00000E+00
         0.00000E+00
         0.00000E+00
         0.00000E+00
         0.00000E+00
         0.00000E+00
         0.00000E+00
         0.00000E+00
         0.00000E+00
         0.00000E+00
         0.00000E+00
         0.00000E+00
         0.00000E+00
         0.00000E+00
         0.00000E+00
         0.00000E+00
         0.00000E+00
         0.00000E+00
         0.00000E+00
         0.00000E+00
         0.00000E+00
         0.00000E+00
         0.00000E+00
         0.00000E+00
         0.00000E+00
         0.00000E+00
         0.00000E+00
         0.00000E+00
         0.00000E+00
         0.00000E+00
         0.00000E+00
         0.00000E+00
         0.00000E+00
         0.00000E+00
         0.00000E+00
         0.00000E+00
         0.00000E+00
         0.00000E+00
         0.00000E+00
         0.00000E+00
         0.00000E+00
         0.00000E+00
         0.00000E+00
         0.00000E+00
         0.00000E+00
         0.00000E+00
         0.00000E+00
         0.00000E+00
         0.00000E+00
         0.00000E+00
         0.00000E+00
         0.00000E+00
         0.00000E+00
         0.00000E+00
         0.00000E+00
         0.00000E+00
         0.00000E+00
         0.00000E+00
         0.00000E+00
         0.00000E+00
         0.00000E+00
         0.00000E+00
         0.00000E+00
         0.00000E+00
         0.00000E+00
         0.00000E+00
         0.00000E+00
         0.00000E+00
         0.00000E+00
         0.00000E+00
         0.00000E+00
         0.00000E+00
         0.00000E+00
         0.00000E+00
         0.00000E+00
         0.00000E+00
         0.00000E+00
         0.00000E+00
         0.00000E+00
         0.00000E+00
         0.00000E+00
         0.00000E+00
         0.00000E+00
         0.00000E+00
         0.00000E+00
         0.00000E+00
         0.00000E+00
         0.00000E+00
         0.00000E+00
         0.00000E+00
         0.00000E+00
         0.00000E+00
         0.00000E+00
         0.00000E+00
         0.00000E+00
         0.00000E+00
         0.00000E+00
         0.00000E+00
         0.00000E+00
         0.00000E+00
         0.00000E+00
         0.00000E+00
         0.00000E+00
         0.00000E+00
         0.00000E+00
         0.00000E+00
         0.00000E+00
         0.00000E+00
         0.00000E+00
         0.00000E+00
         0.00000E+00
         0.00000E+00
         0.00000E+00
         0.00000E+00
         0.00000E+00
         0.00000E+00
         0.00000E+00
         0.00000E+00
         0.00000E+00
         0.00000E+00
         0.00000E+00
         0.00000E+00
         0.00000E+00
         0.00000E+00
         0.00000E+00
         0.00000E+00
         0.00000E+00
         0.00000E+00
         0.00000E+00
         0.00000E+00
         0.00000E+00
         0.00000E+00
         0.00000E+00
         0.00000E+00
         0.00000E+00
         0.00000E+00
         0.00000E+00
         0.00000E+00
         0.00000E+00
         0.00000E+00
         0.00000E+00
         0.00000E+00
         0.00000E+00
         0.00000E+00
         0.00000E+00
         0.00000E+00
         0.00000E+00
         0.00000E+00
         0.00000E+00
         0.00000E+00
         0.00000E+00
         0.00000E+00
         0.00000E+00
         0.00000E+00
         0.00000E+00
         0.00000E+00
         0.00000E+00
         0.00000E+00
         0.00000E+00
         0.00000E+00
         0.00000E+00
         0.00000E+00
         0.00000E+00
         0.00000E+00
         0.00000E+00
         0.00000E+00
         0.00000E+00
         0.00000E+00
         0.00000E+00
         0.00000E+00
         0.00000E+00
         0.00000E+00
         0.00000E+00
         0.00000E+00
         0.00000E+00
         0.00000E+00
         0.00000E+00
         0.00000E+00
         0.00000E+00
         0.00000E+00
         0.00000E+00
         0.00000E+00
         0.00000E+00
         0.00000E+00
         0.00000E+00
         0.00000E+00
         0.00000E+00
         0.00000E+00
         0.00000E+00
         0.00000E+00
         0.00000E+00
         0.00000E+00
         0.00000E+00
         0.00000E+00
         0.00000E+00
         0.00000E+00
         0.00000E+00
         0.00000E+00
         0.00000E+00
         0.00000E+00
         0.00000E+00
         0.00000E+00
         0.00000E+00
         0.00000E+00
         0.00000E+00
         0.00000E+00
         0.00000E+00
         0.00000E+00
         0.00000E+00
         0.00000E+00
         0.00000E+00
         0.00000E+00
         0.00000E+00
         0.00000E+00
         0.00000E+00
         0.00000E+00
         0.00000E+00
         0.00000E+00
         0.00000E+00
         0.00000E+00
         0.00000E+00
         0.00000E+00
         0.00000E+00
         0.00000E+00
         0.00000E+00
         0.00000E+00
         0.00000E+00
         0.00000E+00
         0.00000E+00
         0.00000E+00
         0.00000E+00
         0.00000E+00
         0.00000E+00
         0.00000E+00
         0.00000E+00
         0.00000E+00
         0.00000E+00
         0.00000E+00
         0.00000E+00
         0.00000E+00
         0.00000E+00
         0.00000E+00
         0.00000E+00
         0.00000E+00
         0.00000E+00
         0.00000E+00
         0.00000E+00
         0.00000E+00
         0.00000E+00
         0.00000E+00
         0.00000E+00
         0.00000E+00
         0.00000E+00
         0.00000E+00
         0.00000E+00
         0.00000E+00
         0.00000E+00
         0.00000E+00
         0.00000E+00
         0.00000E+00
         0.00000E+00
         0.00000E+00
         0.00000E+00
         0.00000E+00
         0.00000E+00
         0.00000E+00
         0.00000E+00
         0.00000E+00
         0.00000E+00
         0.00000E+00
         0.00000E+00
         0.00000E+00
         0.00000E+00
         0.00000E+00
         0.00000E+00
         0.00000E+00
         0.00000E+00
         0.00000E+00
         0.00000E+00
         0.00000E+00
         0.00000E+00
         0.00000E+00
         0.00000E+00
         0.00000E+00
         0.00000E+00
         0.00000E+00
         0.00000E+00
         0.00000E+00
         0.00000E+00
         0.00000E+00
         0.00000E+00
         0.00000E+00
         0.00000E+00
         0.00000E+00
         0.00000E+00
         0.00000E+00
         0.00000E+00
         0.00000E+00
         0.00000E+00
         0.00000E+00
         0.00000E+00
         0.00000E+00
         0.00000E+00
         0.00000E+00
         0.00000E+00
         0.00000E+00
         0.00000E+00
         0.00000E+00
         0.00000E+00
         0.00000E+00
         0.00000E+00
         0.00000E+00
         0.00000E+00
         0.00000E+00
         0.00000E+00
         0.00000E+00
         0.00000E+00
         0.00000E+00
         0.00000E+00
         0.00000E+00
         0.00000E+00
         0.00000E+00
         0.00000E+00
         0.00000E+00
         0.00000E+00
         0.00000E+00
         0.00000E+00
         0.00000E+00
         0.00000E+00
         0.00000E+00
         0.00000E+00
         0.00000E+00
         0.00000E+00
         0.00000E+00
         0.00000E+00
         0.00000E+00
         0.00000E+00
         0.00000E+00
         0.00000E+00
         0.00000E+00
         0.00000E+00
         0.00000E+00
         0.00000E+00
         0.00000E+00
         0.00000E+00
         0.00000E+00
         0.00000E+00
         0.00000E+00
         0.00000E+00
         0.00000E+00
         0.00000E+00
         0.00000E+00
         0.00000E+00
         0.00000E+00
         0.00000E+00
         0.00000E+00
         0.00000E+00
         0.00000E+00
         0.00000E+00
         0.00000E+00
         0.00000E+00
         0.00000E+00
         0.00000E+00
         0.00000E+00
         0.00000E+00
         0.00000E+00
         0.00000E+00
         0.00000E+00
         0.00000E+00
         0.00000E+00
         0.00000E+00
         0.00000E+00
         0.00000E+00
         0.00000E+00
         0.00000E+00
         0.00000E+00
         0.00000E+00
         0.00000E+00
         0.00000E+00
         0.00000E+00
         0.00000E+00
         0.00000E+00
         0.00000E+00
         0.00000E+00
         0.00000E+00
         0.00000E+00
         0.00000E+00
         0.00000E+00
         0.00000E+00
         0.00000E+00
         0.00000E+00
         0.00000E+00
         0.00000E+00
         0.00000E+00
         0.00000E+00
         0.00000E+00
         0.00000E+00
         0.00000E+00
         0.00000E+00
         0.00000E+00
         0.00000E+00
         0.00000E+00
         0.00000E+00
         0.00000E+00
         0.00000E+00
         0.00000E+00
         0.00000E+00
         0.00000E+00
         0.00000E+00
         0.00000E+00
         0.00000E+00
         0.00000E+00
         0.00000E+00
         0.00000E+00
         0.00000E+00
         0.00000E+00
         0.00000E+00
         0.00000E+00
         0.00000E+00
         0.00000E+00
         0.00000E+00
         0.00000E+00
         0.00000E+00
         0.00000E+00
         0.00000E+00
         0.00000E+00
         0.00000E+00
         0.00000E+00
         0.00000E+00
         0.00000E+00
         0.00000E+00
         0.00000E+00
         0.00000E+00
         0.00000E+00
         0.00000E+00
         0.00000E+00
         0.00000E+00
         0.00000E+00
         0.00000E+00
         0.00000E+00
         0.00000E+00
         0.00000E+00
         0.00000E+00
         0.00000E+00
         0.00000E+00
         0.00000E+00
         0.00000E+00
         0.00000E+00
         0.00000E+00
         0.00000E+00
         0.00000E+00
         0.00000E+00
         0.00000E+00
         0.00000E+00
         0.00000E+00
         0.00000E+00
         0.00000E+00
         0.00000E+00
         0.00000E+00
         0.00000E+00
         0.00000E+00
         0.00000E+00
         0.00000E+00
         0.00000E+00
         0.00000E+00
         0.00000E+00
         0.00000E+00
         0.00000E+00
         0.00000E+00
         0.00000E+00
         0.00000E+00
         0.00000E+00
         0.00000E+00
         0.00000E+00
         0.00000E+00
         0.00000E+00
         0.00000E+00
         0.00000E+00
         0.00000E+00
         0.00000E+00
         0.00000E+00
         0.00000E+00
         0.00000E+00
         0.00000E+00
         0.00000E+00
         0.00000E+00
         0.00000E+00
         0.00000E+00
         0.00000E+00
         0.00000E+00
         0.00000E+00
         0.00000E+00
         0.00000E+00
         0.00000E+00
         0.00000E+00
         0.00000E+00
         0.00000E+00
         0.00000E+00
         0.00000E+00
         0.00000E+00
         0.00000E+00
         0.00000E+00
         0.00000E+00
         0.00000E+00
         0.00000E+00
         0.00000E+00
         0.00000E+00
         0.00000E+00
         0.00000E+00
         0.00000E+00
         0.00000E+00
         0.00000E+00
         0.00000E+00
         0.00000E+00
         0.00000E+00
         0.00000E+00
         0.00000E+00
         0.00000E+00
         0.00000E+00
         0.00000E+00
         0.00000E+00
         0.00000E+00
         0.00000E+00
         0.00000E+00
         0.00000E+00
         0.00000E+00
         0.00000E+00
         0.00000E+00
         0.00000E+00
         0.00000E+00
         0.00000E+00
         0.00000E+00
         0.00000E+00
         0.00000E+00
         0.00000E+00
         0.00000E+00
         0.00000E+00
         0.00000E+00
         0.00000E+00
         0.00000E+00
         0.00000E+00
         0.00000E+00
         0.00000E+00
         0.00000E+00
         0.00000E+00
         0.00000E+00
         0.00000E+00
         0.00000E+00
         0.00000E+00
         0.00000E+00
         0.00000E+00
         0.00000E+00
         0.00000E+00
         0.00000E+00
         0.00000E+00
         0.00000E+00
         0.00000E+00
         0.00000E+00
         0.00000E+00
         0.00000E+00
         0.00000E+00
         0.00000E+00
         0.00000E+00
         0.00000E+00
         0.00000E+00
         0.00000E+00
         0.00000E+00
         0.00000E+00
         0.00000E+00
         0.00000E+00
         0.00000E+00
         0.00000E+00
         0.00000E+00
         0.00000E+00
         0.00000E+00
         0.00000E+00
         0.00000E+00
         0.00000E+00
         0.00000E+00
         0.00000E+00
         0.00000E+00
         0.00000E+00
         0.00000E+00
         0.00000E+00
         0.00000E+00
         0.00000E+00
         0.00000E+00
         0.00000E+00
         0.00000E+00
         0.00000E+00
         0.00000E+00
         0.00000E+00
         0.00000E+00
         0.00000E+00
         0.00000E+00
         0.00000E+00
         0.00000E+00
         0.00000E+00
         0.00000E+00
         0.00000E+00
         0.00000E+00
         0.00000E+00
         0.00000E+00
         0.00000E+00
         0.00000E+00
         0.00000E+00
         0.00000E+00
         0.00000E+00
         0.00000E+00
         0.00000E+00
         0.00000E+00
         0.00000E+00
         0.00000E+00
         0.00000E+00
         0.00000E+00
         0.00000E+00
         0.00000E+00
         0.00000E+00
         0.00000E+00
         0.00000E+00
         0.00000E+00
         0.00000E+00
         0.00000E+00
         0.00000E+00
         0.00000E+00
         0.00000E+00
         0.00000E+00
         0.00000E+00
         0.00000E+00
         0.00000E+00
         0.00000E+00
         0.00000E+00
         0.00000E+00
         0.00000E+00
         0.00000E+00
         0.00000E+00
         0.00000E+00
         0.00000E+00
         0.00000E+00
         0.00000E+00
         0.00000E+00
         0.00000E+00
         0.00000E+00
         0.00000E+00
         0.00000E+00
         0.00000E+00
         0.00000E+00
         0.00000E+00
         0.00000E+00
         0.00000E+00
         0.00000E+00
         0.00000E+00
         0.00000E+00
         0.00000E+00
         0.00000E+00
         0.00000E+00
         0.00000E+00
         0.00000E+00
         0.00000E+00
         0.00000E+00
         0.00000E+00
         0.00000E+00
         0.00000E+00
         0.00000E+00
         0.00000E+00
         0.00000E+00
         0.00000E+00
         0.00000E+00
         0.00000E+00
         0.00000E+00
         0.00000E+00
         0.00000E+00
         0.00000E+00
         0.00000E+00
         0.00000E+00
         0.00000E+00
         0.00000E+00
         0.00000E+00
         0.00000E+00
         0.00000E+00
         0.00000E+00
         0.00000E+00
         0.00000E+00
         0.00000E+00
         0.00000E+00
         0.00000E+00
         0.00000E+00
         0.00000E+00
         0.00000E+00
         0.00000E+00
         0.00000E+00
         0.00000E+00
         0.00000E+00
         0.00000E+00
         0.00000E+00
         0.00000E+00
         0.00000E+00
         0.00000E+00
         0.00000E+00
         0.00000E+00
         0.00000E+00
         0.00000E+00
         0.00000E+00
         0.00000E+00
         0.00000E+00
         0.00000E+00
         0.00000E+00
         0.00000E+00
         0.00000E+00
         0.00000E+00
         0.00000E+00
         0.00000E+00
         0.00000E+00
         0.00000E+00
         0.00000E+00
         0.00000E+00
         0.00000E+00
         0.00000E+00
         0.00000E+00
         0.00000E+00
         0.00000E+00
         0.00000E+00
         0.00000E+00
         0.00000E+00
         0.00000E+00
         0.00000E+00
         0.00000E+00
         0.00000E+00
         0.00000E+00
         0.00000E+00
         0.00000E+00
         0.00000E+00
         0.00000E+00
         0.00000E+00
         0.00000E+00
         0.00000E+00
         0.00000E+00
         0.00000E+00
         0.00000E+00
         0.00000E+00
         0.00000E+00
         0.00000E+00
         0.00000E+00
         0.00000E+00
         0.00000E+00
         0.00000E+00
         0.00000E+00
         0.00000E+00
         0.00000E+00
         0.00000E+00
         0.00000E+00
         0.00000E+00
         0.00000E+00
         0.00000E+00
         0.00000E+00
         0.00000E+00
         0.00000E+00
         0.00000E+00
         0.00000E+00
         0.00000E+00
         0.00000E+00
         0.00000E+00
         0.00000E+00
         0.00000E+00
         0.00000E+00
         0.00000E+00
         0.00000E+00
         0.00000E+00
         0.00000E+00
         0.00000E+00
         0.00000E+00
         0.00000E+00
         0.00000E+00
         0.00000E+00
         0.00000E+00
         0.00000E+00
         0.00000E+00
         0.00000E+00
         0.00000E+00
         0.00000E+00
         0.00000E+00
         0.00000E+00
         0.00000E+00
         0.00000E+00
         0.00000E+00
         0.00000E+00
         0.00000E+00
         0.00000E+00
         0.00000E+00
         0.00000E+00
         0.00000E+00
         0.00000E+00
         0.00000E+00
         0.00000E+00
         0.00000E+00
         0.00000E+00
         0.00000E+00
         0.00000E+00
         0.00000E+00
         0.00000E+00
         0.00000E+00
         0.00000E+00
         0.00000E+00
         0.00000E+00
         0.00000E+00
         0.00000E+00
         0.00000E+00
         0.00000E+00
         0.00000E+00
         0.00000E+00
         0.00000E+00
         0.00000E+00
         0.00000E+00
         0.00000E+00
         0.00000E+00
         0.00000E+00
         0.00000E+00
         0.00000E+00
         0.00000E+00
         0.00000E+00
         0.00000E+00
         0.00000E+00
         0.00000E+00
         0.00000E+00
         0.00000E+00
         0.00000E+00
         0.00000E+00
         0.00000E+00
         0.00000E+00
         0.00000E+00
         0.00000E+00
         0.00000E+00
         0.00000E+00
         0.00000E+00
         0.00000E+00
         0.00000E+00
         0.00000E+00
         0.00000E+00
         0.00000E+00
         0.00000E+00
         0.00000E+00
         0.00000E+00
         0.00000E+00
         0.00000E+00
         0.00000E+00
         0.00000E+00
         0.00000E+00
         0.00000E+00
         0.00000E+00
         0.00000E+00
         0.00000E+00
         0.00000E+00
         0.00000E+00
         0.00000E+00
         0.00000E+00
         0.00000E+00
         0.00000E+00
         0.00000E+00
         0.00000E+00
         0.00000E+00
         0.00000E+00
         0.00000E+00
         0.00000E+00
         0.00000E+00
         0.00000E+00
         0.00000E+00
         0.00000E+00
         0.00000E+00
         0.00000E+00
         0.00000E+00
         0.00000E+00
         0.00000E+00
         0.00000E+00
         0.00000E+00
         0.00000E+00
         0.00000E+00
         0.00000E+00
         0.00000E+00
         0.00000E+00
         0.00000E+00
         0.00000E+00
         0.00000E+00
         0.00000E+00
         0.00000E+00
         0.00000E+00
         0.00000E+00
         0.00000E+00
         0.00000E+00
         0.00000E+00
         0.00000E+00
         0.00000E+00
         0.00000E+00
         0.00000E+00
         0.00000E+00
         0.00000E+00
         0.00000E+00
         0.00000E+00
         0.00000E+00
         0.00000E+00
         0.00000E+00
         0.00000E+00
         0.00000E+00
         0.00000E+00
         0.00000E+00
         0.00000E+00
         0.00000E+00
         0.00000E+00
         0.00000E+00
         0.00000E+00
         0.00000E+00
         0.00000E+00
         0.00000E+00
         0.00000E+00
         0.00000E+00
         0.00000E+00
         0.00000E+00
         0.00000E+00
         0.00000E+00
         0.00000E+00
         0.00000E+00
         0.00000E+00
         0.00000E+00
         0.00000E+00
         0.00000E+00
         0.00000E+00
         0.00000E+00
         0.00000E+00
         0.00000E+00
         0.00000E+00
         0.00000E+00
         0.00000E+00
         0.00000E+00
         0.00000E+00
         0.00000E+00
         0.00000E+00
         0.00000E+00
         0.00000E+00
         0.00000E+00
         0.00000E+00
         0.00000E+00
         0.00000E+00
         0.00000E+00
         0.00000E+00
         0.00000E+00
         0.00000E+00
         0.00000E+00
         0.00000E+00
         0.00000E+00
         0.00000E+00
         0.00000E+00
         0.00000E+00
         0.00000E+00
         0.00000E+00
         0.00000E+00
         0.00000E+00
         0.00000E+00
         0.00000E+00
         0.00000E+00
         0.00000E+00
         0.00000E+00
         0.00000E+00
         0.00000E+00
         0.00000E+00
         0.00000E+00
         0.00000E+00
         0.00000E+00
         0.00000E+00
         0.00000E+00
         0.00000E+00
         0.00000E+00
         0.00000E+00
         0.00000E+00
         0.00000E+00
         0.00000E+00
         0.00000E+00
         0.00000E+00
         0.00000E+00
         0.00000E+00
         0.00000E+00
         0.00000E+00
         0.00000E+00
         0.00000E+00
         0.00000E+00
         0.00000E+00
         0.00000E+00
         0.00000E+00
         0.00000E+00
         0.00000E+00
         0.00000E+00
         0.00000E+00
         0.00000E+00
         0.00000E+00
         0.00000E+00
         0.00000E+00
         0.00000E+00
         0.00000E+00
         0.00000E+00
         0.00000E+00
         0.00000E+00
         0.00000E+00
         0.00000E+00
         0.00000E+00
         0.00000E+00
         0.00000E+00
         0.00000E+00
         0.00000E+00
         0.00000E+00
         0.00000E+00
         0.00000E+00
         0.00000E+00
         0.00000E+00
         0.00000E+00
         0.00000E+00
         0.00000E+00
         0.00000E+00
         0.00000E+00
         0.00000E+00
         0.00000E+00
         0.00000E+00
         0.00000E+00
         0.00000E+00
         0.00000E+00
         0.00000E+00
         0.00000E+00
         0.00000E+00
         0.00000E+00
         0.00000E+00
         0.00000E+00
         0.00000E+00
         0.00000E+00
         0.00000E+00
         0.00000E+00
         0.00000E+00
         0.00000E+00
         0.00000E+00
         0.00000E+00
         0.00000E+00
         0.00000E+00
         0.00000E+00
         0.00000E+00
         0.00000E+00
         0.00000E+00
         0.00000E+00
         0.00000E+00
         0.00000E+00
         0.00000E+00
         0.00000E+00
         0.00000E+00
         0.00000E+00
         0.00000E+00
         0.00000E+00
         0.00000E+00
         0.00000E+00
         0.00000E+00
         0.00000E+00
         0.00000E+00
         0.00000E+00
         0.00000E+00
         0.00000E+00
         0.00000E+00
         0.00000E+00
         0.00000E+00
         0.00000E+00
         0.00000E+00
         0.00000E+00
         0.00000E+00
         0.00000E+00
         0.00000E+00
         0.00000E+00
         0.00000E+00
         0.00000E+00
         0.00000E+00
         0.00000E+00
         0.00000E+00
         0.00000E+00
         0.00000E+00
         0.00000E+00
         0.00000E+00
         0.00000E+00
         0.00000E+00
         0.00000E+00
         0.00000E+00
         0.00000E+00
         0.00000E+00
         0.00000E+00
         0.00000E+00
         0.00000E+00
         0.00000E+00
         0.00000E+00
         0.00000E+00
         0.00000E+00
         0.00000E+00
         0.00000E+00
         0.00000E+00
         0.00000E+00
         0.00000E+00
         0.00000E+00
         0.00000E+00
         0.00000E+00
         0.00000E+00
         0.00000E+00
         0.00000E+00
         0.00000E+00
         0.00000E+00
         0.00000E+00
         0.00000E+00
         0.00000E+00
         0.00000E+00
         0.00000E+00
         0.00000E+00
         0.00000E+00
         0.00000E+00
         0.00000E+00
         0.00000E+00
         0.00000E+00
         0.00000E+00
         0.00000E+00
         0.00000E+00
         0.00000E+00
         0.00000E+00
         0.00000E+00
         0.00000E+00
         0.00000E+00
         0.00000E+00
         0.00000E+00
         0.00000E+00
         0.00000E+00
         0.00000E+00
         0.00000E+00
         0.00000E+00
         0.00000E+00
         0.00000E+00
         0.00000E+00
         0.00000E+00
         0.00000E+00
         0.00000E+00
         0.00000E+00
         0.00000E+00
         0.00000E+00
         0.00000E+00
         0.00000E+00
         0.00000E+00
         0.00000E+00
         0.00000E+00
         0.00000E+00
         0.00000E+00
         0.00000E+00
         0.00000E+00
         0.00000E+00
         0.00000E+00
         0.00000E+00
         0.00000E+00
         0.00000E+00
         0.00000E+00
         0.00000E+00
         0.00000E+00
         0.00000E+00
         0.00000E+00
         0.00000E+00
         0.00000E+00
         0.00000E+00
         0.00000E+00
         0.00000E+00
         0.00000E+00
         0.00000E+00
         0.00000E+00
         0.00000E+00
         0.00000E+00
         0.00000E+00
         0.00000E+00
         0.00000E+00
         0.00000E+00
         0.00000E+00
         0.00000E+00
         0.00000E+00
         0.00000E+00
         0.00000E+00
         0.00000E+00
         0.00000E+00
         0.00000E+00
         0.00000E+00
         0.00000E+00
         0.00000E+00
         0.00000E+00
         0.00000E+00
         0.00000E+00
         0.00000E+00
         0.00000E+00
         0.00000E+00
         0.00000E+00
         0.00000E+00
         0.00000E+00
         0.00000E+00
         0.00000E+00
         0.00000E+00
         0.00000E+00
         0.00000E+00
         0.00000E+00
         0.00000E+00
         0.00000E+00
         0.00000E+00
         0.00000E+00
         0.00000E+00
         0.00000E+00
         0.00000E+00
         0.00000E+00
         0.00000E+00
         0.00000E+00
         0.00000E+00
         0.00000E+00
         0.00000E+00
         0.00000E+00
         0.00000E+00
         0.00000E+00
         0.00000E+00
         0.00000E+00
         0.00000E+00
         0.00000E+00
         0.00000E+00
         0.00000E+00
         0.00000E+00
         0.00000E+00
         0.00000E+00
         0.00000E+00
         0.00000E+00
         0.00000E+00
         0.00000E+00
         0.00000E+00
         0.00000E+00
         0.00000E+00
         0.00000E+00
         0.00000E+00
         0.00000E+00
         0.00000E+00
         0.00000E+00
         0.00000E+00
         0.00000E+00
         0.00000E+00
         0.00000E+00
         0.00000E+00
         0.00000E+00
         0.00000E+00
         0.00000E+00
         0.00000E+00
         0.00000E+00
         0.00000E+00
         0.00000E+00
         0.00000E+00
         0.00000E+00
         0.00000E+00
         0.00000E+00
         0.00000E+00
         0.00000E+00
         0.00000E+00
         0.00000E+00
         0.00000E+00
         0.00000E+00
         0.00000E+00
         0.00000E+00
         0.00000E+00
         0.00000E+00
         0.00000E+00
         0.00000E+00
         0.00000E+00
         0.00000E+00
         0.00000E+00
         0.00000E+00
         0.00000E+00
         0.00000E+00
         0.00000E+00
         0.00000E+00
         0.00000E+00
         0.00000E+00
         0.00000E+00
         0.00000E+00
         0.00000E+00
         0.00000E+00
         0.00000E+00
         0.00000E+00
         0.00000E+00
         0.00000E+00
         0.00000E+00
         0.00000E+00
         0.00000E+00
         0.00000E+00
         0.00000E+00
         0.00000E+00
         0.00000E+00
         0.00000E+00
         0.00000E+00
         0.00000E+00
         0.00000E+00
         0.00000E+00
         0.00000E+00
         0.00000E+00
         0.00000E+00
         0.00000E+00
         0.00000E+00
         0.00000E+00
         0.00000E+00
         0.00000E+00
         0.00000E+00
         0.00000E+00
         0.00000E+00
         0.00000E+00
         0.00000E+00
         0.00000E+00
         0.00000E+00
         0.00000E+00
         0.00000E+00
         0.00000E+00
         0.00000E+00
         0.00000E+00
         0.00000E+00
         0.00000E+00
         0.00000E+00
         0.00000E+00
         0.00000E+00
         0.00000E+00
         0.00000E+00
         0.00000E+00
         0.00000E+00
         0.00000E+00
         0.00000E+00
         0.00000E+00
         0.00000E+00
         0.00000E+00
         0.00000E+00
         0.00000E+00
         0.00000E+00
         0.00000E+00
         0.00000E+00
         0.00000E+00
         0.00000E+00
         0.00000E+00
         0.00000E+00
         0.00000E+00
         0.00000E+00
         0.00000E+00
         0.00000E+00
         0.00000E+00
         0.00000E+00
         0.00000E+00
         0.00000E+00
         0.00000E+00
         0.00000E+00
         0.00000E+00
         0.00000E+00
         0.00000E+00
         0.00000E+00
         0.00000E+00
         0.00000E+00
         0.00000E+00
         0.00000E+00
         0.00000E+00
         0.00000E+00
         0.00000E+00
         0.00000E+00
         0.00000E+00
         0.00000E+00
         0.00000E+00
         0.00000E+00
         0.00000E+00
         0.00000E+00
         0.00000E+00
         0.00000E+00
         0.00000E+00
         0.00000E+00
         0.00000E+00
         0.00000E+00
         0.00000E+00
         0.00000E+00
         0.00000E+00
         0.00000E+00
         0.00000E+00
         0.00000E+00
         0.00000E+00
         0.00000E+00
         0.00000E+00
         0.00000E+00
         0.00000E+00
         0.00000E+00
         0.00000E+00
         0.00000E+00
         0.00000E+00
         0.00000E+00
         0.00000E+00
         0.00000E+00
         0.00000E+00
         0.00000E+00
         0.00000E+00
         0.00000E+00
         0.00000E+00
         0.00000E+00
         0.00000E+00
         0.00000E+00
         0.00000E+00
         0.00000E+00
         0.00000E+00
         0.00000E+00
         0.00000E+00
         0.00000E+00
         0.00000E+00
         0.00000E+00
         0.00000E+00
         0.00000E+00
         0.00000E+00
         0.00000E+00
         0.00000E+00
         0.00000E+00
         0.00000E+00
         0.00000E+00
         0.00000E+00
         0.00000E+00
         0.00000E+00
         0.00000E+00
         0.00000E+00
         0.00000E+00
         0.00000E+00
         0.00000E+00
         0.00000E+00
         0.00000E+00
         0.00000E+00
         0.00000E+00
         0.00000E+00
         0.00000E+00
         0.00000E+00
         0.00000E+00
         0.00000E+00
         0.00000E+00
         0.00000E+00
         0.00000E+00
         0.00000E+00
         0.00000E+00
         0.00000E+00
         0.00000E+00
         0.00000E+00
         0.00000E+00
         0.00000E+00
         0.00000E+00
         0.00000E+00
         0.00000E+00
         0.00000E+00
         0.00000E+00
         0.00000E+00
         0.00000E+00
         0.00000E+00
         0.00000E+00
         0.00000E+00
         0.00000E+00
         0.00000E+00
         0.00000E+00
         0.00000E+00
         0.00000E+00
         0.00000E+00
         0.00000E+00
         0.00000E+00
         0.00000E+00
         0.00000E+00
         0.00000E+00
         0.00000E+00
         0.00000E+00
         0.00000E+00
         0.00000E+00
         0.00000E+00
         0.00000E+00
         0.00000E+00
         0.00000E+00
         0.00000E+00
         0.00000E+00
         0.00000E+00
         0.00000E+00
         0.00000E+00
         0.00000E+00
         0.00000E+00
         0.00000E+00
         0.00000E+00
         0.00000E+00
         0.00000E+00
         0.00000E+00
         0.00000E+00
         0.00000E+00
         0.00000E+00
         0.00000E+00
         0.00000E+00
         0.00000E+00
         0.00000E+00
         0.00000E+00
         0.00000E+00
         0.00000E+00
         0.00000E+00
         0.00000E+00
         0.00000E+00
         0.00000E+00
         0.00000E+00
         0.00000E+00
         0.00000E+00
         0.00000E+00
         0.00000E+00
         0.00000E+00
         0.00000E+00
         0.00000E+00
         0.00000E+00
         0.00000E+00
         0.00000E+00
         0.00000E+00
         0.00000E+00
         0.00000E+00
         0.00000E+00
         0.00000E+00
         0.00000E+00
         0.00000E+00
         0.00000E+00
         0.00000E+00
         0.00000E+00
         0.00000E+00
         0.00000E+00
         0.00000E+00
         0.00000E+00
         0.00000E+00
         0.00000E+00
         0.00000E+00
         0.00000E+00
         0.00000E+00
         0.00000E+00
         0.00000E+00
         0.00000E+00
         0.00000E+00
         0.00000E+00
         0.00000E+00
         0.00000E+00
         0.00000E+00
         0.00000E+00
         0.00000E+00
         0.00000E+00
         0.00000E+00
         0.00000E+00
         0.00000E+00
         0.00000E+00
         0.00000E+00
         0.00000E+00
         0.00000E+00
         0.00000E+00
         0.00000E+00
         0.00000E+00
         0.00000E+00
         0.00000E+00
         0.00000E+00
         0.00000E+00
         0.00000E+00
         0.00000E+00
         0.00000E+00
         0.00000E+00
         0.00000E+00
         0.00000E+00
         0.00000E+00
         0.00000E+00
         0.00000E+00
         0.00000E+00
         0.00000E+00
         0.00000E+00
         0.00000E+00
         0.00000E+00
         0.00000E+00
         0.00000E+00
         0.00000E+00
         0.00000E+00
         0.00000E+00
         0.00000E+00
         0.00000E+00
         0.00000E+00
         0.00000E+00
         0.00000E+00
         0.00000E+00
         0.00000E+00
         0.00000E+00
         0.00000E+00
         0.00000E+00
         0.00000E+00
         0.00000E+00
         0.00000E+00
         0.00000E+00
         0.00000E+00
         0.00000E+00
         0.00000E+00
         0.00000E+00
         0.00000E+00
         0.00000E+00
         0.00000E+00
         0.00000E+00
         0.00000E+00
         0.00000E+00
         0.00000E+00
         0.00000E+00
         0.00000E+00
         0.00000E+00
         0.00000E+00
         0.00000E+00
         0.00000E+00
         0.00000E+00
         0.00000E+00
         0.00000E+00
         0.00000E+00
         0.00000E+00
         0.00000E+00
         0.00000E+00
         0.00000E+00
         0.00000E+00
         0.00000E+00
         0.00000E+00
         0.00000E+00
         0.00000E+00
         0.00000E+00
         0.00000E+00
         0.00000E+00
         0.00000E+00
         0.00000E+00
         0.00000E+00
         0.00000E+00
         0.00000E+00
         0.00000E+00
         0.00000E+00
         0.00000E+00
         0.00000E+00
         0.00000E+00
         0.00000E+00
         0.00000E+00
         0.00000E+00
         0.00000E+00
         0.00000E+00
         0.00000E+00
         0.00000E+00
         0.00000E+00
         0.00000E+00
         0.00000E+00
         0.00000E+00
         0.00000E+00
         0.00000E+00
         0.00000E+00
         0.00000E+00
         0.00000E+00
         0.00000E+00
         0.00000E+00
         0.00000E+00
         0.00000E+00
         0.00000E+00
         0.00000E+00
         0.00000E+00
         0.00000E+00
         0.00000E+00
         0.00000E+00
         0.00000E+00
         0.00000E+00
         0.00000E+00
         0.00000E+00
         0.00000E+00
         0.00000E+00
         0.00000E+00
         0.00000E+00
         0.00000E+00
         0.00000E+00
         0.00000E+00
         0.00000E+00
         0.00000E+00
         0.00000E+00
         0.00000E+00
         0.00000E+00
         0.00000E+00
         0.00000E+00
         0.00000E+00
         0.00000E+00
         0.00000E+00
         0.00000E+00
         0.00000E+00
         0.00000E+00
         0.00000E+00
         0.00000E+00
         0.00000E+00
         0.00000E+00
         0.00000E+00
         0.00000E+00
         0.00000E+00
         0.00000E+00
         0.00000E+00
         0.00000E+00
         0.00000E+00
         0.00000E+00
         0.00000E+00
         0.00000E+00
         0.00000E+00
         0.00000E+00
         0.00000E+00
         0.00000E+00
         0.00000E+00
         0.00000E+00
         0.00000E+00
         0.00000E+00
         0.00000E+00
         0.00000E+00
         0.00000E+00
         0.00000E+00
         0.00000E+00
         0.00000E+00
         0.00000E+00
         0.00000E+00
         0.00000E+00
         0.00000E+00
         0.00000E+00
         0.00000E+00
         0.00000E+00
         0.00000E+00
         0.00000E+00
         0.00000E+00
         0.00000E+00
         0.00000E+00
         0.00000E+00
         0.00000E+00
         0.00000E+00
         0.00000E+00
         0.00000E+00
         0.00000E+00
         0.00000E+00
         0.00000E+00
         0.00000E+00
         0.00000E+00
         0.00000E+00
         0.00000E+00
         0.00000E+00
         0.00000E+00
         0.00000E+00
         0.00000E+00
         0.00000E+00
         0.00000E+00
         0.00000E+00
         0.00000E+00
         0.00000E+00
         0.00000E+00
         0.00000E+00
         0.00000E+00
         0.00000E+00
         0.00000E+00
         0.00000E+00
         0.00000E+00
         0.00000E+00
         0.00000E+00
         0.00000E+00
         0.00000E+00
         0.00000E+00
         0.00000E+00
         0.00000E+00
         0.00000E+00
         0.00000E+00
         0.00000E+00
         0.00000E+00
         0.00000E+00
         0.00000E+00
         0.00000E+00
         0.00000E+00
         0.00000E+00
         0.00000E+00
         0.00000E+00
         0.00000E+00
         0.00000E+00
         0.00000E+00
         0.00000E+00
         0.00000E+00
         0.00000E+00
         0.00000E+00
         0.00000E+00
         0.00000E+00
         0.00000E+00
         0.00000E+00
         0.00000E+00
  
SCALARS                     velocity_y  double 1
LOOKUP_TABLE default
         0.00000E+00
         0.00000E+00
         0.00000E+00
         0.00000E+00
         0.00000E+00
         0.00000E+00
         0.00000E+00
         0.00000E+00
         0.00000E+00
         0.00000E+00
         0.00000E+00
         0.00000E+00
         0.00000E+00
         0.00000E+00
         0.00000E+00
         0.00000E+00
         0.00000E+00
         0.00000E+00
         0.00000E+00
         0.00000E+00
         0.00000E+00
         0.00000E+00
         0.00000E+00
         0.00000E+00
         0.00000E+00
         0.00000E+00
         0.00000E+00
         0.00000E+00
         0.00000E+00
         0.00000E+00
         0.00000E+00
         0.00000E+00
         0.00000E+00
         0.00000E+00
         0.00000E+00
         0.00000E+00
         0.00000E+00
         0.00000E+00
         0.00000E+00
         0.00000E+00
         0.00000E+00
         0.00000E+00
         0.00000E+00
         0.00000E+00
         0.00000E+00
         0.00000E+00
         0.00000E+00
         0.00000E+00
         0.00000E+00
         0.00000E+00
         0.00000E+00
         0.00000E+00
         0.00000E+00
         0.00000E+00
         0.00000E+00
         0.00000E+00
         0.00000E+00
         0.00000E+00
         0.00000E+00
         0.00000E+00
         0.00000E+00
         0.00000E+00
         0.00000E+00
         0.00000E+00
         0.00000E+00
         0.00000E+00
         0.00000E+00
         0.00000E+00
         0.00000E+00
         0.00000E+00
         0.00000E+00
         0.00000E+00
         0.00000E+00
         0.00000E+00
         0.00000E+00
         0.00000E+00
         0.00000E+00
         0.00000E+00
         0.00000E+00
         0.00000E+00
         0.00000E+00
         0.00000E+00
         0.00000E+00
         0.00000E+00
         0.00000E+00
         0.00000E+00
         0.00000E+00
         0.00000E+00
         0.00000E+00
         0.00000E+00
         0.00000E+00
         0.00000E+00
         0.00000E+00
         0.00000E+00
         0.00000E+00
         0.00000E+00
         0.00000E+00
         0.00000E+00
         0.00000E+00
         0.00000E+00
         0.00000E+00
         0.00000E+00
         0.00000E+00
         0.00000E+00
         0.00000E+00
         0.00000E+00
         0.00000E+00
         0.00000E+00
         0.00000E+00
         0.00000E+00
         0.00000E+00
         0.00000E+00
         0.00000E+00
         0.00000E+00
         0.00000E+00
         0.00000E+00
         0.00000E+00
         0.00000E+00
         0.00000E+00
         0.00000E+00
         0.00000E+00
         0.00000E+00
         0.00000E+00
         0.00000E+00
         0.00000E+00
         0.00000E+00
         0.00000E+00
         0.00000E+00
         0.00000E+00
         0.00000E+00
         0.00000E+00
         0.00000E+00
         0.00000E+00
         0.00000E+00
         0.00000E+00
         0.00000E+00
         0.00000E+00
         0.00000E+00
         0.00000E+00
         0.00000E+00
         0.00000E+00
         0.00000E+00
         0.00000E+00
         0.00000E+00
         0.00000E+00
         0.00000E+00
         0.00000E+00
         0.00000E+00
         0.00000E+00
         0.00000E+00
         0.00000E+00
         0.00000E+00
         0.00000E+00
         0.00000E+00
         0.00000E+00
         0.00000E+00
         0.00000E+00
         0.00000E+00
         0.00000E+00
         0.00000E+00
         0.00000E+00
         0.00000E+00
         0.00000E+00
         0.00000E+00
         0.00000E+00
         0.00000E+00
         0.00000E+00
         0.00000E+00
         0.00000E+00
         0.00000E+00
         0.00000E+00
         0.00000E+00
         0.00000E+00
         0.00000E+00
         0.00000E+00
         0.00000E+00
         0.00000E+00
         0.00000E+00
         0.00000E+00
         0.00000E+00
         0.00000E+00
         0.00000E+00
         0.00000E+00
         0.00000E+00
         0.00000E+00
         0.00000E+00
         0.00000E+00
         0.00000E+00
         0.00000E+00
         0.00000E+00
         0.00000E+00
         0.00000E+00
         0.00000E+00
         0.00000E+00
         0.00000E+00
         0.00000E+00
         0.00000E+00
         0.00000E+00
         0.00000E+00
         0.00000E+00
         0.00000E+00
         0.00000E+00
         0.00000E+00
         0.00000E+00
         0.00000E+00
         0.00000E+00
         0.00000E+00
         0.00000E+00
         0.00000E+00
         0.00000E+00
         0.00000E+00
         0.00000E+00
         0.00000E+00
         0.00000E+00
         0.00000E+00
         0.00000E+00
         0.00000E+00
         0.00000E+00
         0.00000E+00
         0.00000E+00
         0.00000E+00
         0.00000E+00
         0.00000E+00
         0.00000E+00
         0.00000E+00
         0.00000E+00
         0.00000E+00
         0.00000E+00
         0.00000E+00
         0.00000E+00
         0.00000E+00
         0.00000E+00
         0.00000E+00
         0.00000E+00
         0.00000E+00
         0.00000E+00
         0.00000E+00
         0.00000E+00
         0.00000E+00
         0.00000E+00
         0.00000E+00
         0.00000E+00
         0.00000E+00
         0.00000E+00
         0.00000E+00
         0.00000E+00
         0.00000E+00
         0.00000E+00
         0.00000E+00
         0.00000E+00
         0.00000E+00
         0.00000E+00
         0.00000E+00
         0.00000E+00
         0.00000E+00
         0.00000E+00
         0.00000E+00
         0.00000E+00
         0.00000E+00
         0.00000E+00
         0.00000E+00
         0.00000E+00
         0.00000E+00
         0.00000E+00
         0.00000E+00
         0.00000E+00
         0.00000E+00
         0.00000E+00
         0.00000E+00
         0.00000E+00
         0.00000E+00
         0.00000E+00
         0.00000E+00
         0.00000E+00
         0.00000E+00
         0.00000E+00
         0.00000E+00
         0.00000E+00
         0.00000E+00
         0.00000E+00
         0.00000E+00
         0.00000E+00
         0.00000E+00
         0.00000E+00
         0.00000E+00
         0.00000E+00
         0.00000E+00
         0.00000E+00
         0.00000E+00
         0.00000E+00
         0.00000E+00
         0.00000E+00
         0.00000E+00
         0.00000E+00
         0.00000E+00
         0.00000E+00
         0.00000E+00
         0.00000E+00
         0.00000E+00
         0.00000E+00
         0.00000E+00
         0.00000E+00
         0.00000E+00
         0.00000E+00
         0.00000E+00
         0.00000E+00
         0.00000E+00
         0.00000E+00
         0.00000E+00
         0.00000E+00
         0.00000E+00
         0.00000E+00
         0.00000E+00
         0.00000E+00
         0.00000E+00
         0.00000E+00
         0.00000E+00
         0.00000E+00
         0.00000E+00
         0.00000E+00
         0.00000E+00
         0.00000E+00
         0.00000E+00
         0.00000E+00
         0.00000E+00
         0.00000E+00
         0.00000E+00
         0.00000E+00
         0.00000E+00
         0.00000E+00
         0.00000E+00
         0.00000E+00
         0.00000E+00
         0.00000E+00
         0.00000E+00
         0.00000E+00
         0.00000E+00
         0.00000E+00
         0.00000E+00
         0.00000E+00
         0.00000E+00
         0.00000E+00
         0.00000E+00
         0.00000E+00
         0.00000E+00
         0.00000E+00
         0.00000E+00
         0.00000E+00
         0.00000E+00
         0.00000E+00
         0.00000E+00
         0.00000E+00
         0.00000E+00
         0.00000E+00
         0.00000E+00
         0.00000E+00
         0.00000E+00
         0.00000E+00
         0.00000E+00
         0.00000E+00
         0.00000E+00
         0.00000E+00
         0.00000E+00
         0.00000E+00
         0.00000E+00
         0.00000E+00
         0.00000E+00
         0.00000E+00
         0.00000E+00
         0.00000E+00
         0.00000E+00
         0.00000E+00
         0.00000E+00
         0.00000E+00
         0.00000E+00
         0.00000E+00
         0.00000E+00
         0.00000E+00
         0.00000E+00
         0.00000E+00
         0.00000E+00
         0.00000E+00
         0.00000E+00
         0.00000E+00
         0.00000E+00
         0.00000E+00
         0.00000E+00
         0.00000E+00
         0.00000E+00
         0.00000E+00
         0.00000E+00
         0.00000E+00
         0.00000E+00
         0.00000E+00
         0.00000E+00
         0.00000E+00
         0.00000E+00
         0.00000E+00
         0.00000E+00
         0.00000E+00
         0.00000E+00
         0.00000E+00
         0.00000E+00
         0.00000E+00
         0.00000E+00
         0.00000E+00
         0.00000E+00
         0.00000E+00
         0.00000E+00
         0.00000E+00
         0.00000E+00
         0.00000E+00
         0.00000E+00
         0.00000E+00
         0.00000E+00
         0.00000E+00
         0.00000E+00
         0.00000E+00
         0.00000E+00
         0.00000E+00
         0.00000E+00
         0.00000E+00
         0.00000E+00
         0.00000E+00
         0.00000E+00
         0.00000E+00
         0.00000E+00
         0.00000E+00
         0.00000E+00
         0.00000E+00
         0.00000E+00
         0.00000E+00
         0.00000E+00
         0.00000E+00
         0.00000E+00
         0.00000E+00
         0.00000E+00
         0.00000E+00
         0.00000E+00
         0.00000E+00
         0.00000E+00
         0.00000E+00
         0.00000E+00
         0.00000E+00
         0.00000E+00
         0.00000E+00
         0.00000E+00
         0.00000E+00
         0.00000E+00
         0.00000E+00
         0.00000E+00
         0.00000E+00
         0.00000E+00
         0.00000E+00
         0.00000E+00
         0.00000E+00
         0.00000E+00
         0.00000E+00
         0.00000E+00
         0.00000E+00
         0.00000E+00
         0.00000E+00
         0.00000E+00
         0.00000E+00
         0.00000E+00
         0.00000E+00
         0.00000E+00
         0.00000E+00
         0.00000E+00
         0.00000E+00
         0.00000E+00
         0.00000E+00
         0.00000E+00
         0.00000E+00
         0.00000E+00
         0.00000E+00
         0.00000E+00
         0.00000E+00
         0.00000E+00
         0.00000E+00
         0.00000E+00
         0.00000E+00
         0.00000E+00
         0.00000E+00
         0.00000E+00
         0.00000E+00
         0.00000E+00
         0.00000E+00
         0.00000E+00
         0.00000E+00
         0.00000E+00
         0.00000E+00
         0.00000E+00
         0.00000E+00
         0.00000E+00
         0.00000E+00
         0.00000E+00
         0.00000E+00
         0.00000E+00
         0.00000E+00
         0.00000E+00
         0.00000E+00
         0.00000E+00
         0.00000E+00
         0.00000E+00
         0.00000E+00
         0.00000E+00
         0.00000E+00
         0.00000E+00
         0.00000E+00
         0.00000E+00
         0.00000E+00
         0.00000E+00
         0.00000E+00
         0.00000E+00
         0.00000E+00
         0.00000E+00
         0.00000E+00
         0.00000E+00
         0.00000E+00
         0.00000E+00
         0.00000E+00
         0.00000E+00
         0.00000E+00
         0.00000E+00
         0.00000E+00
         0.00000E+00
         0.00000E+00
         0.00000E+00
         0.00000E+00
         0.00000E+00
         0.00000E+00
         0.00000E+00
         0.00000E+00
         0.00000E+00
         0.00000E+00
         0.00000E+00
         0.00000E+00
         0.00000E+00
         0.00000E+00
         0.00000E+00
         0.00000E+00
         0.00000E+00
         0.00000E+00
         0.00000E+00
         0.00000E+00
         0.00000E+00
         0.00000E+00
         0.00000E+00
         0.00000E+00
         0.00000E+00
         0.00000E+00
         0.00000E+00
         0.00000E+00
         0.00000E+00
         0.00000E+00
         0.00000E+00
         0.00000E+00
         0.00000E+00
         0.00000E+00
         0.00000E+00
         0.00000E+00
         0.00000E+00
         0.00000E+00
         0.00000E+00
         0.00000E+00
         0.00000E+00
         0.00000E+00
         0.00000E+00
         0.00000E+00
         0.00000E+00
         0.00000E+00
         0.00000E+00
         0.00000E+00
         0.00000E+00
         0.00000E+00
         0.00000E+00
         0.00000E+00
         0.00000E+00
         0.00000E+00
         0.00000E+00
         0.00000E+00
         0.00000E+00
         0.00000E+00
         0.00000E+00
         0.00000E+00
         0.00000E+00
         0.00000E+00
         0.00000E+00
         0.00000E+00
         0.00000E+00
         0.00000E+00
         0.00000E+00
         0.00000E+00
         0.00000E+00
         0.00000E+00
         0.00000E+00
         0.00000E+00
         0.00000E+00
         0.00000E+00
         0.00000E+00
         0.00000E+00
         0.00000E+00
         0.00000E+00
         0.00000E+00
         0.00000E+00
         0.00000E+00
         0.00000E+00
         0.00000E+00
         0.00000E+00
         0.00000E+00
         0.00000E+00
         0.00000E+00
         0.00000E+00
         0.00000E+00
         0.00000E+00
         0.00000E+00
         0.00000E+00
         0.00000E+00
         0.00000E+00
         0.00000E+00
         0.00000E+00
         0.00000E+00
         0.00000E+00
         0.00000E+00
         0.00000E+00
         0.00000E+00
         0.00000E+00
         0.00000E+00
         0.00000E+00
         0.00000E+00
         0.00000E+00
         0.00000E+00
         0.00000E+00
         0.00000E+00
         0.00000E+00
         0.00000E+00
         0.00000E+00
         0.00000E+00
         0.00000E+00
         0.00000E+00
         0.00000E+00
         0.00000E+00
         0.00000E+00
         0.00000E+00
         0.00000E+00
         0.00000E+00
         0.00000E+00
         0.00000E+00
         0.00000E+00
         0.00000E+00
         0.00000E+00
         0.00000E+00
         0.00000E+00
         0.00000E+00
         0.00000E+00
         0.00000E+00
         0.00000E+00
         0.00000E+00
         0.00000E+00
         0.00000E+00
         0.00000E+00
         0.00000E+00
         0.00000E+00
         0.00000E+00
         0.00000E+00
         0.00000E+00
         0.00000E+00
         0.00000E+00
         0.00000E+00
         0.00000E+00
         0.00000E+00
         0.00000E+00
         0.00000E+00
         0.00000E+00
         0.00000E+00
         0.00000E+00
         0.00000E+00
         0.00000E+00
         0.00000E+00
         0.00000E+00
         0.00000E+00
         0.00000E+00
         0.00000E+00
         0.00000E+00
         0.00000E+00
         0.00000E+00
         0.00000E+00
         0.00000E+00
         0.00000E+00
         0.00000E+00
         0.00000E+00
         0.00000E+00
         0.00000E+00
         0.00000E+00
         0.00000E+00
         0.00000E+00
         0.00000E+00
         0.00000E+00
         0.00000E+00
         0.00000E+00
         0.00000E+00
         0.00000E+00
         0.00000E+00
         0.00000E+00
         0.00000E+00
         0.00000E+00
         0.00000E+00
         0.00000E+00
         0.00000E+00
         0.00000E+00
         0.00000E+00
         0.00000E+00
         0.00000E+00
         0.00000E+00
         0.00000E+00
         0.00000E+00
         0.00000E+00
         0.00000E+00
         0.00000E+00
         0.00000E+00
         0.00000E+00
         0.00000E+00
         0.00000E+00
         0.00000E+00
         0.00000E+00
         0.00000E+00
         0.00000E+00
         0.00000E+00
         0.00000E+00
         0.00000E+00
         0.00000E+00
         0.00000E+00
         0.00000E+00
         0.00000E+00
         0.00000E+00
         0.00000E+00
         0.00000E+00
         0.00000E+00
         0.00000E+00
         0.00000E+00
         0.00000E+00
         0.00000E+00
         0.00000E+00
         0.00000E+00
         0.00000E+00
         0.00000E+00
         0.00000E+00
         0.00000E+00
         0.00000E+00
         0.00000E+00
         0.00000E+00
         0.00000E+00
         0.00000E+00
         0.00000E+00
         0.00000E+00
         0.00000E+00
         0.00000E+00
         0.00000E+00
         0.00000E+00
         0.00000E+00
         0.00000E+00
         0.00000E+00
         0.00000E+00
         0.00000E+00
         0.00000E+00
         0.00000E+00
         0.00000E+00
         0.00000E+00
         0.00000E+00
         0.00000E+00
         0.00000E+00
         0.00000E+00
         0.00000E+00
         0.00000E+00
         0.00000E+00
         0.00000E+00
         0.00000E+00
         0.00000E+00
         0.00000E+00
         0.00000E+00
         0.00000E+00
         0.00000E+00
         0.00000E+00
         0.00000E+00
         0.00000E+00
         0.00000E+00
         0.00000E+00
         0.00000E+00
         0.00000E+00
         0.00000E+00
         0.00000E+00
         0.00000E+00
         0.00000E+00
         0.00000E+00
         0.00000E+00
         0.00000E+00
         0.00000E+00
         0.00000E+00
         0.00000E+00
         0.00000E+00
         0.00000E+00
         0.00000E+00
         0.00000E+00
         0.00000E+00
         0.00000E+00
         0.00000E+00
         0.00000E+00
         0.00000E+00
         0.00000E+00
         0.00000E+00
         0.00000E+00
         0.00000E+00
         0.00000E+00
         0.00000E+00
         0.00000E+00
         0.00000E+00
         0.00000E+00
         0.00000E+00
         0.00000E+00
         0.00000E+00
         0.00000E+00
         0.00000E+00
         0.00000E+00
         0.00000E+00
         0.00000E+00
         0.00000E+00
         0.00000E+00
         0.00000E+00
         0.00000E+00
         0.00000E+00
         0.00000E+00
         0.00000E+00
         0.00000E+00
         0.00000E+00
         0.00000E+00
         0.00000E+00
         0.00000E+00
         0.00000E+00
         0.00000E+00
         0.00000E+00
         0.00000E+00
         0.00000E+00
         0.00000E+00
         0.00000E+00
         0.00000E+00
         0.00000E+00
         0.00000E+00
         0.00000E+00
         0.00000E+00
         0.00000E+00
         0.00000E+00
         0.00000E+00
         0.00000E+00
         0.00000E+00
         0.00000E+00
         0.00000E+00
         0.00000E+00
         0.00000E+00
         0.00000E+00
         0.00000E+00
         0.00000E+00
         0.00000E+00
         0.00000E+00
         0.00000E+00
         0.00000E+00
         0.00000E+00
         0.00000E+00
         0.00000E+00
         0.00000E+00
         0.00000E+00
         0.00000E+00
         0.00000E+00
         0.00000E+00
         0.00000E+00
         0.00000E+00
         0.00000E+00
         0.00000E+00
         0.00000E+00
         0.00000E+00
         0.00000E+00
         0.00000E+00
         0.00000E+00
         0.00000E+00
         0.00000E+00
         0.00000E+00
         0.00000E+00
         0.00000E+00
         0.00000E+00
         0.00000E+00
         0.00000E+00
         0.00000E+00
         0.00000E+00
         0.00000E+00
         0.00000E+00
         0.00000E+00
         0.00000E+00
         0.00000E+00
         0.00000E+00
         0.00000E+00
         0.00000E+00
         0.00000E+00
         0.00000E+00
         0.00000E+00
         0.00000E+00
         0.00000E+00
         0.00000E+00
         0.00000E+00
         0.00000E+00
         0.00000E+00
         0.00000E+00
         0.00000E+00
         0.00000E+00
         0.00000E+00
         0.00000E+00
         0.00000E+00
         0.00000E+00
         0.00000E+00
         0.00000E+00
         0.00000E+00
         0.00000E+00
         0.00000E+00
         0.00000E+00
         0.00000E+00
         0.00000E+00
         0.00000E+00
         0.00000E+00
         0.00000E+00
         0.00000E+00
         0.00000E+00
         0.00000E+00
         0.00000E+00
         0.00000E+00
         0.00000E+00
         0.00000E+00
         0.00000E+00
         0.00000E+00
         0.00000E+00
         0.00000E+00
         0.00000E+00
         0.00000E+00
         0.00000E+00
         0.00000E+00
         0.00000E+00
         0.00000E+00
         0.00000E+00
         0.00000E+00
         0.00000E+00
         0.00000E+00
         0.00000E+00
         0.00000E+00
         0.00000E+00
         0.00000E+00
         0.00000E+00
         0.00000E+00
         0.00000E+00
         0.00000E+00
         0.00000E+00
         0.00000E+00
         0.00000E+00
         0.00000E+00
         0.00000E+00
         0.00000E+00
         0.00000E+00
         0.00000E+00
         0.00000E+00
         0.00000E+00
         0.00000E+00
         0.00000E+00
         0.00000E+00
         0.00000E+00
         0.00000E+00
         0.00000E+00
         0.00000E+00
         0.00000E+00
         0.00000E+00
         0.00000E+00
         0.00000E+00
         0.00000E+00
         0.00000E+00
         0.00000E+00
         0.00000E+00
         0.00000E+00
         0.00000E+00
         0.00000E+00
         0.00000E+00
         0.00000E+00
         0.00000E+00
         0.00000E+00
         0.00000E+00
         0.00000E+00
         0.00000E+00
         0.00000E+00
         0.00000E+00
         0.00000E+00
         0.00000E+00
         0.00000E+00
         0.00000E+00
         0.00000E+00
         0.00000E+00
         0.00000E+00
         0.00000E+00
         0.00000E+00
         0.00000E+00
         0.00000E+00
         0.00000E+00
         0.00000E+00
         0.00000E+00
         0.00000E+00
         0.00000E+00
         0.00000E+00
         0.00000E+00
         0.00000E+00
         0.00000E+00
         0.00000E+00
         0.00000E+00
         0.00000E+00
         0.00000E+00
         0.00000E+00
         0.00000E+00
         0.00000E+00
         0.00000E+00
         0.00000E+00
         0.00000E+00
         0.00000E+00
         0.00000E+00
         0.00000E+00
         0.00000E+00
         0.00000E+00
         0.00000E+00
         0.00000E+00
         0.00000E+00
         0.00000E+00
         0.00000E+00
         0.00000E+00
         0.00000E+00
         0.00000E+00
         0.00000E+00
         0.00000E+00
         0.00000E+00
         0.00000E+00
         0.00000E+00
         0.00000E+00
         0.00000E+00
         0.00000E+00
         0.00000E+00
         0.00000E+00
         0.00000E+00
         0.00000E+00
         0.00000E+00
         0.00000E+00
         0.00000E+00
         0.00000E+00
         0.00000E+00
         0.00000E+00
         0.00000E+00
         0.00000E+00
         0.00000E+00
         0.00000E+00
         0.00000E+00
         0.00000E+00
         0.00000E+00
         0.00000E+00
         0.00000E+00
         0.00000E+00
         0.00000E+00
         0.00000E+00
         0.00000E+00
         0.00000E+00
         0.00000E+00
         0.00000E+00
         0.00000E+00
         0.00000E+00
         0.00000E+00
         0.00000E+00
         0.00000E+00
         0.00000E+00
         0.00000E+00
         0.00000E+00
         0.00000E+00
         0.00000E+00
         0.00000E+00
         0.00000E+00
         0.00000E+00
         0.00000E+00
         0.00000E+00
         0.00000E+00
         0.00000E+00
         0.00000E+00
         0.00000E+00
         0.00000E+00
         0.00000E+00
         0.00000E+00
         0.00000E+00
         0.00000E+00
         0.00000E+00
         0.00000E+00
         0.00000E+00
         0.00000E+00
         0.00000E+00
         0.00000E+00
         0.00000E+00
         0.00000E+00
         0.00000E+00
         0.00000E+00
         0.00000E+00
         0.00000E+00
         0.00000E+00
         0.00000E+00
         0.00000E+00
         0.00000E+00
         0.00000E+00
         0.00000E+00
         0.00000E+00
         0.00000E+00
         0.00000E+00
         0.00000E+00
         0.00000E+00
         0.00000E+00
         0.00000E+00
         0.00000E+00
         0.00000E+00
         0.00000E+00
         0.00000E+00
         0.00000E+00
         0.00000E+00
         0.00000E+00
         0.00000E+00
         0.00000E+00
         0.00000E+00
         0.00000E+00
         0.00000E+00
         0.00000E+00
         0.00000E+00
         0.00000E+00
         0.00000E+00
         0.00000E+00
         0.00000E+00
         0.00000E+00
         0.00000E+00
         0.00000E+00
         0.00000E+00
         0.00000E+00
         0.00000E+00
         0.00000E+00
         0.00000E+00
         0.00000E+00
         0.00000E+00
         0.00000E+00
         0.00000E+00
         0.00000E+00
         0.00000E+00
         0.00000E+00
         0.00000E+00
         0.00000E+00
         0.00000E+00
         0.00000E+00
         0.00000E+00
         0.00000E+00
         0.00000E+00
         0.00000E+00
         0.00000E+00
         0.00000E+00
         0.00000E+00
         0.00000E+00
         0.00000E+00
         0.00000E+00
         0.00000E+00
         0.00000E+00
         0.00000E+00
         0.00000E+00
         0.00000E+00
         0.00000E+00
         0.00000E+00
         0.00000E+00
         0.00000E+00
         0.00000E+00
         0.00000E+00
         0.00000E+00
         0.00000E+00
         0.00000E+00
         0.00000E+00
         0.00000E+00
         0.00000E+00
         0.00000E+00
         0.00000E+00
         0.00000E+00
         0.00000E+00
         0.00000E+00
         0.00000E+00
         0.00000E+00
         0.00000E+00
         0.00000E+00
         0.00000E+00
         0.00000E+00
         0.00000E+00
         0.00000E+00
         0.00000E+00
         0.00000E+00
         0.00000E+00
         0.00000E+00
         0.00000E+00
         0.00000E+00
         0.00000E+00
         0.00000E+00
         0.00000E+00
         0.00000E+00
         0.00000E+00
         0.00000E+00
         0.00000E+00
         0.00000E+00
         0.00000E+00
         0.00000E+00
         0.00000E+00
         0.00000E+00
         0.00000E+00
         0.00000E+00
         0.00000E+00
         0.00000E+00
         0.00000E+00
         0.00000E+00
         0.00000E+00
         0.00000E+00
         0.00000E+00
         0.00000E+00
         0.00000E+00
         0.00000E+00
         0.00000E+00
         0.00000E+00
         0.00000E+00
         0.00000E+00
         0.00000E+00
         0.00000E+00
         0.00000E+00
         0.00000E+00
         0.00000E+00
         0.00000E+00
         0.00000E+00
         0.00000E+00
         0.00000E+00
         0.00000E+00
         0.00000E+00
         0.00000E+00
         0.00000E+00
         0.00000E+00
         0.00000E+00
         0.00000E+00
         0.00000E+00
         0.00000E+00
         0.00000E+00
         0.00000E+00
         0.00000E+00
         0.00000E+00
         0.00000E+00
         0.00000E+00
         0.00000E+00
         0.00000E+00
         0.00000E+00
         0.00000E+00
         0.00000E+00
         0.00000E+00
         0.00000E+00
         0.00000E+00
         0.00000E+00
         0.00000E+00
         0.00000E+00
         0.00000E+00
         0.00000E+00
         0.00000E+00
         0.00000E+00
         0.00000E+00
         0.00000E+00
         0.00000E+00
         0.00000E+00
         0.00000E+00
         0.00000E+00
         0.00000E+00
         0.00000E+00
         0.00000E+00
         0.00000E+00
         0.00000E+00
         0.00000E+00
         0.00000E+00
         0.00000E+00
         0.00000E+00
         0.00000E+00
         0.00000E+00
         0.00000E+00
         0.00000E+00
         0.00000E+00
         0.00000E+00
         0.00000E+00
         0.00000E+00
         0.00000E+00
         0.00000E+00
         0.00000E+00
         0.00000E+00
         0.00000E+00
         0.00000E+00
         0.00000E+00
         0.00000E+00
         0.00000E+00
         0.00000E+00
         0.00000E+00
         0.00000E+00
         0.00000E+00
         0.00000E+00
         0.00000E+00
         0.00000E+00
         0.00000E+00
         0.00000E+00
         0.00000E+00
         0.00000E+00
         0.00000E+00
         0.00000E+00
         0.00000E+00
         0.00000E+00
         0.00000E+00
         0.00000E+00
         0.00000E+00
         0.00000E+00
         0.00000E+00
         0.00000E+00
         0.00000E+00
         0.00000E+00
         0.00000E+00
         0.00000E+00
         0.00000E+00
         0.00000E+00
         0.00000E+00
         0.00000E+00
         0.00000E+00
         0.00000E+00
         0.00000E+00
         0.00000E+00
         0.00000E+00
         0.00000E+00
         0.00000E+00
         0.00000E+00
         0.00000E+00
         0.00000E+00
         0.00000E+00
         0.00000E+00
         0.00000E+00
         0.00000E+00
         0.00000E+00
         0.00000E+00
         0.00000E+00
         0.00000E+00
         0.00000E+00
         0.00000E+00
         0.00000E+00
         0.00000E+00
         0.00000E+00
         0.00000E+00
         0.00000E+00
         0.00000E+00
         0.00000E+00
         0.00000E+00
         0.00000E+00
         0.00000E+00
         0.00000E+00
         0.00000E+00
         0.00000E+00
         0.00000E+00
         0.00000E+00
         0.00000E+00
         0.00000E+00
         0.00000E+00
         0.00000E+00
         0.00000E+00
         0.00000E+00
         0.00000E+00
         0.00000E+00
         0.00000E+00
         0.00000E+00
         0.00000E+00
         0.00000E+00
         0.00000E+00
         0.00000E+00
         0.00000E+00
         0.00000E+00
         0.00000E+00
         0.00000E+00
         0.00000E+00
         0.00000E+00
         0.00000E+00
         0.00000E+00
         0.00000E+00
         0.00000E+00
         0.00000E+00
         0.00000E+00
         0.00000E+00
         0.00000E+00
         0.00000E+00
         0.00000E+00
         0.00000E+00
         0.00000E+00
         0.00000E+00
         0.00000E+00
         0.00000E+00
         0.00000E+00
         0.00000E+00
         0.00000E+00
         0.00000E+00
         0.00000E+00
         0.00000E+00
         0.00000E+00
         0.00000E+00
         0.00000E+00
         0.00000E+00
         0.00000E+00
         0.00000E+00
         0.00000E+00
         0.00000E+00
         0.00000E+00
         0.00000E+00
         0.00000E+00
         0.00000E+00
         0.00000E+00
         0.00000E+00
         0.00000E+00
         0.00000E+00
         0.00000E+00
         0.00000E+00
         0.00000E+00
         0.00000E+00
         0.00000E+00
         0.00000E+00
         0.00000E+00
         0.00000E+00
         0.00000E+00
         0.00000E+00
         0.00000E+00
         0.00000E+00
         0.00000E+00
         0.00000E+00
         0.00000E+00
         0.00000E+00
         0.00000E+00
         0.00000E+00
         0.00000E+00
         0.00000E+00
         0.00000E+00
         0.00000E+00
         0.00000E+00
         0.00000E+00
         0.00000E+00
         0.00000E+00
         0.00000E+00
         0.00000E+00
         0.00000E+00
         0.00000E+00
         0.00000E+00
         0.00000E+00
         0.00000E+00
         0.00000E+00
         0.00000E+00
         0.00000E+00
         0.00000E+00
         0.00000E+00
         0.00000E+00
         0.00000E+00
         0.00000E+00
         0.00000E+00
         0.00000E+00
         0.00000E+00
         0.00000E+00
         0.00000E+00
         0.00000E+00
         0.00000E+00
         0.00000E+00
         0.00000E+00
         0.00000E+00
         0.00000E+00
         0.00000E+00
         0.00000E+00
         0.00000E+00
         0.00000E+00
         0.00000E+00
         0.00000E+00
         0.00000E+00
         0.00000E+00
         0.00000E+00
         0.00000E+00
         0.00000E+00
         0.00000E+00
         0.00000E+00
         0.00000E+00
         0.00000E+00
         0.00000E+00
         0.00000E+00
         0.00000E+00
         0.00000E+00
         0.00000E+00
         0.00000E+00
         0.00000E+00
         0.00000E+00
         0.00000E+00
         0.00000E+00
         0.00000E+00
         0.00000E+00
         0.00000E+00
         0.00000E+00
         0.00000E+00
         0.00000E+00
         0.00000E+00
         0.00000E+00
         0.00000E+00
         0.00000E+00
         0.00000E+00
         0.00000E+00
         0.00000E+00
         0.00000E+00
         0.00000E+00
         0.00000E+00
         0.00000E+00
         0.00000E+00
         0.00000E+00
         0.00000E+00
         0.00000E+00
         0.00000E+00
         0.00000E+00
         0.00000E+00
         0.00000E+00
         0.00000E+00
         0.00000E+00
         0.00000E+00
         0.00000E+00
         0.00000E+00
         0.00000E+00
         0.00000E+00
         0.00000E+00
         0.00000E+00
         0.00000E+00
         0.00000E+00
         0.00000E+00
         0.00000E+00
         0.00000E+00
         0.00000E+00
         0.00000E+00
         0.00000E+00
         0.00000E+00
         0.00000E+00
         0.00000E+00
         0.00000E+00
         0.00000E+00
         0.00000E+00
         0.00000E+00
         0.00000E+00
         0.00000E+00
         0.00000E+00
         0.00000E+00
         0.00000E+00
         0.00000E+00
         0.00000E+00
         0.00000E+00
         0.00000E+00
         0.00000E+00
         0.00000E+00
         0.00000E+00
         0.00000E+00
         0.00000E+00
         0.00000E+00
         0.00000E+00
         0.00000E+00
         0.00000E+00
         0.00000E+00
         0.00000E+00
         0.00000E+00
         0.00000E+00
         0.00000E+00
         0.00000E+00
         0.00000E+00
         0.00000E+00
         0.00000E+00
         0.00000E+00
         0.00000E+00
         0.00000E+00
         0.00000E+00
         0.00000E+00
         0.00000E+00
         0.00000E+00
         0.00000E+00
         0.00000E+00
         0.00000E+00
         0.00000E+00
         0.00000E+00
         0.00000E+00
         0.00000E+00
         0.00000E+00
         0.00000E+00
         0.00000E+00
         0.00000E+00
         0.00000E+00
         0.00000E+00
         0.00000E+00
         0.00000E+00
         0.00000E+00
         0.00000E+00
         0.00000E+00
         0.00000E+00
         0.00000E+00
         0.00000E+00
         0.00000E+00
         0.00000E+00
         0.00000E+00
         0.00000E+00
         0.00000E+00
         0.00000E+00
         0.00000E+00
         0.00000E+00
         0.00000E+00
         0.00000E+00
         0.00000E+00
         0.00000E+00
         0.00000E+00
         0.00000E+00
         0.00000E+00
         0.00000E+00
         0.00000E+00
         0.00000E+00
         0.00000E+00
         0.00000E+00
         0.00000E+00
         0.00000E+00
         0.00000E+00
         0.00000E+00
         0.00000E+00
         0.00000E+00
         0.00000E+00
         0.00000E+00
         0.00000E+00
         0.00000E+00
         0.00000E+00
         0.00000E+00
         0.00000E+00
         0.00000E+00
         0.00000E+00
         0.00000E+00
         0.00000E+00
         0.00000E+00
         0.00000E+00
         0.00000E+00
         0.00000E+00
         0.00000E+00
         0.00000E+00
         0.00000E+00
         0.00000E+00
         0.00000E+00
         0.00000E+00
         0.00000E+00
         0.00000E+00
         0.00000E+00
         0.00000E+00
         0.00000E+00
         0.00000E+00
         0.00000E+00
         0.00000E+00
         0.00000E+00
         0.00000E+00
         0.00000E+00
         0.00000E+00
         0.00000E+00
         0.00000E+00
         0.00000E+00
         0.00000E+00
         0.00000E+00
         0.00000E+00
         0.00000E+00
         0.00000E+00
         0.00000E+00
         0.00000E+00
         0.00000E+00
         0.00000E+00
         0.00000E+00
         0.00000E+00
         0.00000E+00
         0.00000E+00
         0.00000E+00
         0.00000E+00
         0.00000E+00
         0.00000E+00
         0.00000E+00
         0.00000E+00
         0.00000E+00
         0.00000E+00
         0.00000E+00
         0.00000E+00
         0.00000E+00
         0.00000E+00
         0.00000E+00
         0.00000E+00
         0.00000E+00
         0.00000E+00
         0.00000E+00
         0.00000E+00
         0.00000E+00
         0.00000E+00
         0.00000E+00
         0.00000E+00
         0.00000E+00
         0.00000E+00
         0.00000E+00
         0.00000E+00
         0.00000E+00
         0.00000E+00
         0.00000E+00
         0.00000E+00
         0.00000E+00
         0.00000E+00
         0.00000E+00
         0.00000E+00
         0.00000E+00
         0.00000E+00
         0.00000E+00
         0.00000E+00
         0.00000E+00
         0.00000E+00
         0.00000E+00
         0.00000E+00
         0.00000E+00
         0.00000E+00
         0.00000E+00
         0.00000E+00
         0.00000E+00
         0.00000E+00
         0.00000E+00
         0.00000E+00
         0.00000E+00
         0.00000E+00
         0.00000E+00
         0.00000E+00
         0.00000E+00
         0.00000E+00
         0.00000E+00
         0.00000E+00
         0.00000E+00
         0.00000E+00
         0.00000E+00
         0.00000E+00
         0.00000E+00
         0.00000E+00
         0.00000E+00
         0.00000E+00
         0.00000E+00
         0.00000E+00
         0.00000E+00
         0.00000E+00
         0.00000E+00
         0.00000E+00
         0.00000E+00
         0.00000E+00
         0.00000E+00
         0.00000E+00
         0.00000E+00
         0.00000E+00
         0.00000E+00
         0.00000E+00
         0.00000E+00
         0.00000E+00
         0.00000E+00
         0.00000E+00
         0.00000E+00
         0.00000E+00
         0.00000E+00
         0.00000E+00
         0.00000E+00
         0.00000E+00
         0.00000E+00
         0.00000E+00
         0.00000E+00
         0.00000E+00
         0.00000E+00
         0.00000E+00
         0.00000E+00
         0.00000E+00
         0.00000E+00
         0.00000E+00
         0.00000E+00
         0.00000E+00
         0.00000E+00
         0.00000E+00
         0.00000E+00
         0.00000E+00
         0.00000E+00
         0.00000E+00
         0.00000E+00
         0.00000E+00
         0.00000E+00
         0.00000E+00
         0.00000E+00
         0.00000E+00
         0.00000E+00
         0.00000E+00
         0.00000E+00
         0.00000E+00
         0.00000E+00
         0.00000E+00
         0.00000E+00
         0.00000E+00
         0.00000E+00
         0.00000E+00
         0.00000E+00
         0.00000E+00
         0.00000E+00
         0.00000E+00
         0.00000E+00
         0.00000E+00
         0.00000E+00
         0.00000E+00
         0.00000E+00
         0.00000E+00
         0.00000E+00
         0.00000E+00
         0.00000E+00
         0.00000E+00
         0.00000E+00
         0.00000E+00
         0.00000E+00
         0.00000E+00
         0.00000E+00
         0.00000E+00
         0.00000E+00
         0.00000E+00
         0.00000E+00
         0.00000E+00
         0.00000E+00
         0.00000E+00
         0.00000E+00
         0.00000E+00
         0.00000E+00
         0.00000E+00
         0.00000E+00
         0.00000E+00
         0.00000E+00
         0.00000E+00
         0.00000E+00
         0.00000E+00
         0.00000E+00
         0.00000E+00
         0.00000E+00
         0.00000E+00
         0.00000E+00
         0.00000E+00
         0.00000E+00
         0.00000E+00
         0.00000E+00
         0.00000E+00
         0.00000E+00
         0.00000E+00
         0.00000E+00
         0.00000E+00
         0.00000E+00
         0.00000E+00
         0.00000E+00
         0.00000E+00
         0.00000E+00
         0.00000E+00
         0.00000E+00
         0.00000E+00
         0.00000E+00
         0.00000E+00
         0.00000E+00
         0.00000E+00
         0.00000E+00
         0.00000E+00
         0.00000E+00
         0.00000E+00
         0.00000E+00
         0.00000E+00
         0.00000E+00
         0.00000E+00
         0.00000E+00
         0.00000E+00
         0.00000E+00
         0.00000E+00
         0.00000E+00
         0.00000E+00
         0.00000E+00
         0.00000E+00
         0.00000E+00
         0.00000E+00
         0.00000E+00
         0.00000E+00
         0.00000E+00
         0.00000E+00
         0.00000E+00
         0.00000E+00
         0.00000E+00
         0.00000E+00
         0.00000E+00
         0.00000E+00
         0.00000E+00
         0.00000E+00
         0.00000E+00
         0.00000E+00
         0.00000E+00
         0.00000E+00
         0.00000E+00
         0.00000E+00
         0.00000E+00
         0.00000E+00
         0.00000E+00
         0.00000E+00
         0.00000E+00
         0.00000E+00
         0.00000E+00
         0.00000E+00
         0.00000E+00
         0.00000E+00
         0.00000E+00
         0.00000E+00
         0.00000E+00
         0.00000E+00
         0.00000E+00
         0.00000E+00
         0.00000E+00
         0.00000E+00
         0.00000E+00
         0.00000E+00
         0.00000E+00
         0.00000E+00
         0.00000E+00
         0.00000E+00
         0.00000E+00
         0.00000E+00
         0.00000E+00
         0.00000E+00
         0.00000E+00
         0.00000E+00
         0.00000E+00
         0.00000E+00
         0.00000E+00
         0.00000E+00
         0.00000E+00
         0.00000E+00
         0.00000E+00
         0.00000E+00
         0.00000E+00
         0.00000E+00
         0.00000E+00
         0.00000E+00
         0.00000E+00
         0.00000E+00
         0.00000E+00
         0.00000E+00
         0.00000E+00
         0.00000E+00
         0.00000E+00
  
SCALARS                     velocity_z  double 1
LOOKUP_TABLE default
        -0.37300E+03
        -0.37300E+03
        -0.37300E+03
        -0.37300E+03
         0.00000E+00
         0.00000E+00
         0.00000E+00
         0.00000E+00
        -0.37300E+03
        -0.37300E+03
         0.00000E+00
         0.00000E+00
        -0.37300E+03
        -0.37300E+03
         0.00000E+00
         0.00000E+00
        -0.37300E+03
        -0.37300E+03
         0.00000E+00
         0.00000E+00
        -0.37300E+03
        -0.37300E+03
        -0.37300E+03
         0.00000E+00
         0.00000E+00
         0.00000E+00
        -0.37300E+03
        -0.37300E+03
         0.00000E+00
         0.00000E+00
        -0.37300E+03
        -0.37300E+03
        -0.37300E+03
         0.00000E+00
         0.00000E+00
         0.00000E+00
        -0.37300E+03
        -0.37300E+03
         0.00000E+00
         0.00000E+00
        -0.37300E+03
        -0.37300E+03
         0.00000E+00
         0.00000E+00
        -0.37300E+03
        -0.37300E+03
         0.00000E+00
         0.00000E+00
        -0.37300E+03
         0.00000E+00
        -0.37300E+03
         0.00000E+00
        -0.37300E+03
         0.00000E+00
        -0.37300E+03
         0.00000E+00
        -0.37300E+03
        -0.37300E+03
         0.00000E+00
         0.00000E+00
        -0.37300E+03
        -0.37300E+03
         0.00000E+00
         0.00000E+00
        -0.37300E+03
         0.00000E+00
        -0.37300E+03
         0.00000E+00
        -0.37300E+03
        -0.37300E+03
         0.00000E+00
         0.00000E+00
        -0.37300E+03
         0.00000E+00
        -0.37300E+03
         0.00000E+00
        -0.37300E+03
         0.00000E+00
        -0.37300E+03
         0.00000E+00
        -0.37300E+03
        -0.37300E+03
         0.00000E+00
         0.00000E+00
        -0.37300E+03
         0.00000E+00
        -0.37300E+03
         0.00000E+00
        -0.37300E+03
         0.00000E+00
        -0.37300E+03
        -0.37300E+03
         0.00000E+00
         0.00000E+00
        -0.37300E+03
         0.00000E+00
        -0.37300E+03
         0.00000E+00
        -0.37300E+03
         0.00000E+00
        -0.37300E+03
        -0.37300E+03
         0.00000E+00
         0.00000E+00
        -0.37300E+03
        -0.37300E+03
         0.00000E+00
         0.00000E+00
        -0.37300E+03
         0.00000E+00
        -0.37300E+03
         0.00000E+00
        -0.37300E+03
         0.00000E+00
        -0.37300E+03
         0.00000E+00
        -0.37300E+03
         0.00000E+00
        -0.37300E+03
         0.00000E+00
        -0.37300E+03
         0.00000E+00
        -0.37300E+03
         0.00000E+00
        -0.37300E+03
         0.00000E+00
        -0.37300E+03
         0.00000E+00
        -0.37300E+03
         0.00000E+00
        -0.37300E+03
         0.00000E+00
        -0.37300E+03
         0.00000E+00
        -0.37300E+03
         0.00000E+00
        -0.37300E+03
         0.00000E+00
        -0.37300E+03
         0.00000E+00
        -0.37300E+03
         0.00000E+00
        -0.37300E+03
         0.00000E+00
        -0.37300E+03
         0.00000E+00
        -0.37300E+03
         0.00000E+00
        -0.37300E+03
         0.00000E+00
        -0.37300E+03
         0.00000E+00
        -0.37300E+03
         0.00000E+00
        -0.37300E+03
         0.00000E+00
        -0.37300E+03
        -0.37300E+03
        -0.37300E+03
        -0.37300E+03
        -0.37300E+03
        -0.37300E+03
        -0.37300E+03
        -0.37300E+03
        -0.37300E+03
        -0.37300E+03
        -0.37300E+03
        -0.37300E+03
        -0.37300E+03
        -0.37300E+03
        -0.37300E+03
        -0.37300E+03
        -0.37300E+03
        -0.37300E+03
        -0.37300E+03
        -0.37300E+03
        -0.37300E+03
        -0.37300E+03
        -0.37300E+03
        -0.37300E+03
        -0.37300E+03
        -0.37300E+03
        -0.37300E+03
        -0.37300E+03
        -0.37300E+03
        -0.37300E+03
        -0.37300E+03
        -0.37300E+03
        -0.37300E+03
        -0.37300E+03
        -0.37300E+03
        -0.37300E+03
        -0.37300E+03
        -0.37300E+03
        -0.37300E+03
        -0.37300E+03
        -0.37300E+03
        -0.37300E+03
        -0.37300E+03
        -0.37300E+03
        -0.37300E+03
        -0.37300E+03
        -0.37300E+03
        -0.37300E+03
        -0.37300E+03
        -0.37300E+03
        -0.37300E+03
        -0.37300E+03
        -0.37300E+03
        -0.37300E+03
        -0.37300E+03
        -0.37300E+03
        -0.37300E+03
        -0.37300E+03
        -0.37300E+03
        -0.37300E+03
        -0.37300E+03
        -0.37300E+03
        -0.37300E+03
        -0.37300E+03
        -0.37300E+03
        -0.37300E+03
        -0.37300E+03
        -0.37300E+03
        -0.37300E+03
        -0.37300E+03
        -0.37300E+03
        -0.37300E+03
        -0.37300E+03
        -0.37300E+03
        -0.37300E+03
        -0.37300E+03
        -0.37300E+03
        -0.37300E+03
        -0.37300E+03
        -0.37300E+03
        -0.37300E+03
        -0.37300E+03
        -0.37300E+03
        -0.37300E+03
        -0.37300E+03
        -0.37300E+03
        -0.37300E+03
        -0.37300E+03
        -0.37300E+03
        -0.37300E+03
        -0.37300E+03
        -0.37300E+03
        -0.37300E+03
        -0.37300E+03
        -0.37300E+03
        -0.37300E+03
        -0.37300E+03
        -0.37300E+03
        -0.37300E+03
        -0.37300E+03
        -0.37300E+03
        -0.37300E+03
        -0.37300E+03
        -0.37300E+03
        -0.37300E+03
        -0.37300E+03
        -0.37300E+03
        -0.37300E+03
        -0.37300E+03
        -0.37300E+03
        -0.37300E+03
        -0.37300E+03
        -0.37300E+03
        -0.37300E+03
        -0.37300E+03
        -0.37300E+03
        -0.37300E+03
        -0.37300E+03
        -0.37300E+03
        -0.37300E+03
        -0.37300E+03
        -0.37300E+03
        -0.37300E+03
        -0.37300E+03
        -0.37300E+03
        -0.37300E+03
        -0.37300E+03
        -0.37300E+03
        -0.37300E+03
        -0.37300E+03
        -0.37300E+03
        -0.37300E+03
        -0.37300E+03
        -0.37300E+03
        -0.37300E+03
        -0.37300E+03
        -0.37300E+03
        -0.37300E+03
        -0.37300E+03
        -0.37300E+03
        -0.37300E+03
        -0.37300E+03
        -0.37300E+03
        -0.37300E+03
        -0.37300E+03
        -0.37300E+03
        -0.37300E+03
        -0.37300E+03
        -0.37300E+03
        -0.37300E+03
        -0.37300E+03
        -0.37300E+03
        -0.37300E+03
        -0.37300E+03
        -0.37300E+03
        -0.37300E+03
        -0.37300E+03
        -0.37300E+03
        -0.37300E+03
        -0.37300E+03
        -0.37300E+03
        -0.37300E+03
        -0.37300E+03
        -0.37300E+03
        -0.37300E+03
        -0.37300E+03
        -0.37300E+03
        -0.37300E+03
        -0.37300E+03
        -0.37300E+03
        -0.37300E+03
        -0.37300E+03
        -0.37300E+03
        -0.37300E+03
        -0.37300E+03
        -0.37300E+03
        -0.37300E+03
        -0.37300E+03
        -0.37300E+03
        -0.37300E+03
        -0.37300E+03
        -0.37300E+03
        -0.37300E+03
        -0.37300E+03
        -0.37300E+03
        -0.37300E+03
        -0.37300E+03
        -0.37300E+03
        -0.37300E+03
        -0.37300E+03
        -0.37300E+03
        -0.37300E+03
        -0.37300E+03
        -0.37300E+03
        -0.37300E+03
        -0.37300E+03
        -0.37300E+03
        -0.37300E+03
        -0.37300E+03
        -0.37300E+03
        -0.37300E+03
        -0.37300E+03
        -0.37300E+03
        -0.37300E+03
        -0.37300E+03
        -0.37300E+03
        -0.37300E+03
        -0.37300E+03
        -0.37300E+03
        -0.37300E+03
        -0.37300E+03
        -0.37300E+03
        -0.37300E+03
        -0.37300E+03
        -0.37300E+03
        -0.37300E+03
        -0.37300E+03
        -0.37300E+03
        -0.37300E+03
        -0.37300E+03
        -0.37300E+03
        -0.37300E+03
        -0.37300E+03
        -0.37300E+03
        -0.37300E+03
        -0.37300E+03
        -0.37300E+03
        -0.37300E+03
        -0.37300E+03
        -0.37300E+03
        -0.37300E+03
        -0.37300E+03
        -0.37300E+03
        -0.37300E+03
        -0.37300E+03
        -0.37300E+03
        -0.37300E+03
        -0.37300E+03
        -0.37300E+03
        -0.37300E+03
        -0.37300E+03
        -0.37300E+03
        -0.37300E+03
        -0.37300E+03
        -0.37300E+03
        -0.37300E+03
        -0.37300E+03
        -0.37300E+03
        -0.37300E+03
        -0.37300E+03
        -0.37300E+03
        -0.37300E+03
        -0.37300E+03
        -0.37300E+03
        -0.37300E+03
        -0.37300E+03
        -0.37300E+03
        -0.37300E+03
        -0.37300E+03
        -0.37300E+03
        -0.37300E+03
        -0.37300E+03
        -0.37300E+03
        -0.37300E+03
        -0.37300E+03
        -0.37300E+03
        -0.37300E+03
        -0.37300E+03
        -0.37300E+03
        -0.37300E+03
        -0.37300E+03
        -0.37300E+03
        -0.37300E+03
        -0.37300E+03
        -0.37300E+03
        -0.37300E+03
        -0.37300E+03
        -0.37300E+03
        -0.37300E+03
        -0.37300E+03
        -0.37300E+03
        -0.37300E+03
        -0.37300E+03
        -0.37300E+03
        -0.37300E+03
        -0.37300E+03
        -0.37300E+03
        -0.37300E+03
        -0.37300E+03
        -0.37300E+03
        -0.37300E+03
        -0.37300E+03
        -0.37300E+03
        -0.37300E+03
        -0.37300E+03
        -0.37300E+03
        -0.37300E+03
        -0.37300E+03
        -0.37300E+03
        -0.37300E+03
        -0.37300E+03
        -0.37300E+03
        -0.37300E+03
        -0.37300E+03
        -0.37300E+03
        -0.37300E+03
        -0.37300E+03
        -0.37300E+03
        -0.37300E+03
        -0.37300E+03
        -0.37300E+03
        -0.37300E+03
        -0.37300E+03
        -0.37300E+03
        -0.37300E+03
        -0.37300E+03
        -0.37300E+03
        -0.37300E+03
        -0.37300E+03
        -0.37300E+03
        -0.37300E+03
        -0.37300E+03
        -0.37300E+03
        -0.37300E+03
        -0.37300E+03
        -0.37300E+03
        -0.37300E+03
        -0.37300E+03
        -0.37300E+03
        -0.37300E+03
        -0.37300E+03
        -0.37300E+03
        -0.37300E+03
        -0.37300E+03
        -0.37300E+03
        -0.37300E+03
        -0.37300E+03
        -0.37300E+03
        -0.37300E+03
        -0.37300E+03
        -0.37300E+03
        -0.37300E+03
        -0.37300E+03
        -0.37300E+03
        -0.37300E+03
        -0.37300E+03
        -0.37300E+03
        -0.37300E+03
        -0.37300E+03
        -0.37300E+03
        -0.37300E+03
        -0.37300E+03
        -0.37300E+03
        -0.37300E+03
        -0.37300E+03
        -0.37300E+03
        -0.37300E+03
        -0.37300E+03
        -0.37300E+03
        -0.37300E+03
        -0.37300E+03
        -0.37300E+03
        -0.37300E+03
        -0.37300E+03
        -0.37300E+03
        -0.37300E+03
        -0.37300E+03
        -0.37300E+03
        -0.37300E+03
        -0.37300E+03
        -0.37300E+03
        -0.37300E+03
        -0.37300E+03
        -0.37300E+03
        -0.37300E+03
        -0.37300E+03
        -0.37300E+03
        -0.37300E+03
        -0.37300E+03
        -0.37300E+03
        -0.37300E+03
        -0.37300E+03
        -0.37300E+03
        -0.37300E+03
        -0.37300E+03
        -0.37300E+03
        -0.37300E+03
        -0.37300E+03
        -0.37300E+03
        -0.37300E+03
        -0.37300E+03
        -0.37300E+03
        -0.37300E+03
        -0.37300E+03
        -0.37300E+03
        -0.37300E+03
        -0.37300E+03
        -0.37300E+03
        -0.37300E+03
        -0.37300E+03
        -0.37300E+03
        -0.37300E+03
        -0.37300E+03
        -0.37300E+03
        -0.37300E+03
        -0.37300E+03
        -0.37300E+03
        -0.37300E+03
        -0.37300E+03
        -0.37300E+03
        -0.37300E+03
        -0.37300E+03
        -0.37300E+03
        -0.37300E+03
        -0.37300E+03
        -0.37300E+03
        -0.37300E+03
        -0.37300E+03
        -0.37300E+03
        -0.37300E+03
        -0.37300E+03
        -0.37300E+03
        -0.37300E+03
        -0.37300E+03
        -0.37300E+03
        -0.37300E+03
        -0.37300E+03
        -0.37300E+03
        -0.37300E+03
        -0.37300E+03
        -0.37300E+03
        -0.37300E+03
        -0.37300E+03
        -0.37300E+03
        -0.37300E+03
        -0.37300E+03
        -0.37300E+03
        -0.37300E+03
        -0.37300E+03
        -0.37300E+03
        -0.37300E+03
        -0.37300E+03
        -0.37300E+03
        -0.37300E+03
        -0.37300E+03
        -0.37300E+03
        -0.37300E+03
        -0.37300E+03
        -0.37300E+03
        -0.37300E+03
        -0.37300E+03
        -0.37300E+03
        -0.37300E+03
        -0.37300E+03
        -0.37300E+03
        -0.37300E+03
        -0.37300E+03
        -0.37300E+03
        -0.37300E+03
        -0.37300E+03
        -0.37300E+03
        -0.37300E+03
        -0.37300E+03
        -0.37300E+03
        -0.37300E+03
        -0.37300E+03
        -0.37300E+03
        -0.37300E+03
        -0.37300E+03
        -0.37300E+03
        -0.37300E+03
        -0.37300E+03
        -0.37300E+03
        -0.37300E+03
        -0.37300E+03
        -0.37300E+03
        -0.37300E+03
        -0.37300E+03
        -0.37300E+03
        -0.37300E+03
        -0.37300E+03
        -0.37300E+03
        -0.37300E+03
        -0.37300E+03
        -0.37300E+03
        -0.37300E+03
        -0.37300E+03
        -0.37300E+03
        -0.37300E+03
        -0.37300E+03
        -0.37300E+03
        -0.37300E+03
        -0.37300E+03
        -0.37300E+03
        -0.37300E+03
        -0.37300E+03
        -0.37300E+03
        -0.37300E+03
        -0.37300E+03
        -0.37300E+03
        -0.37300E+03
        -0.37300E+03
        -0.37300E+03
        -0.37300E+03
        -0.37300E+03
        -0.37300E+03
        -0.37300E+03
        -0.37300E+03
        -0.37300E+03
        -0.37300E+03
        -0.37300E+03
        -0.37300E+03
        -0.37300E+03
        -0.37300E+03
        -0.37300E+03
        -0.37300E+03
        -0.37300E+03
        -0.37300E+03
        -0.37300E+03
        -0.37300E+03
        -0.37300E+03
        -0.37300E+03
        -0.37300E+03
        -0.37300E+03
        -0.37300E+03
        -0.37300E+03
        -0.37300E+03
        -0.37300E+03
        -0.37300E+03
        -0.37300E+03
        -0.37300E+03
        -0.37300E+03
        -0.37300E+03
        -0.37300E+03
        -0.37300E+03
        -0.37300E+03
        -0.37300E+03
        -0.37300E+03
        -0.37300E+03
        -0.37300E+03
        -0.37300E+03
        -0.37300E+03
        -0.37300E+03
        -0.37300E+03
        -0.37300E+03
        -0.37300E+03
        -0.37300E+03
        -0.37300E+03
        -0.37300E+03
        -0.37300E+03
        -0.37300E+03
        -0.37300E+03
        -0.37300E+03
        -0.37300E+03
        -0.37300E+03
        -0.37300E+03
        -0.37300E+03
        -0.37300E+03
        -0.37300E+03
        -0.37300E+03
        -0.37300E+03
        -0.37300E+03
        -0.37300E+03
        -0.37300E+03
        -0.37300E+03
        -0.37300E+03
        -0.37300E+03
        -0.37300E+03
        -0.37300E+03
        -0.37300E+03
        -0.37300E+03
        -0.37300E+03
        -0.37300E+03
        -0.37300E+03
        -0.37300E+03
        -0.37300E+03
        -0.37300E+03
        -0.37300E+03
        -0.37300E+03
        -0.37300E+03
        -0.37300E+03
        -0.37300E+03
        -0.37300E+03
        -0.37300E+03
        -0.37300E+03
        -0.37300E+03
        -0.37300E+03
        -0.37300E+03
        -0.37300E+03
        -0.37300E+03
        -0.37300E+03
        -0.37300E+03
        -0.37300E+03
        -0.37300E+03
        -0.37300E+03
        -0.37300E+03
        -0.37300E+03
        -0.37300E+03
        -0.37300E+03
        -0.37300E+03
        -0.37300E+03
        -0.37300E+03
        -0.37300E+03
        -0.37300E+03
        -0.37300E+03
        -0.37300E+03
        -0.37300E+03
        -0.37300E+03
        -0.37300E+03
        -0.37300E+03
        -0.37300E+03
        -0.37300E+03
        -0.37300E+03
        -0.37300E+03
        -0.37300E+03
        -0.37300E+03
        -0.37300E+03
        -0.37300E+03
        -0.37300E+03
        -0.37300E+03
        -0.37300E+03
        -0.37300E+03
        -0.37300E+03
        -0.37300E+03
        -0.37300E+03
        -0.37300E+03
        -0.37300E+03
        -0.37300E+03
        -0.37300E+03
        -0.37300E+03
        -0.37300E+03
        -0.37300E+03
        -0.37300E+03
        -0.37300E+03
        -0.37300E+03
        -0.37300E+03
        -0.37300E+03
        -0.37300E+03
        -0.37300E+03
        -0.37300E+03
        -0.37300E+03
        -0.37300E+03
        -0.37300E+03
        -0.37300E+03
        -0.37300E+03
        -0.37300E+03
        -0.37300E+03
        -0.37300E+03
        -0.37300E+03
        -0.37300E+03
        -0.37300E+03
        -0.37300E+03
        -0.37300E+03
        -0.37300E+03
        -0.37300E+03
        -0.37300E+03
        -0.37300E+03
        -0.37300E+03
        -0.37300E+03
        -0.37300E+03
        -0.37300E+03
        -0.37300E+03
        -0.37300E+03
        -0.37300E+03
        -0.37300E+03
        -0.37300E+03
        -0.37300E+03
        -0.37300E+03
        -0.37300E+03
        -0.37300E+03
        -0.37300E+03
        -0.37300E+03
        -0.37300E+03
        -0.37300E+03
        -0.37300E+03
        -0.37300E+03
        -0.37300E+03
        -0.37300E+03
        -0.37300E+03
        -0.37300E+03
        -0.37300E+03
        -0.37300E+03
        -0.37300E+03
        -0.37300E+03
        -0.37300E+03
        -0.37300E+03
        -0.37300E+03
        -0.37300E+03
        -0.37300E+03
        -0.37300E+03
        -0.37300E+03
        -0.37300E+03
        -0.37300E+03
        -0.37300E+03
        -0.37300E+03
        -0.37300E+03
        -0.37300E+03
        -0.37300E+03
        -0.37300E+03
        -0.37300E+03
        -0.37300E+03
        -0.37300E+03
        -0.37300E+03
        -0.37300E+03
        -0.37300E+03
        -0.37300E+03
        -0.37300E+03
        -0.37300E+03
        -0.37300E+03
        -0.37300E+03
        -0.37300E+03
        -0.37300E+03
        -0.37300E+03
        -0.37300E+03
        -0.37300E+03
        -0.37300E+03
        -0.37300E+03
        -0.37300E+03
        -0.37300E+03
        -0.37300E+03
        -0.37300E+03
        -0.37300E+03
        -0.37300E+03
        -0.37300E+03
        -0.37300E+03
        -0.37300E+03
        -0.37300E+03
        -0.37300E+03
        -0.37300E+03
        -0.37300E+03
        -0.37300E+03
        -0.37300E+03
        -0.37300E+03
        -0.37300E+03
        -0.37300E+03
        -0.37300E+03
        -0.37300E+03
        -0.37300E+03
        -0.37300E+03
        -0.37300E+03
        -0.37300E+03
        -0.37300E+03
        -0.37300E+03
        -0.37300E+03
        -0.37300E+03
        -0.37300E+03
        -0.37300E+03
        -0.37300E+03
        -0.37300E+03
        -0.37300E+03
        -0.37300E+03
        -0.37300E+03
        -0.37300E+03
        -0.37300E+03
        -0.37300E+03
        -0.37300E+03
        -0.37300E+03
        -0.37300E+03
        -0.37300E+03
        -0.37300E+03
        -0.37300E+03
        -0.37300E+03
        -0.37300E+03
        -0.37300E+03
        -0.37300E+03
        -0.37300E+03
        -0.37300E+03
        -0.37300E+03
        -0.37300E+03
        -0.37300E+03
        -0.37300E+03
        -0.37300E+03
        -0.37300E+03
        -0.37300E+03
        -0.37300E+03
        -0.37300E+03
        -0.37300E+03
        -0.37300E+03
        -0.37300E+03
        -0.37300E+03
        -0.37300E+03
        -0.37300E+03
        -0.37300E+03
        -0.37300E+03
        -0.37300E+03
        -0.37300E+03
        -0.37300E+03
        -0.37300E+03
        -0.37300E+03
        -0.37300E+03
        -0.37300E+03
        -0.37300E+03
        -0.37300E+03
        -0.37300E+03
        -0.37300E+03
        -0.37300E+03
        -0.37300E+03
        -0.37300E+03
        -0.37300E+03
        -0.37300E+03
        -0.37300E+03
        -0.37300E+03
        -0.37300E+03
        -0.37300E+03
        -0.37300E+03
        -0.37300E+03
        -0.37300E+03
        -0.37300E+03
        -0.37300E+03
        -0.37300E+03
        -0.37300E+03
        -0.37300E+03
        -0.37300E+03
        -0.37300E+03
        -0.37300E+03
        -0.37300E+03
        -0.37300E+03
        -0.37300E+03
        -0.37300E+03
        -0.37300E+03
        -0.37300E+03
        -0.37300E+03
        -0.37300E+03
        -0.37300E+03
        -0.37300E+03
        -0.37300E+03
        -0.37300E+03
        -0.37300E+03
        -0.37300E+03
        -0.37300E+03
        -0.37300E+03
        -0.37300E+03
        -0.37300E+03
        -0.37300E+03
        -0.37300E+03
        -0.37300E+03
        -0.37300E+03
        -0.37300E+03
        -0.37300E+03
        -0.37300E+03
        -0.37300E+03
        -0.37300E+03
        -0.37300E+03
        -0.37300E+03
        -0.37300E+03
        -0.37300E+03
        -0.37300E+03
        -0.37300E+03
        -0.37300E+03
        -0.37300E+03
        -0.37300E+03
        -0.37300E+03
        -0.37300E+03
        -0.37300E+03
        -0.37300E+03
        -0.37300E+03
        -0.37300E+03
        -0.37300E+03
        -0.37300E+03
        -0.37300E+03
        -0.37300E+03
        -0.37300E+03
        -0.37300E+03
        -0.37300E+03
        -0.37300E+03
        -0.37300E+03
        -0.37300E+03
        -0.37300E+03
        -0.37300E+03
        -0.37300E+03
        -0.37300E+03
        -0.37300E+03
        -0.37300E+03
        -0.37300E+03
        -0.37300E+03
        -0.37300E+03
        -0.37300E+03
        -0.37300E+03
        -0.37300E+03
        -0.37300E+03
        -0.37300E+03
        -0.37300E+03
        -0.37300E+03
        -0.37300E+03
        -0.37300E+03
        -0.37300E+03
        -0.37300E+03
        -0.37300E+03
        -0.37300E+03
        -0.37300E+03
        -0.37300E+03
        -0.37300E+03
        -0.37300E+03
        -0.37300E+03
        -0.37300E+03
        -0.37300E+03
        -0.37300E+03
        -0.37300E+03
        -0.37300E+03
        -0.37300E+03
        -0.37300E+03
        -0.37300E+03
        -0.37300E+03
        -0.37300E+03
        -0.37300E+03
        -0.37300E+03
        -0.37300E+03
        -0.37300E+03
        -0.37300E+03
        -0.37300E+03
        -0.37300E+03
        -0.37300E+03
        -0.37300E+03
        -0.37300E+03
        -0.37300E+03
        -0.37300E+03
        -0.37300E+03
        -0.37300E+03
        -0.37300E+03
        -0.37300E+03
        -0.37300E+03
        -0.37300E+03
        -0.37300E+03
        -0.37300E+03
        -0.37300E+03
        -0.37300E+03
        -0.37300E+03
        -0.37300E+03
        -0.37300E+03
        -0.37300E+03
        -0.37300E+03
        -0.37300E+03
        -0.37300E+03
        -0.37300E+03
        -0.37300E+03
        -0.37300E+03
        -0.37300E+03
        -0.37300E+03
        -0.37300E+03
        -0.37300E+03
        -0.37300E+03
        -0.37300E+03
        -0.37300E+03
        -0.37300E+03
        -0.37300E+03
        -0.37300E+03
        -0.37300E+03
        -0.37300E+03
        -0.37300E+03
        -0.37300E+03
        -0.37300E+03
        -0.37300E+03
        -0.37300E+03
        -0.37300E+03
        -0.37300E+03
        -0.37300E+03
        -0.37300E+03
        -0.37300E+03
        -0.37300E+03
        -0.37300E+03
        -0.37300E+03
        -0.37300E+03
        -0.37300E+03
        -0.37300E+03
        -0.37300E+03
        -0.37300E+03
        -0.37300E+03
        -0.37300E+03
        -0.37300E+03
        -0.37300E+03
        -0.37300E+03
        -0.37300E+03
        -0.37300E+03
        -0.37300E+03
        -0.37300E+03
        -0.37300E+03
        -0.37300E+03
        -0.37300E+03
        -0.37300E+03
        -0.37300E+03
        -0.37300E+03
        -0.37300E+03
        -0.37300E+03
        -0.37300E+03
        -0.37300E+03
        -0.37300E+03
        -0.37300E+03
        -0.37300E+03
        -0.37300E+03
        -0.37300E+03
        -0.37300E+03
        -0.37300E+03
        -0.37300E+03
        -0.37300E+03
        -0.37300E+03
        -0.37300E+03
        -0.37300E+03
        -0.37300E+03
        -0.37300E+03
        -0.37300E+03
        -0.37300E+03
        -0.37300E+03
        -0.37300E+03
        -0.37300E+03
        -0.37300E+03
        -0.37300E+03
        -0.37300E+03
        -0.37300E+03
        -0.37300E+03
        -0.37300E+03
        -0.37300E+03
        -0.37300E+03
        -0.37300E+03
        -0.37300E+03
        -0.37300E+03
        -0.37300E+03
        -0.37300E+03
        -0.37300E+03
        -0.37300E+03
        -0.37300E+03
        -0.37300E+03
        -0.37300E+03
        -0.37300E+03
        -0.37300E+03
        -0.37300E+03
        -0.37300E+03
        -0.37300E+03
        -0.37300E+03
        -0.37300E+03
        -0.37300E+03
        -0.37300E+03
        -0.37300E+03
        -0.37300E+03
        -0.37300E+03
        -0.37300E+03
        -0.37300E+03
        -0.37300E+03
        -0.37300E+03
        -0.37300E+03
        -0.37300E+03
        -0.37300E+03
        -0.37300E+03
        -0.37300E+03
        -0.37300E+03
        -0.37300E+03
        -0.37300E+03
        -0.37300E+03
        -0.37300E+03
        -0.37300E+03
        -0.37300E+03
        -0.37300E+03
        -0.37300E+03
        -0.37300E+03
        -0.37300E+03
        -0.37300E+03
        -0.37300E+03
        -0.37300E+03
        -0.37300E+03
        -0.37300E+03
        -0.37300E+03
        -0.37300E+03
        -0.37300E+03
        -0.37300E+03
        -0.37300E+03
        -0.37300E+03
        -0.37300E+03
        -0.37300E+03
        -0.37300E+03
        -0.37300E+03
        -0.37300E+03
        -0.37300E+03
        -0.37300E+03
        -0.37300E+03
        -0.37300E+03
        -0.37300E+03
        -0.37300E+03
        -0.37300E+03
        -0.37300E+03
        -0.37300E+03
        -0.37300E+03
        -0.37300E+03
        -0.37300E+03
        -0.37300E+03
        -0.37300E+03
        -0.37300E+03
        -0.37300E+03
        -0.37300E+03
        -0.37300E+03
        -0.37300E+03
        -0.37300E+03
        -0.37300E+03
        -0.37300E+03
        -0.37300E+03
        -0.37300E+03
        -0.37300E+03
        -0.37300E+03
        -0.37300E+03
        -0.37300E+03
        -0.37300E+03
        -0.37300E+03
        -0.37300E+03
        -0.37300E+03
        -0.37300E+03
        -0.37300E+03
        -0.37300E+03
        -0.37300E+03
        -0.37300E+03
        -0.37300E+03
        -0.37300E+03
        -0.37300E+03
        -0.37300E+03
        -0.37300E+03
        -0.37300E+03
        -0.37300E+03
        -0.37300E+03
        -0.37300E+03
        -0.37300E+03
        -0.37300E+03
        -0.37300E+03
        -0.37300E+03
        -0.37300E+03
        -0.37300E+03
        -0.37300E+03
        -0.37300E+03
        -0.37300E+03
        -0.37300E+03
        -0.37300E+03
        -0.37300E+03
        -0.37300E+03
        -0.37300E+03
        -0.37300E+03
        -0.37300E+03
        -0.37300E+03
        -0.37300E+03
        -0.37300E+03
        -0.37300E+03
        -0.37300E+03
        -0.37300E+03
        -0.37300E+03
        -0.37300E+03
        -0.37300E+03
        -0.37300E+03
        -0.37300E+03
        -0.37300E+03
        -0.37300E+03
        -0.37300E+03
        -0.37300E+03
        -0.37300E+03
        -0.37300E+03
        -0.37300E+03
        -0.37300E+03
        -0.37300E+03
        -0.37300E+03
        -0.37300E+03
        -0.37300E+03
        -0.37300E+03
        -0.37300E+03
        -0.37300E+03
        -0.37300E+03
        -0.37300E+03
        -0.37300E+03
        -0.37300E+03
        -0.37300E+03
        -0.37300E+03
        -0.37300E+03
        -0.37300E+03
        -0.37300E+03
        -0.37300E+03
        -0.37300E+03
        -0.37300E+03
        -0.37300E+03
        -0.37300E+03
        -0.37300E+03
        -0.37300E+03
        -0.37300E+03
        -0.37300E+03
        -0.37300E+03
        -0.37300E+03
        -0.37300E+03
        -0.37300E+03
        -0.37300E+03
        -0.37300E+03
        -0.37300E+03
        -0.37300E+03
        -0.37300E+03
        -0.37300E+03
        -0.37300E+03
        -0.37300E+03
        -0.37300E+03
        -0.37300E+03
        -0.37300E+03
        -0.37300E+03
        -0.37300E+03
        -0.37300E+03
        -0.37300E+03
        -0.37300E+03
        -0.37300E+03
        -0.37300E+03
        -0.37300E+03
        -0.37300E+03
        -0.37300E+03
        -0.37300E+03
        -0.37300E+03
        -0.37300E+03
        -0.37300E+03
        -0.37300E+03
        -0.37300E+03
        -0.37300E+03
        -0.37300E+03
        -0.37300E+03
        -0.37300E+03
        -0.37300E+03
        -0.37300E+03
        -0.37300E+03
        -0.37300E+03
        -0.37300E+03
        -0.37300E+03
        -0.37300E+03
        -0.37300E+03
        -0.37300E+03
        -0.37300E+03
        -0.37300E+03
        -0.37300E+03
        -0.37300E+03
        -0.37300E+03
        -0.37300E+03
        -0.37300E+03
        -0.37300E+03
        -0.37300E+03
        -0.37300E+03
        -0.37300E+03
        -0.37300E+03
        -0.37300E+03
        -0.37300E+03
        -0.37300E+03
        -0.37300E+03
        -0.37300E+03
        -0.37300E+03
        -0.37300E+03
        -0.37300E+03
        -0.37300E+03
        -0.37300E+03
        -0.37300E+03
        -0.37300E+03
        -0.37300E+03
        -0.37300E+03
        -0.37300E+03
        -0.37300E+03
        -0.37300E+03
        -0.37300E+03
        -0.37300E+03
        -0.37300E+03
        -0.37300E+03
        -0.37300E+03
        -0.37300E+03
        -0.37300E+03
        -0.37300E+03
        -0.37300E+03
        -0.37300E+03
        -0.37300E+03
        -0.37300E+03
        -0.37300E+03
        -0.37300E+03
        -0.37300E+03
        -0.37300E+03
        -0.37300E+03
        -0.37300E+03
        -0.37300E+03
        -0.37300E+03
        -0.37300E+03
        -0.37300E+03
        -0.37300E+03
        -0.37300E+03
        -0.37300E+03
        -0.37300E+03
        -0.37300E+03
        -0.37300E+03
        -0.37300E+03
        -0.37300E+03
        -0.37300E+03
        -0.37300E+03
        -0.37300E+03
        -0.37300E+03
        -0.37300E+03
        -0.37300E+03
        -0.37300E+03
        -0.37300E+03
        -0.37300E+03
        -0.37300E+03
        -0.37300E+03
        -0.37300E+03
        -0.37300E+03
        -0.37300E+03
        -0.37300E+03
        -0.37300E+03
        -0.37300E+03
        -0.37300E+03
        -0.37300E+03
        -0.37300E+03
        -0.37300E+03
        -0.37300E+03
        -0.37300E+03
        -0.37300E+03
        -0.37300E+03
        -0.37300E+03
        -0.37300E+03
        -0.37300E+03
        -0.37300E+03
        -0.37300E+03
        -0.37300E+03
        -0.37300E+03
        -0.37300E+03
        -0.37300E+03
        -0.37300E+03
        -0.37300E+03
        -0.37300E+03
        -0.37300E+03
        -0.37300E+03
        -0.37300E+03
        -0.37300E+03
        -0.37300E+03
        -0.37300E+03
        -0.37300E+03
        -0.37300E+03
        -0.37300E+03
        -0.37300E+03
        -0.37300E+03
        -0.37300E+03
        -0.37300E+03
        -0.37300E+03
        -0.37300E+03
        -0.37300E+03
        -0.37300E+03
        -0.37300E+03
        -0.37300E+03
        -0.37300E+03
        -0.37300E+03
        -0.37300E+03
        -0.37300E+03
        -0.37300E+03
        -0.37300E+03
        -0.37300E+03
        -0.37300E+03
        -0.37300E+03
        -0.37300E+03
        -0.37300E+03
        -0.37300E+03
        -0.37300E+03
        -0.37300E+03
        -0.37300E+03
        -0.37300E+03
        -0.37300E+03
        -0.37300E+03
        -0.37300E+03
        -0.37300E+03
        -0.37300E+03
        -0.37300E+03
        -0.37300E+03
        -0.37300E+03
        -0.37300E+03
        -0.37300E+03
        -0.37300E+03
        -0.37300E+03
        -0.37300E+03
        -0.37300E+03
        -0.37300E+03
        -0.37300E+03
        -0.37300E+03
        -0.37300E+03
        -0.37300E+03
        -0.37300E+03
        -0.37300E+03
        -0.37300E+03
        -0.37300E+03
        -0.37300E+03
        -0.37300E+03
        -0.37300E+03
        -0.37300E+03
        -0.37300E+03
        -0.37300E+03
        -0.37300E+03
        -0.37300E+03
        -0.37300E+03
        -0.37300E+03
        -0.37300E+03
        -0.37300E+03
        -0.37300E+03
        -0.37300E+03
        -0.37300E+03
        -0.37300E+03
        -0.37300E+03
        -0.37300E+03
        -0.37300E+03
        -0.37300E+03
        -0.37300E+03
        -0.37300E+03
        -0.37300E+03
        -0.37300E+03
        -0.37300E+03
        -0.37300E+03
        -0.37300E+03
        -0.37300E+03
        -0.37300E+03
        -0.37300E+03
        -0.37300E+03
        -0.37300E+03
        -0.37300E+03
        -0.37300E+03
        -0.37300E+03
        -0.37300E+03
        -0.37300E+03
        -0.37300E+03
        -0.37300E+03
        -0.37300E+03
        -0.37300E+03
        -0.37300E+03
        -0.37300E+03
        -0.37300E+03
        -0.37300E+03
        -0.37300E+03
        -0.37300E+03
        -0.37300E+03
        -0.37300E+03
        -0.37300E+03
        -0.37300E+03
        -0.37300E+03
        -0.37300E+03
        -0.37300E+03
        -0.37300E+03
        -0.37300E+03
        -0.37300E+03
        -0.37300E+03
        -0.37300E+03
        -0.37300E+03
        -0.37300E+03
        -0.37300E+03
        -0.37300E+03
        -0.37300E+03
        -0.37300E+03
        -0.37300E+03
        -0.37300E+03
        -0.37300E+03
        -0.37300E+03
        -0.37300E+03
        -0.37300E+03
        -0.37300E+03
        -0.37300E+03
        -0.37300E+03
        -0.37300E+03
        -0.37300E+03
        -0.37300E+03
        -0.37300E+03
        -0.37300E+03
        -0.37300E+03
        -0.37300E+03
        -0.37300E+03
        -0.37300E+03
        -0.37300E+03
        -0.37300E+03
        -0.37300E+03
        -0.37300E+03
        -0.37300E+03
        -0.37300E+03
        -0.37300E+03
        -0.37300E+03
        -0.37300E+03
        -0.37300E+03
        -0.37300E+03
        -0.37300E+03
        -0.37300E+03
        -0.37300E+03
        -0.37300E+03
        -0.37300E+03
        -0.37300E+03
        -0.37300E+03
        -0.37300E+03
        -0.37300E+03
        -0.37300E+03
        -0.37300E+03
        -0.37300E+03
        -0.37300E+03
        -0.37300E+03
        -0.37300E+03
        -0.37300E+03
        -0.37300E+03
        -0.37300E+03
        -0.37300E+03
        -0.37300E+03
        -0.37300E+03
        -0.37300E+03
        -0.37300E+03
        -0.37300E+03
        -0.37300E+03
        -0.37300E+03
        -0.37300E+03
        -0.37300E+03
        -0.37300E+03
        -0.37300E+03
        -0.37300E+03
        -0.37300E+03
        -0.37300E+03
        -0.37300E+03
        -0.37300E+03
        -0.37300E+03
        -0.37300E+03
        -0.37300E+03
        -0.37300E+03
        -0.37300E+03
        -0.37300E+03
        -0.37300E+03
        -0.37300E+03
        -0.37300E+03
        -0.37300E+03
        -0.37300E+03
        -0.37300E+03
        -0.37300E+03
        -0.37300E+03
        -0.37300E+03
        -0.37300E+03
        -0.37300E+03
        -0.37300E+03
        -0.37300E+03
        -0.37300E+03
        -0.37300E+03
        -0.37300E+03
        -0.37300E+03
        -0.37300E+03
        -0.37300E+03
        -0.37300E+03
        -0.37300E+03
        -0.37300E+03
        -0.37300E+03
        -0.37300E+03
        -0.37300E+03
        -0.37300E+03
        -0.37300E+03
        -0.37300E+03
        -0.37300E+03
        -0.37300E+03
        -0.37300E+03
        -0.37300E+03
        -0.37300E+03
        -0.37300E+03
        -0.37300E+03
        -0.37300E+03
        -0.37300E+03
        -0.37300E+03
        -0.37300E+03
        -0.37300E+03
        -0.37300E+03
        -0.37300E+03
        -0.37300E+03
        -0.37300E+03
        -0.37300E+03
        -0.37300E+03
        -0.37300E+03
        -0.37300E+03
        -0.37300E+03
        -0.37300E+03
        -0.37300E+03
        -0.37300E+03
        -0.37300E+03
        -0.37300E+03
        -0.37300E+03
        -0.37300E+03
        -0.37300E+03
        -0.37300E+03
        -0.37300E+03
        -0.37300E+03
        -0.37300E+03
        -0.37300E+03
        -0.37300E+03
        -0.37300E+03
        -0.37300E+03
        -0.37300E+03
        -0.37300E+03
        -0.37300E+03
        -0.37300E+03
        -0.37300E+03
        -0.37300E+03
        -0.37300E+03
        -0.37300E+03
        -0.37300E+03
        -0.37300E+03
        -0.37300E+03
        -0.37300E+03
        -0.37300E+03
        -0.37300E+03
        -0.37300E+03
        -0.37300E+03
        -0.37300E+03
        -0.37300E+03
        -0.37300E+03
        -0.37300E+03
        -0.37300E+03
        -0.37300E+03
        -0.37300E+03
        -0.37300E+03
        -0.37300E+03
        -0.37300E+03
        -0.37300E+03
        -0.37300E+03
        -0.37300E+03
        -0.37300E+03
        -0.37300E+03
        -0.37300E+03
        -0.37300E+03
        -0.37300E+03
        -0.37300E+03
        -0.37300E+03
        -0.37300E+03
        -0.37300E+03
        -0.37300E+03
        -0.37300E+03
        -0.37300E+03
        -0.37300E+03
        -0.37300E+03
        -0.37300E+03
        -0.37300E+03
        -0.37300E+03
        -0.37300E+03
        -0.37300E+03
        -0.37300E+03
        -0.37300E+03
        -0.37300E+03
        -0.37300E+03
        -0.37300E+03
        -0.37300E+03
        -0.37300E+03
        -0.37300E+03
        -0.37300E+03
        -0.37300E+03
        -0.37300E+03
        -0.37300E+03
        -0.37300E+03
        -0.37300E+03
        -0.37300E+03
        -0.37300E+03
        -0.37300E+03
        -0.37300E+03
        -0.37300E+03
        -0.37300E+03
        -0.37300E+03
        -0.37300E+03
        -0.37300E+03
        -0.37300E+03
        -0.37300E+03
        -0.37300E+03
        -0.37300E+03
        -0.37300E+03
        -0.37300E+03
        -0.37300E+03
        -0.37300E+03
        -0.37300E+03
        -0.37300E+03
        -0.37300E+03
        -0.37300E+03
        -0.37300E+03
        -0.37300E+03
        -0.37300E+03
        -0.37300E+03
        -0.37300E+03
        -0.37300E+03
        -0.37300E+03
        -0.37300E+03
        -0.37300E+03
        -0.37300E+03
        -0.37300E+03
        -0.37300E+03
        -0.37300E+03
        -0.37300E+03
        -0.37300E+03
        -0.37300E+03
        -0.37300E+03
        -0.37300E+03
        -0.37300E+03
        -0.37300E+03
        -0.37300E+03
        -0.37300E+03
        -0.37300E+03
        -0.37300E+03
        -0.37300E+03
        -0.37300E+03
        -0.37300E+03
        -0.37300E+03
        -0.37300E+03
        -0.37300E+03
        -0.37300E+03
        -0.37300E+03
        -0.37300E+03
        -0.37300E+03
        -0.37300E+03
        -0.37300E+03
        -0.37300E+03
        -0.37300E+03
        -0.37300E+03
        -0.37300E+03
        -0.37300E+03
        -0.37300E+03
        -0.37300E+03
        -0.37300E+03
        -0.37300E+03
        -0.37300E+03
        -0.37300E+03
        -0.37300E+03
        -0.37300E+03
        -0.37300E+03
        -0.37300E+03
        -0.37300E+03
        -0.37300E+03
        -0.37300E+03
        -0.37300E+03
        -0.37300E+03
        -0.37300E+03
        -0.37300E+03
        -0.37300E+03
        -0.37300E+03
        -0.37300E+03
        -0.37300E+03
        -0.37300E+03
        -0.37300E+03
        -0.37300E+03
        -0.37300E+03
        -0.37300E+03
        -0.37300E+03
        -0.37300E+03
        -0.37300E+03
        -0.37300E+03
        -0.37300E+03
        -0.37300E+03
        -0.37300E+03
        -0.37300E+03
        -0.37300E+03
        -0.37300E+03
        -0.37300E+03
        -0.37300E+03
        -0.37300E+03
        -0.37300E+03
        -0.37300E+03
        -0.37300E+03
        -0.37300E+03
        -0.37300E+03
        -0.37300E+03
        -0.37300E+03
        -0.37300E+03
        -0.37300E+03
        -0.37300E+03
        -0.37300E+03
        -0.37300E+03
        -0.37300E+03
        -0.37300E+03
        -0.37300E+03
        -0.37300E+03
        -0.37300E+03
        -0.37300E+03
        -0.37300E+03
        -0.37300E+03
        -0.37300E+03
        -0.37300E+03
        -0.37300E+03
        -0.37300E+03
        -0.37300E+03
        -0.37300E+03
        -0.37300E+03
        -0.37300E+03
        -0.37300E+03
        -0.37300E+03
        -0.37300E+03
        -0.37300E+03
        -0.37300E+03
        -0.37300E+03
        -0.37300E+03
        -0.37300E+03
        -0.37300E+03
        -0.37300E+03
        -0.37300E+03
        -0.37300E+03
        -0.37300E+03
        -0.37300E+03
        -0.37300E+03
        -0.37300E+03
        -0.37300E+03
        -0.37300E+03
        -0.37300E+03
        -0.37300E+03
        -0.37300E+03
        -0.37300E+03
        -0.37300E+03
        -0.37300E+03
        -0.37300E+03
        -0.37300E+03
        -0.37300E+03
        -0.37300E+03
        -0.37300E+03
  
SCALARS                 acceleration_x  double 1
LOOKUP_TABLE default
         0.00000E+00
         0.00000E+00
         0.00000E+00
         0.00000E+00
         0.00000E+00
         0.00000E+00
         0.00000E+00
         0.00000E+00
         0.00000E+00
         0.00000E+00
         0.00000E+00
         0.00000E+00
         0.00000E+00
         0.00000E+00
         0.00000E+00
         0.00000E+00
         0.00000E+00
         0.00000E+00
         0.00000E+00
         0.00000E+00
         0.00000E+00
         0.00000E+00
         0.00000E+00
         0.00000E+00
         0.00000E+00
         0.00000E+00
         0.00000E+00
         0.00000E+00
         0.00000E+00
         0.00000E+00
         0.00000E+00
         0.00000E+00
         0.00000E+00
         0.00000E+00
         0.00000E+00
         0.00000E+00
         0.00000E+00
         0.00000E+00
         0.00000E+00
         0.00000E+00
         0.00000E+00
         0.00000E+00
         0.00000E+00
         0.00000E+00
         0.00000E+00
         0.00000E+00
         0.00000E+00
         0.00000E+00
         0.00000E+00
         0.00000E+00
         0.00000E+00
         0.00000E+00
         0.00000E+00
         0.00000E+00
         0.00000E+00
         0.00000E+00
         0.00000E+00
         0.00000E+00
         0.00000E+00
         0.00000E+00
         0.00000E+00
         0.00000E+00
         0.00000E+00
         0.00000E+00
         0.00000E+00
         0.00000E+00
         0.00000E+00
         0.00000E+00
         0.00000E+00
         0.00000E+00
         0.00000E+00
         0.00000E+00
         0.00000E+00
         0.00000E+00
         0.00000E+00
         0.00000E+00
         0.00000E+00
         0.00000E+00
         0.00000E+00
         0.00000E+00
         0.00000E+00
         0.00000E+00
         0.00000E+00
         0.00000E+00
         0.00000E+00
         0.00000E+00
         0.00000E+00
         0.00000E+00
         0.00000E+00
         0.00000E+00
         0.00000E+00
         0.00000E+00
         0.00000E+00
         0.00000E+00
         0.00000E+00
         0.00000E+00
         0.00000E+00
         0.00000E+00
         0.00000E+00
         0.00000E+00
         0.00000E+00
         0.00000E+00
         0.00000E+00
         0.00000E+00
         0.00000E+00
         0.00000E+00
         0.00000E+00
         0.00000E+00
         0.00000E+00
         0.00000E+00
         0.00000E+00
         0.00000E+00
         0.00000E+00
         0.00000E+00
         0.00000E+00
         0.00000E+00
         0.00000E+00
         0.00000E+00
         0.00000E+00
         0.00000E+00
         0.00000E+00
         0.00000E+00
         0.00000E+00
         0.00000E+00
         0.00000E+00
         0.00000E+00
         0.00000E+00
         0.00000E+00
         0.00000E+00
         0.00000E+00
         0.00000E+00
         0.00000E+00
         0.00000E+00
         0.00000E+00
         0.00000E+00
         0.00000E+00
         0.00000E+00
         0.00000E+00
         0.00000E+00
         0.00000E+00
         0.00000E+00
         0.00000E+00
         0.00000E+00
         0.00000E+00
         0.00000E+00
         0.00000E+00
         0.00000E+00
         0.00000E+00
         0.00000E+00
         0.00000E+00
         0.00000E+00
         0.00000E+00
         0.00000E+00
         0.00000E+00
         0.00000E+00
         0.00000E+00
         0.00000E+00
         0.00000E+00
         0.00000E+00
         0.00000E+00
         0.00000E+00
         0.00000E+00
         0.00000E+00
         0.00000E+00
         0.00000E+00
         0.00000E+00
         0.00000E+00
         0.00000E+00
         0.00000E+00
         0.00000E+00
         0.00000E+00
         0.00000E+00
         0.00000E+00
         0.00000E+00
         0.00000E+00
         0.00000E+00
         0.00000E+00
         0.00000E+00
         0.00000E+00
         0.00000E+00
         0.00000E+00
         0.00000E+00
         0.00000E+00
         0.00000E+00
         0.00000E+00
         0.00000E+00
         0.00000E+00
         0.00000E+00
         0.00000E+00
         0.00000E+00
         0.00000E+00
         0.00000E+00
         0.00000E+00
         0.00000E+00
         0.00000E+00
         0.00000E+00
         0.00000E+00
         0.00000E+00
         0.00000E+00
         0.00000E+00
         0.00000E+00
         0.00000E+00
         0.00000E+00
         0.00000E+00
         0.00000E+00
         0.00000E+00
         0.00000E+00
         0.00000E+00
         0.00000E+00
         0.00000E+00
         0.00000E+00
         0.00000E+00
         0.00000E+00
         0.00000E+00
         0.00000E+00
         0.00000E+00
         0.00000E+00
         0.00000E+00
         0.00000E+00
         0.00000E+00
         0.00000E+00
         0.00000E+00
         0.00000E+00
         0.00000E+00
         0.00000E+00
         0.00000E+00
         0.00000E+00
         0.00000E+00
         0.00000E+00
         0.00000E+00
         0.00000E+00
         0.00000E+00
         0.00000E+00
         0.00000E+00
         0.00000E+00
         0.00000E+00
         0.00000E+00
         0.00000E+00
         0.00000E+00
         0.00000E+00
         0.00000E+00
         0.00000E+00
         0.00000E+00
         0.00000E+00
         0.00000E+00
         0.00000E+00
         0.00000E+00
         0.00000E+00
         0.00000E+00
         0.00000E+00
         0.00000E+00
         0.00000E+00
         0.00000E+00
         0.00000E+00
         0.00000E+00
         0.00000E+00
         0.00000E+00
         0.00000E+00
         0.00000E+00
         0.00000E+00
         0.00000E+00
         0.00000E+00
         0.00000E+00
         0.00000E+00
         0.00000E+00
         0.00000E+00
         0.00000E+00
         0.00000E+00
         0.00000E+00
         0.00000E+00
         0.00000E+00
         0.00000E+00
         0.00000E+00
         0.00000E+00
         0.00000E+00
         0.00000E+00
         0.00000E+00
         0.00000E+00
         0.00000E+00
         0.00000E+00
         0.00000E+00
         0.00000E+00
         0.00000E+00
         0.00000E+00
         0.00000E+00
         0.00000E+00
         0.00000E+00
         0.00000E+00
         0.00000E+00
         0.00000E+00
         0.00000E+00
         0.00000E+00
         0.00000E+00
         0.00000E+00
         0.00000E+00
         0.00000E+00
         0.00000E+00
         0.00000E+00
         0.00000E+00
         0.00000E+00
         0.00000E+00
         0.00000E+00
         0.00000E+00
         0.00000E+00
         0.00000E+00
         0.00000E+00
         0.00000E+00
         0.00000E+00
         0.00000E+00
         0.00000E+00
         0.00000E+00
         0.00000E+00
         0.00000E+00
         0.00000E+00
         0.00000E+00
         0.00000E+00
         0.00000E+00
         0.00000E+00
         0.00000E+00
         0.00000E+00
         0.00000E+00
         0.00000E+00
         0.00000E+00
         0.00000E+00
         0.00000E+00
         0.00000E+00
         0.00000E+00
         0.00000E+00
         0.00000E+00
         0.00000E+00
         0.00000E+00
         0.00000E+00
         0.00000E+00
         0.00000E+00
         0.00000E+00
         0.00000E+00
         0.00000E+00
         0.00000E+00
         0.00000E+00
         0.00000E+00
         0.00000E+00
         0.00000E+00
         0.00000E+00
         0.00000E+00
         0.00000E+00
         0.00000E+00
         0.00000E+00
         0.00000E+00
         0.00000E+00
         0.00000E+00
         0.00000E+00
         0.00000E+00
         0.00000E+00
         0.00000E+00
         0.00000E+00
         0.00000E+00
         0.00000E+00
         0.00000E+00
         0.00000E+00
         0.00000E+00
         0.00000E+00
         0.00000E+00
         0.00000E+00
         0.00000E+00
         0.00000E+00
         0.00000E+00
         0.00000E+00
         0.00000E+00
         0.00000E+00
         0.00000E+00
         0.00000E+00
         0.00000E+00
         0.00000E+00
         0.00000E+00
         0.00000E+00
         0.00000E+00
         0.00000E+00
         0.00000E+00
         0.00000E+00
         0.00000E+00
         0.00000E+00
         0.00000E+00
         0.00000E+00
         0.00000E+00
         0.00000E+00
         0.00000E+00
         0.00000E+00
         0.00000E+00
         0.00000E+00
         0.00000E+00
         0.00000E+00
         0.00000E+00
         0.00000E+00
         0.00000E+00
         0.00000E+00
         0.00000E+00
         0.00000E+00
         0.00000E+00
         0.00000E+00
         0.00000E+00
         0.00000E+00
         0.00000E+00
         0.00000E+00
         0.00000E+00
         0.00000E+00
         0.00000E+00
         0.00000E+00
         0.00000E+00
         0.00000E+00
         0.00000E+00
         0.00000E+00
         0.00000E+00
         0.00000E+00
         0.00000E+00
         0.00000E+00
         0.00000E+00
         0.00000E+00
         0.00000E+00
         0.00000E+00
         0.00000E+00
         0.00000E+00
         0.00000E+00
         0.00000E+00
         0.00000E+00
         0.00000E+00
         0.00000E+00
         0.00000E+00
         0.00000E+00
         0.00000E+00
         0.00000E+00
         0.00000E+00
         0.00000E+00
         0.00000E+00
         0.00000E+00
         0.00000E+00
         0.00000E+00
         0.00000E+00
         0.00000E+00
         0.00000E+00
         0.00000E+00
         0.00000E+00
         0.00000E+00
         0.00000E+00
         0.00000E+00
         0.00000E+00
         0.00000E+00
         0.00000E+00
         0.00000E+00
         0.00000E+00
         0.00000E+00
         0.00000E+00
         0.00000E+00
         0.00000E+00
         0.00000E+00
         0.00000E+00
         0.00000E+00
         0.00000E+00
         0.00000E+00
         0.00000E+00
         0.00000E+00
         0.00000E+00
         0.00000E+00
         0.00000E+00
         0.00000E+00
         0.00000E+00
         0.00000E+00
         0.00000E+00
         0.00000E+00
         0.00000E+00
         0.00000E+00
         0.00000E+00
         0.00000E+00
         0.00000E+00
         0.00000E+00
         0.00000E+00
         0.00000E+00
         0.00000E+00
         0.00000E+00
         0.00000E+00
         0.00000E+00
         0.00000E+00
         0.00000E+00
         0.00000E+00
         0.00000E+00
         0.00000E+00
         0.00000E+00
         0.00000E+00
         0.00000E+00
         0.00000E+00
         0.00000E+00
         0.00000E+00
         0.00000E+00
         0.00000E+00
         0.00000E+00
         0.00000E+00
         0.00000E+00
         0.00000E+00
         0.00000E+00
         0.00000E+00
         0.00000E+00
         0.00000E+00
         0.00000E+00
         0.00000E+00
         0.00000E+00
         0.00000E+00
         0.00000E+00
         0.00000E+00
         0.00000E+00
         0.00000E+00
         0.00000E+00
         0.00000E+00
         0.00000E+00
         0.00000E+00
         0.00000E+00
         0.00000E+00
         0.00000E+00
         0.00000E+00
         0.00000E+00
         0.00000E+00
         0.00000E+00
         0.00000E+00
         0.00000E+00
         0.00000E+00
         0.00000E+00
         0.00000E+00
         0.00000E+00
         0.00000E+00
         0.00000E+00
         0.00000E+00
         0.00000E+00
         0.00000E+00
         0.00000E+00
         0.00000E+00
         0.00000E+00
         0.00000E+00
         0.00000E+00
         0.00000E+00
         0.00000E+00
         0.00000E+00
         0.00000E+00
         0.00000E+00
         0.00000E+00
         0.00000E+00
         0.00000E+00
         0.00000E+00
         0.00000E+00
         0.00000E+00
         0.00000E+00
         0.00000E+00
         0.00000E+00
         0.00000E+00
         0.00000E+00
         0.00000E+00
         0.00000E+00
         0.00000E+00
         0.00000E+00
         0.00000E+00
         0.00000E+00
         0.00000E+00
         0.00000E+00
         0.00000E+00
         0.00000E+00
         0.00000E+00
         0.00000E+00
         0.00000E+00
         0.00000E+00
         0.00000E+00
         0.00000E+00
         0.00000E+00
         0.00000E+00
         0.00000E+00
         0.00000E+00
         0.00000E+00
         0.00000E+00
         0.00000E+00
         0.00000E+00
         0.00000E+00
         0.00000E+00
         0.00000E+00
         0.00000E+00
         0.00000E+00
         0.00000E+00
         0.00000E+00
         0.00000E+00
         0.00000E+00
         0.00000E+00
         0.00000E+00
         0.00000E+00
         0.00000E+00
         0.00000E+00
         0.00000E+00
         0.00000E+00
         0.00000E+00
         0.00000E+00
         0.00000E+00
         0.00000E+00
         0.00000E+00
         0.00000E+00
         0.00000E+00
         0.00000E+00
         0.00000E+00
         0.00000E+00
         0.00000E+00
         0.00000E+00
         0.00000E+00
         0.00000E+00
         0.00000E+00
         0.00000E+00
         0.00000E+00
         0.00000E+00
         0.00000E+00
         0.00000E+00
         0.00000E+00
         0.00000E+00
         0.00000E+00
         0.00000E+00
         0.00000E+00
         0.00000E+00
         0.00000E+00
         0.00000E+00
         0.00000E+00
         0.00000E+00
         0.00000E+00
         0.00000E+00
         0.00000E+00
         0.00000E+00
         0.00000E+00
         0.00000E+00
         0.00000E+00
         0.00000E+00
         0.00000E+00
         0.00000E+00
         0.00000E+00
         0.00000E+00
         0.00000E+00
         0.00000E+00
         0.00000E+00
         0.00000E+00
         0.00000E+00
         0.00000E+00
         0.00000E+00
         0.00000E+00
         0.00000E+00
         0.00000E+00
         0.00000E+00
         0.00000E+00
         0.00000E+00
         0.00000E+00
         0.00000E+00
         0.00000E+00
         0.00000E+00
         0.00000E+00
         0.00000E+00
         0.00000E+00
         0.00000E+00
         0.00000E+00
         0.00000E+00
         0.00000E+00
         0.00000E+00
         0.00000E+00
         0.00000E+00
         0.00000E+00
         0.00000E+00
         0.00000E+00
         0.00000E+00
         0.00000E+00
         0.00000E+00
         0.00000E+00
         0.00000E+00
         0.00000E+00
         0.00000E+00
         0.00000E+00
         0.00000E+00
         0.00000E+00
         0.00000E+00
         0.00000E+00
         0.00000E+00
         0.00000E+00
         0.00000E+00
         0.00000E+00
         0.00000E+00
         0.00000E+00
         0.00000E+00
         0.00000E+00
         0.00000E+00
         0.00000E+00
         0.00000E+00
         0.00000E+00
         0.00000E+00
         0.00000E+00
         0.00000E+00
         0.00000E+00
         0.00000E+00
         0.00000E+00
         0.00000E+00
         0.00000E+00
         0.00000E+00
         0.00000E+00
         0.00000E+00
         0.00000E+00
         0.00000E+00
         0.00000E+00
         0.00000E+00
         0.00000E+00
         0.00000E+00
         0.00000E+00
         0.00000E+00
         0.00000E+00
         0.00000E+00
         0.00000E+00
         0.00000E+00
         0.00000E+00
         0.00000E+00
         0.00000E+00
         0.00000E+00
         0.00000E+00
         0.00000E+00
         0.00000E+00
         0.00000E+00
         0.00000E+00
         0.00000E+00
         0.00000E+00
         0.00000E+00
         0.00000E+00
         0.00000E+00
         0.00000E+00
         0.00000E+00
         0.00000E+00
         0.00000E+00
         0.00000E+00
         0.00000E+00
         0.00000E+00
         0.00000E+00
         0.00000E+00
         0.00000E+00
         0.00000E+00
         0.00000E+00
         0.00000E+00
         0.00000E+00
         0.00000E+00
         0.00000E+00
         0.00000E+00
         0.00000E+00
         0.00000E+00
         0.00000E+00
         0.00000E+00
         0.00000E+00
         0.00000E+00
         0.00000E+00
         0.00000E+00
         0.00000E+00
         0.00000E+00
         0.00000E+00
         0.00000E+00
         0.00000E+00
         0.00000E+00
         0.00000E+00
         0.00000E+00
         0.00000E+00
         0.00000E+00
         0.00000E+00
         0.00000E+00
         0.00000E+00
         0.00000E+00
         0.00000E+00
         0.00000E+00
         0.00000E+00
         0.00000E+00
         0.00000E+00
         0.00000E+00
         0.00000E+00
         0.00000E+00
         0.00000E+00
         0.00000E+00
         0.00000E+00
         0.00000E+00
         0.00000E+00
         0.00000E+00
         0.00000E+00
         0.00000E+00
         0.00000E+00
         0.00000E+00
         0.00000E+00
         0.00000E+00
         0.00000E+00
         0.00000E+00
         0.00000E+00
         0.00000E+00
         0.00000E+00
         0.00000E+00
         0.00000E+00
         0.00000E+00
         0.00000E+00
         0.00000E+00
         0.00000E+00
         0.00000E+00
         0.00000E+00
         0.00000E+00
         0.00000E+00
         0.00000E+00
         0.00000E+00
         0.00000E+00
         0.00000E+00
         0.00000E+00
         0.00000E+00
         0.00000E+00
         0.00000E+00
         0.00000E+00
         0.00000E+00
         0.00000E+00
         0.00000E+00
         0.00000E+00
         0.00000E+00
         0.00000E+00
         0.00000E+00
         0.00000E+00
         0.00000E+00
         0.00000E+00
         0.00000E+00
         0.00000E+00
         0.00000E+00
         0.00000E+00
         0.00000E+00
         0.00000E+00
         0.00000E+00
         0.00000E+00
         0.00000E+00
         0.00000E+00
         0.00000E+00
         0.00000E+00
         0.00000E+00
         0.00000E+00
         0.00000E+00
         0.00000E+00
         0.00000E+00
         0.00000E+00
         0.00000E+00
         0.00000E+00
         0.00000E+00
         0.00000E+00
         0.00000E+00
         0.00000E+00
         0.00000E+00
         0.00000E+00
         0.00000E+00
         0.00000E+00
         0.00000E+00
         0.00000E+00
         0.00000E+00
         0.00000E+00
         0.00000E+00
         0.00000E+00
         0.00000E+00
         0.00000E+00
         0.00000E+00
         0.00000E+00
         0.00000E+00
         0.00000E+00
         0.00000E+00
         0.00000E+00
         0.00000E+00
         0.00000E+00
         0.00000E+00
         0.00000E+00
         0.00000E+00
         0.00000E+00
         0.00000E+00
         0.00000E+00
         0.00000E+00
         0.00000E+00
         0.00000E+00
         0.00000E+00
         0.00000E+00
         0.00000E+00
         0.00000E+00
         0.00000E+00
         0.00000E+00
         0.00000E+00
         0.00000E+00
         0.00000E+00
         0.00000E+00
         0.00000E+00
         0.00000E+00
         0.00000E+00
         0.00000E+00
         0.00000E+00
         0.00000E+00
         0.00000E+00
         0.00000E+00
         0.00000E+00
         0.00000E+00
         0.00000E+00
         0.00000E+00
         0.00000E+00
         0.00000E+00
         0.00000E+00
         0.00000E+00
         0.00000E+00
         0.00000E+00
         0.00000E+00
         0.00000E+00
         0.00000E+00
         0.00000E+00
         0.00000E+00
         0.00000E+00
         0.00000E+00
         0.00000E+00
         0.00000E+00
         0.00000E+00
         0.00000E+00
         0.00000E+00
         0.00000E+00
         0.00000E+00
         0.00000E+00
         0.00000E+00
         0.00000E+00
         0.00000E+00
         0.00000E+00
         0.00000E+00
         0.00000E+00
         0.00000E+00
         0.00000E+00
         0.00000E+00
         0.00000E+00
         0.00000E+00
         0.00000E+00
         0.00000E+00
         0.00000E+00
         0.00000E+00
         0.00000E+00
         0.00000E+00
         0.00000E+00
         0.00000E+00
         0.00000E+00
         0.00000E+00
         0.00000E+00
         0.00000E+00
         0.00000E+00
         0.00000E+00
         0.00000E+00
         0.00000E+00
         0.00000E+00
         0.00000E+00
         0.00000E+00
         0.00000E+00
         0.00000E+00
         0.00000E+00
         0.00000E+00
         0.00000E+00
         0.00000E+00
         0.00000E+00
         0.00000E+00
         0.00000E+00
         0.00000E+00
         0.00000E+00
         0.00000E+00
         0.00000E+00
         0.00000E+00
         0.00000E+00
         0.00000E+00
         0.00000E+00
         0.00000E+00
         0.00000E+00
         0.00000E+00
         0.00000E+00
         0.00000E+00
         0.00000E+00
         0.00000E+00
         0.00000E+00
         0.00000E+00
         0.00000E+00
         0.00000E+00
         0.00000E+00
         0.00000E+00
         0.00000E+00
         0.00000E+00
         0.00000E+00
         0.00000E+00
         0.00000E+00
         0.00000E+00
         0.00000E+00
         0.00000E+00
         0.00000E+00
         0.00000E+00
         0.00000E+00
         0.00000E+00
         0.00000E+00
         0.00000E+00
         0.00000E+00
         0.00000E+00
         0.00000E+00
         0.00000E+00
         0.00000E+00
         0.00000E+00
         0.00000E+00
         0.00000E+00
         0.00000E+00
         0.00000E+00
         0.00000E+00
         0.00000E+00
         0.00000E+00
         0.00000E+00
         0.00000E+00
         0.00000E+00
         0.00000E+00
         0.00000E+00
         0.00000E+00
         0.00000E+00
         0.00000E+00
         0.00000E+00
         0.00000E+00
         0.00000E+00
         0.00000E+00
         0.00000E+00
         0.00000E+00
         0.00000E+00
         0.00000E+00
         0.00000E+00
         0.00000E+00
         0.00000E+00
         0.00000E+00
         0.00000E+00
         0.00000E+00
         0.00000E+00
         0.00000E+00
         0.00000E+00
         0.00000E+00
         0.00000E+00
         0.00000E+00
         0.00000E+00
         0.00000E+00
         0.00000E+00
         0.00000E+00
         0.00000E+00
         0.00000E+00
         0.00000E+00
         0.00000E+00
         0.00000E+00
         0.00000E+00
         0.00000E+00
         0.00000E+00
         0.00000E+00
         0.00000E+00
         0.00000E+00
         0.00000E+00
         0.00000E+00
         0.00000E+00
         0.00000E+00
         0.00000E+00
         0.00000E+00
         0.00000E+00
         0.00000E+00
         0.00000E+00
         0.00000E+00
         0.00000E+00
         0.00000E+00
         0.00000E+00
         0.00000E+00
         0.00000E+00
         0.00000E+00
         0.00000E+00
         0.00000E+00
         0.00000E+00
         0.00000E+00
         0.00000E+00
         0.00000E+00
         0.00000E+00
         0.00000E+00
         0.00000E+00
         0.00000E+00
         0.00000E+00
         0.00000E+00
         0.00000E+00
         0.00000E+00
         0.00000E+00
         0.00000E+00
         0.00000E+00
         0.00000E+00
         0.00000E+00
         0.00000E+00
         0.00000E+00
         0.00000E+00
         0.00000E+00
         0.00000E+00
         0.00000E+00
         0.00000E+00
         0.00000E+00
         0.00000E+00
         0.00000E+00
         0.00000E+00
         0.00000E+00
         0.00000E+00
         0.00000E+00
         0.00000E+00
         0.00000E+00
         0.00000E+00
         0.00000E+00
         0.00000E+00
         0.00000E+00
         0.00000E+00
         0.00000E+00
         0.00000E+00
         0.00000E+00
         0.00000E+00
         0.00000E+00
         0.00000E+00
         0.00000E+00
         0.00000E+00
         0.00000E+00
         0.00000E+00
         0.00000E+00
         0.00000E+00
         0.00000E+00
         0.00000E+00
         0.00000E+00
         0.00000E+00
         0.00000E+00
         0.00000E+00
         0.00000E+00
         0.00000E+00
         0.00000E+00
         0.00000E+00
         0.00000E+00
         0.00000E+00
         0.00000E+00
         0.00000E+00
         0.00000E+00
         0.00000E+00
         0.00000E+00
         0.00000E+00
         0.00000E+00
         0.00000E+00
         0.00000E+00
         0.00000E+00
         0.00000E+00
         0.00000E+00
         0.00000E+00
         0.00000E+00
         0.00000E+00
         0.00000E+00
         0.00000E+00
         0.00000E+00
         0.00000E+00
         0.00000E+00
         0.00000E+00
         0.00000E+00
         0.00000E+00
         0.00000E+00
         0.00000E+00
         0.00000E+00
         0.00000E+00
         0.00000E+00
         0.00000E+00
         0.00000E+00
         0.00000E+00
         0.00000E+00
         0.00000E+00
         0.00000E+00
         0.00000E+00
         0.00000E+00
         0.00000E+00
         0.00000E+00
         0.00000E+00
         0.00000E+00
         0.00000E+00
         0.00000E+00
         0.00000E+00
         0.00000E+00
         0.00000E+00
         0.00000E+00
         0.00000E+00
         0.00000E+00
         0.00000E+00
         0.00000E+00
         0.00000E+00
         0.00000E+00
         0.00000E+00
         0.00000E+00
         0.00000E+00
         0.00000E+00
         0.00000E+00
         0.00000E+00
         0.00000E+00
         0.00000E+00
         0.00000E+00
         0.00000E+00
         0.00000E+00
         0.00000E+00
         0.00000E+00
         0.00000E+00
         0.00000E+00
         0.00000E+00
         0.00000E+00
         0.00000E+00
         0.00000E+00
         0.00000E+00
         0.00000E+00
         0.00000E+00
         0.00000E+00
         0.00000E+00
         0.00000E+00
         0.00000E+00
         0.00000E+00
         0.00000E+00
         0.00000E+00
         0.00000E+00
         0.00000E+00
         0.00000E+00
         0.00000E+00
         0.00000E+00
         0.00000E+00
         0.00000E+00
         0.00000E+00
         0.00000E+00
         0.00000E+00
         0.00000E+00
         0.00000E+00
         0.00000E+00
         0.00000E+00
         0.00000E+00
         0.00000E+00
         0.00000E+00
         0.00000E+00
         0.00000E+00
         0.00000E+00
         0.00000E+00
         0.00000E+00
         0.00000E+00
         0.00000E+00
         0.00000E+00
         0.00000E+00
         0.00000E+00
         0.00000E+00
         0.00000E+00
         0.00000E+00
         0.00000E+00
         0.00000E+00
         0.00000E+00
         0.00000E+00
         0.00000E+00
         0.00000E+00
         0.00000E+00
         0.00000E+00
         0.00000E+00
         0.00000E+00
         0.00000E+00
         0.00000E+00
         0.00000E+00
         0.00000E+00
         0.00000E+00
         0.00000E+00
         0.00000E+00
         0.00000E+00
         0.00000E+00
         0.00000E+00
         0.00000E+00
         0.00000E+00
         0.00000E+00
         0.00000E+00
         0.00000E+00
         0.00000E+00
         0.00000E+00
         0.00000E+00
         0.00000E+00
         0.00000E+00
         0.00000E+00
         0.00000E+00
         0.00000E+00
         0.00000E+00
         0.00000E+00
         0.00000E+00
         0.00000E+00
         0.00000E+00
         0.00000E+00
         0.00000E+00
         0.00000E+00
         0.00000E+00
         0.00000E+00
         0.00000E+00
         0.00000E+00
         0.00000E+00
         0.00000E+00
         0.00000E+00
         0.00000E+00
         0.00000E+00
         0.00000E+00
         0.00000E+00
         0.00000E+00
         0.00000E+00
         0.00000E+00
         0.00000E+00
         0.00000E+00
         0.00000E+00
         0.00000E+00
         0.00000E+00
         0.00000E+00
         0.00000E+00
         0.00000E+00
         0.00000E+00
         0.00000E+00
         0.00000E+00
         0.00000E+00
         0.00000E+00
         0.00000E+00
         0.00000E+00
         0.00000E+00
         0.00000E+00
         0.00000E+00
         0.00000E+00
         0.00000E+00
         0.00000E+00
         0.00000E+00
         0.00000E+00
         0.00000E+00
         0.00000E+00
         0.00000E+00
         0.00000E+00
         0.00000E+00
         0.00000E+00
         0.00000E+00
         0.00000E+00
         0.00000E+00
         0.00000E+00
         0.00000E+00
         0.00000E+00
         0.00000E+00
         0.00000E+00
         0.00000E+00
         0.00000E+00
         0.00000E+00
         0.00000E+00
         0.00000E+00
         0.00000E+00
         0.00000E+00
         0.00000E+00
         0.00000E+00
         0.00000E+00
         0.00000E+00
         0.00000E+00
         0.00000E+00
         0.00000E+00
         0.00000E+00
         0.00000E+00
         0.00000E+00
         0.00000E+00
         0.00000E+00
         0.00000E+00
         0.00000E+00
         0.00000E+00
         0.00000E+00
         0.00000E+00
         0.00000E+00
         0.00000E+00
         0.00000E+00
         0.00000E+00
         0.00000E+00
         0.00000E+00
         0.00000E+00
         0.00000E+00
         0.00000E+00
         0.00000E+00
         0.00000E+00
         0.00000E+00
         0.00000E+00
         0.00000E+00
         0.00000E+00
         0.00000E+00
         0.00000E+00
         0.00000E+00
         0.00000E+00
         0.00000E+00
         0.00000E+00
         0.00000E+00
         0.00000E+00
         0.00000E+00
         0.00000E+00
         0.00000E+00
         0.00000E+00
         0.00000E+00
         0.00000E+00
         0.00000E+00
         0.00000E+00
         0.00000E+00
         0.00000E+00
         0.00000E+00
         0.00000E+00
         0.00000E+00
         0.00000E+00
         0.00000E+00
         0.00000E+00
         0.00000E+00
         0.00000E+00
         0.00000E+00
         0.00000E+00
         0.00000E+00
         0.00000E+00
         0.00000E+00
         0.00000E+00
         0.00000E+00
         0.00000E+00
         0.00000E+00
         0.00000E+00
         0.00000E+00
         0.00000E+00
         0.00000E+00
         0.00000E+00
         0.00000E+00
         0.00000E+00
         0.00000E+00
         0.00000E+00
         0.00000E+00
         0.00000E+00
         0.00000E+00
         0.00000E+00
         0.00000E+00
         0.00000E+00
         0.00000E+00
         0.00000E+00
         0.00000E+00
         0.00000E+00
         0.00000E+00
         0.00000E+00
         0.00000E+00
         0.00000E+00
         0.00000E+00
         0.00000E+00
         0.00000E+00
         0.00000E+00
         0.00000E+00
         0.00000E+00
         0.00000E+00
         0.00000E+00
         0.00000E+00
         0.00000E+00
         0.00000E+00
         0.00000E+00
         0.00000E+00
         0.00000E+00
         0.00000E+00
         0.00000E+00
         0.00000E+00
         0.00000E+00
         0.00000E+00
         0.00000E+00
         0.00000E+00
         0.00000E+00
         0.00000E+00
         0.00000E+00
         0.00000E+00
         0.00000E+00
         0.00000E+00
         0.00000E+00
         0.00000E+00
         0.00000E+00
         0.00000E+00
         0.00000E+00
         0.00000E+00
         0.00000E+00
         0.00000E+00
         0.00000E+00
         0.00000E+00
         0.00000E+00
         0.00000E+00
         0.00000E+00
         0.00000E+00
         0.00000E+00
         0.00000E+00
         0.00000E+00
         0.00000E+00
         0.00000E+00
         0.00000E+00
         0.00000E+00
         0.00000E+00
         0.00000E+00
         0.00000E+00
         0.00000E+00
         0.00000E+00
         0.00000E+00
         0.00000E+00
         0.00000E+00
         0.00000E+00
         0.00000E+00
         0.00000E+00
         0.00000E+00
         0.00000E+00
         0.00000E+00
         0.00000E+00
         0.00000E+00
         0.00000E+00
         0.00000E+00
         0.00000E+00
         0.00000E+00
         0.00000E+00
         0.00000E+00
         0.00000E+00
         0.00000E+00
         0.00000E+00
         0.00000E+00
         0.00000E+00
         0.00000E+00
         0.00000E+00
         0.00000E+00
         0.00000E+00
         0.00000E+00
         0.00000E+00
         0.00000E+00
         0.00000E+00
         0.00000E+00
         0.00000E+00
         0.00000E+00
         0.00000E+00
         0.00000E+00
         0.00000E+00
         0.00000E+00
         0.00000E+00
         0.00000E+00
         0.00000E+00
         0.00000E+00
         0.00000E+00
         0.00000E+00
         0.00000E+00
         0.00000E+00
         0.00000E+00
         0.00000E+00
         0.00000E+00
         0.00000E+00
         0.00000E+00
         0.00000E+00
         0.00000E+00
         0.00000E+00
         0.00000E+00
         0.00000E+00
         0.00000E+00
         0.00000E+00
         0.00000E+00
         0.00000E+00
         0.00000E+00
         0.00000E+00
         0.00000E+00
         0.00000E+00
         0.00000E+00
         0.00000E+00
         0.00000E+00
         0.00000E+00
         0.00000E+00
         0.00000E+00
         0.00000E+00
         0.00000E+00
         0.00000E+00
         0.00000E+00
         0.00000E+00
         0.00000E+00
         0.00000E+00
         0.00000E+00
         0.00000E+00
         0.00000E+00
         0.00000E+00
         0.00000E+00
         0.00000E+00
         0.00000E+00
         0.00000E+00
         0.00000E+00
         0.00000E+00
         0.00000E+00
         0.00000E+00
         0.00000E+00
         0.00000E+00
         0.00000E+00
         0.00000E+00
         0.00000E+00
         0.00000E+00
         0.00000E+00
         0.00000E+00
         0.00000E+00
         0.00000E+00
         0.00000E+00
         0.00000E+00
         0.00000E+00
         0.00000E+00
         0.00000E+00
         0.00000E+00
         0.00000E+00
         0.00000E+00
         0.00000E+00
         0.00000E+00
         0.00000E+00
         0.00000E+00
         0.00000E+00
         0.00000E+00
         0.00000E+00
         0.00000E+00
         0.00000E+00
         0.00000E+00
         0.00000E+00
         0.00000E+00
         0.00000E+00
         0.00000E+00
         0.00000E+00
         0.00000E+00
         0.00000E+00
         0.00000E+00
         0.00000E+00
         0.00000E+00
         0.00000E+00
         0.00000E+00
         0.00000E+00
         0.00000E+00
         0.00000E+00
         0.00000E+00
         0.00000E+00
         0.00000E+00
         0.00000E+00
         0.00000E+00
         0.00000E+00
         0.00000E+00
         0.00000E+00
         0.00000E+00
         0.00000E+00
         0.00000E+00
         0.00000E+00
         0.00000E+00
         0.00000E+00
         0.00000E+00
         0.00000E+00
         0.00000E+00
         0.00000E+00
         0.00000E+00
         0.00000E+00
         0.00000E+00
         0.00000E+00
         0.00000E+00
         0.00000E+00
         0.00000E+00
         0.00000E+00
         0.00000E+00
         0.00000E+00
         0.00000E+00
         0.00000E+00
         0.00000E+00
         0.00000E+00
         0.00000E+00
         0.00000E+00
         0.00000E+00
         0.00000E+00
         0.00000E+00
         0.00000E+00
         0.00000E+00
         0.00000E+00
         0.00000E+00
         0.00000E+00
         0.00000E+00
         0.00000E+00
         0.00000E+00
         0.00000E+00
         0.00000E+00
         0.00000E+00
         0.00000E+00
         0.00000E+00
         0.00000E+00
         0.00000E+00
         0.00000E+00
         0.00000E+00
         0.00000E+00
         0.00000E+00
         0.00000E+00
         0.00000E+00
         0.00000E+00
         0.00000E+00
         0.00000E+00
         0.00000E+00
         0.00000E+00
         0.00000E+00
         0.00000E+00
         0.00000E+00
         0.00000E+00
         0.00000E+00
         0.00000E+00
         0.00000E+00
         0.00000E+00
         0.00000E+00
         0.00000E+00
         0.00000E+00
         0.00000E+00
         0.00000E+00
         0.00000E+00
         0.00000E+00
         0.00000E+00
         0.00000E+00
         0.00000E+00
         0.00000E+00
         0.00000E+00
         0.00000E+00
         0.00000E+00
         0.00000E+00
         0.00000E+00
         0.00000E+00
         0.00000E+00
         0.00000E+00
         0.00000E+00
         0.00000E+00
         0.00000E+00
         0.00000E+00
         0.00000E+00
         0.00000E+00
         0.00000E+00
         0.00000E+00
         0.00000E+00
         0.00000E+00
         0.00000E+00
         0.00000E+00
         0.00000E+00
         0.00000E+00
         0.00000E+00
         0.00000E+00
         0.00000E+00
         0.00000E+00
         0.00000E+00
         0.00000E+00
         0.00000E+00
         0.00000E+00
         0.00000E+00
         0.00000E+00
         0.00000E+00
         0.00000E+00
         0.00000E+00
         0.00000E+00
         0.00000E+00
         0.00000E+00
         0.00000E+00
         0.00000E+00
         0.00000E+00
         0.00000E+00
         0.00000E+00
         0.00000E+00
         0.00000E+00
         0.00000E+00
         0.00000E+00
         0.00000E+00
         0.00000E+00
         0.00000E+00
         0.00000E+00
         0.00000E+00
         0.00000E+00
         0.00000E+00
         0.00000E+00
         0.00000E+00
         0.00000E+00
         0.00000E+00
         0.00000E+00
         0.00000E+00
         0.00000E+00
         0.00000E+00
         0.00000E+00
         0.00000E+00
         0.00000E+00
         0.00000E+00
         0.00000E+00
         0.00000E+00
         0.00000E+00
         0.00000E+00
         0.00000E+00
         0.00000E+00
         0.00000E+00
         0.00000E+00
         0.00000E+00
         0.00000E+00
         0.00000E+00
         0.00000E+00
         0.00000E+00
         0.00000E+00
         0.00000E+00
         0.00000E+00
         0.00000E+00
         0.00000E+00
         0.00000E+00
         0.00000E+00
         0.00000E+00
         0.00000E+00
         0.00000E+00
         0.00000E+00
         0.00000E+00
         0.00000E+00
         0.00000E+00
         0.00000E+00
         0.00000E+00
         0.00000E+00
         0.00000E+00
         0.00000E+00
         0.00000E+00
         0.00000E+00
         0.00000E+00
         0.00000E+00
         0.00000E+00
         0.00000E+00
         0.00000E+00
         0.00000E+00
         0.00000E+00
         0.00000E+00
         0.00000E+00
         0.00000E+00
         0.00000E+00
         0.00000E+00
         0.00000E+00
         0.00000E+00
         0.00000E+00
         0.00000E+00
         0.00000E+00
         0.00000E+00
         0.00000E+00
         0.00000E+00
         0.00000E+00
         0.00000E+00
         0.00000E+00
         0.00000E+00
         0.00000E+00
         0.00000E+00
         0.00000E+00
         0.00000E+00
         0.00000E+00
         0.00000E+00
         0.00000E+00
         0.00000E+00
         0.00000E+00
         0.00000E+00
         0.00000E+00
         0.00000E+00
         0.00000E+00
         0.00000E+00
         0.00000E+00
         0.00000E+00
         0.00000E+00
         0.00000E+00
         0.00000E+00
         0.00000E+00
         0.00000E+00
         0.00000E+00
         0.00000E+00
         0.00000E+00
         0.00000E+00
         0.00000E+00
         0.00000E+00
         0.00000E+00
         0.00000E+00
         0.00000E+00
         0.00000E+00
         0.00000E+00
         0.00000E+00
         0.00000E+00
         0.00000E+00
         0.00000E+00
         0.00000E+00
         0.00000E+00
         0.00000E+00
         0.00000E+00
         0.00000E+00
         0.00000E+00
         0.00000E+00
         0.00000E+00
         0.00000E+00
         0.00000E+00
         0.00000E+00
         0.00000E+00
         0.00000E+00
         0.00000E+00
         0.00000E+00
         0.00000E+00
         0.00000E+00
         0.00000E+00
         0.00000E+00
         0.00000E+00
         0.00000E+00
         0.00000E+00
         0.00000E+00
         0.00000E+00
         0.00000E+00
         0.00000E+00
         0.00000E+00
         0.00000E+00
         0.00000E+00
         0.00000E+00
         0.00000E+00
         0.00000E+00
         0.00000E+00
         0.00000E+00
         0.00000E+00
         0.00000E+00
         0.00000E+00
         0.00000E+00
         0.00000E+00
         0.00000E+00
         0.00000E+00
         0.00000E+00
         0.00000E+00
         0.00000E+00
         0.00000E+00
         0.00000E+00
         0.00000E+00
         0.00000E+00
         0.00000E+00
         0.00000E+00
         0.00000E+00
         0.00000E+00
         0.00000E+00
         0.00000E+00
         0.00000E+00
         0.00000E+00
         0.00000E+00
         0.00000E+00
         0.00000E+00
         0.00000E+00
         0.00000E+00
         0.00000E+00
         0.00000E+00
         0.00000E+00
         0.00000E+00
         0.00000E+00
         0.00000E+00
         0.00000E+00
         0.00000E+00
         0.00000E+00
         0.00000E+00
         0.00000E+00
         0.00000E+00
         0.00000E+00
         0.00000E+00
         0.00000E+00
         0.00000E+00
         0.00000E+00
         0.00000E+00
         0.00000E+00
         0.00000E+00
         0.00000E+00
         0.00000E+00
         0.00000E+00
         0.00000E+00
         0.00000E+00
         0.00000E+00
         0.00000E+00
         0.00000E+00
         0.00000E+00
         0.00000E+00
         0.00000E+00
         0.00000E+00
         0.00000E+00
         0.00000E+00
         0.00000E+00
         0.00000E+00
         0.00000E+00
         0.00000E+00
         0.00000E+00
  
SCALARS                 acceleration_y  double 1
LOOKUP_TABLE default
         0.00000E+00
         0.00000E+00
         0.00000E+00
         0.00000E+00
         0.00000E+00
         0.00000E+00
         0.00000E+00
         0.00000E+00
         0.00000E+00
         0.00000E+00
         0.00000E+00
         0.00000E+00
         0.00000E+00
         0.00000E+00
         0.00000E+00
         0.00000E+00
         0.00000E+00
         0.00000E+00
         0.00000E+00
         0.00000E+00
         0.00000E+00
         0.00000E+00
         0.00000E+00
         0.00000E+00
         0.00000E+00
         0.00000E+00
         0.00000E+00
         0.00000E+00
         0.00000E+00
         0.00000E+00
         0.00000E+00
         0.00000E+00
         0.00000E+00
         0.00000E+00
         0.00000E+00
         0.00000E+00
         0.00000E+00
         0.00000E+00
         0.00000E+00
         0.00000E+00
         0.00000E+00
         0.00000E+00
         0.00000E+00
         0.00000E+00
         0.00000E+00
         0.00000E+00
         0.00000E+00
         0.00000E+00
         0.00000E+00
         0.00000E+00
         0.00000E+00
         0.00000E+00
         0.00000E+00
         0.00000E+00
         0.00000E+00
         0.00000E+00
         0.00000E+00
         0.00000E+00
         0.00000E+00
         0.00000E+00
         0.00000E+00
         0.00000E+00
         0.00000E+00
         0.00000E+00
         0.00000E+00
         0.00000E+00
         0.00000E+00
         0.00000E+00
         0.00000E+00
         0.00000E+00
         0.00000E+00
         0.00000E+00
         0.00000E+00
         0.00000E+00
         0.00000E+00
         0.00000E+00
         0.00000E+00
         0.00000E+00
         0.00000E+00
         0.00000E+00
         0.00000E+00
         0.00000E+00
         0.00000E+00
         0.00000E+00
         0.00000E+00
         0.00000E+00
         0.00000E+00
         0.00000E+00
         0.00000E+00
         0.00000E+00
         0.00000E+00
         0.00000E+00
         0.00000E+00
         0.00000E+00
         0.00000E+00
         0.00000E+00
         0.00000E+00
         0.00000E+00
         0.00000E+00
         0.00000E+00
         0.00000E+00
         0.00000E+00
         0.00000E+00
         0.00000E+00
         0.00000E+00
         0.00000E+00
         0.00000E+00
         0.00000E+00
         0.00000E+00
         0.00000E+00
         0.00000E+00
         0.00000E+00
         0.00000E+00
         0.00000E+00
         0.00000E+00
         0.00000E+00
         0.00000E+00
         0.00000E+00
         0.00000E+00
         0.00000E+00
         0.00000E+00
         0.00000E+00
         0.00000E+00
         0.00000E+00
         0.00000E+00
         0.00000E+00
         0.00000E+00
         0.00000E+00
         0.00000E+00
         0.00000E+00
         0.00000E+00
         0.00000E+00
         0.00000E+00
         0.00000E+00
         0.00000E+00
         0.00000E+00
         0.00000E+00
         0.00000E+00
         0.00000E+00
         0.00000E+00
         0.00000E+00
         0.00000E+00
         0.00000E+00
         0.00000E+00
         0.00000E+00
         0.00000E+00
         0.00000E+00
         0.00000E+00
         0.00000E+00
         0.00000E+00
         0.00000E+00
         0.00000E+00
         0.00000E+00
         0.00000E+00
         0.00000E+00
         0.00000E+00
         0.00000E+00
         0.00000E+00
         0.00000E+00
         0.00000E+00
         0.00000E+00
         0.00000E+00
         0.00000E+00
         0.00000E+00
         0.00000E+00
         0.00000E+00
         0.00000E+00
         0.00000E+00
         0.00000E+00
         0.00000E+00
         0.00000E+00
         0.00000E+00
         0.00000E+00
         0.00000E+00
         0.00000E+00
         0.00000E+00
         0.00000E+00
         0.00000E+00
         0.00000E+00
         0.00000E+00
         0.00000E+00
         0.00000E+00
         0.00000E+00
         0.00000E+00
         0.00000E+00
         0.00000E+00
         0.00000E+00
         0.00000E+00
         0.00000E+00
         0.00000E+00
         0.00000E+00
         0.00000E+00
         0.00000E+00
         0.00000E+00
         0.00000E+00
         0.00000E+00
         0.00000E+00
         0.00000E+00
         0.00000E+00
         0.00000E+00
         0.00000E+00
         0.00000E+00
         0.00000E+00
         0.00000E+00
         0.00000E+00
         0.00000E+00
         0.00000E+00
         0.00000E+00
         0.00000E+00
         0.00000E+00
         0.00000E+00
         0.00000E+00
         0.00000E+00
         0.00000E+00
         0.00000E+00
         0.00000E+00
         0.00000E+00
         0.00000E+00
         0.00000E+00
         0.00000E+00
         0.00000E+00
         0.00000E+00
         0.00000E+00
         0.00000E+00
         0.00000E+00
         0.00000E+00
         0.00000E+00
         0.00000E+00
         0.00000E+00
         0.00000E+00
         0.00000E+00
         0.00000E+00
         0.00000E+00
         0.00000E+00
         0.00000E+00
         0.00000E+00
         0.00000E+00
         0.00000E+00
         0.00000E+00
         0.00000E+00
         0.00000E+00
         0.00000E+00
         0.00000E+00
         0.00000E+00
         0.00000E+00
         0.00000E+00
         0.00000E+00
         0.00000E+00
         0.00000E+00
         0.00000E+00
         0.00000E+00
         0.00000E+00
         0.00000E+00
         0.00000E+00
         0.00000E+00
         0.00000E+00
         0.00000E+00
         0.00000E+00
         0.00000E+00
         0.00000E+00
         0.00000E+00
         0.00000E+00
         0.00000E+00
         0.00000E+00
         0.00000E+00
         0.00000E+00
         0.00000E+00
         0.00000E+00
         0.00000E+00
         0.00000E+00
         0.00000E+00
         0.00000E+00
         0.00000E+00
         0.00000E+00
         0.00000E+00
         0.00000E+00
         0.00000E+00
         0.00000E+00
         0.00000E+00
         0.00000E+00
         0.00000E+00
         0.00000E+00
         0.00000E+00
         0.00000E+00
         0.00000E+00
         0.00000E+00
         0.00000E+00
         0.00000E+00
         0.00000E+00
         0.00000E+00
         0.00000E+00
         0.00000E+00
         0.00000E+00
         0.00000E+00
         0.00000E+00
         0.00000E+00
         0.00000E+00
         0.00000E+00
         0.00000E+00
         0.00000E+00
         0.00000E+00
         0.00000E+00
         0.00000E+00
         0.00000E+00
         0.00000E+00
         0.00000E+00
         0.00000E+00
         0.00000E+00
         0.00000E+00
         0.00000E+00
         0.00000E+00
         0.00000E+00
         0.00000E+00
         0.00000E+00
         0.00000E+00
         0.00000E+00
         0.00000E+00
         0.00000E+00
         0.00000E+00
         0.00000E+00
         0.00000E+00
         0.00000E+00
         0.00000E+00
         0.00000E+00
         0.00000E+00
         0.00000E+00
         0.00000E+00
         0.00000E+00
         0.00000E+00
         0.00000E+00
         0.00000E+00
         0.00000E+00
         0.00000E+00
         0.00000E+00
         0.00000E+00
         0.00000E+00
         0.00000E+00
         0.00000E+00
         0.00000E+00
         0.00000E+00
         0.00000E+00
         0.00000E+00
         0.00000E+00
         0.00000E+00
         0.00000E+00
         0.00000E+00
         0.00000E+00
         0.00000E+00
         0.00000E+00
         0.00000E+00
         0.00000E+00
         0.00000E+00
         0.00000E+00
         0.00000E+00
         0.00000E+00
         0.00000E+00
         0.00000E+00
         0.00000E+00
         0.00000E+00
         0.00000E+00
         0.00000E+00
         0.00000E+00
         0.00000E+00
         0.00000E+00
         0.00000E+00
         0.00000E+00
         0.00000E+00
         0.00000E+00
         0.00000E+00
         0.00000E+00
         0.00000E+00
         0.00000E+00
         0.00000E+00
         0.00000E+00
         0.00000E+00
         0.00000E+00
         0.00000E+00
         0.00000E+00
         0.00000E+00
         0.00000E+00
         0.00000E+00
         0.00000E+00
         0.00000E+00
         0.00000E+00
         0.00000E+00
         0.00000E+00
         0.00000E+00
         0.00000E+00
         0.00000E+00
         0.00000E+00
         0.00000E+00
         0.00000E+00
         0.00000E+00
         0.00000E+00
         0.00000E+00
         0.00000E+00
         0.00000E+00
         0.00000E+00
         0.00000E+00
         0.00000E+00
         0.00000E+00
         0.00000E+00
         0.00000E+00
         0.00000E+00
         0.00000E+00
         0.00000E+00
         0.00000E+00
         0.00000E+00
         0.00000E+00
         0.00000E+00
         0.00000E+00
         0.00000E+00
         0.00000E+00
         0.00000E+00
         0.00000E+00
         0.00000E+00
         0.00000E+00
         0.00000E+00
         0.00000E+00
         0.00000E+00
         0.00000E+00
         0.00000E+00
         0.00000E+00
         0.00000E+00
         0.00000E+00
         0.00000E+00
         0.00000E+00
         0.00000E+00
         0.00000E+00
         0.00000E+00
         0.00000E+00
         0.00000E+00
         0.00000E+00
         0.00000E+00
         0.00000E+00
         0.00000E+00
         0.00000E+00
         0.00000E+00
         0.00000E+00
         0.00000E+00
         0.00000E+00
         0.00000E+00
         0.00000E+00
         0.00000E+00
         0.00000E+00
         0.00000E+00
         0.00000E+00
         0.00000E+00
         0.00000E+00
         0.00000E+00
         0.00000E+00
         0.00000E+00
         0.00000E+00
         0.00000E+00
         0.00000E+00
         0.00000E+00
         0.00000E+00
         0.00000E+00
         0.00000E+00
         0.00000E+00
         0.00000E+00
         0.00000E+00
         0.00000E+00
         0.00000E+00
         0.00000E+00
         0.00000E+00
         0.00000E+00
         0.00000E+00
         0.00000E+00
         0.00000E+00
         0.00000E+00
         0.00000E+00
         0.00000E+00
         0.00000E+00
         0.00000E+00
         0.00000E+00
         0.00000E+00
         0.00000E+00
         0.00000E+00
         0.00000E+00
         0.00000E+00
         0.00000E+00
         0.00000E+00
         0.00000E+00
         0.00000E+00
         0.00000E+00
         0.00000E+00
         0.00000E+00
         0.00000E+00
         0.00000E+00
         0.00000E+00
         0.00000E+00
         0.00000E+00
         0.00000E+00
         0.00000E+00
         0.00000E+00
         0.00000E+00
         0.00000E+00
         0.00000E+00
         0.00000E+00
         0.00000E+00
         0.00000E+00
         0.00000E+00
         0.00000E+00
         0.00000E+00
         0.00000E+00
         0.00000E+00
         0.00000E+00
         0.00000E+00
         0.00000E+00
         0.00000E+00
         0.00000E+00
         0.00000E+00
         0.00000E+00
         0.00000E+00
         0.00000E+00
         0.00000E+00
         0.00000E+00
         0.00000E+00
         0.00000E+00
         0.00000E+00
         0.00000E+00
         0.00000E+00
         0.00000E+00
         0.00000E+00
         0.00000E+00
         0.00000E+00
         0.00000E+00
         0.00000E+00
         0.00000E+00
         0.00000E+00
         0.00000E+00
         0.00000E+00
         0.00000E+00
         0.00000E+00
         0.00000E+00
         0.00000E+00
         0.00000E+00
         0.00000E+00
         0.00000E+00
         0.00000E+00
         0.00000E+00
         0.00000E+00
         0.00000E+00
         0.00000E+00
         0.00000E+00
         0.00000E+00
         0.00000E+00
         0.00000E+00
         0.00000E+00
         0.00000E+00
         0.00000E+00
         0.00000E+00
         0.00000E+00
         0.00000E+00
         0.00000E+00
         0.00000E+00
         0.00000E+00
         0.00000E+00
         0.00000E+00
         0.00000E+00
         0.00000E+00
         0.00000E+00
         0.00000E+00
         0.00000E+00
         0.00000E+00
         0.00000E+00
         0.00000E+00
         0.00000E+00
         0.00000E+00
         0.00000E+00
         0.00000E+00
         0.00000E+00
         0.00000E+00
         0.00000E+00
         0.00000E+00
         0.00000E+00
         0.00000E+00
         0.00000E+00
         0.00000E+00
         0.00000E+00
         0.00000E+00
         0.00000E+00
         0.00000E+00
         0.00000E+00
         0.00000E+00
         0.00000E+00
         0.00000E+00
         0.00000E+00
         0.00000E+00
         0.00000E+00
         0.00000E+00
         0.00000E+00
         0.00000E+00
         0.00000E+00
         0.00000E+00
         0.00000E+00
         0.00000E+00
         0.00000E+00
         0.00000E+00
         0.00000E+00
         0.00000E+00
         0.00000E+00
         0.00000E+00
         0.00000E+00
         0.00000E+00
         0.00000E+00
         0.00000E+00
         0.00000E+00
         0.00000E+00
         0.00000E+00
         0.00000E+00
         0.00000E+00
         0.00000E+00
         0.00000E+00
         0.00000E+00
         0.00000E+00
         0.00000E+00
         0.00000E+00
         0.00000E+00
         0.00000E+00
         0.00000E+00
         0.00000E+00
         0.00000E+00
         0.00000E+00
         0.00000E+00
         0.00000E+00
         0.00000E+00
         0.00000E+00
         0.00000E+00
         0.00000E+00
         0.00000E+00
         0.00000E+00
         0.00000E+00
         0.00000E+00
         0.00000E+00
         0.00000E+00
         0.00000E+00
         0.00000E+00
         0.00000E+00
         0.00000E+00
         0.00000E+00
         0.00000E+00
         0.00000E+00
         0.00000E+00
         0.00000E+00
         0.00000E+00
         0.00000E+00
         0.00000E+00
         0.00000E+00
         0.00000E+00
         0.00000E+00
         0.00000E+00
         0.00000E+00
         0.00000E+00
         0.00000E+00
         0.00000E+00
         0.00000E+00
         0.00000E+00
         0.00000E+00
         0.00000E+00
         0.00000E+00
         0.00000E+00
         0.00000E+00
         0.00000E+00
         0.00000E+00
         0.00000E+00
         0.00000E+00
         0.00000E+00
         0.00000E+00
         0.00000E+00
         0.00000E+00
         0.00000E+00
         0.00000E+00
         0.00000E+00
         0.00000E+00
         0.00000E+00
         0.00000E+00
         0.00000E+00
         0.00000E+00
         0.00000E+00
         0.00000E+00
         0.00000E+00
         0.00000E+00
         0.00000E+00
         0.00000E+00
         0.00000E+00
         0.00000E+00
         0.00000E+00
         0.00000E+00
         0.00000E+00
         0.00000E+00
         0.00000E+00
         0.00000E+00
         0.00000E+00
         0.00000E+00
         0.00000E+00
         0.00000E+00
         0.00000E+00
         0.00000E+00
         0.00000E+00
         0.00000E+00
         0.00000E+00
         0.00000E+00
         0.00000E+00
         0.00000E+00
         0.00000E+00
         0.00000E+00
         0.00000E+00
         0.00000E+00
         0.00000E+00
         0.00000E+00
         0.00000E+00
         0.00000E+00
         0.00000E+00
         0.00000E+00
         0.00000E+00
         0.00000E+00
         0.00000E+00
         0.00000E+00
         0.00000E+00
         0.00000E+00
         0.00000E+00
         0.00000E+00
         0.00000E+00
         0.00000E+00
         0.00000E+00
         0.00000E+00
         0.00000E+00
         0.00000E+00
         0.00000E+00
         0.00000E+00
         0.00000E+00
         0.00000E+00
         0.00000E+00
         0.00000E+00
         0.00000E+00
         0.00000E+00
         0.00000E+00
         0.00000E+00
         0.00000E+00
         0.00000E+00
         0.00000E+00
         0.00000E+00
         0.00000E+00
         0.00000E+00
         0.00000E+00
         0.00000E+00
         0.00000E+00
         0.00000E+00
         0.00000E+00
         0.00000E+00
         0.00000E+00
         0.00000E+00
         0.00000E+00
         0.00000E+00
         0.00000E+00
         0.00000E+00
         0.00000E+00
         0.00000E+00
         0.00000E+00
         0.00000E+00
         0.00000E+00
         0.00000E+00
         0.00000E+00
         0.00000E+00
         0.00000E+00
         0.00000E+00
         0.00000E+00
         0.00000E+00
         0.00000E+00
         0.00000E+00
         0.00000E+00
         0.00000E+00
         0.00000E+00
         0.00000E+00
         0.00000E+00
         0.00000E+00
         0.00000E+00
         0.00000E+00
         0.00000E+00
         0.00000E+00
         0.00000E+00
         0.00000E+00
         0.00000E+00
         0.00000E+00
         0.00000E+00
         0.00000E+00
         0.00000E+00
         0.00000E+00
         0.00000E+00
         0.00000E+00
         0.00000E+00
         0.00000E+00
         0.00000E+00
         0.00000E+00
         0.00000E+00
         0.00000E+00
         0.00000E+00
         0.00000E+00
         0.00000E+00
         0.00000E+00
         0.00000E+00
         0.00000E+00
         0.00000E+00
         0.00000E+00
         0.00000E+00
         0.00000E+00
         0.00000E+00
         0.00000E+00
         0.00000E+00
         0.00000E+00
         0.00000E+00
         0.00000E+00
         0.00000E+00
         0.00000E+00
         0.00000E+00
         0.00000E+00
         0.00000E+00
         0.00000E+00
         0.00000E+00
         0.00000E+00
         0.00000E+00
         0.00000E+00
         0.00000E+00
         0.00000E+00
         0.00000E+00
         0.00000E+00
         0.00000E+00
         0.00000E+00
         0.00000E+00
         0.00000E+00
         0.00000E+00
         0.00000E+00
         0.00000E+00
         0.00000E+00
         0.00000E+00
         0.00000E+00
         0.00000E+00
         0.00000E+00
         0.00000E+00
         0.00000E+00
         0.00000E+00
         0.00000E+00
         0.00000E+00
         0.00000E+00
         0.00000E+00
         0.00000E+00
         0.00000E+00
         0.00000E+00
         0.00000E+00
         0.00000E+00
         0.00000E+00
         0.00000E+00
         0.00000E+00
         0.00000E+00
         0.00000E+00
         0.00000E+00
         0.00000E+00
         0.00000E+00
         0.00000E+00
         0.00000E+00
         0.00000E+00
         0.00000E+00
         0.00000E+00
         0.00000E+00
         0.00000E+00
         0.00000E+00
         0.00000E+00
         0.00000E+00
         0.00000E+00
         0.00000E+00
         0.00000E+00
         0.00000E+00
         0.00000E+00
         0.00000E+00
         0.00000E+00
         0.00000E+00
         0.00000E+00
         0.00000E+00
         0.00000E+00
         0.00000E+00
         0.00000E+00
         0.00000E+00
         0.00000E+00
         0.00000E+00
         0.00000E+00
         0.00000E+00
         0.00000E+00
         0.00000E+00
         0.00000E+00
         0.00000E+00
         0.00000E+00
         0.00000E+00
         0.00000E+00
         0.00000E+00
         0.00000E+00
         0.00000E+00
         0.00000E+00
         0.00000E+00
         0.00000E+00
         0.00000E+00
         0.00000E+00
         0.00000E+00
         0.00000E+00
         0.00000E+00
         0.00000E+00
         0.00000E+00
         0.00000E+00
         0.00000E+00
         0.00000E+00
         0.00000E+00
         0.00000E+00
         0.00000E+00
         0.00000E+00
         0.00000E+00
         0.00000E+00
         0.00000E+00
         0.00000E+00
         0.00000E+00
         0.00000E+00
         0.00000E+00
         0.00000E+00
         0.00000E+00
         0.00000E+00
         0.00000E+00
         0.00000E+00
         0.00000E+00
         0.00000E+00
         0.00000E+00
         0.00000E+00
         0.00000E+00
         0.00000E+00
         0.00000E+00
         0.00000E+00
         0.00000E+00
         0.00000E+00
         0.00000E+00
         0.00000E+00
         0.00000E+00
         0.00000E+00
         0.00000E+00
         0.00000E+00
         0.00000E+00
         0.00000E+00
         0.00000E+00
         0.00000E+00
         0.00000E+00
         0.00000E+00
         0.00000E+00
         0.00000E+00
         0.00000E+00
         0.00000E+00
         0.00000E+00
         0.00000E+00
         0.00000E+00
         0.00000E+00
         0.00000E+00
         0.00000E+00
         0.00000E+00
         0.00000E+00
         0.00000E+00
         0.00000E+00
         0.00000E+00
         0.00000E+00
         0.00000E+00
         0.00000E+00
         0.00000E+00
         0.00000E+00
         0.00000E+00
         0.00000E+00
         0.00000E+00
         0.00000E+00
         0.00000E+00
         0.00000E+00
         0.00000E+00
         0.00000E+00
         0.00000E+00
         0.00000E+00
         0.00000E+00
         0.00000E+00
         0.00000E+00
         0.00000E+00
         0.00000E+00
         0.00000E+00
         0.00000E+00
         0.00000E+00
         0.00000E+00
         0.00000E+00
         0.00000E+00
         0.00000E+00
         0.00000E+00
         0.00000E+00
         0.00000E+00
         0.00000E+00
         0.00000E+00
         0.00000E+00
         0.00000E+00
         0.00000E+00
         0.00000E+00
         0.00000E+00
         0.00000E+00
         0.00000E+00
         0.00000E+00
         0.00000E+00
         0.00000E+00
         0.00000E+00
         0.00000E+00
         0.00000E+00
         0.00000E+00
         0.00000E+00
         0.00000E+00
         0.00000E+00
         0.00000E+00
         0.00000E+00
         0.00000E+00
         0.00000E+00
         0.00000E+00
         0.00000E+00
         0.00000E+00
         0.00000E+00
         0.00000E+00
         0.00000E+00
         0.00000E+00
         0.00000E+00
         0.00000E+00
         0.00000E+00
         0.00000E+00
         0.00000E+00
         0.00000E+00
         0.00000E+00
         0.00000E+00
         0.00000E+00
         0.00000E+00
         0.00000E+00
         0.00000E+00
         0.00000E+00
         0.00000E+00
         0.00000E+00
         0.00000E+00
         0.00000E+00
         0.00000E+00
         0.00000E+00
         0.00000E+00
         0.00000E+00
         0.00000E+00
         0.00000E+00
         0.00000E+00
         0.00000E+00
         0.00000E+00
         0.00000E+00
         0.00000E+00
         0.00000E+00
         0.00000E+00
         0.00000E+00
         0.00000E+00
         0.00000E+00
         0.00000E+00
         0.00000E+00
         0.00000E+00
         0.00000E+00
         0.00000E+00
         0.00000E+00
         0.00000E+00
         0.00000E+00
         0.00000E+00
         0.00000E+00
         0.00000E+00
         0.00000E+00
         0.00000E+00
         0.00000E+00
         0.00000E+00
         0.00000E+00
         0.00000E+00
         0.00000E+00
         0.00000E+00
         0.00000E+00
         0.00000E+00
         0.00000E+00
         0.00000E+00
         0.00000E+00
         0.00000E+00
         0.00000E+00
         0.00000E+00
         0.00000E+00
         0.00000E+00
         0.00000E+00
         0.00000E+00
         0.00000E+00
         0.00000E+00
         0.00000E+00
         0.00000E+00
         0.00000E+00
         0.00000E+00
         0.00000E+00
         0.00000E+00
         0.00000E+00
         0.00000E+00
         0.00000E+00
         0.00000E+00
         0.00000E+00
         0.00000E+00
         0.00000E+00
         0.00000E+00
         0.00000E+00
         0.00000E+00
         0.00000E+00
         0.00000E+00
         0.00000E+00
         0.00000E+00
         0.00000E+00
         0.00000E+00
         0.00000E+00
         0.00000E+00
         0.00000E+00
         0.00000E+00
         0.00000E+00
         0.00000E+00
         0.00000E+00
         0.00000E+00
         0.00000E+00
         0.00000E+00
         0.00000E+00
         0.00000E+00
         0.00000E+00
         0.00000E+00
         0.00000E+00
         0.00000E+00
         0.00000E+00
         0.00000E+00
         0.00000E+00
         0.00000E+00
         0.00000E+00
         0.00000E+00
         0.00000E+00
         0.00000E+00
         0.00000E+00
         0.00000E+00
         0.00000E+00
         0.00000E+00
         0.00000E+00
         0.00000E+00
         0.00000E+00
         0.00000E+00
         0.00000E+00
         0.00000E+00
         0.00000E+00
         0.00000E+00
         0.00000E+00
         0.00000E+00
         0.00000E+00
         0.00000E+00
         0.00000E+00
         0.00000E+00
         0.00000E+00
         0.00000E+00
         0.00000E+00
         0.00000E+00
         0.00000E+00
         0.00000E+00
         0.00000E+00
         0.00000E+00
         0.00000E+00
         0.00000E+00
         0.00000E+00
         0.00000E+00
         0.00000E+00
         0.00000E+00
         0.00000E+00
         0.00000E+00
         0.00000E+00
         0.00000E+00
         0.00000E+00
         0.00000E+00
         0.00000E+00
         0.00000E+00
         0.00000E+00
         0.00000E+00
         0.00000E+00
         0.00000E+00
         0.00000E+00
         0.00000E+00
         0.00000E+00
         0.00000E+00
         0.00000E+00
         0.00000E+00
         0.00000E+00
         0.00000E+00
         0.00000E+00
         0.00000E+00
         0.00000E+00
         0.00000E+00
         0.00000E+00
         0.00000E+00
         0.00000E+00
         0.00000E+00
         0.00000E+00
         0.00000E+00
         0.00000E+00
         0.00000E+00
         0.00000E+00
         0.00000E+00
         0.00000E+00
         0.00000E+00
         0.00000E+00
         0.00000E+00
         0.00000E+00
         0.00000E+00
         0.00000E+00
         0.00000E+00
         0.00000E+00
         0.00000E+00
         0.00000E+00
         0.00000E+00
         0.00000E+00
         0.00000E+00
         0.00000E+00
         0.00000E+00
         0.00000E+00
         0.00000E+00
         0.00000E+00
         0.00000E+00
         0.00000E+00
         0.00000E+00
         0.00000E+00
         0.00000E+00
         0.00000E+00
         0.00000E+00
         0.00000E+00
         0.00000E+00
         0.00000E+00
         0.00000E+00
         0.00000E+00
         0.00000E+00
         0.00000E+00
         0.00000E+00
         0.00000E+00
         0.00000E+00
         0.00000E+00
         0.00000E+00
         0.00000E+00
         0.00000E+00
         0.00000E+00
         0.00000E+00
         0.00000E+00
         0.00000E+00
         0.00000E+00
         0.00000E+00
         0.00000E+00
         0.00000E+00
         0.00000E+00
         0.00000E+00
         0.00000E+00
         0.00000E+00
         0.00000E+00
         0.00000E+00
         0.00000E+00
         0.00000E+00
         0.00000E+00
         0.00000E+00
         0.00000E+00
         0.00000E+00
         0.00000E+00
         0.00000E+00
         0.00000E+00
         0.00000E+00
         0.00000E+00
         0.00000E+00
         0.00000E+00
         0.00000E+00
         0.00000E+00
         0.00000E+00
         0.00000E+00
         0.00000E+00
         0.00000E+00
         0.00000E+00
         0.00000E+00
         0.00000E+00
         0.00000E+00
         0.00000E+00
         0.00000E+00
         0.00000E+00
         0.00000E+00
         0.00000E+00
         0.00000E+00
         0.00000E+00
         0.00000E+00
         0.00000E+00
         0.00000E+00
         0.00000E+00
         0.00000E+00
         0.00000E+00
         0.00000E+00
         0.00000E+00
         0.00000E+00
         0.00000E+00
         0.00000E+00
         0.00000E+00
         0.00000E+00
         0.00000E+00
         0.00000E+00
         0.00000E+00
         0.00000E+00
         0.00000E+00
         0.00000E+00
         0.00000E+00
         0.00000E+00
         0.00000E+00
         0.00000E+00
         0.00000E+00
         0.00000E+00
         0.00000E+00
         0.00000E+00
         0.00000E+00
         0.00000E+00
         0.00000E+00
         0.00000E+00
         0.00000E+00
         0.00000E+00
         0.00000E+00
         0.00000E+00
         0.00000E+00
         0.00000E+00
         0.00000E+00
         0.00000E+00
         0.00000E+00
         0.00000E+00
         0.00000E+00
         0.00000E+00
         0.00000E+00
         0.00000E+00
         0.00000E+00
         0.00000E+00
         0.00000E+00
         0.00000E+00
         0.00000E+00
         0.00000E+00
         0.00000E+00
         0.00000E+00
         0.00000E+00
         0.00000E+00
         0.00000E+00
         0.00000E+00
         0.00000E+00
         0.00000E+00
         0.00000E+00
         0.00000E+00
         0.00000E+00
         0.00000E+00
         0.00000E+00
         0.00000E+00
         0.00000E+00
         0.00000E+00
         0.00000E+00
         0.00000E+00
         0.00000E+00
         0.00000E+00
         0.00000E+00
         0.00000E+00
         0.00000E+00
         0.00000E+00
         0.00000E+00
         0.00000E+00
         0.00000E+00
         0.00000E+00
         0.00000E+00
         0.00000E+00
         0.00000E+00
         0.00000E+00
         0.00000E+00
         0.00000E+00
         0.00000E+00
         0.00000E+00
         0.00000E+00
         0.00000E+00
         0.00000E+00
         0.00000E+00
         0.00000E+00
         0.00000E+00
         0.00000E+00
         0.00000E+00
         0.00000E+00
         0.00000E+00
         0.00000E+00
         0.00000E+00
         0.00000E+00
         0.00000E+00
         0.00000E+00
         0.00000E+00
         0.00000E+00
         0.00000E+00
         0.00000E+00
         0.00000E+00
         0.00000E+00
         0.00000E+00
         0.00000E+00
         0.00000E+00
         0.00000E+00
         0.00000E+00
         0.00000E+00
         0.00000E+00
         0.00000E+00
         0.00000E+00
         0.00000E+00
         0.00000E+00
         0.00000E+00
         0.00000E+00
         0.00000E+00
         0.00000E+00
         0.00000E+00
         0.00000E+00
         0.00000E+00
         0.00000E+00
         0.00000E+00
         0.00000E+00
         0.00000E+00
         0.00000E+00
         0.00000E+00
         0.00000E+00
         0.00000E+00
         0.00000E+00
         0.00000E+00
         0.00000E+00
         0.00000E+00
         0.00000E+00
         0.00000E+00
         0.00000E+00
         0.00000E+00
         0.00000E+00
         0.00000E+00
         0.00000E+00
         0.00000E+00
         0.00000E+00
         0.00000E+00
         0.00000E+00
         0.00000E+00
         0.00000E+00
         0.00000E+00
         0.00000E+00
         0.00000E+00
         0.00000E+00
         0.00000E+00
         0.00000E+00
         0.00000E+00
         0.00000E+00
         0.00000E+00
         0.00000E+00
         0.00000E+00
         0.00000E+00
         0.00000E+00
         0.00000E+00
         0.00000E+00
         0.00000E+00
         0.00000E+00
         0.00000E+00
         0.00000E+00
         0.00000E+00
         0.00000E+00
         0.00000E+00
         0.00000E+00
         0.00000E+00
         0.00000E+00
         0.00000E+00
         0.00000E+00
         0.00000E+00
         0.00000E+00
         0.00000E+00
         0.00000E+00
         0.00000E+00
         0.00000E+00
         0.00000E+00
         0.00000E+00
         0.00000E+00
         0.00000E+00
         0.00000E+00
         0.00000E+00
         0.00000E+00
         0.00000E+00
         0.00000E+00
         0.00000E+00
         0.00000E+00
         0.00000E+00
         0.00000E+00
         0.00000E+00
         0.00000E+00
         0.00000E+00
         0.00000E+00
         0.00000E+00
         0.00000E+00
         0.00000E+00
         0.00000E+00
         0.00000E+00
         0.00000E+00
         0.00000E+00
         0.00000E+00
         0.00000E+00
         0.00000E+00
         0.00000E+00
         0.00000E+00
         0.00000E+00
         0.00000E+00
         0.00000E+00
         0.00000E+00
         0.00000E+00
         0.00000E+00
         0.00000E+00
         0.00000E+00
         0.00000E+00
         0.00000E+00
         0.00000E+00
         0.00000E+00
         0.00000E+00
         0.00000E+00
         0.00000E+00
         0.00000E+00
         0.00000E+00
         0.00000E+00
         0.00000E+00
         0.00000E+00
         0.00000E+00
         0.00000E+00
         0.00000E+00
         0.00000E+00
         0.00000E+00
         0.00000E+00
         0.00000E+00
         0.00000E+00
         0.00000E+00
         0.00000E+00
         0.00000E+00
         0.00000E+00
         0.00000E+00
         0.00000E+00
         0.00000E+00
         0.00000E+00
         0.00000E+00
         0.00000E+00
         0.00000E+00
         0.00000E+00
         0.00000E+00
         0.00000E+00
         0.00000E+00
         0.00000E+00
         0.00000E+00
         0.00000E+00
         0.00000E+00
         0.00000E+00
         0.00000E+00
         0.00000E+00
         0.00000E+00
         0.00000E+00
         0.00000E+00
         0.00000E+00
         0.00000E+00
         0.00000E+00
         0.00000E+00
         0.00000E+00
         0.00000E+00
         0.00000E+00
         0.00000E+00
         0.00000E+00
         0.00000E+00
         0.00000E+00
         0.00000E+00
         0.00000E+00
         0.00000E+00
         0.00000E+00
         0.00000E+00
         0.00000E+00
         0.00000E+00
         0.00000E+00
         0.00000E+00
         0.00000E+00
         0.00000E+00
         0.00000E+00
         0.00000E+00
         0.00000E+00
         0.00000E+00
         0.00000E+00
         0.00000E+00
         0.00000E+00
         0.00000E+00
         0.00000E+00
         0.00000E+00
         0.00000E+00
         0.00000E+00
         0.00000E+00
         0.00000E+00
         0.00000E+00
         0.00000E+00
         0.00000E+00
         0.00000E+00
         0.00000E+00
         0.00000E+00
         0.00000E+00
         0.00000E+00
         0.00000E+00
         0.00000E+00
         0.00000E+00
         0.00000E+00
         0.00000E+00
         0.00000E+00
         0.00000E+00
         0.00000E+00
         0.00000E+00
         0.00000E+00
         0.00000E+00
         0.00000E+00
         0.00000E+00
         0.00000E+00
         0.00000E+00
         0.00000E+00
         0.00000E+00
         0.00000E+00
         0.00000E+00
         0.00000E+00
         0.00000E+00
         0.00000E+00
         0.00000E+00
         0.00000E+00
         0.00000E+00
         0.00000E+00
         0.00000E+00
         0.00000E+00
         0.00000E+00
         0.00000E+00
         0.00000E+00
         0.00000E+00
         0.00000E+00
         0.00000E+00
         0.00000E+00
         0.00000E+00
         0.00000E+00
         0.00000E+00
         0.00000E+00
         0.00000E+00
         0.00000E+00
         0.00000E+00
         0.00000E+00
         0.00000E+00
         0.00000E+00
         0.00000E+00
         0.00000E+00
         0.00000E+00
         0.00000E+00
         0.00000E+00
         0.00000E+00
         0.00000E+00
         0.00000E+00
         0.00000E+00
         0.00000E+00
         0.00000E+00
         0.00000E+00
         0.00000E+00
         0.00000E+00
         0.00000E+00
         0.00000E+00
         0.00000E+00
         0.00000E+00
         0.00000E+00
         0.00000E+00
         0.00000E+00
         0.00000E+00
         0.00000E+00
         0.00000E+00
         0.00000E+00
         0.00000E+00
         0.00000E+00
         0.00000E+00
         0.00000E+00
         0.00000E+00
         0.00000E+00
         0.00000E+00
         0.00000E+00
         0.00000E+00
         0.00000E+00
         0.00000E+00
         0.00000E+00
         0.00000E+00
         0.00000E+00
         0.00000E+00
         0.00000E+00
         0.00000E+00
         0.00000E+00
         0.00000E+00
         0.00000E+00
         0.00000E+00
         0.00000E+00
         0.00000E+00
         0.00000E+00
         0.00000E+00
         0.00000E+00
         0.00000E+00
         0.00000E+00
         0.00000E+00
         0.00000E+00
         0.00000E+00
         0.00000E+00
         0.00000E+00
         0.00000E+00
         0.00000E+00
         0.00000E+00
         0.00000E+00
         0.00000E+00
         0.00000E+00
         0.00000E+00
         0.00000E+00
         0.00000E+00
         0.00000E+00
         0.00000E+00
         0.00000E+00
         0.00000E+00
         0.00000E+00
         0.00000E+00
         0.00000E+00
         0.00000E+00
         0.00000E+00
         0.00000E+00
         0.00000E+00
         0.00000E+00
         0.00000E+00
         0.00000E+00
         0.00000E+00
         0.00000E+00
         0.00000E+00
         0.00000E+00
         0.00000E+00
         0.00000E+00
         0.00000E+00
         0.00000E+00
         0.00000E+00
         0.00000E+00
         0.00000E+00
         0.00000E+00
         0.00000E+00
         0.00000E+00
         0.00000E+00
         0.00000E+00
         0.00000E+00
         0.00000E+00
         0.00000E+00
         0.00000E+00
         0.00000E+00
         0.00000E+00
         0.00000E+00
         0.00000E+00
         0.00000E+00
         0.00000E+00
         0.00000E+00
         0.00000E+00
         0.00000E+00
         0.00000E+00
         0.00000E+00
         0.00000E+00
         0.00000E+00
         0.00000E+00
         0.00000E+00
         0.00000E+00
         0.00000E+00
         0.00000E+00
         0.00000E+00
         0.00000E+00
         0.00000E+00
         0.00000E+00
         0.00000E+00
         0.00000E+00
         0.00000E+00
         0.00000E+00
         0.00000E+00
         0.00000E+00
         0.00000E+00
         0.00000E+00
         0.00000E+00
         0.00000E+00
         0.00000E+00
         0.00000E+00
         0.00000E+00
         0.00000E+00
         0.00000E+00
         0.00000E+00
         0.00000E+00
         0.00000E+00
         0.00000E+00
         0.00000E+00
         0.00000E+00
         0.00000E+00
         0.00000E+00
         0.00000E+00
         0.00000E+00
         0.00000E+00
         0.00000E+00
         0.00000E+00
         0.00000E+00
         0.00000E+00
         0.00000E+00
         0.00000E+00
         0.00000E+00
         0.00000E+00
         0.00000E+00
         0.00000E+00
         0.00000E+00
         0.00000E+00
         0.00000E+00
         0.00000E+00
         0.00000E+00
         0.00000E+00
         0.00000E+00
         0.00000E+00
         0.00000E+00
         0.00000E+00
         0.00000E+00
         0.00000E+00
         0.00000E+00
         0.00000E+00
         0.00000E+00
         0.00000E+00
         0.00000E+00
         0.00000E+00
         0.00000E+00
         0.00000E+00
         0.00000E+00
         0.00000E+00
         0.00000E+00
         0.00000E+00
         0.00000E+00
         0.00000E+00
         0.00000E+00
         0.00000E+00
         0.00000E+00
         0.00000E+00
         0.00000E+00
         0.00000E+00
         0.00000E+00
         0.00000E+00
         0.00000E+00
         0.00000E+00
         0.00000E+00
         0.00000E+00
         0.00000E+00
         0.00000E+00
         0.00000E+00
         0.00000E+00
         0.00000E+00
         0.00000E+00
         0.00000E+00
         0.00000E+00
         0.00000E+00
         0.00000E+00
         0.00000E+00
         0.00000E+00
         0.00000E+00
         0.00000E+00
         0.00000E+00
         0.00000E+00
         0.00000E+00
         0.00000E+00
         0.00000E+00
         0.00000E+00
         0.00000E+00
         0.00000E+00
         0.00000E+00
         0.00000E+00
         0.00000E+00
         0.00000E+00
         0.00000E+00
         0.00000E+00
         0.00000E+00
         0.00000E+00
         0.00000E+00
         0.00000E+00
         0.00000E+00
         0.00000E+00
         0.00000E+00
         0.00000E+00
         0.00000E+00
         0.00000E+00
         0.00000E+00
         0.00000E+00
         0.00000E+00
         0.00000E+00
         0.00000E+00
         0.00000E+00
         0.00000E+00
         0.00000E+00
         0.00000E+00
         0.00000E+00
         0.00000E+00
         0.00000E+00
         0.00000E+00
         0.00000E+00
         0.00000E+00
         0.00000E+00
         0.00000E+00
         0.00000E+00
         0.00000E+00
         0.00000E+00
         0.00000E+00
         0.00000E+00
         0.00000E+00
         0.00000E+00
         0.00000E+00
         0.00000E+00
         0.00000E+00
         0.00000E+00
         0.00000E+00
         0.00000E+00
         0.00000E+00
         0.00000E+00
         0.00000E+00
         0.00000E+00
         0.00000E+00
         0.00000E+00
         0.00000E+00
         0.00000E+00
         0.00000E+00
         0.00000E+00
         0.00000E+00
         0.00000E+00
         0.00000E+00
         0.00000E+00
         0.00000E+00
         0.00000E+00
         0.00000E+00
         0.00000E+00
         0.00000E+00
         0.00000E+00
         0.00000E+00
         0.00000E+00
         0.00000E+00
         0.00000E+00
         0.00000E+00
         0.00000E+00
         0.00000E+00
         0.00000E+00
         0.00000E+00
         0.00000E+00
         0.00000E+00
         0.00000E+00
         0.00000E+00
         0.00000E+00
         0.00000E+00
         0.00000E+00
         0.00000E+00
         0.00000E+00
         0.00000E+00
         0.00000E+00
         0.00000E+00
         0.00000E+00
         0.00000E+00
         0.00000E+00
  
SCALARS                 acceleration_z  double 1
LOOKUP_TABLE default
         0.00000E+00
         0.00000E+00
         0.00000E+00
         0.00000E+00
         0.00000E+00
         0.00000E+00
         0.00000E+00
         0.00000E+00
         0.00000E+00
         0.00000E+00
         0.00000E+00
         0.00000E+00
         0.00000E+00
         0.00000E+00
         0.00000E+00
         0.00000E+00
         0.00000E+00
         0.00000E+00
         0.00000E+00
         0.00000E+00
         0.00000E+00
         0.00000E+00
         0.00000E+00
         0.00000E+00
         0.00000E+00
         0.00000E+00
         0.00000E+00
         0.00000E+00
         0.00000E+00
         0.00000E+00
         0.00000E+00
         0.00000E+00
         0.00000E+00
         0.00000E+00
         0.00000E+00
         0.00000E+00
         0.00000E+00
         0.00000E+00
         0.00000E+00
         0.00000E+00
         0.00000E+00
         0.00000E+00
         0.00000E+00
         0.00000E+00
         0.00000E+00
         0.00000E+00
         0.00000E+00
         0.00000E+00
         0.00000E+00
         0.00000E+00
         0.00000E+00
         0.00000E+00
         0.00000E+00
         0.00000E+00
         0.00000E+00
         0.00000E+00
         0.00000E+00
         0.00000E+00
         0.00000E+00
         0.00000E+00
         0.00000E+00
         0.00000E+00
         0.00000E+00
         0.00000E+00
         0.00000E+00
         0.00000E+00
         0.00000E+00
         0.00000E+00
         0.00000E+00
         0.00000E+00
         0.00000E+00
         0.00000E+00
         0.00000E+00
         0.00000E+00
         0.00000E+00
         0.00000E+00
         0.00000E+00
         0.00000E+00
         0.00000E+00
         0.00000E+00
         0.00000E+00
         0.00000E+00
         0.00000E+00
         0.00000E+00
         0.00000E+00
         0.00000E+00
         0.00000E+00
         0.00000E+00
         0.00000E+00
         0.00000E+00
         0.00000E+00
         0.00000E+00
         0.00000E+00
         0.00000E+00
         0.00000E+00
         0.00000E+00
         0.00000E+00
         0.00000E+00
         0.00000E+00
         0.00000E+00
         0.00000E+00
         0.00000E+00
         0.00000E+00
         0.00000E+00
         0.00000E+00
         0.00000E+00
         0.00000E+00
         0.00000E+00
         0.00000E+00
         0.00000E+00
         0.00000E+00
         0.00000E+00
         0.00000E+00
         0.00000E+00
         0.00000E+00
         0.00000E+00
         0.00000E+00
         0.00000E+00
         0.00000E+00
         0.00000E+00
         0.00000E+00
         0.00000E+00
         0.00000E+00
         0.00000E+00
         0.00000E+00
         0.00000E+00
         0.00000E+00
         0.00000E+00
         0.00000E+00
         0.00000E+00
         0.00000E+00
         0.00000E+00
         0.00000E+00
         0.00000E+00
         0.00000E+00
         0.00000E+00
         0.00000E+00
         0.00000E+00
         0.00000E+00
         0.00000E+00
         0.00000E+00
         0.00000E+00
         0.00000E+00
         0.00000E+00
         0.00000E+00
         0.00000E+00
         0.00000E+00
         0.00000E+00
         0.00000E+00
         0.00000E+00
         0.00000E+00
         0.00000E+00
         0.00000E+00
         0.00000E+00
         0.00000E+00
         0.00000E+00
         0.00000E+00
         0.00000E+00
         0.00000E+00
         0.00000E+00
         0.00000E+00
         0.00000E+00
         0.00000E+00
         0.00000E+00
         0.00000E+00
         0.00000E+00
         0.00000E+00
         0.00000E+00
         0.00000E+00
         0.00000E+00
         0.00000E+00
         0.00000E+00
         0.00000E+00
         0.00000E+00
         0.00000E+00
         0.00000E+00
         0.00000E+00
         0.00000E+00
         0.00000E+00
         0.00000E+00
         0.00000E+00
         0.00000E+00
         0.00000E+00
         0.00000E+00
         0.00000E+00
         0.00000E+00
         0.00000E+00
         0.00000E+00
         0.00000E+00
         0.00000E+00
         0.00000E+00
         0.00000E+00
         0.00000E+00
         0.00000E+00
         0.00000E+00
         0.00000E+00
         0.00000E+00
         0.00000E+00
         0.00000E+00
         0.00000E+00
         0.00000E+00
         0.00000E+00
         0.00000E+00
         0.00000E+00
         0.00000E+00
         0.00000E+00
         0.00000E+00
         0.00000E+00
         0.00000E+00
         0.00000E+00
         0.00000E+00
         0.00000E+00
         0.00000E+00
         0.00000E+00
         0.00000E+00
         0.00000E+00
         0.00000E+00
         0.00000E+00
         0.00000E+00
         0.00000E+00
         0.00000E+00
         0.00000E+00
         0.00000E+00
         0.00000E+00
         0.00000E+00
         0.00000E+00
         0.00000E+00
         0.00000E+00
         0.00000E+00
         0.00000E+00
         0.00000E+00
         0.00000E+00
         0.00000E+00
         0.00000E+00
         0.00000E+00
         0.00000E+00
         0.00000E+00
         0.00000E+00
         0.00000E+00
         0.00000E+00
         0.00000E+00
         0.00000E+00
         0.00000E+00
         0.00000E+00
         0.00000E+00
         0.00000E+00
         0.00000E+00
         0.00000E+00
         0.00000E+00
         0.00000E+00
         0.00000E+00
         0.00000E+00
         0.00000E+00
         0.00000E+00
         0.00000E+00
         0.00000E+00
         0.00000E+00
         0.00000E+00
         0.00000E+00
         0.00000E+00
         0.00000E+00
         0.00000E+00
         0.00000E+00
         0.00000E+00
         0.00000E+00
         0.00000E+00
         0.00000E+00
         0.00000E+00
         0.00000E+00
         0.00000E+00
         0.00000E+00
         0.00000E+00
         0.00000E+00
         0.00000E+00
         0.00000E+00
         0.00000E+00
         0.00000E+00
         0.00000E+00
         0.00000E+00
         0.00000E+00
         0.00000E+00
         0.00000E+00
         0.00000E+00
         0.00000E+00
         0.00000E+00
         0.00000E+00
         0.00000E+00
         0.00000E+00
         0.00000E+00
         0.00000E+00
         0.00000E+00
         0.00000E+00
         0.00000E+00
         0.00000E+00
         0.00000E+00
         0.00000E+00
         0.00000E+00
         0.00000E+00
         0.00000E+00
         0.00000E+00
         0.00000E+00
         0.00000E+00
         0.00000E+00
         0.00000E+00
         0.00000E+00
         0.00000E+00
         0.00000E+00
         0.00000E+00
         0.00000E+00
         0.00000E+00
         0.00000E+00
         0.00000E+00
         0.00000E+00
         0.00000E+00
         0.00000E+00
         0.00000E+00
         0.00000E+00
         0.00000E+00
         0.00000E+00
         0.00000E+00
         0.00000E+00
         0.00000E+00
         0.00000E+00
         0.00000E+00
         0.00000E+00
         0.00000E+00
         0.00000E+00
         0.00000E+00
         0.00000E+00
         0.00000E+00
         0.00000E+00
         0.00000E+00
         0.00000E+00
         0.00000E+00
         0.00000E+00
         0.00000E+00
         0.00000E+00
         0.00000E+00
         0.00000E+00
         0.00000E+00
         0.00000E+00
         0.00000E+00
         0.00000E+00
         0.00000E+00
         0.00000E+00
         0.00000E+00
         0.00000E+00
         0.00000E+00
         0.00000E+00
         0.00000E+00
         0.00000E+00
         0.00000E+00
         0.00000E+00
         0.00000E+00
         0.00000E+00
         0.00000E+00
         0.00000E+00
         0.00000E+00
         0.00000E+00
         0.00000E+00
         0.00000E+00
         0.00000E+00
         0.00000E+00
         0.00000E+00
         0.00000E+00
         0.00000E+00
         0.00000E+00
         0.00000E+00
         0.00000E+00
         0.00000E+00
         0.00000E+00
         0.00000E+00
         0.00000E+00
         0.00000E+00
         0.00000E+00
         0.00000E+00
         0.00000E+00
         0.00000E+00
         0.00000E+00
         0.00000E+00
         0.00000E+00
         0.00000E+00
         0.00000E+00
         0.00000E+00
         0.00000E+00
         0.00000E+00
         0.00000E+00
         0.00000E+00
         0.00000E+00
         0.00000E+00
         0.00000E+00
         0.00000E+00
         0.00000E+00
         0.00000E+00
         0.00000E+00
         0.00000E+00
         0.00000E+00
         0.00000E+00
         0.00000E+00
         0.00000E+00
         0.00000E+00
         0.00000E+00
         0.00000E+00
         0.00000E+00
         0.00000E+00
         0.00000E+00
         0.00000E+00
         0.00000E+00
         0.00000E+00
         0.00000E+00
         0.00000E+00
         0.00000E+00
         0.00000E+00
         0.00000E+00
         0.00000E+00
         0.00000E+00
         0.00000E+00
         0.00000E+00
         0.00000E+00
         0.00000E+00
         0.00000E+00
         0.00000E+00
         0.00000E+00
         0.00000E+00
         0.00000E+00
         0.00000E+00
         0.00000E+00
         0.00000E+00
         0.00000E+00
         0.00000E+00
         0.00000E+00
         0.00000E+00
         0.00000E+00
         0.00000E+00
         0.00000E+00
         0.00000E+00
         0.00000E+00
         0.00000E+00
         0.00000E+00
         0.00000E+00
         0.00000E+00
         0.00000E+00
         0.00000E+00
         0.00000E+00
         0.00000E+00
         0.00000E+00
         0.00000E+00
         0.00000E+00
         0.00000E+00
         0.00000E+00
         0.00000E+00
         0.00000E+00
         0.00000E+00
         0.00000E+00
         0.00000E+00
         0.00000E+00
         0.00000E+00
         0.00000E+00
         0.00000E+00
         0.00000E+00
         0.00000E+00
         0.00000E+00
         0.00000E+00
         0.00000E+00
         0.00000E+00
         0.00000E+00
         0.00000E+00
         0.00000E+00
         0.00000E+00
         0.00000E+00
         0.00000E+00
         0.00000E+00
         0.00000E+00
         0.00000E+00
         0.00000E+00
         0.00000E+00
         0.00000E+00
         0.00000E+00
         0.00000E+00
         0.00000E+00
         0.00000E+00
         0.00000E+00
         0.00000E+00
         0.00000E+00
         0.00000E+00
         0.00000E+00
         0.00000E+00
         0.00000E+00
         0.00000E+00
         0.00000E+00
         0.00000E+00
         0.00000E+00
         0.00000E+00
         0.00000E+00
         0.00000E+00
         0.00000E+00
         0.00000E+00
         0.00000E+00
         0.00000E+00
         0.00000E+00
         0.00000E+00
         0.00000E+00
         0.00000E+00
         0.00000E+00
         0.00000E+00
         0.00000E+00
         0.00000E+00
         0.00000E+00
         0.00000E+00
         0.00000E+00
         0.00000E+00
         0.00000E+00
         0.00000E+00
         0.00000E+00
         0.00000E+00
         0.00000E+00
         0.00000E+00
         0.00000E+00
         0.00000E+00
         0.00000E+00
         0.00000E+00
         0.00000E+00
         0.00000E+00
         0.00000E+00
         0.00000E+00
         0.00000E+00
         0.00000E+00
         0.00000E+00
         0.00000E+00
         0.00000E+00
         0.00000E+00
         0.00000E+00
         0.00000E+00
         0.00000E+00
         0.00000E+00
         0.00000E+00
         0.00000E+00
         0.00000E+00
         0.00000E+00
         0.00000E+00
         0.00000E+00
         0.00000E+00
         0.00000E+00
         0.00000E+00
         0.00000E+00
         0.00000E+00
         0.00000E+00
         0.00000E+00
         0.00000E+00
         0.00000E+00
         0.00000E+00
         0.00000E+00
         0.00000E+00
         0.00000E+00
         0.00000E+00
         0.00000E+00
         0.00000E+00
         0.00000E+00
         0.00000E+00
         0.00000E+00
         0.00000E+00
         0.00000E+00
         0.00000E+00
         0.00000E+00
         0.00000E+00
         0.00000E+00
         0.00000E+00
         0.00000E+00
         0.00000E+00
         0.00000E+00
         0.00000E+00
         0.00000E+00
         0.00000E+00
         0.00000E+00
         0.00000E+00
         0.00000E+00
         0.00000E+00
         0.00000E+00
         0.00000E+00
         0.00000E+00
         0.00000E+00
         0.00000E+00
         0.00000E+00
         0.00000E+00
         0.00000E+00
         0.00000E+00
         0.00000E+00
         0.00000E+00
         0.00000E+00
         0.00000E+00
         0.00000E+00
         0.00000E+00
         0.00000E+00
         0.00000E+00
         0.00000E+00
         0.00000E+00
         0.00000E+00
         0.00000E+00
         0.00000E+00
         0.00000E+00
         0.00000E+00
         0.00000E+00
         0.00000E+00
         0.00000E+00
         0.00000E+00
         0.00000E+00
         0.00000E+00
         0.00000E+00
         0.00000E+00
         0.00000E+00
         0.00000E+00
         0.00000E+00
         0.00000E+00
         0.00000E+00
         0.00000E+00
         0.00000E+00
         0.00000E+00
         0.00000E+00
         0.00000E+00
         0.00000E+00
         0.00000E+00
         0.00000E+00
         0.00000E+00
         0.00000E+00
         0.00000E+00
         0.00000E+00
         0.00000E+00
         0.00000E+00
         0.00000E+00
         0.00000E+00
         0.00000E+00
         0.00000E+00
         0.00000E+00
         0.00000E+00
         0.00000E+00
         0.00000E+00
         0.00000E+00
         0.00000E+00
         0.00000E+00
         0.00000E+00
         0.00000E+00
         0.00000E+00
         0.00000E+00
         0.00000E+00
         0.00000E+00
         0.00000E+00
         0.00000E+00
         0.00000E+00
         0.00000E+00
         0.00000E+00
         0.00000E+00
         0.00000E+00
         0.00000E+00
         0.00000E+00
         0.00000E+00
         0.00000E+00
         0.00000E+00
         0.00000E+00
         0.00000E+00
         0.00000E+00
         0.00000E+00
         0.00000E+00
         0.00000E+00
         0.00000E+00
         0.00000E+00
         0.00000E+00
         0.00000E+00
         0.00000E+00
         0.00000E+00
         0.00000E+00
         0.00000E+00
         0.00000E+00
         0.00000E+00
         0.00000E+00
         0.00000E+00
         0.00000E+00
         0.00000E+00
         0.00000E+00
         0.00000E+00
         0.00000E+00
         0.00000E+00
         0.00000E+00
         0.00000E+00
         0.00000E+00
         0.00000E+00
         0.00000E+00
         0.00000E+00
         0.00000E+00
         0.00000E+00
         0.00000E+00
         0.00000E+00
         0.00000E+00
         0.00000E+00
         0.00000E+00
         0.00000E+00
         0.00000E+00
         0.00000E+00
         0.00000E+00
         0.00000E+00
         0.00000E+00
         0.00000E+00
         0.00000E+00
         0.00000E+00
         0.00000E+00
         0.00000E+00
         0.00000E+00
         0.00000E+00
         0.00000E+00
         0.00000E+00
         0.00000E+00
         0.00000E+00
         0.00000E+00
         0.00000E+00
         0.00000E+00
         0.00000E+00
         0.00000E+00
         0.00000E+00
         0.00000E+00
         0.00000E+00
         0.00000E+00
         0.00000E+00
         0.00000E+00
         0.00000E+00
         0.00000E+00
         0.00000E+00
         0.00000E+00
         0.00000E+00
         0.00000E+00
         0.00000E+00
         0.00000E+00
         0.00000E+00
         0.00000E+00
         0.00000E+00
         0.00000E+00
         0.00000E+00
         0.00000E+00
         0.00000E+00
         0.00000E+00
         0.00000E+00
         0.00000E+00
         0.00000E+00
         0.00000E+00
         0.00000E+00
         0.00000E+00
         0.00000E+00
         0.00000E+00
         0.00000E+00
         0.00000E+00
         0.00000E+00
         0.00000E+00
         0.00000E+00
         0.00000E+00
         0.00000E+00
         0.00000E+00
         0.00000E+00
         0.00000E+00
         0.00000E+00
         0.00000E+00
         0.00000E+00
         0.00000E+00
         0.00000E+00
         0.00000E+00
         0.00000E+00
         0.00000E+00
         0.00000E+00
         0.00000E+00
         0.00000E+00
         0.00000E+00
         0.00000E+00
         0.00000E+00
         0.00000E+00
         0.00000E+00
         0.00000E+00
         0.00000E+00
         0.00000E+00
         0.00000E+00
         0.00000E+00
         0.00000E+00
         0.00000E+00
         0.00000E+00
         0.00000E+00
         0.00000E+00
         0.00000E+00
         0.00000E+00
         0.00000E+00
         0.00000E+00
         0.00000E+00
         0.00000E+00
         0.00000E+00
         0.00000E+00
         0.00000E+00
         0.00000E+00
         0.00000E+00
         0.00000E+00
         0.00000E+00
         0.00000E+00
         0.00000E+00
         0.00000E+00
         0.00000E+00
         0.00000E+00
         0.00000E+00
         0.00000E+00
         0.00000E+00
         0.00000E+00
         0.00000E+00
         0.00000E+00
         0.00000E+00
         0.00000E+00
         0.00000E+00
         0.00000E+00
         0.00000E+00
         0.00000E+00
         0.00000E+00
         0.00000E+00
         0.00000E+00
         0.00000E+00
         0.00000E+00
         0.00000E+00
         0.00000E+00
         0.00000E+00
         0.00000E+00
         0.00000E+00
         0.00000E+00
         0.00000E+00
         0.00000E+00
         0.00000E+00
         0.00000E+00
         0.00000E+00
         0.00000E+00
         0.00000E+00
         0.00000E+00
         0.00000E+00
         0.00000E+00
         0.00000E+00
         0.00000E+00
         0.00000E+00
         0.00000E+00
         0.00000E+00
         0.00000E+00
         0.00000E+00
         0.00000E+00
         0.00000E+00
         0.00000E+00
         0.00000E+00
         0.00000E+00
         0.00000E+00
         0.00000E+00
         0.00000E+00
         0.00000E+00
         0.00000E+00
         0.00000E+00
         0.00000E+00
         0.00000E+00
         0.00000E+00
         0.00000E+00
         0.00000E+00
         0.00000E+00
         0.00000E+00
         0.00000E+00
         0.00000E+00
         0.00000E+00
         0.00000E+00
         0.00000E+00
         0.00000E+00
         0.00000E+00
         0.00000E+00
         0.00000E+00
         0.00000E+00
         0.00000E+00
         0.00000E+00
         0.00000E+00
         0.00000E+00
         0.00000E+00
         0.00000E+00
         0.00000E+00
         0.00000E+00
         0.00000E+00
         0.00000E+00
         0.00000E+00
         0.00000E+00
         0.00000E+00
         0.00000E+00
         0.00000E+00
         0.00000E+00
         0.00000E+00
         0.00000E+00
         0.00000E+00
         0.00000E+00
         0.00000E+00
         0.00000E+00
         0.00000E+00
         0.00000E+00
         0.00000E+00
         0.00000E+00
         0.00000E+00
         0.00000E+00
         0.00000E+00
         0.00000E+00
         0.00000E+00
         0.00000E+00
         0.00000E+00
         0.00000E+00
         0.00000E+00
         0.00000E+00
         0.00000E+00
         0.00000E+00
         0.00000E+00
         0.00000E+00
         0.00000E+00
         0.00000E+00
         0.00000E+00
         0.00000E+00
         0.00000E+00
         0.00000E+00
         0.00000E+00
         0.00000E+00
         0.00000E+00
         0.00000E+00
         0.00000E+00
         0.00000E+00
         0.00000E+00
         0.00000E+00
         0.00000E+00
         0.00000E+00
         0.00000E+00
         0.00000E+00
         0.00000E+00
         0.00000E+00
         0.00000E+00
         0.00000E+00
         0.00000E+00
         0.00000E+00
         0.00000E+00
         0.00000E+00
         0.00000E+00
         0.00000E+00
         0.00000E+00
         0.00000E+00
         0.00000E+00
         0.00000E+00
         0.00000E+00
         0.00000E+00
         0.00000E+00
         0.00000E+00
         0.00000E+00
         0.00000E+00
         0.00000E+00
         0.00000E+00
         0.00000E+00
         0.00000E+00
         0.00000E+00
         0.00000E+00
         0.00000E+00
         0.00000E+00
         0.00000E+00
         0.00000E+00
         0.00000E+00
         0.00000E+00
         0.00000E+00
         0.00000E+00
         0.00000E+00
         0.00000E+00
         0.00000E+00
         0.00000E+00
         0.00000E+00
         0.00000E+00
         0.00000E+00
         0.00000E+00
         0.00000E+00
         0.00000E+00
         0.00000E+00
         0.00000E+00
         0.00000E+00
         0.00000E+00
         0.00000E+00
         0.00000E+00
         0.00000E+00
         0.00000E+00
         0.00000E+00
         0.00000E+00
         0.00000E+00
         0.00000E+00
         0.00000E+00
         0.00000E+00
         0.00000E+00
         0.00000E+00
         0.00000E+00
         0.00000E+00
         0.00000E+00
         0.00000E+00
         0.00000E+00
         0.00000E+00
         0.00000E+00
         0.00000E+00
         0.00000E+00
         0.00000E+00
         0.00000E+00
         0.00000E+00
         0.00000E+00
         0.00000E+00
         0.00000E+00
         0.00000E+00
         0.00000E+00
         0.00000E+00
         0.00000E+00
         0.00000E+00
         0.00000E+00
         0.00000E+00
         0.00000E+00
         0.00000E+00
         0.00000E+00
         0.00000E+00
         0.00000E+00
         0.00000E+00
         0.00000E+00
         0.00000E+00
         0.00000E+00
         0.00000E+00
         0.00000E+00
         0.00000E+00
         0.00000E+00
         0.00000E+00
         0.00000E+00
         0.00000E+00
         0.00000E+00
         0.00000E+00
         0.00000E+00
         0.00000E+00
         0.00000E+00
         0.00000E+00
         0.00000E+00
         0.00000E+00
         0.00000E+00
         0.00000E+00
         0.00000E+00
         0.00000E+00
         0.00000E+00
         0.00000E+00
         0.00000E+00
         0.00000E+00
         0.00000E+00
         0.00000E+00
         0.00000E+00
         0.00000E+00
         0.00000E+00
         0.00000E+00
         0.00000E+00
         0.00000E+00
         0.00000E+00
         0.00000E+00
         0.00000E+00
         0.00000E+00
         0.00000E+00
         0.00000E+00
         0.00000E+00
         0.00000E+00
         0.00000E+00
         0.00000E+00
         0.00000E+00
         0.00000E+00
         0.00000E+00
         0.00000E+00
         0.00000E+00
         0.00000E+00
         0.00000E+00
         0.00000E+00
         0.00000E+00
         0.00000E+00
         0.00000E+00
         0.00000E+00
         0.00000E+00
         0.00000E+00
         0.00000E+00
         0.00000E+00
         0.00000E+00
         0.00000E+00
         0.00000E+00
         0.00000E+00
         0.00000E+00
         0.00000E+00
         0.00000E+00
         0.00000E+00
         0.00000E+00
         0.00000E+00
         0.00000E+00
         0.00000E+00
         0.00000E+00
         0.00000E+00
         0.00000E+00
         0.00000E+00
         0.00000E+00
         0.00000E+00
         0.00000E+00
         0.00000E+00
         0.00000E+00
         0.00000E+00
         0.00000E+00
         0.00000E+00
         0.00000E+00
         0.00000E+00
         0.00000E+00
         0.00000E+00
         0.00000E+00
         0.00000E+00
         0.00000E+00
         0.00000E+00
         0.00000E+00
         0.00000E+00
         0.00000E+00
         0.00000E+00
         0.00000E+00
         0.00000E+00
         0.00000E+00
         0.00000E+00
         0.00000E+00
         0.00000E+00
         0.00000E+00
         0.00000E+00
         0.00000E+00
         0.00000E+00
         0.00000E+00
         0.00000E+00
         0.00000E+00
         0.00000E+00
         0.00000E+00
         0.00000E+00
         0.00000E+00
         0.00000E+00
         0.00000E+00
         0.00000E+00
         0.00000E+00
         0.00000E+00
         0.00000E+00
         0.00000E+00
         0.00000E+00
         0.00000E+00
         0.00000E+00
         0.00000E+00
         0.00000E+00
         0.00000E+00
         0.00000E+00
         0.00000E+00
         0.00000E+00
         0.00000E+00
         0.00000E+00
         0.00000E+00
         0.00000E+00
         0.00000E+00
         0.00000E+00
         0.00000E+00
         0.00000E+00
         0.00000E+00
         0.00000E+00
         0.00000E+00
         0.00000E+00
         0.00000E+00
         0.00000E+00
         0.00000E+00
         0.00000E+00
         0.00000E+00
         0.00000E+00
         0.00000E+00
         0.00000E+00
         0.00000E+00
         0.00000E+00
         0.00000E+00
         0.00000E+00
         0.00000E+00
         0.00000E+00
         0.00000E+00
         0.00000E+00
         0.00000E+00
         0.00000E+00
         0.00000E+00
         0.00000E+00
         0.00000E+00
         0.00000E+00
         0.00000E+00
         0.00000E+00
         0.00000E+00
         0.00000E+00
         0.00000E+00
         0.00000E+00
         0.00000E+00
         0.00000E+00
         0.00000E+00
         0.00000E+00
         0.00000E+00
         0.00000E+00
         0.00000E+00
         0.00000E+00
         0.00000E+00
         0.00000E+00
         0.00000E+00
         0.00000E+00
         0.00000E+00
         0.00000E+00
         0.00000E+00
         0.00000E+00
         0.00000E+00
         0.00000E+00
         0.00000E+00
         0.00000E+00
         0.00000E+00
         0.00000E+00
         0.00000E+00
         0.00000E+00
         0.00000E+00
         0.00000E+00
         0.00000E+00
         0.00000E+00
         0.00000E+00
         0.00000E+00
         0.00000E+00
         0.00000E+00
         0.00000E+00
         0.00000E+00
         0.00000E+00
         0.00000E+00
         0.00000E+00
         0.00000E+00
         0.00000E+00
         0.00000E+00
         0.00000E+00
         0.00000E+00
         0.00000E+00
         0.00000E+00
         0.00000E+00
         0.00000E+00
         0.00000E+00
         0.00000E+00
         0.00000E+00
         0.00000E+00
         0.00000E+00
         0.00000E+00
         0.00000E+00
         0.00000E+00
         0.00000E+00
         0.00000E+00
         0.00000E+00
         0.00000E+00
         0.00000E+00
         0.00000E+00
         0.00000E+00
         0.00000E+00
         0.00000E+00
         0.00000E+00
         0.00000E+00
         0.00000E+00
         0.00000E+00
         0.00000E+00
         0.00000E+00
         0.00000E+00
         0.00000E+00
         0.00000E+00
         0.00000E+00
         0.00000E+00
         0.00000E+00
         0.00000E+00
         0.00000E+00
         0.00000E+00
         0.00000E+00
         0.00000E+00
         0.00000E+00
         0.00000E+00
         0.00000E+00
         0.00000E+00
         0.00000E+00
         0.00000E+00
         0.00000E+00
         0.00000E+00
         0.00000E+00
         0.00000E+00
         0.00000E+00
         0.00000E+00
         0.00000E+00
         0.00000E+00
         0.00000E+00
         0.00000E+00
         0.00000E+00
         0.00000E+00
         0.00000E+00
         0.00000E+00
         0.00000E+00
         0.00000E+00
         0.00000E+00
         0.00000E+00
         0.00000E+00
         0.00000E+00
         0.00000E+00
         0.00000E+00
         0.00000E+00
         0.00000E+00
         0.00000E+00
         0.00000E+00
         0.00000E+00
         0.00000E+00
         0.00000E+00
         0.00000E+00
         0.00000E+00
         0.00000E+00
         0.00000E+00
         0.00000E+00
         0.00000E+00
         0.00000E+00
         0.00000E+00
         0.00000E+00
         0.00000E+00
         0.00000E+00
         0.00000E+00
         0.00000E+00
         0.00000E+00
         0.00000E+00
         0.00000E+00
         0.00000E+00
         0.00000E+00
         0.00000E+00
         0.00000E+00
         0.00000E+00
         0.00000E+00
         0.00000E+00
         0.00000E+00
         0.00000E+00
         0.00000E+00
         0.00000E+00
         0.00000E+00
         0.00000E+00
         0.00000E+00
         0.00000E+00
         0.00000E+00
         0.00000E+00
         0.00000E+00
         0.00000E+00
         0.00000E+00
         0.00000E+00
         0.00000E+00
         0.00000E+00
         0.00000E+00
         0.00000E+00
         0.00000E+00
         0.00000E+00
         0.00000E+00
         0.00000E+00
         0.00000E+00
         0.00000E+00
         0.00000E+00
         0.00000E+00
         0.00000E+00
         0.00000E+00
         0.00000E+00
         0.00000E+00
         0.00000E+00
         0.00000E+00
         0.00000E+00
         0.00000E+00
         0.00000E+00
         0.00000E+00
         0.00000E+00
         0.00000E+00
         0.00000E+00
         0.00000E+00
         0.00000E+00
         0.00000E+00
         0.00000E+00
         0.00000E+00
         0.00000E+00
         0.00000E+00
         0.00000E+00
         0.00000E+00
         0.00000E+00
         0.00000E+00
         0.00000E+00
         0.00000E+00
         0.00000E+00
         0.00000E+00
         0.00000E+00
         0.00000E+00
         0.00000E+00
         0.00000E+00
         0.00000E+00
         0.00000E+00
         0.00000E+00
         0.00000E+00
         0.00000E+00
         0.00000E+00
         0.00000E+00
         0.00000E+00
         0.00000E+00
         0.00000E+00
         0.00000E+00
         0.00000E+00
         0.00000E+00
         0.00000E+00
         0.00000E+00
         0.00000E+00
         0.00000E+00
         0.00000E+00
         0.00000E+00
         0.00000E+00
         0.00000E+00
         0.00000E+00
         0.00000E+00
         0.00000E+00
         0.00000E+00
         0.00000E+00
         0.00000E+00
         0.00000E+00
         0.00000E+00
         0.00000E+00
         0.00000E+00
         0.00000E+00
         0.00000E+00
         0.00000E+00
         0.00000E+00
         0.00000E+00
         0.00000E+00
         0.00000E+00
         0.00000E+00
         0.00000E+00
         0.00000E+00
         0.00000E+00
         0.00000E+00
         0.00000E+00
         0.00000E+00
         0.00000E+00
         0.00000E+00
         0.00000E+00
         0.00000E+00
         0.00000E+00
         0.00000E+00
         0.00000E+00
         0.00000E+00
         0.00000E+00
         0.00000E+00
         0.00000E+00
         0.00000E+00
         0.00000E+00
         0.00000E+00
         0.00000E+00
         0.00000E+00
         0.00000E+00
         0.00000E+00
         0.00000E+00
         0.00000E+00
         0.00000E+00
         0.00000E+00
         0.00000E+00
         0.00000E+00
         0.00000E+00
         0.00000E+00
         0.00000E+00
         0.00000E+00
         0.00000E+00
         0.00000E+00
         0.00000E+00
         0.00000E+00
         0.00000E+00
         0.00000E+00
         0.00000E+00
         0.00000E+00
         0.00000E+00
         0.00000E+00
         0.00000E+00
         0.00000E+00
         0.00000E+00
         0.00000E+00
         0.00000E+00
         0.00000E+00
         0.00000E+00
         0.00000E+00
         0.00000E+00
         0.00000E+00
         0.00000E+00
         0.00000E+00
         0.00000E+00
         0.00000E+00
         0.00000E+00
         0.00000E+00
         0.00000E+00
         0.00000E+00
         0.00000E+00
         0.00000E+00
         0.00000E+00
         0.00000E+00
         0.00000E+00
         0.00000E+00
         0.00000E+00
         0.00000E+00
         0.00000E+00
         0.00000E+00
         0.00000E+00
         0.00000E+00
         0.00000E+00
         0.00000E+00
         0.00000E+00
         0.00000E+00
         0.00000E+00
         0.00000E+00
         0.00000E+00
         0.00000E+00
         0.00000E+00
         0.00000E+00
         0.00000E+00
         0.00000E+00
         0.00000E+00
         0.00000E+00
         0.00000E+00
         0.00000E+00
         0.00000E+00
         0.00000E+00
         0.00000E+00
         0.00000E+00
         0.00000E+00
         0.00000E+00
         0.00000E+00
         0.00000E+00
         0.00000E+00
         0.00000E+00
         0.00000E+00
         0.00000E+00
         0.00000E+00
         0.00000E+00
         0.00000E+00
         0.00000E+00
         0.00000E+00
         0.00000E+00
         0.00000E+00
         0.00000E+00
         0.00000E+00
         0.00000E+00
         0.00000E+00
         0.00000E+00
         0.00000E+00
         0.00000E+00
         0.00000E+00
         0.00000E+00
         0.00000E+00
         0.00000E+00
         0.00000E+00
         0.00000E+00
         0.00000E+00
         0.00000E+00
         0.00000E+00
         0.00000E+00
         0.00000E+00
         0.00000E+00
         0.00000E+00
         0.00000E+00
         0.00000E+00
         0.00000E+00
         0.00000E+00
         0.00000E+00
         0.00000E+00
         0.00000E+00
         0.00000E+00
         0.00000E+00
         0.00000E+00
         0.00000E+00
         0.00000E+00
         0.00000E+00
         0.00000E+00
         0.00000E+00
         0.00000E+00
         0.00000E+00
         0.00000E+00
         0.00000E+00
         0.00000E+00
         0.00000E+00
         0.00000E+00
         0.00000E+00
         0.00000E+00
         0.00000E+00
         0.00000E+00
         0.00000E+00
         0.00000E+00
         0.00000E+00
         0.00000E+00
         0.00000E+00
         0.00000E+00
         0.00000E+00
         0.00000E+00
         0.00000E+00
         0.00000E+00
         0.00000E+00
         0.00000E+00
         0.00000E+00
         0.00000E+00
         0.00000E+00
         0.00000E+00
         0.00000E+00
         0.00000E+00
         0.00000E+00
         0.00000E+00
         0.00000E+00
         0.00000E+00
         0.00000E+00
         0.00000E+00
         0.00000E+00
         0.00000E+00
         0.00000E+00
         0.00000E+00
         0.00000E+00
         0.00000E+00
         0.00000E+00
         0.00000E+00
         0.00000E+00
         0.00000E+00
         0.00000E+00
         0.00000E+00
         0.00000E+00
         0.00000E+00
         0.00000E+00
         0.00000E+00
         0.00000E+00
         0.00000E+00
         0.00000E+00
         0.00000E+00
         0.00000E+00
         0.00000E+00
         0.00000E+00
         0.00000E+00
         0.00000E+00
         0.00000E+00
         0.00000E+00
         0.00000E+00
         0.00000E+00
         0.00000E+00
         0.00000E+00
         0.00000E+00
         0.00000E+00
         0.00000E+00
         0.00000E+00
         0.00000E+00
         0.00000E+00
         0.00000E+00
         0.00000E+00
         0.00000E+00
         0.00000E+00
         0.00000E+00
         0.00000E+00
         0.00000E+00
         0.00000E+00
         0.00000E+00
         0.00000E+00
         0.00000E+00
         0.00000E+00
         0.00000E+00
         0.00000E+00
         0.00000E+00
         0.00000E+00
         0.00000E+00
         0.00000E+00
         0.00000E+00
         0.00000E+00
         0.00000E+00
         0.00000E+00
         0.00000E+00
         0.00000E+00
         0.00000E+00
         0.00000E+00
         0.00000E+00
         0.00000E+00
         0.00000E+00
         0.00000E+00
         0.00000E+00
         0.00000E+00
         0.00000E+00
         0.00000E+00
         0.00000E+00
         0.00000E+00
         0.00000E+00
         0.00000E+00
         0.00000E+00
         0.00000E+00
         0.00000E+00
         0.00000E+00
         0.00000E+00
         0.00000E+00
         0.00000E+00
         0.00000E+00
         0.00000E+00
         0.00000E+00
         0.00000E+00
         0.00000E+00
         0.00000E+00
         0.00000E+00
         0.00000E+00
         0.00000E+00
         0.00000E+00
         0.00000E+00
         0.00000E+00
         0.00000E+00
         0.00000E+00
         0.00000E+00
         0.00000E+00
         0.00000E+00
         0.00000E+00
         0.00000E+00
         0.00000E+00
         0.00000E+00
         0.00000E+00
         0.00000E+00
         0.00000E+00
         0.00000E+00
         0.00000E+00
         0.00000E+00
         0.00000E+00
         0.00000E+00
         0.00000E+00
         0.00000E+00
         0.00000E+00
         0.00000E+00
         0.00000E+00
         0.00000E+00
         0.00000E+00
         0.00000E+00
         0.00000E+00
         0.00000E+00
         0.00000E+00
         0.00000E+00
         0.00000E+00
         0.00000E+00
         0.00000E+00
         0.00000E+00
         0.00000E+00
         0.00000E+00
         0.00000E+00
         0.00000E+00
         0.00000E+00
         0.00000E+00
         0.00000E+00
         0.00000E+00
         0.00000E+00
         0.00000E+00
         0.00000E+00
         0.00000E+00
         0.00000E+00
         0.00000E+00
         0.00000E+00
         0.00000E+00
         0.00000E+00
         0.00000E+00
         0.00000E+00
         0.00000E+00
         0.00000E+00
         0.00000E+00
         0.00000E+00
         0.00000E+00
         0.00000E+00
         0.00000E+00
         0.00000E+00
         0.00000E+00
         0.00000E+00
         0.00000E+00
         0.00000E+00
         0.00000E+00
         0.00000E+00
         0.00000E+00
         0.00000E+00
         0.00000E+00
         0.00000E+00
         0.00000E+00
         0.00000E+00
         0.00000E+00
         0.00000E+00
         0.00000E+00
         0.00000E+00
         0.00000E+00
         0.00000E+00
         0.00000E+00
         0.00000E+00
         0.00000E+00
         0.00000E+00
         0.00000E+00
         0.00000E+00
         0.00000E+00
         0.00000E+00
         0.00000E+00
         0.00000E+00
         0.00000E+00
         0.00000E+00
         0.00000E+00
         0.00000E+00
         0.00000E+00
         0.00000E+00
         0.00000E+00
         0.00000E+00
         0.00000E+00
         0.00000E+00
         0.00000E+00
         0.00000E+00
         0.00000E+00
         0.00000E+00
         0.00000E+00
         0.00000E+00
         0.00000E+00
         0.00000E+00
         0.00000E+00
         0.00000E+00
         0.00000E+00
         0.00000E+00
         0.00000E+00
         0.00000E+00
         0.00000E+00
         0.00000E+00
         0.00000E+00
         0.00000E+00
         0.00000E+00
         0.00000E+00
         0.00000E+00
         0.00000E+00
         0.00000E+00
         0.00000E+00
         0.00000E+00
         0.00000E+00
         0.00000E+00
         0.00000E+00
         0.00000E+00
         0.00000E+00
         0.00000E+00
         0.00000E+00
         0.00000E+00
         0.00000E+00
         0.00000E+00
         0.00000E+00
         0.00000E+00
         0.00000E+00
         0.00000E+00
         0.00000E+00
         0.00000E+00
         0.00000E+00
         0.00000E+00
         0.00000E+00
         0.00000E+00
         0.00000E+00
         0.00000E+00
         0.00000E+00
         0.00000E+00
         0.00000E+00
         0.00000E+00
         0.00000E+00
         0.00000E+00
         0.00000E+00
         0.00000E+00
         0.00000E+00
         0.00000E+00
         0.00000E+00
         0.00000E+00
         0.00000E+00
         0.00000E+00
         0.00000E+00
         0.00000E+00
         0.00000E+00
         0.00000E+00
         0.00000E+00
         0.00000E+00
         0.00000E+00
         0.00000E+00
         0.00000E+00
         0.00000E+00
         0.00000E+00
         0.00000E+00
         0.00000E+00
         0.00000E+00
         0.00000E+00
         0.00000E+00
         0.00000E+00
         0.00000E+00
         0.00000E+00
         0.00000E+00
         0.00000E+00
         0.00000E+00
         0.00000E+00
         0.00000E+00
         0.00000E+00
         0.00000E+00
         0.00000E+00
         0.00000E+00
         0.00000E+00
         0.00000E+00
         0.00000E+00
         0.00000E+00
         0.00000E+00
         0.00000E+00
         0.00000E+00
         0.00000E+00
         0.00000E+00
         0.00000E+00
         0.00000E+00
         0.00000E+00
         0.00000E+00
         0.00000E+00
         0.00000E+00
         0.00000E+00
         0.00000E+00
         0.00000E+00
         0.00000E+00
         0.00000E+00
         0.00000E+00
         0.00000E+00
         0.00000E+00
         0.00000E+00
         0.00000E+00
         0.00000E+00
         0.00000E+00
         0.00000E+00
         0.00000E+00
         0.00000E+00
         0.00000E+00
         0.00000E+00
         0.00000E+00
         0.00000E+00
         0.00000E+00
         0.00000E+00
         0.00000E+00
         0.00000E+00
         0.00000E+00
         0.00000E+00
         0.00000E+00
         0.00000E+00
         0.00000E+00
         0.00000E+00
         0.00000E+00
         0.00000E+00
         0.00000E+00
         0.00000E+00
         0.00000E+00
         0.00000E+00
         0.00000E+00
         0.00000E+00
         0.00000E+00
         0.00000E+00
         0.00000E+00
         0.00000E+00
         0.00000E+00
         0.00000E+00
         0.00000E+00
         0.00000E+00
         0.00000E+00
         0.00000E+00
         0.00000E+00
         0.00000E+00
         0.00000E+00
         0.00000E+00
         0.00000E+00
         0.00000E+00
         0.00000E+00
         0.00000E+00
         0.00000E+00
         0.00000E+00
  
SCALARS                         fint_x  double 1
LOOKUP_TABLE default
         0.00000E+00
         0.00000E+00
         0.00000E+00
         0.00000E+00
         0.00000E+00
         0.00000E+00
         0.00000E+00
         0.00000E+00
         0.00000E+00
         0.00000E+00
         0.00000E+00
         0.00000E+00
         0.00000E+00
         0.00000E+00
         0.00000E+00
         0.00000E+00
         0.00000E+00
         0.00000E+00
         0.00000E+00
         0.00000E+00
         0.00000E+00
         0.00000E+00
         0.00000E+00
         0.00000E+00
         0.00000E+00
         0.00000E+00
         0.00000E+00
         0.00000E+00
         0.00000E+00
         0.00000E+00
         0.00000E+00
         0.00000E+00
         0.00000E+00
         0.00000E+00
         0.00000E+00
         0.00000E+00
         0.00000E+00
         0.00000E+00
         0.00000E+00
         0.00000E+00
         0.00000E+00
         0.00000E+00
         0.00000E+00
         0.00000E+00
         0.00000E+00
         0.00000E+00
         0.00000E+00
         0.00000E+00
         0.00000E+00
         0.00000E+00
         0.00000E+00
         0.00000E+00
         0.00000E+00
         0.00000E+00
         0.00000E+00
         0.00000E+00
         0.00000E+00
         0.00000E+00
         0.00000E+00
         0.00000E+00
         0.00000E+00
         0.00000E+00
         0.00000E+00
         0.00000E+00
         0.00000E+00
         0.00000E+00
         0.00000E+00
         0.00000E+00
         0.00000E+00
         0.00000E+00
         0.00000E+00
         0.00000E+00
         0.00000E+00
         0.00000E+00
         0.00000E+00
         0.00000E+00
         0.00000E+00
         0.00000E+00
         0.00000E+00
         0.00000E+00
         0.00000E+00
         0.00000E+00
         0.00000E+00
         0.00000E+00
         0.00000E+00
         0.00000E+00
         0.00000E+00
         0.00000E+00
         0.00000E+00
         0.00000E+00
         0.00000E+00
         0.00000E+00
         0.00000E+00
         0.00000E+00
         0.00000E+00
         0.00000E+00
         0.00000E+00
         0.00000E+00
         0.00000E+00
         0.00000E+00
         0.00000E+00
         0.00000E+00
         0.00000E+00
         0.00000E+00
         0.00000E+00
         0.00000E+00
         0.00000E+00
         0.00000E+00
         0.00000E+00
         0.00000E+00
         0.00000E+00
         0.00000E+00
         0.00000E+00
         0.00000E+00
         0.00000E+00
         0.00000E+00
         0.00000E+00
         0.00000E+00
         0.00000E+00
         0.00000E+00
         0.00000E+00
         0.00000E+00
         0.00000E+00
         0.00000E+00
         0.00000E+00
         0.00000E+00
         0.00000E+00
         0.00000E+00
         0.00000E+00
         0.00000E+00
         0.00000E+00
         0.00000E+00
         0.00000E+00
         0.00000E+00
         0.00000E+00
         0.00000E+00
         0.00000E+00
         0.00000E+00
         0.00000E+00
         0.00000E+00
         0.00000E+00
         0.00000E+00
         0.00000E+00
         0.00000E+00
         0.00000E+00
         0.00000E+00
         0.00000E+00
         0.00000E+00
         0.00000E+00
         0.00000E+00
         0.00000E+00
         0.00000E+00
         0.00000E+00
         0.00000E+00
         0.00000E+00
         0.00000E+00
         0.00000E+00
         0.00000E+00
         0.00000E+00
         0.00000E+00
         0.00000E+00
         0.00000E+00
         0.00000E+00
         0.00000E+00
         0.00000E+00
         0.00000E+00
         0.00000E+00
         0.00000E+00
         0.00000E+00
         0.00000E+00
         0.00000E+00
         0.00000E+00
         0.00000E+00
         0.00000E+00
         0.00000E+00
         0.00000E+00
         0.00000E+00
         0.00000E+00
         0.00000E+00
         0.00000E+00
         0.00000E+00
         0.00000E+00
         0.00000E+00
         0.00000E+00
         0.00000E+00
         0.00000E+00
         0.00000E+00
         0.00000E+00
         0.00000E+00
         0.00000E+00
         0.00000E+00
         0.00000E+00
         0.00000E+00
         0.00000E+00
         0.00000E+00
         0.00000E+00
         0.00000E+00
         0.00000E+00
         0.00000E+00
         0.00000E+00
         0.00000E+00
         0.00000E+00
         0.00000E+00
         0.00000E+00
         0.00000E+00
         0.00000E+00
         0.00000E+00
         0.00000E+00
         0.00000E+00
         0.00000E+00
         0.00000E+00
         0.00000E+00
         0.00000E+00
         0.00000E+00
         0.00000E+00
         0.00000E+00
         0.00000E+00
         0.00000E+00
         0.00000E+00
         0.00000E+00
         0.00000E+00
         0.00000E+00
         0.00000E+00
         0.00000E+00
         0.00000E+00
         0.00000E+00
         0.00000E+00
         0.00000E+00
         0.00000E+00
         0.00000E+00
         0.00000E+00
         0.00000E+00
         0.00000E+00
         0.00000E+00
         0.00000E+00
         0.00000E+00
         0.00000E+00
         0.00000E+00
         0.00000E+00
         0.00000E+00
         0.00000E+00
         0.00000E+00
         0.00000E+00
         0.00000E+00
         0.00000E+00
         0.00000E+00
         0.00000E+00
         0.00000E+00
         0.00000E+00
         0.00000E+00
         0.00000E+00
         0.00000E+00
         0.00000E+00
         0.00000E+00
         0.00000E+00
         0.00000E+00
         0.00000E+00
         0.00000E+00
         0.00000E+00
         0.00000E+00
         0.00000E+00
         0.00000E+00
         0.00000E+00
         0.00000E+00
         0.00000E+00
         0.00000E+00
         0.00000E+00
         0.00000E+00
         0.00000E+00
         0.00000E+00
         0.00000E+00
         0.00000E+00
         0.00000E+00
         0.00000E+00
         0.00000E+00
         0.00000E+00
         0.00000E+00
         0.00000E+00
         0.00000E+00
         0.00000E+00
         0.00000E+00
         0.00000E+00
         0.00000E+00
         0.00000E+00
         0.00000E+00
         0.00000E+00
         0.00000E+00
         0.00000E+00
         0.00000E+00
         0.00000E+00
         0.00000E+00
         0.00000E+00
         0.00000E+00
         0.00000E+00
         0.00000E+00
         0.00000E+00
         0.00000E+00
         0.00000E+00
         0.00000E+00
         0.00000E+00
         0.00000E+00
         0.00000E+00
         0.00000E+00
         0.00000E+00
         0.00000E+00
         0.00000E+00
         0.00000E+00
         0.00000E+00
         0.00000E+00
         0.00000E+00
         0.00000E+00
         0.00000E+00
         0.00000E+00
         0.00000E+00
         0.00000E+00
         0.00000E+00
         0.00000E+00
         0.00000E+00
         0.00000E+00
         0.00000E+00
         0.00000E+00
         0.00000E+00
         0.00000E+00
         0.00000E+00
         0.00000E+00
         0.00000E+00
         0.00000E+00
         0.00000E+00
         0.00000E+00
         0.00000E+00
         0.00000E+00
         0.00000E+00
         0.00000E+00
         0.00000E+00
         0.00000E+00
         0.00000E+00
         0.00000E+00
         0.00000E+00
         0.00000E+00
         0.00000E+00
         0.00000E+00
         0.00000E+00
         0.00000E+00
         0.00000E+00
         0.00000E+00
         0.00000E+00
         0.00000E+00
         0.00000E+00
         0.00000E+00
         0.00000E+00
         0.00000E+00
         0.00000E+00
         0.00000E+00
         0.00000E+00
         0.00000E+00
         0.00000E+00
         0.00000E+00
         0.00000E+00
         0.00000E+00
         0.00000E+00
         0.00000E+00
         0.00000E+00
         0.00000E+00
         0.00000E+00
         0.00000E+00
         0.00000E+00
         0.00000E+00
         0.00000E+00
         0.00000E+00
         0.00000E+00
         0.00000E+00
         0.00000E+00
         0.00000E+00
         0.00000E+00
         0.00000E+00
         0.00000E+00
         0.00000E+00
         0.00000E+00
         0.00000E+00
         0.00000E+00
         0.00000E+00
         0.00000E+00
         0.00000E+00
         0.00000E+00
         0.00000E+00
         0.00000E+00
         0.00000E+00
         0.00000E+00
         0.00000E+00
         0.00000E+00
         0.00000E+00
         0.00000E+00
         0.00000E+00
         0.00000E+00
         0.00000E+00
         0.00000E+00
         0.00000E+00
         0.00000E+00
         0.00000E+00
         0.00000E+00
         0.00000E+00
         0.00000E+00
         0.00000E+00
         0.00000E+00
         0.00000E+00
         0.00000E+00
         0.00000E+00
         0.00000E+00
         0.00000E+00
         0.00000E+00
         0.00000E+00
         0.00000E+00
         0.00000E+00
         0.00000E+00
         0.00000E+00
         0.00000E+00
         0.00000E+00
         0.00000E+00
         0.00000E+00
         0.00000E+00
         0.00000E+00
         0.00000E+00
         0.00000E+00
         0.00000E+00
         0.00000E+00
         0.00000E+00
         0.00000E+00
         0.00000E+00
         0.00000E+00
         0.00000E+00
         0.00000E+00
         0.00000E+00
         0.00000E+00
         0.00000E+00
         0.00000E+00
         0.00000E+00
         0.00000E+00
         0.00000E+00
         0.00000E+00
         0.00000E+00
         0.00000E+00
         0.00000E+00
         0.00000E+00
         0.00000E+00
         0.00000E+00
         0.00000E+00
         0.00000E+00
         0.00000E+00
         0.00000E+00
         0.00000E+00
         0.00000E+00
         0.00000E+00
         0.00000E+00
         0.00000E+00
         0.00000E+00
         0.00000E+00
         0.00000E+00
         0.00000E+00
         0.00000E+00
         0.00000E+00
         0.00000E+00
         0.00000E+00
         0.00000E+00
         0.00000E+00
         0.00000E+00
         0.00000E+00
         0.00000E+00
         0.00000E+00
         0.00000E+00
         0.00000E+00
         0.00000E+00
         0.00000E+00
         0.00000E+00
         0.00000E+00
         0.00000E+00
         0.00000E+00
         0.00000E+00
         0.00000E+00
         0.00000E+00
         0.00000E+00
         0.00000E+00
         0.00000E+00
         0.00000E+00
         0.00000E+00
         0.00000E+00
         0.00000E+00
         0.00000E+00
         0.00000E+00
         0.00000E+00
         0.00000E+00
         0.00000E+00
         0.00000E+00
         0.00000E+00
         0.00000E+00
         0.00000E+00
         0.00000E+00
         0.00000E+00
         0.00000E+00
         0.00000E+00
         0.00000E+00
         0.00000E+00
         0.00000E+00
         0.00000E+00
         0.00000E+00
         0.00000E+00
         0.00000E+00
         0.00000E+00
         0.00000E+00
         0.00000E+00
         0.00000E+00
         0.00000E+00
         0.00000E+00
         0.00000E+00
         0.00000E+00
         0.00000E+00
         0.00000E+00
         0.00000E+00
         0.00000E+00
         0.00000E+00
         0.00000E+00
         0.00000E+00
         0.00000E+00
         0.00000E+00
         0.00000E+00
         0.00000E+00
         0.00000E+00
         0.00000E+00
         0.00000E+00
         0.00000E+00
         0.00000E+00
         0.00000E+00
         0.00000E+00
         0.00000E+00
         0.00000E+00
         0.00000E+00
         0.00000E+00
         0.00000E+00
         0.00000E+00
         0.00000E+00
         0.00000E+00
         0.00000E+00
         0.00000E+00
         0.00000E+00
         0.00000E+00
         0.00000E+00
         0.00000E+00
         0.00000E+00
         0.00000E+00
         0.00000E+00
         0.00000E+00
         0.00000E+00
         0.00000E+00
         0.00000E+00
         0.00000E+00
         0.00000E+00
         0.00000E+00
         0.00000E+00
         0.00000E+00
         0.00000E+00
         0.00000E+00
         0.00000E+00
         0.00000E+00
         0.00000E+00
         0.00000E+00
         0.00000E+00
         0.00000E+00
         0.00000E+00
         0.00000E+00
         0.00000E+00
         0.00000E+00
         0.00000E+00
         0.00000E+00
         0.00000E+00
         0.00000E+00
         0.00000E+00
         0.00000E+00
         0.00000E+00
         0.00000E+00
         0.00000E+00
         0.00000E+00
         0.00000E+00
         0.00000E+00
         0.00000E+00
         0.00000E+00
         0.00000E+00
         0.00000E+00
         0.00000E+00
         0.00000E+00
         0.00000E+00
         0.00000E+00
         0.00000E+00
         0.00000E+00
         0.00000E+00
         0.00000E+00
         0.00000E+00
         0.00000E+00
         0.00000E+00
         0.00000E+00
         0.00000E+00
         0.00000E+00
         0.00000E+00
         0.00000E+00
         0.00000E+00
         0.00000E+00
         0.00000E+00
         0.00000E+00
         0.00000E+00
         0.00000E+00
         0.00000E+00
         0.00000E+00
         0.00000E+00
         0.00000E+00
         0.00000E+00
         0.00000E+00
         0.00000E+00
         0.00000E+00
         0.00000E+00
         0.00000E+00
         0.00000E+00
         0.00000E+00
         0.00000E+00
         0.00000E+00
         0.00000E+00
         0.00000E+00
         0.00000E+00
         0.00000E+00
         0.00000E+00
         0.00000E+00
         0.00000E+00
         0.00000E+00
         0.00000E+00
         0.00000E+00
         0.00000E+00
         0.00000E+00
         0.00000E+00
         0.00000E+00
         0.00000E+00
         0.00000E+00
         0.00000E+00
         0.00000E+00
         0.00000E+00
         0.00000E+00
         0.00000E+00
         0.00000E+00
         0.00000E+00
         0.00000E+00
         0.00000E+00
         0.00000E+00
         0.00000E+00
         0.00000E+00
         0.00000E+00
         0.00000E+00
         0.00000E+00
         0.00000E+00
         0.00000E+00
         0.00000E+00
         0.00000E+00
         0.00000E+00
         0.00000E+00
         0.00000E+00
         0.00000E+00
         0.00000E+00
         0.00000E+00
         0.00000E+00
         0.00000E+00
         0.00000E+00
         0.00000E+00
         0.00000E+00
         0.00000E+00
         0.00000E+00
         0.00000E+00
         0.00000E+00
         0.00000E+00
         0.00000E+00
         0.00000E+00
         0.00000E+00
         0.00000E+00
         0.00000E+00
         0.00000E+00
         0.00000E+00
         0.00000E+00
         0.00000E+00
         0.00000E+00
         0.00000E+00
         0.00000E+00
         0.00000E+00
         0.00000E+00
         0.00000E+00
         0.00000E+00
         0.00000E+00
         0.00000E+00
         0.00000E+00
         0.00000E+00
         0.00000E+00
         0.00000E+00
         0.00000E+00
         0.00000E+00
         0.00000E+00
         0.00000E+00
         0.00000E+00
         0.00000E+00
         0.00000E+00
         0.00000E+00
         0.00000E+00
         0.00000E+00
         0.00000E+00
         0.00000E+00
         0.00000E+00
         0.00000E+00
         0.00000E+00
         0.00000E+00
         0.00000E+00
         0.00000E+00
         0.00000E+00
         0.00000E+00
         0.00000E+00
         0.00000E+00
         0.00000E+00
         0.00000E+00
         0.00000E+00
         0.00000E+00
         0.00000E+00
         0.00000E+00
         0.00000E+00
         0.00000E+00
         0.00000E+00
         0.00000E+00
         0.00000E+00
         0.00000E+00
         0.00000E+00
         0.00000E+00
         0.00000E+00
         0.00000E+00
         0.00000E+00
         0.00000E+00
         0.00000E+00
         0.00000E+00
         0.00000E+00
         0.00000E+00
         0.00000E+00
         0.00000E+00
         0.00000E+00
         0.00000E+00
         0.00000E+00
         0.00000E+00
         0.00000E+00
         0.00000E+00
         0.00000E+00
         0.00000E+00
         0.00000E+00
         0.00000E+00
         0.00000E+00
         0.00000E+00
         0.00000E+00
         0.00000E+00
         0.00000E+00
         0.00000E+00
         0.00000E+00
         0.00000E+00
         0.00000E+00
         0.00000E+00
         0.00000E+00
         0.00000E+00
         0.00000E+00
         0.00000E+00
         0.00000E+00
         0.00000E+00
         0.00000E+00
         0.00000E+00
         0.00000E+00
         0.00000E+00
         0.00000E+00
         0.00000E+00
         0.00000E+00
         0.00000E+00
         0.00000E+00
         0.00000E+00
         0.00000E+00
         0.00000E+00
         0.00000E+00
         0.00000E+00
         0.00000E+00
         0.00000E+00
         0.00000E+00
         0.00000E+00
         0.00000E+00
         0.00000E+00
         0.00000E+00
         0.00000E+00
         0.00000E+00
         0.00000E+00
         0.00000E+00
         0.00000E+00
         0.00000E+00
         0.00000E+00
         0.00000E+00
         0.00000E+00
         0.00000E+00
         0.00000E+00
         0.00000E+00
         0.00000E+00
         0.00000E+00
         0.00000E+00
         0.00000E+00
         0.00000E+00
         0.00000E+00
         0.00000E+00
         0.00000E+00
         0.00000E+00
         0.00000E+00
         0.00000E+00
         0.00000E+00
         0.00000E+00
         0.00000E+00
         0.00000E+00
         0.00000E+00
         0.00000E+00
         0.00000E+00
         0.00000E+00
         0.00000E+00
         0.00000E+00
         0.00000E+00
         0.00000E+00
         0.00000E+00
         0.00000E+00
         0.00000E+00
         0.00000E+00
         0.00000E+00
         0.00000E+00
         0.00000E+00
         0.00000E+00
         0.00000E+00
         0.00000E+00
         0.00000E+00
         0.00000E+00
         0.00000E+00
         0.00000E+00
         0.00000E+00
         0.00000E+00
         0.00000E+00
         0.00000E+00
         0.00000E+00
         0.00000E+00
         0.00000E+00
         0.00000E+00
         0.00000E+00
         0.00000E+00
         0.00000E+00
         0.00000E+00
         0.00000E+00
         0.00000E+00
         0.00000E+00
         0.00000E+00
         0.00000E+00
         0.00000E+00
         0.00000E+00
         0.00000E+00
         0.00000E+00
         0.00000E+00
         0.00000E+00
         0.00000E+00
         0.00000E+00
         0.00000E+00
         0.00000E+00
         0.00000E+00
         0.00000E+00
         0.00000E+00
         0.00000E+00
         0.00000E+00
         0.00000E+00
         0.00000E+00
         0.00000E+00
         0.00000E+00
         0.00000E+00
         0.00000E+00
         0.00000E+00
         0.00000E+00
         0.00000E+00
         0.00000E+00
         0.00000E+00
         0.00000E+00
         0.00000E+00
         0.00000E+00
         0.00000E+00
         0.00000E+00
         0.00000E+00
         0.00000E+00
         0.00000E+00
         0.00000E+00
         0.00000E+00
         0.00000E+00
         0.00000E+00
         0.00000E+00
         0.00000E+00
         0.00000E+00
         0.00000E+00
         0.00000E+00
         0.00000E+00
         0.00000E+00
         0.00000E+00
         0.00000E+00
         0.00000E+00
         0.00000E+00
         0.00000E+00
         0.00000E+00
         0.00000E+00
         0.00000E+00
         0.00000E+00
         0.00000E+00
         0.00000E+00
         0.00000E+00
         0.00000E+00
         0.00000E+00
         0.00000E+00
         0.00000E+00
         0.00000E+00
         0.00000E+00
         0.00000E+00
         0.00000E+00
         0.00000E+00
         0.00000E+00
         0.00000E+00
         0.00000E+00
         0.00000E+00
         0.00000E+00
         0.00000E+00
         0.00000E+00
         0.00000E+00
         0.00000E+00
         0.00000E+00
         0.00000E+00
         0.00000E+00
         0.00000E+00
         0.00000E+00
         0.00000E+00
         0.00000E+00
         0.00000E+00
         0.00000E+00
         0.00000E+00
         0.00000E+00
         0.00000E+00
         0.00000E+00
         0.00000E+00
         0.00000E+00
         0.00000E+00
         0.00000E+00
         0.00000E+00
         0.00000E+00
         0.00000E+00
         0.00000E+00
         0.00000E+00
         0.00000E+00
         0.00000E+00
         0.00000E+00
         0.00000E+00
         0.00000E+00
         0.00000E+00
         0.00000E+00
         0.00000E+00
         0.00000E+00
         0.00000E+00
         0.00000E+00
         0.00000E+00
         0.00000E+00
         0.00000E+00
         0.00000E+00
         0.00000E+00
         0.00000E+00
         0.00000E+00
         0.00000E+00
         0.00000E+00
         0.00000E+00
         0.00000E+00
         0.00000E+00
         0.00000E+00
         0.00000E+00
         0.00000E+00
         0.00000E+00
         0.00000E+00
         0.00000E+00
         0.00000E+00
         0.00000E+00
         0.00000E+00
         0.00000E+00
         0.00000E+00
         0.00000E+00
         0.00000E+00
         0.00000E+00
         0.00000E+00
         0.00000E+00
         0.00000E+00
         0.00000E+00
         0.00000E+00
         0.00000E+00
         0.00000E+00
         0.00000E+00
         0.00000E+00
         0.00000E+00
         0.00000E+00
         0.00000E+00
         0.00000E+00
         0.00000E+00
         0.00000E+00
         0.00000E+00
         0.00000E+00
         0.00000E+00
         0.00000E+00
         0.00000E+00
         0.00000E+00
         0.00000E+00
         0.00000E+00
         0.00000E+00
         0.00000E+00
         0.00000E+00
         0.00000E+00
         0.00000E+00
         0.00000E+00
         0.00000E+00
         0.00000E+00
         0.00000E+00
         0.00000E+00
         0.00000E+00
         0.00000E+00
         0.00000E+00
         0.00000E+00
         0.00000E+00
         0.00000E+00
         0.00000E+00
         0.00000E+00
         0.00000E+00
         0.00000E+00
         0.00000E+00
         0.00000E+00
         0.00000E+00
         0.00000E+00
         0.00000E+00
         0.00000E+00
         0.00000E+00
         0.00000E+00
         0.00000E+00
         0.00000E+00
         0.00000E+00
         0.00000E+00
         0.00000E+00
         0.00000E+00
         0.00000E+00
         0.00000E+00
         0.00000E+00
         0.00000E+00
         0.00000E+00
         0.00000E+00
         0.00000E+00
         0.00000E+00
         0.00000E+00
         0.00000E+00
         0.00000E+00
         0.00000E+00
         0.00000E+00
         0.00000E+00
         0.00000E+00
         0.00000E+00
         0.00000E+00
         0.00000E+00
         0.00000E+00
         0.00000E+00
         0.00000E+00
         0.00000E+00
         0.00000E+00
         0.00000E+00
         0.00000E+00
         0.00000E+00
         0.00000E+00
         0.00000E+00
         0.00000E+00
         0.00000E+00
         0.00000E+00
         0.00000E+00
         0.00000E+00
         0.00000E+00
         0.00000E+00
         0.00000E+00
         0.00000E+00
         0.00000E+00
         0.00000E+00
         0.00000E+00
         0.00000E+00
         0.00000E+00
         0.00000E+00
         0.00000E+00
         0.00000E+00
         0.00000E+00
         0.00000E+00
         0.00000E+00
         0.00000E+00
         0.00000E+00
         0.00000E+00
         0.00000E+00
         0.00000E+00
         0.00000E+00
         0.00000E+00
         0.00000E+00
         0.00000E+00
         0.00000E+00
         0.00000E+00
         0.00000E+00
         0.00000E+00
         0.00000E+00
         0.00000E+00
         0.00000E+00
         0.00000E+00
         0.00000E+00
         0.00000E+00
         0.00000E+00
         0.00000E+00
         0.00000E+00
         0.00000E+00
         0.00000E+00
         0.00000E+00
         0.00000E+00
         0.00000E+00
         0.00000E+00
         0.00000E+00
         0.00000E+00
         0.00000E+00
         0.00000E+00
         0.00000E+00
         0.00000E+00
         0.00000E+00
         0.00000E+00
         0.00000E+00
         0.00000E+00
         0.00000E+00
         0.00000E+00
         0.00000E+00
         0.00000E+00
         0.00000E+00
         0.00000E+00
         0.00000E+00
         0.00000E+00
         0.00000E+00
         0.00000E+00
         0.00000E+00
         0.00000E+00
         0.00000E+00
         0.00000E+00
         0.00000E+00
         0.00000E+00
         0.00000E+00
         0.00000E+00
         0.00000E+00
         0.00000E+00
         0.00000E+00
         0.00000E+00
         0.00000E+00
         0.00000E+00
         0.00000E+00
         0.00000E+00
         0.00000E+00
         0.00000E+00
         0.00000E+00
         0.00000E+00
         0.00000E+00
         0.00000E+00
         0.00000E+00
         0.00000E+00
         0.00000E+00
         0.00000E+00
         0.00000E+00
         0.00000E+00
         0.00000E+00
         0.00000E+00
         0.00000E+00
         0.00000E+00
         0.00000E+00
         0.00000E+00
         0.00000E+00
         0.00000E+00
         0.00000E+00
         0.00000E+00
         0.00000E+00
         0.00000E+00
         0.00000E+00
         0.00000E+00
         0.00000E+00
         0.00000E+00
         0.00000E+00
         0.00000E+00
         0.00000E+00
         0.00000E+00
         0.00000E+00
         0.00000E+00
         0.00000E+00
         0.00000E+00
         0.00000E+00
         0.00000E+00
         0.00000E+00
         0.00000E+00
         0.00000E+00
         0.00000E+00
         0.00000E+00
         0.00000E+00
         0.00000E+00
         0.00000E+00
         0.00000E+00
         0.00000E+00
         0.00000E+00
         0.00000E+00
         0.00000E+00
         0.00000E+00
         0.00000E+00
         0.00000E+00
         0.00000E+00
         0.00000E+00
         0.00000E+00
         0.00000E+00
         0.00000E+00
         0.00000E+00
         0.00000E+00
         0.00000E+00
         0.00000E+00
         0.00000E+00
         0.00000E+00
         0.00000E+00
         0.00000E+00
         0.00000E+00
         0.00000E+00
         0.00000E+00
         0.00000E+00
         0.00000E+00
         0.00000E+00
         0.00000E+00
         0.00000E+00
         0.00000E+00
         0.00000E+00
         0.00000E+00
         0.00000E+00
         0.00000E+00
         0.00000E+00
         0.00000E+00
         0.00000E+00
         0.00000E+00
         0.00000E+00
         0.00000E+00
         0.00000E+00
         0.00000E+00
         0.00000E+00
         0.00000E+00
         0.00000E+00
         0.00000E+00
         0.00000E+00
         0.00000E+00
         0.00000E+00
         0.00000E+00
         0.00000E+00
         0.00000E+00
         0.00000E+00
         0.00000E+00
         0.00000E+00
         0.00000E+00
         0.00000E+00
         0.00000E+00
         0.00000E+00
         0.00000E+00
         0.00000E+00
         0.00000E+00
         0.00000E+00
         0.00000E+00
         0.00000E+00
         0.00000E+00
         0.00000E+00
         0.00000E+00
         0.00000E+00
         0.00000E+00
         0.00000E+00
         0.00000E+00
         0.00000E+00
         0.00000E+00
         0.00000E+00
         0.00000E+00
         0.00000E+00
         0.00000E+00
         0.00000E+00
         0.00000E+00
         0.00000E+00
         0.00000E+00
         0.00000E+00
         0.00000E+00
         0.00000E+00
         0.00000E+00
         0.00000E+00
         0.00000E+00
         0.00000E+00
         0.00000E+00
         0.00000E+00
         0.00000E+00
         0.00000E+00
         0.00000E+00
         0.00000E+00
         0.00000E+00
         0.00000E+00
         0.00000E+00
         0.00000E+00
         0.00000E+00
         0.00000E+00
         0.00000E+00
         0.00000E+00
         0.00000E+00
         0.00000E+00
         0.00000E+00
         0.00000E+00
         0.00000E+00
         0.00000E+00
         0.00000E+00
         0.00000E+00
         0.00000E+00
         0.00000E+00
         0.00000E+00
         0.00000E+00
         0.00000E+00
         0.00000E+00
         0.00000E+00
         0.00000E+00
         0.00000E+00
         0.00000E+00
         0.00000E+00
         0.00000E+00
         0.00000E+00
         0.00000E+00
         0.00000E+00
         0.00000E+00
         0.00000E+00
         0.00000E+00
         0.00000E+00
         0.00000E+00
         0.00000E+00
         0.00000E+00
         0.00000E+00
         0.00000E+00
         0.00000E+00
         0.00000E+00
         0.00000E+00
         0.00000E+00
         0.00000E+00
         0.00000E+00
         0.00000E+00
         0.00000E+00
         0.00000E+00
         0.00000E+00
         0.00000E+00
         0.00000E+00
         0.00000E+00
         0.00000E+00
         0.00000E+00
         0.00000E+00
         0.00000E+00
         0.00000E+00
         0.00000E+00
         0.00000E+00
         0.00000E+00
         0.00000E+00
         0.00000E+00
         0.00000E+00
         0.00000E+00
         0.00000E+00
         0.00000E+00
         0.00000E+00
         0.00000E+00
         0.00000E+00
         0.00000E+00
         0.00000E+00
         0.00000E+00
         0.00000E+00
         0.00000E+00
         0.00000E+00
         0.00000E+00
         0.00000E+00
         0.00000E+00
         0.00000E+00
         0.00000E+00
         0.00000E+00
         0.00000E+00
         0.00000E+00
         0.00000E+00
         0.00000E+00
         0.00000E+00
         0.00000E+00
         0.00000E+00
         0.00000E+00
         0.00000E+00
         0.00000E+00
         0.00000E+00
         0.00000E+00
         0.00000E+00
         0.00000E+00
         0.00000E+00
         0.00000E+00
         0.00000E+00
         0.00000E+00
         0.00000E+00
         0.00000E+00
         0.00000E+00
         0.00000E+00
         0.00000E+00
         0.00000E+00
         0.00000E+00
         0.00000E+00
         0.00000E+00
         0.00000E+00
         0.00000E+00
         0.00000E+00
         0.00000E+00
         0.00000E+00
         0.00000E+00
         0.00000E+00
         0.00000E+00
         0.00000E+00
         0.00000E+00
         0.00000E+00
         0.00000E+00
         0.00000E+00
         0.00000E+00
         0.00000E+00
         0.00000E+00
         0.00000E+00
         0.00000E+00
         0.00000E+00
         0.00000E+00
         0.00000E+00
         0.00000E+00
         0.00000E+00
         0.00000E+00
         0.00000E+00
         0.00000E+00
         0.00000E+00
         0.00000E+00
         0.00000E+00
         0.00000E+00
         0.00000E+00
         0.00000E+00
         0.00000E+00
         0.00000E+00
         0.00000E+00
         0.00000E+00
         0.00000E+00
         0.00000E+00
         0.00000E+00
         0.00000E+00
         0.00000E+00
         0.00000E+00
         0.00000E+00
         0.00000E+00
         0.00000E+00
         0.00000E+00
         0.00000E+00
         0.00000E+00
         0.00000E+00
         0.00000E+00
         0.00000E+00
         0.00000E+00
         0.00000E+00
         0.00000E+00
         0.00000E+00
         0.00000E+00
         0.00000E+00
         0.00000E+00
         0.00000E+00
         0.00000E+00
         0.00000E+00
         0.00000E+00
         0.00000E+00
         0.00000E+00
         0.00000E+00
         0.00000E+00
         0.00000E+00
         0.00000E+00
         0.00000E+00
         0.00000E+00
         0.00000E+00
         0.00000E+00
         0.00000E+00
         0.00000E+00
         0.00000E+00
         0.00000E+00
         0.00000E+00
         0.00000E+00
         0.00000E+00
         0.00000E+00
         0.00000E+00
         0.00000E+00
         0.00000E+00
         0.00000E+00
         0.00000E+00
         0.00000E+00
         0.00000E+00
         0.00000E+00
         0.00000E+00
         0.00000E+00
         0.00000E+00
         0.00000E+00
         0.00000E+00
         0.00000E+00
         0.00000E+00
         0.00000E+00
         0.00000E+00
         0.00000E+00
         0.00000E+00
         0.00000E+00
         0.00000E+00
         0.00000E+00
         0.00000E+00
         0.00000E+00
         0.00000E+00
         0.00000E+00
         0.00000E+00
         0.00000E+00
         0.00000E+00
         0.00000E+00
         0.00000E+00
         0.00000E+00
         0.00000E+00
         0.00000E+00
         0.00000E+00
         0.00000E+00
         0.00000E+00
         0.00000E+00
         0.00000E+00
         0.00000E+00
         0.00000E+00
         0.00000E+00
         0.00000E+00
         0.00000E+00
         0.00000E+00
         0.00000E+00
         0.00000E+00
         0.00000E+00
         0.00000E+00
         0.00000E+00
         0.00000E+00
         0.00000E+00
         0.00000E+00
         0.00000E+00
         0.00000E+00
         0.00000E+00
         0.00000E+00
         0.00000E+00
         0.00000E+00
         0.00000E+00
         0.00000E+00
         0.00000E+00
         0.00000E+00
         0.00000E+00
         0.00000E+00
         0.00000E+00
         0.00000E+00
         0.00000E+00
         0.00000E+00
         0.00000E+00
         0.00000E+00
         0.00000E+00
         0.00000E+00
         0.00000E+00
         0.00000E+00
         0.00000E+00
         0.00000E+00
         0.00000E+00
         0.00000E+00
         0.00000E+00
         0.00000E+00
         0.00000E+00
         0.00000E+00
         0.00000E+00
         0.00000E+00
         0.00000E+00
         0.00000E+00
         0.00000E+00
         0.00000E+00
         0.00000E+00
         0.00000E+00
         0.00000E+00
         0.00000E+00
         0.00000E+00
         0.00000E+00
         0.00000E+00
         0.00000E+00
         0.00000E+00
         0.00000E+00
         0.00000E+00
         0.00000E+00
         0.00000E+00
         0.00000E+00
         0.00000E+00
         0.00000E+00
         0.00000E+00
         0.00000E+00
         0.00000E+00
         0.00000E+00
         0.00000E+00
         0.00000E+00
         0.00000E+00
         0.00000E+00
         0.00000E+00
         0.00000E+00
         0.00000E+00
         0.00000E+00
         0.00000E+00
         0.00000E+00
         0.00000E+00
         0.00000E+00
         0.00000E+00
         0.00000E+00
         0.00000E+00
         0.00000E+00
         0.00000E+00
         0.00000E+00
         0.00000E+00
         0.00000E+00
         0.00000E+00
         0.00000E+00
         0.00000E+00
         0.00000E+00
         0.00000E+00
         0.00000E+00
         0.00000E+00
         0.00000E+00
         0.00000E+00
         0.00000E+00
         0.00000E+00
         0.00000E+00
         0.00000E+00
         0.00000E+00
         0.00000E+00
         0.00000E+00
         0.00000E+00
         0.00000E+00
         0.00000E+00
         0.00000E+00
         0.00000E+00
         0.00000E+00
         0.00000E+00
         0.00000E+00
         0.00000E+00
         0.00000E+00
         0.00000E+00
         0.00000E+00
         0.00000E+00
         0.00000E+00
         0.00000E+00
         0.00000E+00
         0.00000E+00
         0.00000E+00
         0.00000E+00
         0.00000E+00
         0.00000E+00
         0.00000E+00
         0.00000E+00
         0.00000E+00
         0.00000E+00
         0.00000E+00
         0.00000E+00
         0.00000E+00
         0.00000E+00
         0.00000E+00
         0.00000E+00
         0.00000E+00
         0.00000E+00
         0.00000E+00
         0.00000E+00
         0.00000E+00
         0.00000E+00
         0.00000E+00
         0.00000E+00
         0.00000E+00
         0.00000E+00
         0.00000E+00
         0.00000E+00
         0.00000E+00
         0.00000E+00
         0.00000E+00
         0.00000E+00
         0.00000E+00
         0.00000E+00
         0.00000E+00
         0.00000E+00
         0.00000E+00
         0.00000E+00
         0.00000E+00
         0.00000E+00
         0.00000E+00
         0.00000E+00
         0.00000E+00
         0.00000E+00
         0.00000E+00
         0.00000E+00
         0.00000E+00
         0.00000E+00
         0.00000E+00
         0.00000E+00
         0.00000E+00
         0.00000E+00
         0.00000E+00
         0.00000E+00
         0.00000E+00
         0.00000E+00
         0.00000E+00
         0.00000E+00
         0.00000E+00
         0.00000E+00
         0.00000E+00
         0.00000E+00
         0.00000E+00
         0.00000E+00
         0.00000E+00
         0.00000E+00
         0.00000E+00
         0.00000E+00
         0.00000E+00
         0.00000E+00
         0.00000E+00
         0.00000E+00
         0.00000E+00
         0.00000E+00
         0.00000E+00
         0.00000E+00
         0.00000E+00
         0.00000E+00
         0.00000E+00
         0.00000E+00
         0.00000E+00
         0.00000E+00
         0.00000E+00
         0.00000E+00
         0.00000E+00
         0.00000E+00
         0.00000E+00
         0.00000E+00
         0.00000E+00
         0.00000E+00
         0.00000E+00
         0.00000E+00
         0.00000E+00
         0.00000E+00
         0.00000E+00
         0.00000E+00
         0.00000E+00
         0.00000E+00
         0.00000E+00
         0.00000E+00
         0.00000E+00
         0.00000E+00
         0.00000E+00
         0.00000E+00
         0.00000E+00
         0.00000E+00
         0.00000E+00
         0.00000E+00
         0.00000E+00
         0.00000E+00
         0.00000E+00
         0.00000E+00
         0.00000E+00
         0.00000E+00
         0.00000E+00
         0.00000E+00
         0.00000E+00
         0.00000E+00
         0.00000E+00
         0.00000E+00
         0.00000E+00
         0.00000E+00
         0.00000E+00
         0.00000E+00
         0.00000E+00
         0.00000E+00
         0.00000E+00
         0.00000E+00
         0.00000E+00
         0.00000E+00
         0.00000E+00
         0.00000E+00
         0.00000E+00
         0.00000E+00
         0.00000E+00
         0.00000E+00
         0.00000E+00
         0.00000E+00
         0.00000E+00
         0.00000E+00
         0.00000E+00
         0.00000E+00
         0.00000E+00
         0.00000E+00
         0.00000E+00
         0.00000E+00
         0.00000E+00
         0.00000E+00
         0.00000E+00
         0.00000E+00
         0.00000E+00
         0.00000E+00
         0.00000E+00
         0.00000E+00
         0.00000E+00
         0.00000E+00
         0.00000E+00
         0.00000E+00
         0.00000E+00
         0.00000E+00
         0.00000E+00
         0.00000E+00
         0.00000E+00
         0.00000E+00
         0.00000E+00
         0.00000E+00
         0.00000E+00
         0.00000E+00
         0.00000E+00
         0.00000E+00
         0.00000E+00
         0.00000E+00
         0.00000E+00
         0.00000E+00
         0.00000E+00
         0.00000E+00
         0.00000E+00
         0.00000E+00
         0.00000E+00
         0.00000E+00
         0.00000E+00
         0.00000E+00
         0.00000E+00
         0.00000E+00
         0.00000E+00
         0.00000E+00
         0.00000E+00
         0.00000E+00
         0.00000E+00
         0.00000E+00
         0.00000E+00
         0.00000E+00
         0.00000E+00
         0.00000E+00
         0.00000E+00
         0.00000E+00
         0.00000E+00
         0.00000E+00
         0.00000E+00
         0.00000E+00
         0.00000E+00
         0.00000E+00
         0.00000E+00
         0.00000E+00
         0.00000E+00
         0.00000E+00
         0.00000E+00
         0.00000E+00
         0.00000E+00
         0.00000E+00
         0.00000E+00
         0.00000E+00
         0.00000E+00
         0.00000E+00
         0.00000E+00
         0.00000E+00
         0.00000E+00
         0.00000E+00
         0.00000E+00
         0.00000E+00
         0.00000E+00
         0.00000E+00
         0.00000E+00
         0.00000E+00
         0.00000E+00
         0.00000E+00
         0.00000E+00
         0.00000E+00
         0.00000E+00
         0.00000E+00
         0.00000E+00
         0.00000E+00
         0.00000E+00
         0.00000E+00
         0.00000E+00
         0.00000E+00
         0.00000E+00
         0.00000E+00
         0.00000E+00
         0.00000E+00
         0.00000E+00
         0.00000E+00
         0.00000E+00
         0.00000E+00
         0.00000E+00
         0.00000E+00
         0.00000E+00
         0.00000E+00
         0.00000E+00
         0.00000E+00
         0.00000E+00
         0.00000E+00
         0.00000E+00
         0.00000E+00
         0.00000E+00
         0.00000E+00
         0.00000E+00
         0.00000E+00
         0.00000E+00
         0.00000E+00
         0.00000E+00
         0.00000E+00
         0.00000E+00
         0.00000E+00
         0.00000E+00
         0.00000E+00
         0.00000E+00
         0.00000E+00
         0.00000E+00
         0.00000E+00
         0.00000E+00
         0.00000E+00
         0.00000E+00
         0.00000E+00
         0.00000E+00
         0.00000E+00
         0.00000E+00
         0.00000E+00
         0.00000E+00
         0.00000E+00
         0.00000E+00
         0.00000E+00
         0.00000E+00
         0.00000E+00
         0.00000E+00
         0.00000E+00
         0.00000E+00
         0.00000E+00
         0.00000E+00
         0.00000E+00
         0.00000E+00
         0.00000E+00
         0.00000E+00
         0.00000E+00
         0.00000E+00
         0.00000E+00
         0.00000E+00
         0.00000E+00
         0.00000E+00
         0.00000E+00
         0.00000E+00
         0.00000E+00
         0.00000E+00
  
SCALARS                         fint_y  double 1
LOOKUP_TABLE default
         0.00000E+00
         0.00000E+00
         0.00000E+00
         0.00000E+00
         0.00000E+00
         0.00000E+00
         0.00000E+00
         0.00000E+00
         0.00000E+00
         0.00000E+00
         0.00000E+00
         0.00000E+00
         0.00000E+00
         0.00000E+00
         0.00000E+00
         0.00000E+00
         0.00000E+00
         0.00000E+00
         0.00000E+00
         0.00000E+00
         0.00000E+00
         0.00000E+00
         0.00000E+00
         0.00000E+00
         0.00000E+00
         0.00000E+00
         0.00000E+00
         0.00000E+00
         0.00000E+00
         0.00000E+00
         0.00000E+00
         0.00000E+00
         0.00000E+00
         0.00000E+00
         0.00000E+00
         0.00000E+00
         0.00000E+00
         0.00000E+00
         0.00000E+00
         0.00000E+00
         0.00000E+00
         0.00000E+00
         0.00000E+00
         0.00000E+00
         0.00000E+00
         0.00000E+00
         0.00000E+00
         0.00000E+00
         0.00000E+00
         0.00000E+00
         0.00000E+00
         0.00000E+00
         0.00000E+00
         0.00000E+00
         0.00000E+00
         0.00000E+00
         0.00000E+00
         0.00000E+00
         0.00000E+00
         0.00000E+00
         0.00000E+00
         0.00000E+00
         0.00000E+00
         0.00000E+00
         0.00000E+00
         0.00000E+00
         0.00000E+00
         0.00000E+00
         0.00000E+00
         0.00000E+00
         0.00000E+00
         0.00000E+00
         0.00000E+00
         0.00000E+00
         0.00000E+00
         0.00000E+00
         0.00000E+00
         0.00000E+00
         0.00000E+00
         0.00000E+00
         0.00000E+00
         0.00000E+00
         0.00000E+00
         0.00000E+00
         0.00000E+00
         0.00000E+00
         0.00000E+00
         0.00000E+00
         0.00000E+00
         0.00000E+00
         0.00000E+00
         0.00000E+00
         0.00000E+00
         0.00000E+00
         0.00000E+00
         0.00000E+00
         0.00000E+00
         0.00000E+00
         0.00000E+00
         0.00000E+00
         0.00000E+00
         0.00000E+00
         0.00000E+00
         0.00000E+00
         0.00000E+00
         0.00000E+00
         0.00000E+00
         0.00000E+00
         0.00000E+00
         0.00000E+00
         0.00000E+00
         0.00000E+00
         0.00000E+00
         0.00000E+00
         0.00000E+00
         0.00000E+00
         0.00000E+00
         0.00000E+00
         0.00000E+00
         0.00000E+00
         0.00000E+00
         0.00000E+00
         0.00000E+00
         0.00000E+00
         0.00000E+00
         0.00000E+00
         0.00000E+00
         0.00000E+00
         0.00000E+00
         0.00000E+00
         0.00000E+00
         0.00000E+00
         0.00000E+00
         0.00000E+00
         0.00000E+00
         0.00000E+00
         0.00000E+00
         0.00000E+00
         0.00000E+00
         0.00000E+00
         0.00000E+00
         0.00000E+00
         0.00000E+00
         0.00000E+00
         0.00000E+00
         0.00000E+00
         0.00000E+00
         0.00000E+00
         0.00000E+00
         0.00000E+00
         0.00000E+00
         0.00000E+00
         0.00000E+00
         0.00000E+00
         0.00000E+00
         0.00000E+00
         0.00000E+00
         0.00000E+00
         0.00000E+00
         0.00000E+00
         0.00000E+00
         0.00000E+00
         0.00000E+00
         0.00000E+00
         0.00000E+00
         0.00000E+00
         0.00000E+00
         0.00000E+00
         0.00000E+00
         0.00000E+00
         0.00000E+00
         0.00000E+00
         0.00000E+00
         0.00000E+00
         0.00000E+00
         0.00000E+00
         0.00000E+00
         0.00000E+00
         0.00000E+00
         0.00000E+00
         0.00000E+00
         0.00000E+00
         0.00000E+00
         0.00000E+00
         0.00000E+00
         0.00000E+00
         0.00000E+00
         0.00000E+00
         0.00000E+00
         0.00000E+00
         0.00000E+00
         0.00000E+00
         0.00000E+00
         0.00000E+00
         0.00000E+00
         0.00000E+00
         0.00000E+00
         0.00000E+00
         0.00000E+00
         0.00000E+00
         0.00000E+00
         0.00000E+00
         0.00000E+00
         0.00000E+00
         0.00000E+00
         0.00000E+00
         0.00000E+00
         0.00000E+00
         0.00000E+00
         0.00000E+00
         0.00000E+00
         0.00000E+00
         0.00000E+00
         0.00000E+00
         0.00000E+00
         0.00000E+00
         0.00000E+00
         0.00000E+00
         0.00000E+00
         0.00000E+00
         0.00000E+00
         0.00000E+00
         0.00000E+00
         0.00000E+00
         0.00000E+00
         0.00000E+00
         0.00000E+00
         0.00000E+00
         0.00000E+00
         0.00000E+00
         0.00000E+00
         0.00000E+00
         0.00000E+00
         0.00000E+00
         0.00000E+00
         0.00000E+00
         0.00000E+00
         0.00000E+00
         0.00000E+00
         0.00000E+00
         0.00000E+00
         0.00000E+00
         0.00000E+00
         0.00000E+00
         0.00000E+00
         0.00000E+00
         0.00000E+00
         0.00000E+00
         0.00000E+00
         0.00000E+00
         0.00000E+00
         0.00000E+00
         0.00000E+00
         0.00000E+00
         0.00000E+00
         0.00000E+00
         0.00000E+00
         0.00000E+00
         0.00000E+00
         0.00000E+00
         0.00000E+00
         0.00000E+00
         0.00000E+00
         0.00000E+00
         0.00000E+00
         0.00000E+00
         0.00000E+00
         0.00000E+00
         0.00000E+00
         0.00000E+00
         0.00000E+00
         0.00000E+00
         0.00000E+00
         0.00000E+00
         0.00000E+00
         0.00000E+00
         0.00000E+00
         0.00000E+00
         0.00000E+00
         0.00000E+00
         0.00000E+00
         0.00000E+00
         0.00000E+00
         0.00000E+00
         0.00000E+00
         0.00000E+00
         0.00000E+00
         0.00000E+00
         0.00000E+00
         0.00000E+00
         0.00000E+00
         0.00000E+00
         0.00000E+00
         0.00000E+00
         0.00000E+00
         0.00000E+00
         0.00000E+00
         0.00000E+00
         0.00000E+00
         0.00000E+00
         0.00000E+00
         0.00000E+00
         0.00000E+00
         0.00000E+00
         0.00000E+00
         0.00000E+00
         0.00000E+00
         0.00000E+00
         0.00000E+00
         0.00000E+00
         0.00000E+00
         0.00000E+00
         0.00000E+00
         0.00000E+00
         0.00000E+00
         0.00000E+00
         0.00000E+00
         0.00000E+00
         0.00000E+00
         0.00000E+00
         0.00000E+00
         0.00000E+00
         0.00000E+00
         0.00000E+00
         0.00000E+00
         0.00000E+00
         0.00000E+00
         0.00000E+00
         0.00000E+00
         0.00000E+00
         0.00000E+00
         0.00000E+00
         0.00000E+00
         0.00000E+00
         0.00000E+00
         0.00000E+00
         0.00000E+00
         0.00000E+00
         0.00000E+00
         0.00000E+00
         0.00000E+00
         0.00000E+00
         0.00000E+00
         0.00000E+00
         0.00000E+00
         0.00000E+00
         0.00000E+00
         0.00000E+00
         0.00000E+00
         0.00000E+00
         0.00000E+00
         0.00000E+00
         0.00000E+00
         0.00000E+00
         0.00000E+00
         0.00000E+00
         0.00000E+00
         0.00000E+00
         0.00000E+00
         0.00000E+00
         0.00000E+00
         0.00000E+00
         0.00000E+00
         0.00000E+00
         0.00000E+00
         0.00000E+00
         0.00000E+00
         0.00000E+00
         0.00000E+00
         0.00000E+00
         0.00000E+00
         0.00000E+00
         0.00000E+00
         0.00000E+00
         0.00000E+00
         0.00000E+00
         0.00000E+00
         0.00000E+00
         0.00000E+00
         0.00000E+00
         0.00000E+00
         0.00000E+00
         0.00000E+00
         0.00000E+00
         0.00000E+00
         0.00000E+00
         0.00000E+00
         0.00000E+00
         0.00000E+00
         0.00000E+00
         0.00000E+00
         0.00000E+00
         0.00000E+00
         0.00000E+00
         0.00000E+00
         0.00000E+00
         0.00000E+00
         0.00000E+00
         0.00000E+00
         0.00000E+00
         0.00000E+00
         0.00000E+00
         0.00000E+00
         0.00000E+00
         0.00000E+00
         0.00000E+00
         0.00000E+00
         0.00000E+00
         0.00000E+00
         0.00000E+00
         0.00000E+00
         0.00000E+00
         0.00000E+00
         0.00000E+00
         0.00000E+00
         0.00000E+00
         0.00000E+00
         0.00000E+00
         0.00000E+00
         0.00000E+00
         0.00000E+00
         0.00000E+00
         0.00000E+00
         0.00000E+00
         0.00000E+00
         0.00000E+00
         0.00000E+00
         0.00000E+00
         0.00000E+00
         0.00000E+00
         0.00000E+00
         0.00000E+00
         0.00000E+00
         0.00000E+00
         0.00000E+00
         0.00000E+00
         0.00000E+00
         0.00000E+00
         0.00000E+00
         0.00000E+00
         0.00000E+00
         0.00000E+00
         0.00000E+00
         0.00000E+00
         0.00000E+00
         0.00000E+00
         0.00000E+00
         0.00000E+00
         0.00000E+00
         0.00000E+00
         0.00000E+00
         0.00000E+00
         0.00000E+00
         0.00000E+00
         0.00000E+00
         0.00000E+00
         0.00000E+00
         0.00000E+00
         0.00000E+00
         0.00000E+00
         0.00000E+00
         0.00000E+00
         0.00000E+00
         0.00000E+00
         0.00000E+00
         0.00000E+00
         0.00000E+00
         0.00000E+00
         0.00000E+00
         0.00000E+00
         0.00000E+00
         0.00000E+00
         0.00000E+00
         0.00000E+00
         0.00000E+00
         0.00000E+00
         0.00000E+00
         0.00000E+00
         0.00000E+00
         0.00000E+00
         0.00000E+00
         0.00000E+00
         0.00000E+00
         0.00000E+00
         0.00000E+00
         0.00000E+00
         0.00000E+00
         0.00000E+00
         0.00000E+00
         0.00000E+00
         0.00000E+00
         0.00000E+00
         0.00000E+00
         0.00000E+00
         0.00000E+00
         0.00000E+00
         0.00000E+00
         0.00000E+00
         0.00000E+00
         0.00000E+00
         0.00000E+00
         0.00000E+00
         0.00000E+00
         0.00000E+00
         0.00000E+00
         0.00000E+00
         0.00000E+00
         0.00000E+00
         0.00000E+00
         0.00000E+00
         0.00000E+00
         0.00000E+00
         0.00000E+00
         0.00000E+00
         0.00000E+00
         0.00000E+00
         0.00000E+00
         0.00000E+00
         0.00000E+00
         0.00000E+00
         0.00000E+00
         0.00000E+00
         0.00000E+00
         0.00000E+00
         0.00000E+00
         0.00000E+00
         0.00000E+00
         0.00000E+00
         0.00000E+00
         0.00000E+00
         0.00000E+00
         0.00000E+00
         0.00000E+00
         0.00000E+00
         0.00000E+00
         0.00000E+00
         0.00000E+00
         0.00000E+00
         0.00000E+00
         0.00000E+00
         0.00000E+00
         0.00000E+00
         0.00000E+00
         0.00000E+00
         0.00000E+00
         0.00000E+00
         0.00000E+00
         0.00000E+00
         0.00000E+00
         0.00000E+00
         0.00000E+00
         0.00000E+00
         0.00000E+00
         0.00000E+00
         0.00000E+00
         0.00000E+00
         0.00000E+00
         0.00000E+00
         0.00000E+00
         0.00000E+00
         0.00000E+00
         0.00000E+00
         0.00000E+00
         0.00000E+00
         0.00000E+00
         0.00000E+00
         0.00000E+00
         0.00000E+00
         0.00000E+00
         0.00000E+00
         0.00000E+00
         0.00000E+00
         0.00000E+00
         0.00000E+00
         0.00000E+00
         0.00000E+00
         0.00000E+00
         0.00000E+00
         0.00000E+00
         0.00000E+00
         0.00000E+00
         0.00000E+00
         0.00000E+00
         0.00000E+00
         0.00000E+00
         0.00000E+00
         0.00000E+00
         0.00000E+00
         0.00000E+00
         0.00000E+00
         0.00000E+00
         0.00000E+00
         0.00000E+00
         0.00000E+00
         0.00000E+00
         0.00000E+00
         0.00000E+00
         0.00000E+00
         0.00000E+00
         0.00000E+00
         0.00000E+00
         0.00000E+00
         0.00000E+00
         0.00000E+00
         0.00000E+00
         0.00000E+00
         0.00000E+00
         0.00000E+00
         0.00000E+00
         0.00000E+00
         0.00000E+00
         0.00000E+00
         0.00000E+00
         0.00000E+00
         0.00000E+00
         0.00000E+00
         0.00000E+00
         0.00000E+00
         0.00000E+00
         0.00000E+00
         0.00000E+00
         0.00000E+00
         0.00000E+00
         0.00000E+00
         0.00000E+00
         0.00000E+00
         0.00000E+00
         0.00000E+00
         0.00000E+00
         0.00000E+00
         0.00000E+00
         0.00000E+00
         0.00000E+00
         0.00000E+00
         0.00000E+00
         0.00000E+00
         0.00000E+00
         0.00000E+00
         0.00000E+00
         0.00000E+00
         0.00000E+00
         0.00000E+00
         0.00000E+00
         0.00000E+00
         0.00000E+00
         0.00000E+00
         0.00000E+00
         0.00000E+00
         0.00000E+00
         0.00000E+00
         0.00000E+00
         0.00000E+00
         0.00000E+00
         0.00000E+00
         0.00000E+00
         0.00000E+00
         0.00000E+00
         0.00000E+00
         0.00000E+00
         0.00000E+00
         0.00000E+00
         0.00000E+00
         0.00000E+00
         0.00000E+00
         0.00000E+00
         0.00000E+00
         0.00000E+00
         0.00000E+00
         0.00000E+00
         0.00000E+00
         0.00000E+00
         0.00000E+00
         0.00000E+00
         0.00000E+00
         0.00000E+00
         0.00000E+00
         0.00000E+00
         0.00000E+00
         0.00000E+00
         0.00000E+00
         0.00000E+00
         0.00000E+00
         0.00000E+00
         0.00000E+00
         0.00000E+00
         0.00000E+00
         0.00000E+00
         0.00000E+00
         0.00000E+00
         0.00000E+00
         0.00000E+00
         0.00000E+00
         0.00000E+00
         0.00000E+00
         0.00000E+00
         0.00000E+00
         0.00000E+00
         0.00000E+00
         0.00000E+00
         0.00000E+00
         0.00000E+00
         0.00000E+00
         0.00000E+00
         0.00000E+00
         0.00000E+00
         0.00000E+00
         0.00000E+00
         0.00000E+00
         0.00000E+00
         0.00000E+00
         0.00000E+00
         0.00000E+00
         0.00000E+00
         0.00000E+00
         0.00000E+00
         0.00000E+00
         0.00000E+00
         0.00000E+00
         0.00000E+00
         0.00000E+00
         0.00000E+00
         0.00000E+00
         0.00000E+00
         0.00000E+00
         0.00000E+00
         0.00000E+00
         0.00000E+00
         0.00000E+00
         0.00000E+00
         0.00000E+00
         0.00000E+00
         0.00000E+00
         0.00000E+00
         0.00000E+00
         0.00000E+00
         0.00000E+00
         0.00000E+00
         0.00000E+00
         0.00000E+00
         0.00000E+00
         0.00000E+00
         0.00000E+00
         0.00000E+00
         0.00000E+00
         0.00000E+00
         0.00000E+00
         0.00000E+00
         0.00000E+00
         0.00000E+00
         0.00000E+00
         0.00000E+00
         0.00000E+00
         0.00000E+00
         0.00000E+00
         0.00000E+00
         0.00000E+00
         0.00000E+00
         0.00000E+00
         0.00000E+00
         0.00000E+00
         0.00000E+00
         0.00000E+00
         0.00000E+00
         0.00000E+00
         0.00000E+00
         0.00000E+00
         0.00000E+00
         0.00000E+00
         0.00000E+00
         0.00000E+00
         0.00000E+00
         0.00000E+00
         0.00000E+00
         0.00000E+00
         0.00000E+00
         0.00000E+00
         0.00000E+00
         0.00000E+00
         0.00000E+00
         0.00000E+00
         0.00000E+00
         0.00000E+00
         0.00000E+00
         0.00000E+00
         0.00000E+00
         0.00000E+00
         0.00000E+00
         0.00000E+00
         0.00000E+00
         0.00000E+00
         0.00000E+00
         0.00000E+00
         0.00000E+00
         0.00000E+00
         0.00000E+00
         0.00000E+00
         0.00000E+00
         0.00000E+00
         0.00000E+00
         0.00000E+00
         0.00000E+00
         0.00000E+00
         0.00000E+00
         0.00000E+00
         0.00000E+00
         0.00000E+00
         0.00000E+00
         0.00000E+00
         0.00000E+00
         0.00000E+00
         0.00000E+00
         0.00000E+00
         0.00000E+00
         0.00000E+00
         0.00000E+00
         0.00000E+00
         0.00000E+00
         0.00000E+00
         0.00000E+00
         0.00000E+00
         0.00000E+00
         0.00000E+00
         0.00000E+00
         0.00000E+00
         0.00000E+00
         0.00000E+00
         0.00000E+00
         0.00000E+00
         0.00000E+00
         0.00000E+00
         0.00000E+00
         0.00000E+00
         0.00000E+00
         0.00000E+00
         0.00000E+00
         0.00000E+00
         0.00000E+00
         0.00000E+00
         0.00000E+00
         0.00000E+00
         0.00000E+00
         0.00000E+00
         0.00000E+00
         0.00000E+00
         0.00000E+00
         0.00000E+00
         0.00000E+00
         0.00000E+00
         0.00000E+00
         0.00000E+00
         0.00000E+00
         0.00000E+00
         0.00000E+00
         0.00000E+00
         0.00000E+00
         0.00000E+00
         0.00000E+00
         0.00000E+00
         0.00000E+00
         0.00000E+00
         0.00000E+00
         0.00000E+00
         0.00000E+00
         0.00000E+00
         0.00000E+00
         0.00000E+00
         0.00000E+00
         0.00000E+00
         0.00000E+00
         0.00000E+00
         0.00000E+00
         0.00000E+00
         0.00000E+00
         0.00000E+00
         0.00000E+00
         0.00000E+00
         0.00000E+00
         0.00000E+00
         0.00000E+00
         0.00000E+00
         0.00000E+00
         0.00000E+00
         0.00000E+00
         0.00000E+00
         0.00000E+00
         0.00000E+00
         0.00000E+00
         0.00000E+00
         0.00000E+00
         0.00000E+00
         0.00000E+00
         0.00000E+00
         0.00000E+00
         0.00000E+00
         0.00000E+00
         0.00000E+00
         0.00000E+00
         0.00000E+00
         0.00000E+00
         0.00000E+00
         0.00000E+00
         0.00000E+00
         0.00000E+00
         0.00000E+00
         0.00000E+00
         0.00000E+00
         0.00000E+00
         0.00000E+00
         0.00000E+00
         0.00000E+00
         0.00000E+00
         0.00000E+00
         0.00000E+00
         0.00000E+00
         0.00000E+00
         0.00000E+00
         0.00000E+00
         0.00000E+00
         0.00000E+00
         0.00000E+00
         0.00000E+00
         0.00000E+00
         0.00000E+00
         0.00000E+00
         0.00000E+00
         0.00000E+00
         0.00000E+00
         0.00000E+00
         0.00000E+00
         0.00000E+00
         0.00000E+00
         0.00000E+00
         0.00000E+00
         0.00000E+00
         0.00000E+00
         0.00000E+00
         0.00000E+00
         0.00000E+00
         0.00000E+00
         0.00000E+00
         0.00000E+00
         0.00000E+00
         0.00000E+00
         0.00000E+00
         0.00000E+00
         0.00000E+00
         0.00000E+00
         0.00000E+00
         0.00000E+00
         0.00000E+00
         0.00000E+00
         0.00000E+00
         0.00000E+00
         0.00000E+00
         0.00000E+00
         0.00000E+00
         0.00000E+00
         0.00000E+00
         0.00000E+00
         0.00000E+00
         0.00000E+00
         0.00000E+00
         0.00000E+00
         0.00000E+00
         0.00000E+00
         0.00000E+00
         0.00000E+00
         0.00000E+00
         0.00000E+00
         0.00000E+00
         0.00000E+00
         0.00000E+00
         0.00000E+00
         0.00000E+00
         0.00000E+00
         0.00000E+00
         0.00000E+00
         0.00000E+00
         0.00000E+00
         0.00000E+00
         0.00000E+00
         0.00000E+00
         0.00000E+00
         0.00000E+00
         0.00000E+00
         0.00000E+00
         0.00000E+00
         0.00000E+00
         0.00000E+00
         0.00000E+00
         0.00000E+00
         0.00000E+00
         0.00000E+00
         0.00000E+00
         0.00000E+00
         0.00000E+00
         0.00000E+00
         0.00000E+00
         0.00000E+00
         0.00000E+00
         0.00000E+00
         0.00000E+00
         0.00000E+00
         0.00000E+00
         0.00000E+00
         0.00000E+00
         0.00000E+00
         0.00000E+00
         0.00000E+00
         0.00000E+00
         0.00000E+00
         0.00000E+00
         0.00000E+00
         0.00000E+00
         0.00000E+00
         0.00000E+00
         0.00000E+00
         0.00000E+00
         0.00000E+00
         0.00000E+00
         0.00000E+00
         0.00000E+00
         0.00000E+00
         0.00000E+00
         0.00000E+00
         0.00000E+00
         0.00000E+00
         0.00000E+00
         0.00000E+00
         0.00000E+00
         0.00000E+00
         0.00000E+00
         0.00000E+00
         0.00000E+00
         0.00000E+00
         0.00000E+00
         0.00000E+00
         0.00000E+00
         0.00000E+00
         0.00000E+00
         0.00000E+00
         0.00000E+00
         0.00000E+00
         0.00000E+00
         0.00000E+00
         0.00000E+00
         0.00000E+00
         0.00000E+00
         0.00000E+00
         0.00000E+00
         0.00000E+00
         0.00000E+00
         0.00000E+00
         0.00000E+00
         0.00000E+00
         0.00000E+00
         0.00000E+00
         0.00000E+00
         0.00000E+00
         0.00000E+00
         0.00000E+00
         0.00000E+00
         0.00000E+00
         0.00000E+00
         0.00000E+00
         0.00000E+00
         0.00000E+00
         0.00000E+00
         0.00000E+00
         0.00000E+00
         0.00000E+00
         0.00000E+00
         0.00000E+00
         0.00000E+00
         0.00000E+00
         0.00000E+00
         0.00000E+00
         0.00000E+00
         0.00000E+00
         0.00000E+00
         0.00000E+00
         0.00000E+00
         0.00000E+00
         0.00000E+00
         0.00000E+00
         0.00000E+00
         0.00000E+00
         0.00000E+00
         0.00000E+00
         0.00000E+00
         0.00000E+00
         0.00000E+00
         0.00000E+00
         0.00000E+00
         0.00000E+00
         0.00000E+00
         0.00000E+00
         0.00000E+00
         0.00000E+00
         0.00000E+00
         0.00000E+00
         0.00000E+00
         0.00000E+00
         0.00000E+00
         0.00000E+00
         0.00000E+00
         0.00000E+00
         0.00000E+00
         0.00000E+00
         0.00000E+00
         0.00000E+00
         0.00000E+00
         0.00000E+00
         0.00000E+00
         0.00000E+00
         0.00000E+00
         0.00000E+00
         0.00000E+00
         0.00000E+00
         0.00000E+00
         0.00000E+00
         0.00000E+00
         0.00000E+00
         0.00000E+00
         0.00000E+00
         0.00000E+00
         0.00000E+00
         0.00000E+00
         0.00000E+00
         0.00000E+00
         0.00000E+00
         0.00000E+00
         0.00000E+00
         0.00000E+00
         0.00000E+00
         0.00000E+00
         0.00000E+00
         0.00000E+00
         0.00000E+00
         0.00000E+00
         0.00000E+00
         0.00000E+00
         0.00000E+00
         0.00000E+00
         0.00000E+00
         0.00000E+00
         0.00000E+00
         0.00000E+00
         0.00000E+00
         0.00000E+00
         0.00000E+00
         0.00000E+00
         0.00000E+00
         0.00000E+00
         0.00000E+00
         0.00000E+00
         0.00000E+00
         0.00000E+00
         0.00000E+00
         0.00000E+00
         0.00000E+00
         0.00000E+00
         0.00000E+00
         0.00000E+00
         0.00000E+00
         0.00000E+00
         0.00000E+00
         0.00000E+00
         0.00000E+00
         0.00000E+00
         0.00000E+00
         0.00000E+00
         0.00000E+00
         0.00000E+00
         0.00000E+00
         0.00000E+00
         0.00000E+00
         0.00000E+00
         0.00000E+00
         0.00000E+00
         0.00000E+00
         0.00000E+00
         0.00000E+00
         0.00000E+00
         0.00000E+00
         0.00000E+00
         0.00000E+00
         0.00000E+00
         0.00000E+00
         0.00000E+00
         0.00000E+00
         0.00000E+00
         0.00000E+00
         0.00000E+00
         0.00000E+00
         0.00000E+00
         0.00000E+00
         0.00000E+00
         0.00000E+00
         0.00000E+00
         0.00000E+00
         0.00000E+00
         0.00000E+00
         0.00000E+00
         0.00000E+00
         0.00000E+00
         0.00000E+00
         0.00000E+00
         0.00000E+00
         0.00000E+00
         0.00000E+00
         0.00000E+00
         0.00000E+00
         0.00000E+00
         0.00000E+00
         0.00000E+00
         0.00000E+00
         0.00000E+00
         0.00000E+00
         0.00000E+00
         0.00000E+00
         0.00000E+00
         0.00000E+00
         0.00000E+00
         0.00000E+00
         0.00000E+00
         0.00000E+00
         0.00000E+00
         0.00000E+00
         0.00000E+00
         0.00000E+00
         0.00000E+00
         0.00000E+00
         0.00000E+00
         0.00000E+00
         0.00000E+00
         0.00000E+00
         0.00000E+00
         0.00000E+00
         0.00000E+00
         0.00000E+00
         0.00000E+00
         0.00000E+00
         0.00000E+00
         0.00000E+00
         0.00000E+00
         0.00000E+00
         0.00000E+00
         0.00000E+00
         0.00000E+00
         0.00000E+00
         0.00000E+00
         0.00000E+00
         0.00000E+00
         0.00000E+00
         0.00000E+00
         0.00000E+00
         0.00000E+00
         0.00000E+00
         0.00000E+00
         0.00000E+00
         0.00000E+00
         0.00000E+00
         0.00000E+00
         0.00000E+00
         0.00000E+00
         0.00000E+00
         0.00000E+00
         0.00000E+00
         0.00000E+00
         0.00000E+00
         0.00000E+00
         0.00000E+00
         0.00000E+00
         0.00000E+00
         0.00000E+00
         0.00000E+00
         0.00000E+00
         0.00000E+00
         0.00000E+00
         0.00000E+00
         0.00000E+00
         0.00000E+00
         0.00000E+00
         0.00000E+00
         0.00000E+00
         0.00000E+00
         0.00000E+00
         0.00000E+00
         0.00000E+00
         0.00000E+00
         0.00000E+00
         0.00000E+00
         0.00000E+00
         0.00000E+00
         0.00000E+00
         0.00000E+00
         0.00000E+00
         0.00000E+00
         0.00000E+00
         0.00000E+00
         0.00000E+00
         0.00000E+00
         0.00000E+00
         0.00000E+00
         0.00000E+00
         0.00000E+00
         0.00000E+00
         0.00000E+00
         0.00000E+00
         0.00000E+00
         0.00000E+00
         0.00000E+00
         0.00000E+00
         0.00000E+00
         0.00000E+00
         0.00000E+00
         0.00000E+00
         0.00000E+00
         0.00000E+00
         0.00000E+00
         0.00000E+00
         0.00000E+00
         0.00000E+00
         0.00000E+00
         0.00000E+00
         0.00000E+00
         0.00000E+00
         0.00000E+00
         0.00000E+00
         0.00000E+00
         0.00000E+00
         0.00000E+00
         0.00000E+00
         0.00000E+00
         0.00000E+00
         0.00000E+00
         0.00000E+00
         0.00000E+00
         0.00000E+00
         0.00000E+00
         0.00000E+00
         0.00000E+00
         0.00000E+00
         0.00000E+00
         0.00000E+00
         0.00000E+00
         0.00000E+00
         0.00000E+00
         0.00000E+00
         0.00000E+00
         0.00000E+00
         0.00000E+00
         0.00000E+00
         0.00000E+00
         0.00000E+00
         0.00000E+00
         0.00000E+00
         0.00000E+00
         0.00000E+00
         0.00000E+00
         0.00000E+00
         0.00000E+00
         0.00000E+00
         0.00000E+00
         0.00000E+00
         0.00000E+00
         0.00000E+00
         0.00000E+00
         0.00000E+00
         0.00000E+00
         0.00000E+00
         0.00000E+00
         0.00000E+00
         0.00000E+00
         0.00000E+00
         0.00000E+00
         0.00000E+00
         0.00000E+00
         0.00000E+00
         0.00000E+00
         0.00000E+00
         0.00000E+00
         0.00000E+00
         0.00000E+00
         0.00000E+00
         0.00000E+00
         0.00000E+00
         0.00000E+00
         0.00000E+00
         0.00000E+00
         0.00000E+00
         0.00000E+00
         0.00000E+00
         0.00000E+00
         0.00000E+00
         0.00000E+00
         0.00000E+00
         0.00000E+00
         0.00000E+00
         0.00000E+00
         0.00000E+00
         0.00000E+00
         0.00000E+00
         0.00000E+00
         0.00000E+00
         0.00000E+00
         0.00000E+00
         0.00000E+00
         0.00000E+00
         0.00000E+00
         0.00000E+00
         0.00000E+00
         0.00000E+00
         0.00000E+00
         0.00000E+00
         0.00000E+00
         0.00000E+00
         0.00000E+00
         0.00000E+00
         0.00000E+00
         0.00000E+00
         0.00000E+00
         0.00000E+00
         0.00000E+00
         0.00000E+00
         0.00000E+00
         0.00000E+00
         0.00000E+00
         0.00000E+00
         0.00000E+00
         0.00000E+00
         0.00000E+00
         0.00000E+00
         0.00000E+00
         0.00000E+00
         0.00000E+00
         0.00000E+00
         0.00000E+00
         0.00000E+00
         0.00000E+00
         0.00000E+00
         0.00000E+00
         0.00000E+00
         0.00000E+00
         0.00000E+00
         0.00000E+00
         0.00000E+00
         0.00000E+00
         0.00000E+00
         0.00000E+00
         0.00000E+00
         0.00000E+00
         0.00000E+00
         0.00000E+00
         0.00000E+00
         0.00000E+00
         0.00000E+00
         0.00000E+00
         0.00000E+00
         0.00000E+00
         0.00000E+00
         0.00000E+00
         0.00000E+00
         0.00000E+00
         0.00000E+00
         0.00000E+00
         0.00000E+00
         0.00000E+00
         0.00000E+00
         0.00000E+00
         0.00000E+00
         0.00000E+00
         0.00000E+00
         0.00000E+00
         0.00000E+00
         0.00000E+00
         0.00000E+00
         0.00000E+00
         0.00000E+00
         0.00000E+00
         0.00000E+00
         0.00000E+00
         0.00000E+00
         0.00000E+00
         0.00000E+00
         0.00000E+00
         0.00000E+00
         0.00000E+00
         0.00000E+00
         0.00000E+00
         0.00000E+00
         0.00000E+00
         0.00000E+00
         0.00000E+00
         0.00000E+00
         0.00000E+00
         0.00000E+00
         0.00000E+00
         0.00000E+00
         0.00000E+00
         0.00000E+00
         0.00000E+00
         0.00000E+00
         0.00000E+00
         0.00000E+00
         0.00000E+00
         0.00000E+00
         0.00000E+00
         0.00000E+00
         0.00000E+00
         0.00000E+00
         0.00000E+00
         0.00000E+00
         0.00000E+00
         0.00000E+00
         0.00000E+00
         0.00000E+00
         0.00000E+00
         0.00000E+00
         0.00000E+00
         0.00000E+00
         0.00000E+00
         0.00000E+00
         0.00000E+00
         0.00000E+00
         0.00000E+00
         0.00000E+00
         0.00000E+00
         0.00000E+00
         0.00000E+00
         0.00000E+00
         0.00000E+00
         0.00000E+00
         0.00000E+00
         0.00000E+00
         0.00000E+00
         0.00000E+00
         0.00000E+00
         0.00000E+00
         0.00000E+00
         0.00000E+00
         0.00000E+00
         0.00000E+00
         0.00000E+00
         0.00000E+00
         0.00000E+00
         0.00000E+00
         0.00000E+00
         0.00000E+00
         0.00000E+00
         0.00000E+00
         0.00000E+00
         0.00000E+00
         0.00000E+00
         0.00000E+00
         0.00000E+00
         0.00000E+00
         0.00000E+00
         0.00000E+00
         0.00000E+00
         0.00000E+00
         0.00000E+00
         0.00000E+00
         0.00000E+00
         0.00000E+00
         0.00000E+00
         0.00000E+00
         0.00000E+00
         0.00000E+00
         0.00000E+00
         0.00000E+00
         0.00000E+00
         0.00000E+00
         0.00000E+00
         0.00000E+00
         0.00000E+00
         0.00000E+00
         0.00000E+00
         0.00000E+00
         0.00000E+00
         0.00000E+00
         0.00000E+00
         0.00000E+00
         0.00000E+00
         0.00000E+00
         0.00000E+00
         0.00000E+00
         0.00000E+00
         0.00000E+00
         0.00000E+00
         0.00000E+00
         0.00000E+00
         0.00000E+00
         0.00000E+00
         0.00000E+00
         0.00000E+00
         0.00000E+00
         0.00000E+00
         0.00000E+00
         0.00000E+00
         0.00000E+00
         0.00000E+00
         0.00000E+00
         0.00000E+00
         0.00000E+00
         0.00000E+00
         0.00000E+00
         0.00000E+00
         0.00000E+00
         0.00000E+00
         0.00000E+00
         0.00000E+00
         0.00000E+00
         0.00000E+00
         0.00000E+00
         0.00000E+00
         0.00000E+00
         0.00000E+00
         0.00000E+00
         0.00000E+00
         0.00000E+00
         0.00000E+00
         0.00000E+00
         0.00000E+00
         0.00000E+00
         0.00000E+00
         0.00000E+00
         0.00000E+00
         0.00000E+00
         0.00000E+00
         0.00000E+00
         0.00000E+00
         0.00000E+00
         0.00000E+00
         0.00000E+00
         0.00000E+00
         0.00000E+00
         0.00000E+00
         0.00000E+00
         0.00000E+00
         0.00000E+00
         0.00000E+00
         0.00000E+00
         0.00000E+00
         0.00000E+00
         0.00000E+00
         0.00000E+00
         0.00000E+00
         0.00000E+00
         0.00000E+00
         0.00000E+00
         0.00000E+00
         0.00000E+00
         0.00000E+00
         0.00000E+00
         0.00000E+00
         0.00000E+00
         0.00000E+00
         0.00000E+00
         0.00000E+00
         0.00000E+00
         0.00000E+00
         0.00000E+00
         0.00000E+00
         0.00000E+00
         0.00000E+00
         0.00000E+00
         0.00000E+00
         0.00000E+00
         0.00000E+00
         0.00000E+00
         0.00000E+00
         0.00000E+00
         0.00000E+00
         0.00000E+00
         0.00000E+00
         0.00000E+00
         0.00000E+00
         0.00000E+00
         0.00000E+00
         0.00000E+00
         0.00000E+00
         0.00000E+00
         0.00000E+00
         0.00000E+00
         0.00000E+00
         0.00000E+00
         0.00000E+00
         0.00000E+00
         0.00000E+00
         0.00000E+00
         0.00000E+00
         0.00000E+00
         0.00000E+00
         0.00000E+00
         0.00000E+00
         0.00000E+00
         0.00000E+00
         0.00000E+00
         0.00000E+00
         0.00000E+00
         0.00000E+00
         0.00000E+00
         0.00000E+00
         0.00000E+00
         0.00000E+00
         0.00000E+00
         0.00000E+00
         0.00000E+00
         0.00000E+00
         0.00000E+00
         0.00000E+00
         0.00000E+00
         0.00000E+00
         0.00000E+00
         0.00000E+00
         0.00000E+00
         0.00000E+00
         0.00000E+00
         0.00000E+00
         0.00000E+00
         0.00000E+00
         0.00000E+00
         0.00000E+00
         0.00000E+00
         0.00000E+00
         0.00000E+00
         0.00000E+00
         0.00000E+00
         0.00000E+00
         0.00000E+00
         0.00000E+00
         0.00000E+00
         0.00000E+00
         0.00000E+00
         0.00000E+00
         0.00000E+00
         0.00000E+00
         0.00000E+00
         0.00000E+00
         0.00000E+00
         0.00000E+00
         0.00000E+00
         0.00000E+00
         0.00000E+00
         0.00000E+00
         0.00000E+00
         0.00000E+00
         0.00000E+00
         0.00000E+00
         0.00000E+00
         0.00000E+00
         0.00000E+00
         0.00000E+00
         0.00000E+00
         0.00000E+00
         0.00000E+00
         0.00000E+00
         0.00000E+00
         0.00000E+00
         0.00000E+00
         0.00000E+00
         0.00000E+00
         0.00000E+00
         0.00000E+00
         0.00000E+00
         0.00000E+00
         0.00000E+00
         0.00000E+00
         0.00000E+00
         0.00000E+00
         0.00000E+00
         0.00000E+00
         0.00000E+00
         0.00000E+00
         0.00000E+00
         0.00000E+00
         0.00000E+00
         0.00000E+00
         0.00000E+00
         0.00000E+00
         0.00000E+00
         0.00000E+00
         0.00000E+00
         0.00000E+00
         0.00000E+00
         0.00000E+00
         0.00000E+00
         0.00000E+00
         0.00000E+00
         0.00000E+00
         0.00000E+00
         0.00000E+00
         0.00000E+00
         0.00000E+00
         0.00000E+00
         0.00000E+00
         0.00000E+00
         0.00000E+00
         0.00000E+00
         0.00000E+00
         0.00000E+00
         0.00000E+00
         0.00000E+00
         0.00000E+00
         0.00000E+00
         0.00000E+00
         0.00000E+00
         0.00000E+00
         0.00000E+00
         0.00000E+00
         0.00000E+00
         0.00000E+00
         0.00000E+00
         0.00000E+00
         0.00000E+00
         0.00000E+00
         0.00000E+00
         0.00000E+00
         0.00000E+00
         0.00000E+00
         0.00000E+00
         0.00000E+00
         0.00000E+00
         0.00000E+00
         0.00000E+00
         0.00000E+00
         0.00000E+00
         0.00000E+00
         0.00000E+00
         0.00000E+00
         0.00000E+00
         0.00000E+00
         0.00000E+00
         0.00000E+00
         0.00000E+00
         0.00000E+00
         0.00000E+00
         0.00000E+00
         0.00000E+00
         0.00000E+00
         0.00000E+00
         0.00000E+00
         0.00000E+00
         0.00000E+00
         0.00000E+00
         0.00000E+00
         0.00000E+00
         0.00000E+00
         0.00000E+00
         0.00000E+00
         0.00000E+00
         0.00000E+00
         0.00000E+00
         0.00000E+00
         0.00000E+00
         0.00000E+00
         0.00000E+00
         0.00000E+00
         0.00000E+00
         0.00000E+00
         0.00000E+00
         0.00000E+00
         0.00000E+00
         0.00000E+00
         0.00000E+00
         0.00000E+00
         0.00000E+00
         0.00000E+00
         0.00000E+00
         0.00000E+00
         0.00000E+00
         0.00000E+00
         0.00000E+00
         0.00000E+00
         0.00000E+00
         0.00000E+00
         0.00000E+00
         0.00000E+00
         0.00000E+00
         0.00000E+00
         0.00000E+00
         0.00000E+00
         0.00000E+00
         0.00000E+00
         0.00000E+00
         0.00000E+00
         0.00000E+00
         0.00000E+00
         0.00000E+00
         0.00000E+00
         0.00000E+00
         0.00000E+00
         0.00000E+00
         0.00000E+00
         0.00000E+00
         0.00000E+00
         0.00000E+00
         0.00000E+00
         0.00000E+00
         0.00000E+00
         0.00000E+00
         0.00000E+00
         0.00000E+00
         0.00000E+00
         0.00000E+00
         0.00000E+00
         0.00000E+00
         0.00000E+00
         0.00000E+00
         0.00000E+00
         0.00000E+00
         0.00000E+00
         0.00000E+00
         0.00000E+00
         0.00000E+00
         0.00000E+00
         0.00000E+00
         0.00000E+00
         0.00000E+00
         0.00000E+00
         0.00000E+00
         0.00000E+00
         0.00000E+00
         0.00000E+00
         0.00000E+00
         0.00000E+00
         0.00000E+00
         0.00000E+00
         0.00000E+00
         0.00000E+00
         0.00000E+00
         0.00000E+00
         0.00000E+00
         0.00000E+00
         0.00000E+00
         0.00000E+00
         0.00000E+00
         0.00000E+00
         0.00000E+00
         0.00000E+00
         0.00000E+00
         0.00000E+00
         0.00000E+00
         0.00000E+00
         0.00000E+00
         0.00000E+00
         0.00000E+00
         0.00000E+00
  
SCALARS                         fint_z  double 1
LOOKUP_TABLE default
         0.00000E+00
         0.00000E+00
         0.00000E+00
         0.00000E+00
         0.00000E+00
         0.00000E+00
         0.00000E+00
         0.00000E+00
         0.00000E+00
         0.00000E+00
         0.00000E+00
         0.00000E+00
         0.00000E+00
         0.00000E+00
         0.00000E+00
         0.00000E+00
         0.00000E+00
         0.00000E+00
         0.00000E+00
         0.00000E+00
         0.00000E+00
         0.00000E+00
         0.00000E+00
         0.00000E+00
         0.00000E+00
         0.00000E+00
         0.00000E+00
         0.00000E+00
         0.00000E+00
         0.00000E+00
         0.00000E+00
         0.00000E+00
         0.00000E+00
         0.00000E+00
         0.00000E+00
         0.00000E+00
         0.00000E+00
         0.00000E+00
         0.00000E+00
         0.00000E+00
         0.00000E+00
         0.00000E+00
         0.00000E+00
         0.00000E+00
         0.00000E+00
         0.00000E+00
         0.00000E+00
         0.00000E+00
         0.00000E+00
         0.00000E+00
         0.00000E+00
         0.00000E+00
         0.00000E+00
         0.00000E+00
         0.00000E+00
         0.00000E+00
         0.00000E+00
         0.00000E+00
         0.00000E+00
         0.00000E+00
         0.00000E+00
         0.00000E+00
         0.00000E+00
         0.00000E+00
         0.00000E+00
         0.00000E+00
         0.00000E+00
         0.00000E+00
         0.00000E+00
         0.00000E+00
         0.00000E+00
         0.00000E+00
         0.00000E+00
         0.00000E+00
         0.00000E+00
         0.00000E+00
         0.00000E+00
         0.00000E+00
         0.00000E+00
         0.00000E+00
         0.00000E+00
         0.00000E+00
         0.00000E+00
         0.00000E+00
         0.00000E+00
         0.00000E+00
         0.00000E+00
         0.00000E+00
         0.00000E+00
         0.00000E+00
         0.00000E+00
         0.00000E+00
         0.00000E+00
         0.00000E+00
         0.00000E+00
         0.00000E+00
         0.00000E+00
         0.00000E+00
         0.00000E+00
         0.00000E+00
         0.00000E+00
         0.00000E+00
         0.00000E+00
         0.00000E+00
         0.00000E+00
         0.00000E+00
         0.00000E+00
         0.00000E+00
         0.00000E+00
         0.00000E+00
         0.00000E+00
         0.00000E+00
         0.00000E+00
         0.00000E+00
         0.00000E+00
         0.00000E+00
         0.00000E+00
         0.00000E+00
         0.00000E+00
         0.00000E+00
         0.00000E+00
         0.00000E+00
         0.00000E+00
         0.00000E+00
         0.00000E+00
         0.00000E+00
         0.00000E+00
         0.00000E+00
         0.00000E+00
         0.00000E+00
         0.00000E+00
         0.00000E+00
         0.00000E+00
         0.00000E+00
         0.00000E+00
         0.00000E+00
         0.00000E+00
         0.00000E+00
         0.00000E+00
         0.00000E+00
         0.00000E+00
         0.00000E+00
         0.00000E+00
         0.00000E+00
         0.00000E+00
         0.00000E+00
         0.00000E+00
         0.00000E+00
         0.00000E+00
         0.00000E+00
         0.00000E+00
         0.00000E+00
         0.00000E+00
         0.00000E+00
         0.00000E+00
         0.00000E+00
         0.00000E+00
         0.00000E+00
         0.00000E+00
         0.00000E+00
         0.00000E+00
         0.00000E+00
         0.00000E+00
         0.00000E+00
         0.00000E+00
         0.00000E+00
         0.00000E+00
         0.00000E+00
         0.00000E+00
         0.00000E+00
         0.00000E+00
         0.00000E+00
         0.00000E+00
         0.00000E+00
         0.00000E+00
         0.00000E+00
         0.00000E+00
         0.00000E+00
         0.00000E+00
         0.00000E+00
         0.00000E+00
         0.00000E+00
         0.00000E+00
         0.00000E+00
         0.00000E+00
         0.00000E+00
         0.00000E+00
         0.00000E+00
         0.00000E+00
         0.00000E+00
         0.00000E+00
         0.00000E+00
         0.00000E+00
         0.00000E+00
         0.00000E+00
         0.00000E+00
         0.00000E+00
         0.00000E+00
         0.00000E+00
         0.00000E+00
         0.00000E+00
         0.00000E+00
         0.00000E+00
         0.00000E+00
         0.00000E+00
         0.00000E+00
         0.00000E+00
         0.00000E+00
         0.00000E+00
         0.00000E+00
         0.00000E+00
         0.00000E+00
         0.00000E+00
         0.00000E+00
         0.00000E+00
         0.00000E+00
         0.00000E+00
         0.00000E+00
         0.00000E+00
         0.00000E+00
         0.00000E+00
         0.00000E+00
         0.00000E+00
         0.00000E+00
         0.00000E+00
         0.00000E+00
         0.00000E+00
         0.00000E+00
         0.00000E+00
         0.00000E+00
         0.00000E+00
         0.00000E+00
         0.00000E+00
         0.00000E+00
         0.00000E+00
         0.00000E+00
         0.00000E+00
         0.00000E+00
         0.00000E+00
         0.00000E+00
         0.00000E+00
         0.00000E+00
         0.00000E+00
         0.00000E+00
         0.00000E+00
         0.00000E+00
         0.00000E+00
         0.00000E+00
         0.00000E+00
         0.00000E+00
         0.00000E+00
         0.00000E+00
         0.00000E+00
         0.00000E+00
         0.00000E+00
         0.00000E+00
         0.00000E+00
         0.00000E+00
         0.00000E+00
         0.00000E+00
         0.00000E+00
         0.00000E+00
         0.00000E+00
         0.00000E+00
         0.00000E+00
         0.00000E+00
         0.00000E+00
         0.00000E+00
         0.00000E+00
         0.00000E+00
         0.00000E+00
         0.00000E+00
         0.00000E+00
         0.00000E+00
         0.00000E+00
         0.00000E+00
         0.00000E+00
         0.00000E+00
         0.00000E+00
         0.00000E+00
         0.00000E+00
         0.00000E+00
         0.00000E+00
         0.00000E+00
         0.00000E+00
         0.00000E+00
         0.00000E+00
         0.00000E+00
         0.00000E+00
         0.00000E+00
         0.00000E+00
         0.00000E+00
         0.00000E+00
         0.00000E+00
         0.00000E+00
         0.00000E+00
         0.00000E+00
         0.00000E+00
         0.00000E+00
         0.00000E+00
         0.00000E+00
         0.00000E+00
         0.00000E+00
         0.00000E+00
         0.00000E+00
         0.00000E+00
         0.00000E+00
         0.00000E+00
         0.00000E+00
         0.00000E+00
         0.00000E+00
         0.00000E+00
         0.00000E+00
         0.00000E+00
         0.00000E+00
         0.00000E+00
         0.00000E+00
         0.00000E+00
         0.00000E+00
         0.00000E+00
         0.00000E+00
         0.00000E+00
         0.00000E+00
         0.00000E+00
         0.00000E+00
         0.00000E+00
         0.00000E+00
         0.00000E+00
         0.00000E+00
         0.00000E+00
         0.00000E+00
         0.00000E+00
         0.00000E+00
         0.00000E+00
         0.00000E+00
         0.00000E+00
         0.00000E+00
         0.00000E+00
         0.00000E+00
         0.00000E+00
         0.00000E+00
         0.00000E+00
         0.00000E+00
         0.00000E+00
         0.00000E+00
         0.00000E+00
         0.00000E+00
         0.00000E+00
         0.00000E+00
         0.00000E+00
         0.00000E+00
         0.00000E+00
         0.00000E+00
         0.00000E+00
         0.00000E+00
         0.00000E+00
         0.00000E+00
         0.00000E+00
         0.00000E+00
         0.00000E+00
         0.00000E+00
         0.00000E+00
         0.00000E+00
         0.00000E+00
         0.00000E+00
         0.00000E+00
         0.00000E+00
         0.00000E+00
         0.00000E+00
         0.00000E+00
         0.00000E+00
         0.00000E+00
         0.00000E+00
         0.00000E+00
         0.00000E+00
         0.00000E+00
         0.00000E+00
         0.00000E+00
         0.00000E+00
         0.00000E+00
         0.00000E+00
         0.00000E+00
         0.00000E+00
         0.00000E+00
         0.00000E+00
         0.00000E+00
         0.00000E+00
         0.00000E+00
         0.00000E+00
         0.00000E+00
         0.00000E+00
         0.00000E+00
         0.00000E+00
         0.00000E+00
         0.00000E+00
         0.00000E+00
         0.00000E+00
         0.00000E+00
         0.00000E+00
         0.00000E+00
         0.00000E+00
         0.00000E+00
         0.00000E+00
         0.00000E+00
         0.00000E+00
         0.00000E+00
         0.00000E+00
         0.00000E+00
         0.00000E+00
         0.00000E+00
         0.00000E+00
         0.00000E+00
         0.00000E+00
         0.00000E+00
         0.00000E+00
         0.00000E+00
         0.00000E+00
         0.00000E+00
         0.00000E+00
         0.00000E+00
         0.00000E+00
         0.00000E+00
         0.00000E+00
         0.00000E+00
         0.00000E+00
         0.00000E+00
         0.00000E+00
         0.00000E+00
         0.00000E+00
         0.00000E+00
         0.00000E+00
         0.00000E+00
         0.00000E+00
         0.00000E+00
         0.00000E+00
         0.00000E+00
         0.00000E+00
         0.00000E+00
         0.00000E+00
         0.00000E+00
         0.00000E+00
         0.00000E+00
         0.00000E+00
         0.00000E+00
         0.00000E+00
         0.00000E+00
         0.00000E+00
         0.00000E+00
         0.00000E+00
         0.00000E+00
         0.00000E+00
         0.00000E+00
         0.00000E+00
         0.00000E+00
         0.00000E+00
         0.00000E+00
         0.00000E+00
         0.00000E+00
         0.00000E+00
         0.00000E+00
         0.00000E+00
         0.00000E+00
         0.00000E+00
         0.00000E+00
         0.00000E+00
         0.00000E+00
         0.00000E+00
         0.00000E+00
         0.00000E+00
         0.00000E+00
         0.00000E+00
         0.00000E+00
         0.00000E+00
         0.00000E+00
         0.00000E+00
         0.00000E+00
         0.00000E+00
         0.00000E+00
         0.00000E+00
         0.00000E+00
         0.00000E+00
         0.00000E+00
         0.00000E+00
         0.00000E+00
         0.00000E+00
         0.00000E+00
         0.00000E+00
         0.00000E+00
         0.00000E+00
         0.00000E+00
         0.00000E+00
         0.00000E+00
         0.00000E+00
         0.00000E+00
         0.00000E+00
         0.00000E+00
         0.00000E+00
         0.00000E+00
         0.00000E+00
         0.00000E+00
         0.00000E+00
         0.00000E+00
         0.00000E+00
         0.00000E+00
         0.00000E+00
         0.00000E+00
         0.00000E+00
         0.00000E+00
         0.00000E+00
         0.00000E+00
         0.00000E+00
         0.00000E+00
         0.00000E+00
         0.00000E+00
         0.00000E+00
         0.00000E+00
         0.00000E+00
         0.00000E+00
         0.00000E+00
         0.00000E+00
         0.00000E+00
         0.00000E+00
         0.00000E+00
         0.00000E+00
         0.00000E+00
         0.00000E+00
         0.00000E+00
         0.00000E+00
         0.00000E+00
         0.00000E+00
         0.00000E+00
         0.00000E+00
         0.00000E+00
         0.00000E+00
         0.00000E+00
         0.00000E+00
         0.00000E+00
         0.00000E+00
         0.00000E+00
         0.00000E+00
         0.00000E+00
         0.00000E+00
         0.00000E+00
         0.00000E+00
         0.00000E+00
         0.00000E+00
         0.00000E+00
         0.00000E+00
         0.00000E+00
         0.00000E+00
         0.00000E+00
         0.00000E+00
         0.00000E+00
         0.00000E+00
         0.00000E+00
         0.00000E+00
         0.00000E+00
         0.00000E+00
         0.00000E+00
         0.00000E+00
         0.00000E+00
         0.00000E+00
         0.00000E+00
         0.00000E+00
         0.00000E+00
         0.00000E+00
         0.00000E+00
         0.00000E+00
         0.00000E+00
         0.00000E+00
         0.00000E+00
         0.00000E+00
         0.00000E+00
         0.00000E+00
         0.00000E+00
         0.00000E+00
         0.00000E+00
         0.00000E+00
         0.00000E+00
         0.00000E+00
         0.00000E+00
         0.00000E+00
         0.00000E+00
         0.00000E+00
         0.00000E+00
         0.00000E+00
         0.00000E+00
         0.00000E+00
         0.00000E+00
         0.00000E+00
         0.00000E+00
         0.00000E+00
         0.00000E+00
         0.00000E+00
         0.00000E+00
         0.00000E+00
         0.00000E+00
         0.00000E+00
         0.00000E+00
         0.00000E+00
         0.00000E+00
         0.00000E+00
         0.00000E+00
         0.00000E+00
         0.00000E+00
         0.00000E+00
         0.00000E+00
         0.00000E+00
         0.00000E+00
         0.00000E+00
         0.00000E+00
         0.00000E+00
         0.00000E+00
         0.00000E+00
         0.00000E+00
         0.00000E+00
         0.00000E+00
         0.00000E+00
         0.00000E+00
         0.00000E+00
         0.00000E+00
         0.00000E+00
         0.00000E+00
         0.00000E+00
         0.00000E+00
         0.00000E+00
         0.00000E+00
         0.00000E+00
         0.00000E+00
         0.00000E+00
         0.00000E+00
         0.00000E+00
         0.00000E+00
         0.00000E+00
         0.00000E+00
         0.00000E+00
         0.00000E+00
         0.00000E+00
         0.00000E+00
         0.00000E+00
         0.00000E+00
         0.00000E+00
         0.00000E+00
         0.00000E+00
         0.00000E+00
         0.00000E+00
         0.00000E+00
         0.00000E+00
         0.00000E+00
         0.00000E+00
         0.00000E+00
         0.00000E+00
         0.00000E+00
         0.00000E+00
         0.00000E+00
         0.00000E+00
         0.00000E+00
         0.00000E+00
         0.00000E+00
         0.00000E+00
         0.00000E+00
         0.00000E+00
         0.00000E+00
         0.00000E+00
         0.00000E+00
         0.00000E+00
         0.00000E+00
         0.00000E+00
         0.00000E+00
         0.00000E+00
         0.00000E+00
         0.00000E+00
         0.00000E+00
         0.00000E+00
         0.00000E+00
         0.00000E+00
         0.00000E+00
         0.00000E+00
         0.00000E+00
         0.00000E+00
         0.00000E+00
         0.00000E+00
         0.00000E+00
         0.00000E+00
         0.00000E+00
         0.00000E+00
         0.00000E+00
         0.00000E+00
         0.00000E+00
         0.00000E+00
         0.00000E+00
         0.00000E+00
         0.00000E+00
         0.00000E+00
         0.00000E+00
         0.00000E+00
         0.00000E+00
         0.00000E+00
         0.00000E+00
         0.00000E+00
         0.00000E+00
         0.00000E+00
         0.00000E+00
         0.00000E+00
         0.00000E+00
         0.00000E+00
         0.00000E+00
         0.00000E+00
         0.00000E+00
         0.00000E+00
         0.00000E+00
         0.00000E+00
         0.00000E+00
         0.00000E+00
         0.00000E+00
         0.00000E+00
         0.00000E+00
         0.00000E+00
         0.00000E+00
         0.00000E+00
         0.00000E+00
         0.00000E+00
         0.00000E+00
         0.00000E+00
         0.00000E+00
         0.00000E+00
         0.00000E+00
         0.00000E+00
         0.00000E+00
         0.00000E+00
         0.00000E+00
         0.00000E+00
         0.00000E+00
         0.00000E+00
         0.00000E+00
         0.00000E+00
         0.00000E+00
         0.00000E+00
         0.00000E+00
         0.00000E+00
         0.00000E+00
         0.00000E+00
         0.00000E+00
         0.00000E+00
         0.00000E+00
         0.00000E+00
         0.00000E+00
         0.00000E+00
         0.00000E+00
         0.00000E+00
         0.00000E+00
         0.00000E+00
         0.00000E+00
         0.00000E+00
         0.00000E+00
         0.00000E+00
         0.00000E+00
         0.00000E+00
         0.00000E+00
         0.00000E+00
         0.00000E+00
         0.00000E+00
         0.00000E+00
         0.00000E+00
         0.00000E+00
         0.00000E+00
         0.00000E+00
         0.00000E+00
         0.00000E+00
         0.00000E+00
         0.00000E+00
         0.00000E+00
         0.00000E+00
         0.00000E+00
         0.00000E+00
         0.00000E+00
         0.00000E+00
         0.00000E+00
         0.00000E+00
         0.00000E+00
         0.00000E+00
         0.00000E+00
         0.00000E+00
         0.00000E+00
         0.00000E+00
         0.00000E+00
         0.00000E+00
         0.00000E+00
         0.00000E+00
         0.00000E+00
         0.00000E+00
         0.00000E+00
         0.00000E+00
         0.00000E+00
         0.00000E+00
         0.00000E+00
         0.00000E+00
         0.00000E+00
         0.00000E+00
         0.00000E+00
         0.00000E+00
         0.00000E+00
         0.00000E+00
         0.00000E+00
         0.00000E+00
         0.00000E+00
         0.00000E+00
         0.00000E+00
         0.00000E+00
         0.00000E+00
         0.00000E+00
         0.00000E+00
         0.00000E+00
         0.00000E+00
         0.00000E+00
         0.00000E+00
         0.00000E+00
         0.00000E+00
         0.00000E+00
         0.00000E+00
         0.00000E+00
         0.00000E+00
         0.00000E+00
         0.00000E+00
         0.00000E+00
         0.00000E+00
         0.00000E+00
         0.00000E+00
         0.00000E+00
         0.00000E+00
         0.00000E+00
         0.00000E+00
         0.00000E+00
         0.00000E+00
         0.00000E+00
         0.00000E+00
         0.00000E+00
         0.00000E+00
         0.00000E+00
         0.00000E+00
         0.00000E+00
         0.00000E+00
         0.00000E+00
         0.00000E+00
         0.00000E+00
         0.00000E+00
         0.00000E+00
         0.00000E+00
         0.00000E+00
         0.00000E+00
         0.00000E+00
         0.00000E+00
         0.00000E+00
         0.00000E+00
         0.00000E+00
         0.00000E+00
         0.00000E+00
         0.00000E+00
         0.00000E+00
         0.00000E+00
         0.00000E+00
         0.00000E+00
         0.00000E+00
         0.00000E+00
         0.00000E+00
         0.00000E+00
         0.00000E+00
         0.00000E+00
         0.00000E+00
         0.00000E+00
         0.00000E+00
         0.00000E+00
         0.00000E+00
         0.00000E+00
         0.00000E+00
         0.00000E+00
         0.00000E+00
         0.00000E+00
         0.00000E+00
         0.00000E+00
         0.00000E+00
         0.00000E+00
         0.00000E+00
         0.00000E+00
         0.00000E+00
         0.00000E+00
         0.00000E+00
         0.00000E+00
         0.00000E+00
         0.00000E+00
         0.00000E+00
         0.00000E+00
         0.00000E+00
         0.00000E+00
         0.00000E+00
         0.00000E+00
         0.00000E+00
         0.00000E+00
         0.00000E+00
         0.00000E+00
         0.00000E+00
         0.00000E+00
         0.00000E+00
         0.00000E+00
         0.00000E+00
         0.00000E+00
         0.00000E+00
         0.00000E+00
         0.00000E+00
         0.00000E+00
         0.00000E+00
         0.00000E+00
         0.00000E+00
         0.00000E+00
         0.00000E+00
         0.00000E+00
         0.00000E+00
         0.00000E+00
         0.00000E+00
         0.00000E+00
         0.00000E+00
         0.00000E+00
         0.00000E+00
         0.00000E+00
         0.00000E+00
         0.00000E+00
         0.00000E+00
         0.00000E+00
         0.00000E+00
         0.00000E+00
         0.00000E+00
         0.00000E+00
         0.00000E+00
         0.00000E+00
         0.00000E+00
         0.00000E+00
         0.00000E+00
         0.00000E+00
         0.00000E+00
         0.00000E+00
         0.00000E+00
         0.00000E+00
         0.00000E+00
         0.00000E+00
         0.00000E+00
         0.00000E+00
         0.00000E+00
         0.00000E+00
         0.00000E+00
         0.00000E+00
         0.00000E+00
         0.00000E+00
         0.00000E+00
         0.00000E+00
         0.00000E+00
         0.00000E+00
         0.00000E+00
         0.00000E+00
         0.00000E+00
         0.00000E+00
         0.00000E+00
         0.00000E+00
         0.00000E+00
         0.00000E+00
         0.00000E+00
         0.00000E+00
         0.00000E+00
         0.00000E+00
         0.00000E+00
         0.00000E+00
         0.00000E+00
         0.00000E+00
         0.00000E+00
         0.00000E+00
         0.00000E+00
         0.00000E+00
         0.00000E+00
         0.00000E+00
         0.00000E+00
         0.00000E+00
         0.00000E+00
         0.00000E+00
         0.00000E+00
         0.00000E+00
         0.00000E+00
         0.00000E+00
         0.00000E+00
         0.00000E+00
         0.00000E+00
         0.00000E+00
         0.00000E+00
         0.00000E+00
         0.00000E+00
         0.00000E+00
         0.00000E+00
         0.00000E+00
         0.00000E+00
         0.00000E+00
         0.00000E+00
         0.00000E+00
         0.00000E+00
         0.00000E+00
         0.00000E+00
         0.00000E+00
         0.00000E+00
         0.00000E+00
         0.00000E+00
         0.00000E+00
         0.00000E+00
         0.00000E+00
         0.00000E+00
         0.00000E+00
         0.00000E+00
         0.00000E+00
         0.00000E+00
         0.00000E+00
         0.00000E+00
         0.00000E+00
         0.00000E+00
         0.00000E+00
         0.00000E+00
         0.00000E+00
         0.00000E+00
         0.00000E+00
         0.00000E+00
         0.00000E+00
         0.00000E+00
         0.00000E+00
         0.00000E+00
         0.00000E+00
         0.00000E+00
         0.00000E+00
         0.00000E+00
         0.00000E+00
         0.00000E+00
         0.00000E+00
         0.00000E+00
         0.00000E+00
         0.00000E+00
         0.00000E+00
         0.00000E+00
         0.00000E+00
         0.00000E+00
         0.00000E+00
         0.00000E+00
         0.00000E+00
         0.00000E+00
         0.00000E+00
         0.00000E+00
         0.00000E+00
         0.00000E+00
         0.00000E+00
         0.00000E+00
         0.00000E+00
         0.00000E+00
         0.00000E+00
         0.00000E+00
         0.00000E+00
         0.00000E+00
         0.00000E+00
         0.00000E+00
         0.00000E+00
         0.00000E+00
         0.00000E+00
         0.00000E+00
         0.00000E+00
         0.00000E+00
         0.00000E+00
         0.00000E+00
         0.00000E+00
         0.00000E+00
         0.00000E+00
         0.00000E+00
         0.00000E+00
         0.00000E+00
         0.00000E+00
         0.00000E+00
         0.00000E+00
         0.00000E+00
         0.00000E+00
         0.00000E+00
         0.00000E+00
         0.00000E+00
         0.00000E+00
         0.00000E+00
         0.00000E+00
         0.00000E+00
         0.00000E+00
         0.00000E+00
         0.00000E+00
         0.00000E+00
         0.00000E+00
         0.00000E+00
         0.00000E+00
         0.00000E+00
         0.00000E+00
         0.00000E+00
         0.00000E+00
         0.00000E+00
         0.00000E+00
         0.00000E+00
         0.00000E+00
         0.00000E+00
         0.00000E+00
         0.00000E+00
         0.00000E+00
         0.00000E+00
         0.00000E+00
         0.00000E+00
         0.00000E+00
         0.00000E+00
         0.00000E+00
         0.00000E+00
         0.00000E+00
         0.00000E+00
         0.00000E+00
         0.00000E+00
         0.00000E+00
         0.00000E+00
         0.00000E+00
         0.00000E+00
         0.00000E+00
         0.00000E+00
         0.00000E+00
         0.00000E+00
         0.00000E+00
         0.00000E+00
         0.00000E+00
         0.00000E+00
         0.00000E+00
         0.00000E+00
         0.00000E+00
         0.00000E+00
         0.00000E+00
         0.00000E+00
         0.00000E+00
         0.00000E+00
         0.00000E+00
         0.00000E+00
         0.00000E+00
         0.00000E+00
         0.00000E+00
         0.00000E+00
         0.00000E+00
         0.00000E+00
         0.00000E+00
         0.00000E+00
         0.00000E+00
         0.00000E+00
         0.00000E+00
         0.00000E+00
         0.00000E+00
         0.00000E+00
         0.00000E+00
         0.00000E+00
         0.00000E+00
         0.00000E+00
         0.00000E+00
         0.00000E+00
         0.00000E+00
         0.00000E+00
         0.00000E+00
         0.00000E+00
         0.00000E+00
         0.00000E+00
         0.00000E+00
         0.00000E+00
         0.00000E+00
         0.00000E+00
         0.00000E+00
         0.00000E+00
         0.00000E+00
         0.00000E+00
         0.00000E+00
         0.00000E+00
         0.00000E+00
         0.00000E+00
         0.00000E+00
         0.00000E+00
         0.00000E+00
         0.00000E+00
         0.00000E+00
         0.00000E+00
         0.00000E+00
         0.00000E+00
         0.00000E+00
         0.00000E+00
         0.00000E+00
         0.00000E+00
         0.00000E+00
         0.00000E+00
         0.00000E+00
         0.00000E+00
         0.00000E+00
         0.00000E+00
         0.00000E+00
         0.00000E+00
         0.00000E+00
         0.00000E+00
         0.00000E+00
         0.00000E+00
         0.00000E+00
         0.00000E+00
         0.00000E+00
         0.00000E+00
         0.00000E+00
         0.00000E+00
         0.00000E+00
         0.00000E+00
         0.00000E+00
         0.00000E+00
         0.00000E+00
         0.00000E+00
         0.00000E+00
         0.00000E+00
         0.00000E+00
         0.00000E+00
         0.00000E+00
         0.00000E+00
         0.00000E+00
         0.00000E+00
         0.00000E+00
         0.00000E+00
         0.00000E+00
         0.00000E+00
         0.00000E+00
         0.00000E+00
         0.00000E+00
         0.00000E+00
         0.00000E+00
         0.00000E+00
         0.00000E+00
         0.00000E+00
         0.00000E+00
         0.00000E+00
         0.00000E+00
         0.00000E+00
         0.00000E+00
         0.00000E+00
         0.00000E+00
         0.00000E+00
         0.00000E+00
         0.00000E+00
         0.00000E+00
         0.00000E+00
         0.00000E+00
         0.00000E+00
         0.00000E+00
         0.00000E+00
         0.00000E+00
         0.00000E+00
         0.00000E+00
         0.00000E+00
         0.00000E+00
         0.00000E+00
         0.00000E+00
         0.00000E+00
         0.00000E+00
         0.00000E+00
         0.00000E+00
         0.00000E+00
         0.00000E+00
         0.00000E+00
         0.00000E+00
         0.00000E+00
         0.00000E+00
         0.00000E+00
         0.00000E+00
         0.00000E+00
         0.00000E+00
         0.00000E+00
         0.00000E+00
         0.00000E+00
         0.00000E+00
         0.00000E+00
         0.00000E+00
         0.00000E+00
         0.00000E+00
         0.00000E+00
         0.00000E+00
         0.00000E+00
         0.00000E+00
         0.00000E+00
         0.00000E+00
         0.00000E+00
         0.00000E+00
         0.00000E+00
         0.00000E+00
         0.00000E+00
         0.00000E+00
         0.00000E+00
         0.00000E+00
         0.00000E+00
         0.00000E+00
         0.00000E+00
         0.00000E+00
         0.00000E+00
         0.00000E+00
         0.00000E+00
         0.00000E+00
         0.00000E+00
         0.00000E+00
         0.00000E+00
         0.00000E+00
         0.00000E+00
         0.00000E+00
         0.00000E+00
         0.00000E+00
         0.00000E+00
         0.00000E+00
         0.00000E+00
         0.00000E+00
         0.00000E+00
         0.00000E+00
         0.00000E+00
         0.00000E+00
         0.00000E+00
         0.00000E+00
         0.00000E+00
         0.00000E+00
         0.00000E+00
         0.00000E+00
         0.00000E+00
         0.00000E+00
         0.00000E+00
         0.00000E+00
         0.00000E+00
         0.00000E+00
         0.00000E+00
         0.00000E+00
         0.00000E+00
         0.00000E+00
         0.00000E+00
         0.00000E+00
         0.00000E+00
         0.00000E+00
         0.00000E+00
         0.00000E+00
         0.00000E+00
         0.00000E+00
         0.00000E+00
         0.00000E+00
         0.00000E+00
         0.00000E+00
         0.00000E+00
         0.00000E+00
         0.00000E+00
         0.00000E+00
         0.00000E+00
         0.00000E+00
         0.00000E+00
         0.00000E+00
         0.00000E+00
         0.00000E+00
         0.00000E+00
         0.00000E+00
         0.00000E+00
         0.00000E+00
         0.00000E+00
         0.00000E+00
         0.00000E+00
         0.00000E+00
         0.00000E+00
         0.00000E+00
         0.00000E+00
         0.00000E+00
         0.00000E+00
         0.00000E+00
         0.00000E+00
         0.00000E+00
         0.00000E+00
         0.00000E+00
         0.00000E+00
         0.00000E+00
         0.00000E+00
         0.00000E+00
         0.00000E+00
         0.00000E+00
         0.00000E+00
         0.00000E+00
         0.00000E+00
         0.00000E+00
         0.00000E+00
         0.00000E+00
         0.00000E+00
         0.00000E+00
         0.00000E+00
         0.00000E+00
         0.00000E+00
         0.00000E+00
         0.00000E+00
         0.00000E+00
         0.00000E+00
         0.00000E+00
         0.00000E+00
         0.00000E+00
         0.00000E+00
         0.00000E+00
         0.00000E+00
         0.00000E+00
         0.00000E+00
         0.00000E+00
         0.00000E+00
         0.00000E+00
         0.00000E+00
         0.00000E+00
         0.00000E+00
         0.00000E+00
         0.00000E+00
         0.00000E+00
         0.00000E+00
         0.00000E+00
         0.00000E+00
         0.00000E+00
         0.00000E+00
         0.00000E+00
         0.00000E+00
         0.00000E+00
         0.00000E+00
         0.00000E+00
         0.00000E+00
         0.00000E+00
         0.00000E+00
         0.00000E+00
         0.00000E+00
         0.00000E+00
         0.00000E+00
         0.00000E+00
         0.00000E+00
         0.00000E+00
         0.00000E+00
         0.00000E+00
         0.00000E+00
         0.00000E+00
         0.00000E+00
         0.00000E+00
         0.00000E+00
         0.00000E+00
         0.00000E+00
         0.00000E+00
         0.00000E+00
         0.00000E+00
         0.00000E+00
         0.00000E+00
         0.00000E+00
         0.00000E+00
         0.00000E+00
         0.00000E+00
         0.00000E+00
         0.00000E+00
         0.00000E+00
         0.00000E+00
         0.00000E+00
         0.00000E+00
         0.00000E+00
         0.00000E+00
         0.00000E+00
         0.00000E+00
         0.00000E+00
         0.00000E+00
         0.00000E+00
         0.00000E+00
         0.00000E+00
         0.00000E+00
         0.00000E+00
         0.00000E+00
         0.00000E+00
         0.00000E+00
         0.00000E+00
         0.00000E+00
         0.00000E+00
         0.00000E+00
         0.00000E+00
         0.00000E+00
         0.00000E+00
         0.00000E+00
         0.00000E+00
         0.00000E+00
         0.00000E+00
         0.00000E+00
         0.00000E+00
         0.00000E+00
         0.00000E+00
         0.00000E+00
         0.00000E+00
         0.00000E+00
         0.00000E+00
         0.00000E+00
         0.00000E+00
         0.00000E+00
         0.00000E+00
         0.00000E+00
         0.00000E+00
         0.00000E+00
         0.00000E+00
         0.00000E+00
         0.00000E+00
         0.00000E+00
         0.00000E+00
         0.00000E+00
         0.00000E+00
         0.00000E+00
         0.00000E+00
         0.00000E+00
         0.00000E+00
         0.00000E+00
         0.00000E+00
         0.00000E+00
         0.00000E+00
         0.00000E+00
         0.00000E+00
         0.00000E+00
         0.00000E+00
         0.00000E+00
         0.00000E+00
         0.00000E+00
         0.00000E+00
         0.00000E+00
         0.00000E+00
         0.00000E+00
         0.00000E+00
         0.00000E+00
         0.00000E+00
         0.00000E+00
         0.00000E+00
         0.00000E+00
         0.00000E+00
         0.00000E+00
         0.00000E+00
         0.00000E+00
         0.00000E+00
         0.00000E+00
         0.00000E+00
         0.00000E+00
         0.00000E+00
         0.00000E+00
         0.00000E+00
         0.00000E+00
         0.00000E+00
         0.00000E+00
         0.00000E+00
         0.00000E+00
         0.00000E+00
         0.00000E+00
         0.00000E+00
         0.00000E+00
         0.00000E+00
         0.00000E+00
         0.00000E+00
         0.00000E+00
         0.00000E+00
         0.00000E+00
         0.00000E+00
         0.00000E+00
         0.00000E+00
         0.00000E+00
         0.00000E+00
         0.00000E+00
         0.00000E+00
         0.00000E+00
         0.00000E+00
         0.00000E+00
         0.00000E+00
         0.00000E+00
         0.00000E+00
         0.00000E+00
         0.00000E+00
         0.00000E+00
         0.00000E+00
         0.00000E+00
         0.00000E+00
         0.00000E+00
         0.00000E+00
         0.00000E+00
         0.00000E+00
         0.00000E+00
         0.00000E+00
         0.00000E+00
         0.00000E+00
         0.00000E+00
         0.00000E+00
         0.00000E+00
         0.00000E+00
         0.00000E+00
         0.00000E+00
         0.00000E+00
         0.00000E+00
         0.00000E+00
         0.00000E+00
         0.00000E+00
         0.00000E+00
         0.00000E+00
         0.00000E+00
         0.00000E+00
         0.00000E+00
         0.00000E+00
         0.00000E+00
         0.00000E+00
         0.00000E+00
         0.00000E+00
         0.00000E+00
         0.00000E+00
         0.00000E+00
         0.00000E+00
         0.00000E+00
         0.00000E+00
         0.00000E+00
         0.00000E+00
         0.00000E+00
         0.00000E+00
         0.00000E+00
         0.00000E+00
         0.00000E+00
         0.00000E+00
         0.00000E+00
         0.00000E+00
         0.00000E+00
         0.00000E+00
         0.00000E+00
         0.00000E+00
         0.00000E+00
         0.00000E+00
         0.00000E+00
         0.00000E+00
         0.00000E+00
         0.00000E+00
         0.00000E+00
         0.00000E+00
         0.00000E+00
         0.00000E+00
         0.00000E+00
         0.00000E+00
         0.00000E+00
         0.00000E+00
         0.00000E+00
         0.00000E+00
         0.00000E+00
         0.00000E+00
         0.00000E+00
         0.00000E+00
         0.00000E+00
         0.00000E+00
         0.00000E+00
         0.00000E+00
         0.00000E+00
         0.00000E+00
         0.00000E+00
         0.00000E+00
         0.00000E+00
         0.00000E+00
         0.00000E+00
         0.00000E+00
         0.00000E+00
         0.00000E+00
         0.00000E+00
         0.00000E+00
         0.00000E+00
         0.00000E+00
         0.00000E+00
         0.00000E+00
         0.00000E+00
         0.00000E+00
         0.00000E+00
         0.00000E+00
         0.00000E+00
         0.00000E+00
         0.00000E+00
         0.00000E+00
         0.00000E+00
         0.00000E+00
         0.00000E+00
         0.00000E+00
         0.00000E+00
         0.00000E+00
         0.00000E+00
         0.00000E+00
         0.00000E+00
         0.00000E+00
         0.00000E+00
         0.00000E+00
         0.00000E+00
         0.00000E+00
         0.00000E+00
         0.00000E+00
         0.00000E+00
         0.00000E+00
         0.00000E+00
         0.00000E+00
         0.00000E+00
         0.00000E+00
         0.00000E+00
         0.00000E+00
         0.00000E+00
         0.00000E+00
         0.00000E+00
         0.00000E+00
         0.00000E+00
         0.00000E+00
         0.00000E+00
         0.00000E+00
         0.00000E+00
         0.00000E+00
         0.00000E+00
         0.00000E+00
         0.00000E+00
         0.00000E+00
         0.00000E+00
         0.00000E+00
         0.00000E+00
         0.00000E+00
         0.00000E+00
         0.00000E+00
         0.00000E+00
         0.00000E+00
         0.00000E+00
         0.00000E+00
         0.00000E+00
         0.00000E+00
         0.00000E+00
         0.00000E+00
         0.00000E+00
         0.00000E+00
         0.00000E+00
         0.00000E+00
         0.00000E+00
         0.00000E+00
         0.00000E+00
         0.00000E+00
         0.00000E+00
         0.00000E+00
         0.00000E+00
         0.00000E+00
         0.00000E+00
         0.00000E+00
         0.00000E+00
         0.00000E+00
         0.00000E+00
         0.00000E+00
         0.00000E+00
         0.00000E+00
         0.00000E+00
         0.00000E+00
         0.00000E+00
         0.00000E+00
         0.00000E+00
         0.00000E+00
         0.00000E+00
         0.00000E+00
         0.00000E+00
         0.00000E+00
         0.00000E+00
         0.00000E+00
         0.00000E+00
         0.00000E+00
         0.00000E+00
         0.00000E+00
         0.00000E+00
         0.00000E+00
         0.00000E+00
         0.00000E+00
         0.00000E+00
         0.00000E+00
         0.00000E+00
         0.00000E+00
         0.00000E+00
         0.00000E+00
         0.00000E+00
         0.00000E+00
         0.00000E+00
         0.00000E+00
         0.00000E+00
         0.00000E+00
         0.00000E+00
         0.00000E+00
         0.00000E+00
         0.00000E+00
         0.00000E+00
         0.00000E+00
         0.00000E+00
         0.00000E+00
         0.00000E+00
         0.00000E+00
         0.00000E+00
         0.00000E+00
         0.00000E+00
         0.00000E+00
         0.00000E+00
         0.00000E+00
         0.00000E+00
         0.00000E+00
         0.00000E+00
         0.00000E+00
         0.00000E+00
         0.00000E+00
         0.00000E+00
         0.00000E+00
         0.00000E+00
         0.00000E+00
         0.00000E+00
         0.00000E+00
         0.00000E+00
         0.00000E+00
         0.00000E+00
         0.00000E+00
         0.00000E+00
         0.00000E+00
         0.00000E+00
         0.00000E+00
         0.00000E+00
         0.00000E+00
         0.00000E+00
         0.00000E+00
         0.00000E+00
         0.00000E+00
         0.00000E+00
         0.00000E+00
         0.00000E+00
         0.00000E+00
         0.00000E+00
         0.00000E+00
         0.00000E+00
         0.00000E+00
         0.00000E+00
         0.00000E+00
         0.00000E+00
         0.00000E+00
         0.00000E+00
         0.00000E+00
         0.00000E+00
         0.00000E+00
         0.00000E+00
         0.00000E+00
         0.00000E+00
         0.00000E+00
         0.00000E+00
         0.00000E+00
         0.00000E+00
         0.00000E+00
         0.00000E+00
         0.00000E+00
         0.00000E+00
         0.00000E+00
         0.00000E+00
         0.00000E+00
         0.00000E+00
         0.00000E+00
         0.00000E+00
         0.00000E+00
         0.00000E+00
         0.00000E+00
         0.00000E+00
         0.00000E+00
         0.00000E+00
         0.00000E+00
         0.00000E+00
         0.00000E+00
         0.00000E+00
         0.00000E+00
         0.00000E+00
         0.00000E+00
         0.00000E+00
         0.00000E+00
         0.00000E+00
         0.00000E+00
         0.00000E+00
         0.00000E+00
         0.00000E+00
         0.00000E+00
         0.00000E+00
         0.00000E+00
         0.00000E+00
         0.00000E+00
         0.00000E+00
         0.00000E+00
         0.00000E+00
         0.00000E+00
         0.00000E+00
         0.00000E+00
         0.00000E+00
         0.00000E+00
         0.00000E+00
         0.00000E+00
         0.00000E+00
         0.00000E+00
         0.00000E+00
         0.00000E+00
         0.00000E+00
         0.00000E+00
         0.00000E+00
         0.00000E+00
         0.00000E+00
         0.00000E+00
         0.00000E+00
         0.00000E+00
         0.00000E+00
         0.00000E+00
         0.00000E+00
         0.00000E+00
         0.00000E+00
         0.00000E+00
         0.00000E+00
         0.00000E+00
         0.00000E+00
         0.00000E+00
         0.00000E+00
         0.00000E+00
         0.00000E+00
         0.00000E+00
         0.00000E+00
         0.00000E+00
         0.00000E+00
         0.00000E+00
         0.00000E+00
         0.00000E+00
         0.00000E+00
         0.00000E+00
         0.00000E+00
         0.00000E+00
         0.00000E+00
         0.00000E+00
         0.00000E+00
         0.00000E+00
         0.00000E+00
         0.00000E+00
         0.00000E+00
         0.00000E+00
         0.00000E+00
         0.00000E+00
         0.00000E+00
         0.00000E+00
         0.00000E+00
         0.00000E+00
         0.00000E+00
         0.00000E+00
         0.00000E+00
         0.00000E+00
         0.00000E+00
         0.00000E+00
         0.00000E+00
         0.00000E+00
         0.00000E+00
         0.00000E+00
         0.00000E+00
         0.00000E+00
         0.00000E+00
         0.00000E+00
         0.00000E+00
         0.00000E+00
         0.00000E+00
         0.00000E+00
  
SCALARS        characteristic_distance  double 1
LOOKUP_TABLE default
         0.00000E+00
         0.00000E+00
         0.00000E+00
         0.00000E+00
         0.00000E+00
         0.00000E+00
         0.00000E+00
         0.00000E+00
         0.00000E+00
         0.00000E+00
         0.00000E+00
         0.00000E+00
         0.00000E+00
         0.00000E+00
         0.00000E+00
         0.00000E+00
         0.00000E+00
         0.00000E+00
         0.00000E+00
         0.00000E+00
         0.00000E+00
         0.00000E+00
         0.00000E+00
         0.00000E+00
         0.00000E+00
         0.00000E+00
         0.00000E+00
         0.00000E+00
         0.00000E+00
         0.00000E+00
         0.00000E+00
         0.00000E+00
         0.00000E+00
         0.00000E+00
         0.00000E+00
         0.00000E+00
         0.00000E+00
         0.00000E+00
         0.00000E+00
         0.00000E+00
         0.00000E+00
         0.00000E+00
         0.00000E+00
         0.00000E+00
         0.00000E+00
         0.00000E+00
         0.00000E+00
         0.00000E+00
         0.00000E+00
         0.00000E+00
         0.00000E+00
         0.00000E+00
         0.00000E+00
         0.00000E+00
         0.00000E+00
         0.00000E+00
         0.00000E+00
         0.00000E+00
         0.00000E+00
         0.00000E+00
         0.00000E+00
         0.00000E+00
         0.00000E+00
         0.00000E+00
         0.00000E+00
         0.00000E+00
         0.00000E+00
         0.00000E+00
         0.00000E+00
         0.00000E+00
         0.00000E+00
         0.00000E+00
         0.00000E+00
         0.00000E+00
         0.00000E+00
         0.00000E+00
         0.00000E+00
         0.00000E+00
         0.00000E+00
         0.00000E+00
         0.00000E+00
         0.00000E+00
         0.00000E+00
         0.00000E+00
         0.00000E+00
         0.00000E+00
         0.00000E+00
         0.00000E+00
         0.00000E+00
         0.00000E+00
         0.00000E+00
         0.00000E+00
         0.00000E+00
         0.00000E+00
         0.00000E+00
         0.00000E+00
         0.00000E+00
         0.00000E+00
         0.00000E+00
         0.00000E+00
         0.00000E+00
         0.00000E+00
         0.00000E+00
         0.00000E+00
         0.00000E+00
         0.00000E+00
         0.00000E+00
         0.00000E+00
         0.00000E+00
         0.00000E+00
         0.00000E+00
         0.00000E+00
         0.00000E+00
         0.00000E+00
         0.00000E+00
         0.00000E+00
         0.00000E+00
         0.00000E+00
         0.00000E+00
         0.00000E+00
         0.00000E+00
         0.00000E+00
         0.00000E+00
         0.00000E+00
         0.00000E+00
         0.00000E+00
         0.00000E+00
         0.00000E+00
         0.00000E+00
         0.00000E+00
         0.00000E+00
         0.00000E+00
         0.00000E+00
         0.00000E+00
         0.00000E+00
         0.00000E+00
         0.00000E+00
         0.00000E+00
         0.00000E+00
         0.00000E+00
         0.00000E+00
         0.00000E+00
         0.00000E+00
         0.00000E+00
         0.00000E+00
         0.00000E+00
         0.00000E+00
         0.00000E+00
         0.00000E+00
         0.00000E+00
         0.00000E+00
         0.00000E+00
         0.00000E+00
         0.00000E+00
         0.00000E+00
         0.00000E+00
         0.00000E+00
         0.00000E+00
         0.00000E+00
         0.00000E+00
         0.00000E+00
         0.00000E+00
         0.00000E+00
         0.00000E+00
         0.00000E+00
         0.00000E+00
         0.00000E+00
         0.00000E+00
         0.00000E+00
         0.00000E+00
         0.00000E+00
         0.00000E+00
         0.00000E+00
         0.00000E+00
         0.00000E+00
         0.00000E+00
         0.00000E+00
         0.00000E+00
         0.00000E+00
         0.00000E+00
         0.00000E+00
         0.00000E+00
         0.00000E+00
         0.00000E+00
         0.00000E+00
         0.00000E+00
         0.00000E+00
         0.00000E+00
         0.00000E+00
         0.00000E+00
         0.00000E+00
         0.00000E+00
         0.00000E+00
         0.00000E+00
         0.00000E+00
         0.00000E+00
         0.00000E+00
         0.00000E+00
         0.00000E+00
         0.00000E+00
         0.00000E+00
         0.00000E+00
         0.00000E+00
         0.00000E+00
         0.00000E+00
         0.00000E+00
         0.00000E+00
         0.00000E+00
         0.00000E+00
         0.00000E+00
         0.00000E+00
         0.00000E+00
         0.00000E+00
         0.00000E+00
         0.00000E+00
         0.00000E+00
         0.00000E+00
         0.00000E+00
         0.00000E+00
         0.00000E+00
         0.00000E+00
         0.00000E+00
         0.00000E+00
         0.00000E+00
         0.00000E+00
         0.00000E+00
         0.00000E+00
         0.00000E+00
         0.00000E+00
         0.00000E+00
         0.00000E+00
         0.00000E+00
         0.00000E+00
         0.00000E+00
         0.00000E+00
         0.00000E+00
         0.00000E+00
         0.00000E+00
         0.00000E+00
         0.00000E+00
         0.00000E+00
         0.00000E+00
         0.00000E+00
         0.00000E+00
         0.00000E+00
         0.00000E+00
         0.00000E+00
         0.00000E+00
         0.00000E+00
         0.00000E+00
         0.00000E+00
         0.00000E+00
         0.00000E+00
         0.00000E+00
         0.00000E+00
         0.00000E+00
         0.00000E+00
         0.00000E+00
         0.00000E+00
         0.00000E+00
         0.00000E+00
         0.00000E+00
         0.00000E+00
         0.00000E+00
         0.00000E+00
         0.00000E+00
         0.00000E+00
         0.00000E+00
         0.00000E+00
         0.00000E+00
         0.00000E+00
         0.00000E+00
         0.00000E+00
         0.00000E+00
         0.00000E+00
         0.00000E+00
         0.00000E+00
         0.00000E+00
         0.00000E+00
         0.00000E+00
         0.00000E+00
         0.00000E+00
         0.00000E+00
         0.00000E+00
         0.00000E+00
         0.00000E+00
         0.00000E+00
         0.00000E+00
         0.00000E+00
         0.00000E+00
         0.00000E+00
         0.00000E+00
         0.00000E+00
         0.00000E+00
         0.00000E+00
         0.00000E+00
         0.00000E+00
         0.00000E+00
         0.00000E+00
         0.00000E+00
         0.00000E+00
         0.00000E+00
         0.00000E+00
         0.00000E+00
         0.00000E+00
         0.00000E+00
         0.00000E+00
         0.00000E+00
         0.00000E+00
         0.00000E+00
         0.00000E+00
         0.00000E+00
         0.00000E+00
         0.00000E+00
         0.00000E+00
         0.00000E+00
         0.00000E+00
         0.00000E+00
         0.00000E+00
         0.00000E+00
         0.00000E+00
         0.00000E+00
         0.00000E+00
         0.00000E+00
         0.00000E+00
         0.00000E+00
         0.00000E+00
         0.00000E+00
         0.00000E+00
         0.00000E+00
         0.00000E+00
         0.00000E+00
         0.00000E+00
         0.00000E+00
         0.00000E+00
         0.00000E+00
         0.00000E+00
         0.00000E+00
         0.00000E+00
         0.00000E+00
         0.00000E+00
         0.00000E+00
         0.00000E+00
         0.00000E+00
         0.00000E+00
         0.00000E+00
         0.00000E+00
         0.00000E+00
         0.00000E+00
         0.00000E+00
         0.00000E+00
         0.00000E+00
         0.00000E+00
         0.00000E+00
         0.00000E+00
         0.00000E+00
         0.00000E+00
         0.00000E+00
         0.00000E+00
         0.00000E+00
         0.00000E+00
         0.00000E+00
         0.00000E+00
         0.00000E+00
         0.00000E+00
         0.00000E+00
         0.00000E+00
         0.00000E+00
         0.00000E+00
         0.00000E+00
         0.00000E+00
         0.00000E+00
         0.00000E+00
         0.00000E+00
         0.00000E+00
         0.00000E+00
         0.00000E+00
         0.00000E+00
         0.00000E+00
         0.00000E+00
         0.00000E+00
         0.00000E+00
         0.00000E+00
         0.00000E+00
         0.00000E+00
         0.00000E+00
         0.00000E+00
         0.00000E+00
         0.00000E+00
         0.00000E+00
         0.00000E+00
         0.00000E+00
         0.00000E+00
         0.00000E+00
         0.00000E+00
         0.00000E+00
         0.00000E+00
         0.00000E+00
         0.00000E+00
         0.00000E+00
         0.00000E+00
         0.00000E+00
         0.00000E+00
         0.00000E+00
         0.00000E+00
         0.00000E+00
         0.00000E+00
         0.00000E+00
         0.00000E+00
         0.00000E+00
         0.00000E+00
         0.00000E+00
         0.00000E+00
         0.00000E+00
         0.00000E+00
         0.00000E+00
         0.00000E+00
         0.00000E+00
         0.00000E+00
         0.00000E+00
         0.00000E+00
         0.00000E+00
         0.00000E+00
         0.00000E+00
         0.00000E+00
         0.00000E+00
         0.00000E+00
         0.00000E+00
         0.00000E+00
         0.00000E+00
         0.00000E+00
         0.00000E+00
         0.00000E+00
         0.00000E+00
         0.00000E+00
         0.00000E+00
         0.00000E+00
         0.00000E+00
         0.00000E+00
         0.00000E+00
         0.00000E+00
         0.00000E+00
         0.00000E+00
         0.00000E+00
         0.00000E+00
         0.00000E+00
         0.00000E+00
         0.00000E+00
         0.00000E+00
         0.00000E+00
         0.00000E+00
         0.00000E+00
         0.00000E+00
         0.00000E+00
         0.00000E+00
         0.00000E+00
         0.00000E+00
         0.00000E+00
         0.00000E+00
         0.00000E+00
         0.00000E+00
         0.00000E+00
         0.00000E+00
         0.00000E+00
         0.00000E+00
         0.00000E+00
         0.00000E+00
         0.00000E+00
         0.00000E+00
         0.00000E+00
         0.00000E+00
         0.00000E+00
         0.00000E+00
         0.00000E+00
         0.00000E+00
         0.00000E+00
         0.00000E+00
         0.00000E+00
         0.00000E+00
         0.00000E+00
         0.00000E+00
         0.00000E+00
         0.00000E+00
         0.00000E+00
         0.00000E+00
         0.00000E+00
         0.00000E+00
         0.00000E+00
         0.00000E+00
         0.00000E+00
         0.00000E+00
         0.00000E+00
         0.00000E+00
         0.00000E+00
         0.00000E+00
         0.00000E+00
         0.00000E+00
         0.00000E+00
         0.00000E+00
         0.00000E+00
         0.00000E+00
         0.00000E+00
         0.00000E+00
         0.00000E+00
         0.00000E+00
         0.00000E+00
         0.00000E+00
         0.00000E+00
         0.00000E+00
         0.00000E+00
         0.00000E+00
         0.00000E+00
         0.00000E+00
         0.00000E+00
         0.00000E+00
         0.00000E+00
         0.00000E+00
         0.00000E+00
         0.00000E+00
         0.00000E+00
         0.00000E+00
         0.00000E+00
         0.00000E+00
         0.00000E+00
         0.00000E+00
         0.00000E+00
         0.00000E+00
         0.00000E+00
         0.00000E+00
         0.00000E+00
         0.00000E+00
         0.00000E+00
         0.00000E+00
         0.00000E+00
         0.00000E+00
         0.00000E+00
         0.00000E+00
         0.00000E+00
         0.00000E+00
         0.00000E+00
         0.00000E+00
         0.00000E+00
         0.00000E+00
         0.00000E+00
         0.00000E+00
         0.00000E+00
         0.00000E+00
         0.00000E+00
         0.00000E+00
         0.00000E+00
         0.00000E+00
         0.00000E+00
         0.00000E+00
         0.00000E+00
         0.00000E+00
         0.00000E+00
         0.00000E+00
         0.00000E+00
         0.00000E+00
         0.00000E+00
         0.00000E+00
         0.00000E+00
         0.00000E+00
         0.00000E+00
         0.00000E+00
         0.00000E+00
         0.00000E+00
         0.00000E+00
         0.00000E+00
         0.00000E+00
         0.00000E+00
         0.00000E+00
         0.00000E+00
         0.00000E+00
         0.00000E+00
         0.00000E+00
         0.00000E+00
         0.00000E+00
         0.00000E+00
         0.00000E+00
         0.00000E+00
         0.00000E+00
         0.00000E+00
         0.00000E+00
         0.00000E+00
         0.00000E+00
         0.00000E+00
         0.00000E+00
         0.00000E+00
         0.00000E+00
         0.00000E+00
         0.00000E+00
         0.00000E+00
         0.00000E+00
         0.00000E+00
         0.00000E+00
         0.00000E+00
         0.00000E+00
         0.00000E+00
         0.00000E+00
         0.00000E+00
         0.00000E+00
         0.00000E+00
         0.00000E+00
         0.00000E+00
         0.00000E+00
         0.00000E+00
         0.00000E+00
         0.00000E+00
         0.00000E+00
         0.00000E+00
         0.00000E+00
         0.00000E+00
         0.00000E+00
         0.00000E+00
         0.00000E+00
         0.00000E+00
         0.00000E+00
         0.00000E+00
         0.00000E+00
         0.00000E+00
         0.00000E+00
         0.00000E+00
         0.00000E+00
         0.00000E+00
         0.00000E+00
         0.00000E+00
         0.00000E+00
         0.00000E+00
         0.00000E+00
         0.00000E+00
         0.00000E+00
         0.00000E+00
         0.00000E+00
         0.00000E+00
         0.00000E+00
         0.00000E+00
         0.00000E+00
         0.00000E+00
         0.00000E+00
         0.00000E+00
         0.00000E+00
         0.00000E+00
         0.00000E+00
         0.00000E+00
         0.00000E+00
         0.00000E+00
         0.00000E+00
         0.00000E+00
         0.00000E+00
         0.00000E+00
         0.00000E+00
         0.00000E+00
         0.00000E+00
         0.00000E+00
         0.00000E+00
         0.00000E+00
         0.00000E+00
         0.00000E+00
         0.00000E+00
         0.00000E+00
         0.00000E+00
         0.00000E+00
         0.00000E+00
         0.00000E+00
         0.00000E+00
         0.00000E+00
         0.00000E+00
         0.00000E+00
         0.00000E+00
         0.00000E+00
         0.00000E+00
         0.00000E+00
         0.00000E+00
         0.00000E+00
         0.00000E+00
         0.00000E+00
         0.00000E+00
         0.00000E+00
         0.00000E+00
         0.00000E+00
         0.00000E+00
         0.00000E+00
         0.00000E+00
         0.00000E+00
         0.00000E+00
         0.00000E+00
         0.00000E+00
         0.00000E+00
         0.00000E+00
         0.00000E+00
         0.00000E+00
         0.00000E+00
         0.00000E+00
         0.00000E+00
         0.00000E+00
         0.00000E+00
         0.00000E+00
         0.00000E+00
         0.00000E+00
         0.00000E+00
         0.00000E+00
         0.00000E+00
         0.00000E+00
         0.00000E+00
         0.00000E+00
         0.00000E+00
         0.00000E+00
         0.00000E+00
         0.00000E+00
         0.00000E+00
         0.00000E+00
         0.00000E+00
         0.00000E+00
         0.00000E+00
         0.00000E+00
         0.00000E+00
         0.00000E+00
         0.00000E+00
         0.00000E+00
         0.00000E+00
         0.00000E+00
         0.00000E+00
         0.00000E+00
         0.00000E+00
         0.00000E+00
         0.00000E+00
         0.00000E+00
         0.00000E+00
         0.00000E+00
         0.00000E+00
         0.00000E+00
         0.00000E+00
         0.00000E+00
         0.00000E+00
         0.00000E+00
         0.00000E+00
         0.00000E+00
         0.00000E+00
         0.00000E+00
         0.00000E+00
         0.00000E+00
         0.00000E+00
         0.00000E+00
         0.00000E+00
         0.00000E+00
         0.00000E+00
         0.00000E+00
         0.00000E+00
         0.00000E+00
         0.00000E+00
         0.00000E+00
         0.00000E+00
         0.00000E+00
         0.00000E+00
         0.00000E+00
         0.00000E+00
         0.00000E+00
         0.00000E+00
         0.00000E+00
         0.00000E+00
         0.00000E+00
         0.00000E+00
         0.00000E+00
         0.00000E+00
         0.00000E+00
         0.00000E+00
         0.00000E+00
         0.00000E+00
         0.00000E+00
         0.00000E+00
         0.00000E+00
         0.00000E+00
         0.00000E+00
         0.00000E+00
         0.00000E+00
         0.00000E+00
         0.00000E+00
         0.00000E+00
         0.00000E+00
         0.00000E+00
         0.00000E+00
         0.00000E+00
         0.00000E+00
         0.00000E+00
         0.00000E+00
         0.00000E+00
         0.00000E+00
         0.00000E+00
         0.00000E+00
         0.00000E+00
         0.00000E+00
         0.00000E+00
         0.00000E+00
         0.00000E+00
         0.00000E+00
         0.00000E+00
         0.00000E+00
         0.00000E+00
         0.00000E+00
         0.00000E+00
         0.00000E+00
         0.00000E+00
         0.00000E+00
         0.00000E+00
         0.00000E+00
         0.00000E+00
         0.00000E+00
         0.00000E+00
         0.00000E+00
         0.00000E+00
         0.00000E+00
         0.00000E+00
         0.00000E+00
         0.00000E+00
         0.00000E+00
         0.00000E+00
         0.00000E+00
         0.00000E+00
         0.00000E+00
         0.00000E+00
         0.00000E+00
         0.00000E+00
         0.00000E+00
         0.00000E+00
         0.00000E+00
         0.00000E+00
         0.00000E+00
         0.00000E+00
         0.00000E+00
         0.00000E+00
         0.00000E+00
         0.00000E+00
         0.00000E+00
         0.00000E+00
         0.00000E+00
         0.00000E+00
         0.00000E+00
         0.00000E+00
         0.00000E+00
         0.00000E+00
         0.00000E+00
         0.00000E+00
         0.00000E+00
         0.00000E+00
         0.00000E+00
         0.00000E+00
         0.00000E+00
         0.00000E+00
         0.00000E+00
         0.00000E+00
         0.00000E+00
         0.00000E+00
         0.00000E+00
         0.00000E+00
         0.00000E+00
         0.00000E+00
         0.00000E+00
         0.00000E+00
         0.00000E+00
         0.00000E+00
         0.00000E+00
         0.00000E+00
         0.00000E+00
         0.00000E+00
         0.00000E+00
         0.00000E+00
         0.00000E+00
         0.00000E+00
         0.00000E+00
         0.00000E+00
         0.00000E+00
         0.00000E+00
         0.00000E+00
         0.00000E+00
         0.00000E+00
         0.00000E+00
         0.00000E+00
         0.00000E+00
         0.00000E+00
         0.00000E+00
         0.00000E+00
         0.00000E+00
         0.00000E+00
         0.00000E+00
         0.00000E+00
         0.00000E+00
         0.00000E+00
         0.00000E+00
         0.00000E+00
         0.00000E+00
         0.00000E+00
         0.00000E+00
         0.00000E+00
         0.00000E+00
         0.00000E+00
         0.00000E+00
         0.00000E+00
         0.00000E+00
         0.00000E+00
         0.00000E+00
         0.00000E+00
         0.00000E+00
         0.00000E+00
         0.00000E+00
         0.00000E+00
         0.00000E+00
         0.00000E+00
         0.00000E+00
         0.00000E+00
         0.00000E+00
         0.00000E+00
         0.00000E+00
         0.00000E+00
         0.00000E+00
         0.00000E+00
         0.00000E+00
         0.00000E+00
         0.00000E+00
         0.00000E+00
         0.00000E+00
         0.00000E+00
         0.00000E+00
         0.00000E+00
         0.00000E+00
         0.00000E+00
         0.00000E+00
         0.00000E+00
         0.00000E+00
         0.00000E+00
         0.00000E+00
         0.00000E+00
         0.00000E+00
         0.00000E+00
         0.00000E+00
         0.00000E+00
         0.00000E+00
         0.00000E+00
         0.00000E+00
         0.00000E+00
         0.00000E+00
         0.00000E+00
         0.00000E+00
         0.00000E+00
         0.00000E+00
         0.00000E+00
         0.00000E+00
         0.00000E+00
         0.00000E+00
         0.00000E+00
         0.00000E+00
         0.00000E+00
         0.00000E+00
         0.00000E+00
         0.00000E+00
         0.00000E+00
         0.00000E+00
         0.00000E+00
         0.00000E+00
         0.00000E+00
         0.00000E+00
         0.00000E+00
         0.00000E+00
         0.00000E+00
         0.00000E+00
         0.00000E+00
         0.00000E+00
         0.00000E+00
         0.00000E+00
         0.00000E+00
         0.00000E+00
         0.00000E+00
         0.00000E+00
         0.00000E+00
         0.00000E+00
         0.00000E+00
         0.00000E+00
         0.00000E+00
         0.00000E+00
         0.00000E+00
         0.00000E+00
         0.00000E+00
         0.00000E+00
         0.00000E+00
         0.00000E+00
         0.00000E+00
         0.00000E+00
         0.00000E+00
         0.00000E+00
         0.00000E+00
         0.00000E+00
         0.00000E+00
         0.00000E+00
         0.00000E+00
         0.00000E+00
         0.00000E+00
         0.00000E+00
         0.00000E+00
         0.00000E+00
         0.00000E+00
         0.00000E+00
         0.00000E+00
         0.00000E+00
         0.00000E+00
         0.00000E+00
         0.00000E+00
         0.00000E+00
         0.00000E+00
         0.00000E+00
         0.00000E+00
         0.00000E+00
         0.00000E+00
         0.00000E+00
         0.00000E+00
         0.00000E+00
         0.00000E+00
         0.00000E+00
         0.00000E+00
         0.00000E+00
         0.00000E+00
         0.00000E+00
         0.00000E+00
         0.00000E+00
         0.00000E+00
         0.00000E+00
         0.00000E+00
         0.00000E+00
         0.00000E+00
         0.00000E+00
         0.00000E+00
         0.00000E+00
         0.00000E+00
         0.00000E+00
         0.00000E+00
         0.00000E+00
         0.00000E+00
         0.00000E+00
         0.00000E+00
         0.00000E+00
         0.00000E+00
         0.00000E+00
         0.00000E+00
         0.00000E+00
         0.00000E+00
         0.00000E+00
         0.00000E+00
         0.00000E+00
         0.00000E+00
         0.00000E+00
         0.00000E+00
         0.00000E+00
         0.00000E+00
         0.00000E+00
         0.00000E+00
         0.00000E+00
         0.00000E+00
         0.00000E+00
         0.00000E+00
         0.00000E+00
         0.00000E+00
         0.00000E+00
         0.00000E+00
         0.00000E+00
         0.00000E+00
         0.00000E+00
         0.00000E+00
         0.00000E+00
         0.00000E+00
         0.00000E+00
         0.00000E+00
         0.00000E+00
         0.00000E+00
         0.00000E+00
         0.00000E+00
         0.00000E+00
         0.00000E+00
         0.00000E+00
         0.00000E+00
         0.00000E+00
         0.00000E+00
         0.00000E+00
         0.00000E+00
         0.00000E+00
         0.00000E+00
         0.00000E+00
         0.00000E+00
         0.00000E+00
         0.00000E+00
         0.00000E+00
         0.00000E+00
         0.00000E+00
         0.00000E+00
         0.00000E+00
         0.00000E+00
         0.00000E+00
         0.00000E+00
         0.00000E+00
         0.00000E+00
         0.00000E+00
         0.00000E+00
         0.00000E+00
         0.00000E+00
         0.00000E+00
         0.00000E+00
         0.00000E+00
         0.00000E+00
         0.00000E+00
         0.00000E+00
         0.00000E+00
         0.00000E+00
         0.00000E+00
         0.00000E+00
         0.00000E+00
         0.00000E+00
         0.00000E+00
         0.00000E+00
         0.00000E+00
         0.00000E+00
         0.00000E+00
         0.00000E+00
         0.00000E+00
         0.00000E+00
         0.00000E+00
         0.00000E+00
         0.00000E+00
         0.00000E+00
         0.00000E+00
         0.00000E+00
         0.00000E+00
         0.00000E+00
         0.00000E+00
         0.00000E+00
         0.00000E+00
         0.00000E+00
         0.00000E+00
         0.00000E+00
         0.00000E+00
         0.00000E+00
         0.00000E+00
         0.00000E+00
         0.00000E+00
         0.00000E+00
         0.00000E+00
         0.00000E+00
         0.00000E+00
         0.00000E+00
         0.00000E+00
         0.00000E+00
         0.00000E+00
         0.00000E+00
         0.00000E+00
         0.00000E+00
         0.00000E+00
         0.00000E+00
         0.00000E+00
         0.00000E+00
         0.00000E+00
         0.00000E+00
         0.00000E+00
         0.00000E+00
         0.00000E+00
         0.00000E+00
         0.00000E+00
         0.00000E+00
         0.00000E+00
         0.00000E+00
         0.00000E+00
         0.00000E+00
         0.00000E+00
         0.00000E+00
         0.00000E+00
         0.00000E+00
         0.00000E+00
         0.00000E+00
         0.00000E+00
         0.00000E+00
         0.00000E+00
         0.00000E+00
         0.00000E+00
         0.00000E+00
         0.00000E+00
         0.00000E+00
         0.00000E+00
         0.00000E+00
         0.00000E+00
         0.00000E+00
         0.00000E+00
         0.00000E+00
         0.00000E+00
         0.00000E+00
         0.00000E+00
         0.00000E+00
         0.00000E+00
         0.00000E+00
         0.00000E+00
         0.00000E+00
         0.00000E+00
         0.00000E+00
         0.00000E+00
         0.00000E+00
         0.00000E+00
         0.00000E+00
         0.00000E+00
         0.00000E+00
         0.00000E+00
         0.00000E+00
         0.00000E+00
         0.00000E+00
         0.00000E+00
         0.00000E+00
         0.00000E+00
         0.00000E+00
         0.00000E+00
         0.00000E+00
         0.00000E+00
         0.00000E+00
         0.00000E+00
         0.00000E+00
         0.00000E+00
         0.00000E+00
         0.00000E+00
         0.00000E+00
         0.00000E+00
         0.00000E+00
         0.00000E+00
         0.00000E+00
         0.00000E+00
         0.00000E+00
         0.00000E+00
         0.00000E+00
         0.00000E+00
         0.00000E+00
         0.00000E+00
         0.00000E+00
         0.00000E+00
         0.00000E+00
         0.00000E+00
         0.00000E+00
         0.00000E+00
         0.00000E+00
         0.00000E+00
         0.00000E+00
         0.00000E+00
         0.00000E+00
         0.00000E+00
         0.00000E+00
         0.00000E+00
         0.00000E+00
         0.00000E+00
         0.00000E+00
         0.00000E+00
         0.00000E+00
         0.00000E+00
         0.00000E+00
         0.00000E+00
         0.00000E+00
         0.00000E+00
         0.00000E+00
         0.00000E+00
         0.00000E+00
         0.00000E+00
         0.00000E+00
         0.00000E+00
         0.00000E+00
         0.00000E+00
         0.00000E+00
         0.00000E+00
         0.00000E+00
         0.00000E+00
         0.00000E+00
         0.00000E+00
         0.00000E+00
         0.00000E+00
         0.00000E+00
         0.00000E+00
         0.00000E+00
         0.00000E+00
         0.00000E+00
         0.00000E+00
         0.00000E+00
         0.00000E+00
         0.00000E+00
         0.00000E+00
         0.00000E+00
         0.00000E+00
         0.00000E+00
         0.00000E+00
         0.00000E+00
         0.00000E+00
         0.00000E+00
         0.00000E+00
         0.00000E+00
         0.00000E+00
         0.00000E+00
         0.00000E+00
         0.00000E+00
         0.00000E+00
         0.00000E+00
         0.00000E+00
         0.00000E+00
         0.00000E+00
         0.00000E+00
         0.00000E+00
         0.00000E+00
         0.00000E+00
         0.00000E+00
         0.00000E+00
         0.00000E+00
         0.00000E+00
         0.00000E+00
         0.00000E+00
         0.00000E+00
         0.00000E+00
         0.00000E+00
         0.00000E+00
         0.00000E+00
         0.00000E+00
         0.00000E+00
         0.00000E+00
         0.00000E+00
         0.00000E+00
         0.00000E+00
         0.00000E+00
         0.00000E+00
         0.00000E+00
         0.00000E+00
         0.00000E+00
         0.00000E+00
         0.00000E+00
         0.00000E+00
         0.00000E+00
         0.00000E+00
         0.00000E+00
         0.00000E+00
         0.00000E+00
         0.00000E+00
         0.00000E+00
         0.00000E+00
         0.00000E+00
         0.00000E+00
         0.00000E+00
         0.00000E+00
         0.00000E+00
         0.00000E+00
         0.00000E+00
         0.00000E+00
         0.00000E+00
         0.00000E+00
         0.00000E+00
         0.00000E+00
         0.00000E+00
         0.00000E+00
         0.00000E+00
         0.00000E+00
         0.00000E+00
         0.00000E+00
         0.00000E+00
         0.00000E+00
         0.00000E+00
         0.00000E+00
         0.00000E+00
         0.00000E+00
         0.00000E+00
         0.00000E+00
         0.00000E+00
         0.00000E+00
         0.00000E+00
         0.00000E+00
         0.00000E+00
         0.00000E+00
         0.00000E+00
         0.00000E+00
         0.00000E+00
         0.00000E+00
         0.00000E+00
         0.00000E+00
         0.00000E+00
         0.00000E+00
         0.00000E+00
         0.00000E+00
         0.00000E+00
         0.00000E+00
         0.00000E+00
         0.00000E+00
         0.00000E+00
         0.00000E+00
         0.00000E+00
         0.00000E+00
         0.00000E+00
         0.00000E+00
         0.00000E+00
         0.00000E+00
         0.00000E+00
         0.00000E+00
         0.00000E+00
         0.00000E+00
         0.00000E+00
         0.00000E+00
         0.00000E+00
         0.00000E+00
         0.00000E+00
         0.00000E+00
         0.00000E+00
         0.00000E+00
         0.00000E+00
         0.00000E+00
         0.00000E+00
         0.00000E+00
         0.00000E+00
         0.00000E+00
         0.00000E+00
         0.00000E+00
         0.00000E+00
         0.00000E+00
         0.00000E+00
         0.00000E+00
         0.00000E+00
         0.00000E+00
         0.00000E+00
         0.00000E+00
         0.00000E+00
         0.00000E+00
         0.00000E+00
         0.00000E+00
         0.00000E+00
         0.00000E+00
         0.00000E+00
         0.00000E+00
         0.00000E+00
         0.00000E+00
         0.00000E+00
         0.00000E+00
         0.00000E+00
         0.00000E+00
         0.00000E+00
         0.00000E+00
         0.00000E+00
         0.00000E+00
         0.00000E+00
         0.00000E+00
         0.00000E+00
         0.00000E+00
         0.00000E+00
         0.00000E+00
         0.00000E+00
         0.00000E+00
         0.00000E+00
         0.00000E+00
         0.00000E+00
         0.00000E+00
         0.00000E+00
         0.00000E+00
         0.00000E+00
         0.00000E+00
         0.00000E+00
         0.00000E+00
         0.00000E+00
         0.00000E+00
         0.00000E+00
         0.00000E+00
         0.00000E+00
         0.00000E+00
         0.00000E+00
         0.00000E+00
         0.00000E+00
         0.00000E+00
         0.00000E+00
         0.00000E+00
         0.00000E+00
         0.00000E+00
         0.00000E+00
         0.00000E+00
         0.00000E+00
         0.00000E+00
         0.00000E+00
         0.00000E+00
         0.00000E+00
         0.00000E+00
         0.00000E+00
         0.00000E+00
         0.00000E+00
         0.00000E+00
         0.00000E+00
         0.00000E+00
         0.00000E+00
         0.00000E+00
         0.00000E+00
         0.00000E+00
         0.00000E+00
         0.00000E+00
         0.00000E+00
         0.00000E+00
         0.00000E+00
         0.00000E+00
         0.00000E+00
         0.00000E+00
         0.00000E+00
         0.00000E+00
         0.00000E+00
         0.00000E+00
         0.00000E+00
         0.00000E+00
         0.00000E+00
         0.00000E+00
         0.00000E+00
         0.00000E+00
         0.00000E+00
         0.00000E+00
         0.00000E+00
         0.00000E+00
         0.00000E+00
         0.00000E+00
         0.00000E+00
         0.00000E+00
         0.00000E+00
         0.00000E+00
         0.00000E+00
         0.00000E+00
         0.00000E+00
         0.00000E+00
         0.00000E+00
         0.00000E+00
         0.00000E+00
         0.00000E+00
         0.00000E+00
         0.00000E+00
         0.00000E+00
         0.00000E+00
         0.00000E+00
         0.00000E+00
         0.00000E+00
         0.00000E+00
         0.00000E+00
         0.00000E+00
         0.00000E+00
         0.00000E+00
         0.00000E+00
         0.00000E+00
         0.00000E+00
         0.00000E+00
         0.00000E+00
         0.00000E+00
         0.00000E+00
         0.00000E+00
         0.00000E+00
         0.00000E+00
         0.00000E+00
         0.00000E+00
         0.00000E+00
         0.00000E+00
         0.00000E+00
         0.00000E+00
         0.00000E+00
         0.00000E+00
         0.00000E+00
         0.00000E+00
         0.00000E+00
         0.00000E+00
         0.00000E+00
         0.00000E+00
         0.00000E+00
         0.00000E+00
         0.00000E+00
         0.00000E+00
         0.00000E+00
         0.00000E+00
         0.00000E+00
         0.00000E+00
         0.00000E+00
         0.00000E+00
         0.00000E+00
         0.00000E+00
         0.00000E+00
         0.00000E+00
         0.00000E+00
         0.00000E+00
         0.00000E+00
         0.00000E+00
         0.00000E+00
         0.00000E+00
         0.00000E+00
         0.00000E+00
         0.00000E+00
         0.00000E+00
         0.00000E+00
         0.00000E+00
         0.00000E+00
         0.00000E+00
         0.00000E+00
         0.00000E+00
         0.00000E+00
         0.00000E+00
         0.00000E+00
         0.00000E+00
         0.00000E+00
         0.00000E+00
         0.00000E+00
         0.00000E+00
         0.00000E+00
         0.00000E+00
         0.00000E+00
         0.00000E+00
         0.00000E+00
         0.00000E+00
         0.00000E+00
         0.00000E+00
         0.00000E+00
         0.00000E+00
         0.00000E+00
         0.00000E+00
         0.00000E+00
         0.00000E+00
         0.00000E+00
         0.00000E+00
         0.00000E+00
         0.00000E+00
         0.00000E+00
         0.00000E+00
         0.00000E+00
         0.00000E+00
         0.00000E+00
         0.00000E+00
         0.00000E+00
         0.00000E+00
         0.00000E+00
         0.00000E+00
         0.00000E+00
         0.00000E+00
         0.00000E+00
         0.00000E+00
         0.00000E+00
         0.00000E+00
         0.00000E+00
         0.00000E+00
         0.00000E+00
         0.00000E+00
         0.00000E+00
         0.00000E+00
         0.00000E+00
         0.00000E+00
         0.00000E+00
         0.00000E+00
         0.00000E+00
         0.00000E+00
         0.00000E+00
         0.00000E+00
         0.00000E+00
         0.00000E+00
         0.00000E+00
         0.00000E+00
         0.00000E+00
         0.00000E+00
         0.00000E+00
         0.00000E+00
         0.00000E+00
         0.00000E+00
         0.00000E+00
         0.00000E+00
         0.00000E+00
         0.00000E+00
         0.00000E+00
         0.00000E+00
         0.00000E+00
         0.00000E+00
         0.00000E+00
         0.00000E+00
         0.00000E+00
         0.00000E+00
         0.00000E+00
         0.00000E+00
         0.00000E+00
         0.00000E+00
         0.00000E+00
         0.00000E+00
         0.00000E+00
         0.00000E+00
         0.00000E+00
         0.00000E+00
         0.00000E+00
         0.00000E+00
         0.00000E+00
         0.00000E+00
         0.00000E+00
         0.00000E+00
         0.00000E+00
         0.00000E+00
         0.00000E+00
         0.00000E+00
         0.00000E+00
         0.00000E+00
         0.00000E+00
         0.00000E+00
         0.00000E+00
         0.00000E+00
         0.00000E+00
         0.00000E+00
         0.00000E+00
         0.00000E+00
         0.00000E+00
         0.00000E+00
         0.00000E+00
         0.00000E+00
         0.00000E+00
         0.00000E+00
         0.00000E+00
         0.00000E+00
         0.00000E+00
         0.00000E+00
         0.00000E+00
         0.00000E+00
         0.00000E+00
         0.00000E+00
         0.00000E+00
         0.00000E+00
         0.00000E+00
         0.00000E+00
         0.00000E+00
         0.00000E+00
         0.00000E+00
         0.00000E+00
         0.00000E+00
         0.00000E+00
         0.00000E+00
         0.00000E+00
         0.00000E+00
         0.00000E+00
         0.00000E+00
         0.00000E+00
         0.00000E+00
         0.00000E+00
         0.00000E+00
         0.00000E+00
         0.00000E+00
         0.00000E+00
         0.00000E+00
         0.00000E+00
         0.00000E+00
         0.00000E+00
         0.00000E+00
         0.00000E+00
         0.00000E+00
         0.00000E+00
         0.00000E+00
         0.00000E+00
         0.00000E+00
         0.00000E+00
         0.00000E+00
         0.00000E+00
         0.00000E+00
         0.00000E+00
         0.00000E+00
         0.00000E+00
         0.00000E+00
         0.00000E+00
         0.00000E+00
         0.00000E+00
         0.00000E+00
         0.00000E+00
         0.00000E+00
         0.00000E+00
         0.00000E+00
         0.00000E+00
         0.00000E+00
         0.00000E+00
         0.00000E+00
         0.00000E+00
         0.00000E+00
         0.00000E+00
         0.00000E+00
         0.00000E+00
         0.00000E+00
         0.00000E+00
         0.00000E+00
         0.00000E+00
         0.00000E+00
         0.00000E+00
         0.00000E+00
         0.00000E+00
         0.00000E+00
         0.00000E+00
         0.00000E+00
         0.00000E+00
         0.00000E+00
         0.00000E+00
         0.00000E+00
         0.00000E+00
         0.00000E+00
         0.00000E+00
         0.00000E+00
         0.00000E+00
         0.00000E+00
         0.00000E+00
         0.00000E+00
         0.00000E+00
         0.00000E+00
         0.00000E+00
         0.00000E+00
         0.00000E+00
         0.00000E+00
         0.00000E+00
         0.00000E+00
         0.00000E+00
         0.00000E+00
         0.00000E+00
         0.00000E+00
         0.00000E+00
         0.00000E+00
         0.00000E+00
         0.00000E+00
         0.00000E+00
         0.00000E+00
         0.00000E+00
         0.00000E+00
         0.00000E+00
         0.00000E+00
         0.00000E+00
         0.00000E+00
         0.00000E+00
         0.00000E+00
         0.00000E+00
         0.00000E+00
         0.00000E+00
         0.00000E+00
         0.00000E+00
         0.00000E+00
         0.00000E+00
         0.00000E+00
         0.00000E+00
         0.00000E+00
         0.00000E+00
         0.00000E+00
         0.00000E+00
         0.00000E+00
         0.00000E+00
         0.00000E+00
         0.00000E+00
         0.00000E+00
         0.00000E+00
         0.00000E+00
         0.00000E+00
         0.00000E+00
         0.00000E+00
         0.00000E+00
         0.00000E+00
         0.00000E+00
         0.00000E+00
         0.00000E+00
         0.00000E+00
         0.00000E+00
         0.00000E+00
         0.00000E+00
         0.00000E+00
         0.00000E+00
         0.00000E+00
         0.00000E+00
         0.00000E+00
         0.00000E+00
         0.00000E+00
         0.00000E+00
         0.00000E+00
         0.00000E+00
         0.00000E+00
         0.00000E+00
         0.00000E+00
         0.00000E+00
         0.00000E+00
         0.00000E+00
         0.00000E+00
         0.00000E+00
         0.00000E+00
         0.00000E+00
         0.00000E+00
         0.00000E+00
         0.00000E+00
         0.00000E+00
         0.00000E+00
         0.00000E+00
         0.00000E+00
         0.00000E+00
         0.00000E+00
         0.00000E+00
         0.00000E+00
         0.00000E+00
         0.00000E+00
         0.00000E+00
         0.00000E+00
         0.00000E+00
         0.00000E+00
         0.00000E+00
         0.00000E+00
         0.00000E+00
         0.00000E+00
         0.00000E+00
         0.00000E+00
         0.00000E+00
         0.00000E+00
         0.00000E+00
         0.00000E+00
         0.00000E+00
         0.00000E+00
         0.00000E+00
         0.00000E+00
         0.00000E+00
         0.00000E+00
         0.00000E+00
         0.00000E+00
         0.00000E+00
         0.00000E+00
         0.00000E+00
         0.00000E+00
         0.00000E+00
         0.00000E+00
         0.00000E+00
         0.00000E+00
         0.00000E+00
         0.00000E+00
         0.00000E+00
         0.00000E+00
         0.00000E+00
         0.00000E+00
         0.00000E+00
         0.00000E+00
         0.00000E+00
         0.00000E+00
         0.00000E+00
         0.00000E+00
         0.00000E+00
         0.00000E+00
         0.00000E+00
         0.00000E+00
         0.00000E+00
         0.00000E+00
         0.00000E+00
         0.00000E+00
         0.00000E+00
         0.00000E+00
         0.00000E+00
         0.00000E+00
         0.00000E+00
         0.00000E+00
         0.00000E+00
         0.00000E+00
         0.00000E+00
         0.00000E+00
         0.00000E+00
         0.00000E+00
         0.00000E+00
         0.00000E+00
         0.00000E+00
         0.00000E+00
  
SCALARS                   max_wave_vel  double 1
LOOKUP_TABLE default
         0.00000E+00
         0.00000E+00
         0.00000E+00
         0.00000E+00
         0.00000E+00
         0.00000E+00
         0.00000E+00
         0.00000E+00
         0.00000E+00
         0.00000E+00
         0.00000E+00
         0.00000E+00
         0.00000E+00
         0.00000E+00
         0.00000E+00
         0.00000E+00
         0.00000E+00
         0.00000E+00
         0.00000E+00
         0.00000E+00
         0.00000E+00
         0.00000E+00
         0.00000E+00
         0.00000E+00
         0.00000E+00
         0.00000E+00
         0.00000E+00
         0.00000E+00
         0.00000E+00
         0.00000E+00
         0.00000E+00
         0.00000E+00
         0.00000E+00
         0.00000E+00
         0.00000E+00
         0.00000E+00
         0.00000E+00
         0.00000E+00
         0.00000E+00
         0.00000E+00
         0.00000E+00
         0.00000E+00
         0.00000E+00
         0.00000E+00
         0.00000E+00
         0.00000E+00
         0.00000E+00
         0.00000E+00
         0.00000E+00
         0.00000E+00
         0.00000E+00
         0.00000E+00
         0.00000E+00
         0.00000E+00
         0.00000E+00
         0.00000E+00
         0.00000E+00
         0.00000E+00
         0.00000E+00
         0.00000E+00
         0.00000E+00
         0.00000E+00
         0.00000E+00
         0.00000E+00
         0.00000E+00
         0.00000E+00
         0.00000E+00
         0.00000E+00
         0.00000E+00
         0.00000E+00
         0.00000E+00
         0.00000E+00
         0.00000E+00
         0.00000E+00
         0.00000E+00
         0.00000E+00
         0.00000E+00
         0.00000E+00
         0.00000E+00
         0.00000E+00
         0.00000E+00
         0.00000E+00
         0.00000E+00
         0.00000E+00
         0.00000E+00
         0.00000E+00
         0.00000E+00
         0.00000E+00
         0.00000E+00
         0.00000E+00
         0.00000E+00
         0.00000E+00
         0.00000E+00
         0.00000E+00
         0.00000E+00
         0.00000E+00
         0.00000E+00
         0.00000E+00
         0.00000E+00
         0.00000E+00
         0.00000E+00
         0.00000E+00
         0.00000E+00
         0.00000E+00
         0.00000E+00
         0.00000E+00
         0.00000E+00
         0.00000E+00
         0.00000E+00
         0.00000E+00
         0.00000E+00
         0.00000E+00
         0.00000E+00
         0.00000E+00
         0.00000E+00
         0.00000E+00
         0.00000E+00
         0.00000E+00
         0.00000E+00
         0.00000E+00
         0.00000E+00
         0.00000E+00
         0.00000E+00
         0.00000E+00
         0.00000E+00
         0.00000E+00
         0.00000E+00
         0.00000E+00
         0.00000E+00
         0.00000E+00
         0.00000E+00
         0.00000E+00
         0.00000E+00
         0.00000E+00
         0.00000E+00
         0.00000E+00
         0.00000E+00
         0.00000E+00
         0.00000E+00
         0.00000E+00
         0.00000E+00
         0.00000E+00
         0.00000E+00
         0.00000E+00
         0.00000E+00
         0.00000E+00
         0.00000E+00
         0.00000E+00
         0.00000E+00
         0.00000E+00
         0.00000E+00
         0.00000E+00
         0.00000E+00
         0.00000E+00
         0.00000E+00
         0.00000E+00
         0.00000E+00
         0.00000E+00
         0.00000E+00
         0.00000E+00
         0.00000E+00
         0.00000E+00
         0.00000E+00
         0.00000E+00
         0.00000E+00
         0.00000E+00
         0.00000E+00
         0.00000E+00
         0.00000E+00
         0.00000E+00
         0.00000E+00
         0.00000E+00
         0.00000E+00
         0.00000E+00
         0.00000E+00
         0.00000E+00
         0.00000E+00
         0.00000E+00
         0.00000E+00
         0.00000E+00
         0.00000E+00
         0.00000E+00
         0.00000E+00
         0.00000E+00
         0.00000E+00
         0.00000E+00
         0.00000E+00
         0.00000E+00
         0.00000E+00
         0.00000E+00
         0.00000E+00
         0.00000E+00
         0.00000E+00
         0.00000E+00
         0.00000E+00
         0.00000E+00
         0.00000E+00
         0.00000E+00
         0.00000E+00
         0.00000E+00
         0.00000E+00
         0.00000E+00
         0.00000E+00
         0.00000E+00
         0.00000E+00
         0.00000E+00
         0.00000E+00
         0.00000E+00
         0.00000E+00
         0.00000E+00
         0.00000E+00
         0.00000E+00
         0.00000E+00
         0.00000E+00
         0.00000E+00
         0.00000E+00
         0.00000E+00
         0.00000E+00
         0.00000E+00
         0.00000E+00
         0.00000E+00
         0.00000E+00
         0.00000E+00
         0.00000E+00
         0.00000E+00
         0.00000E+00
         0.00000E+00
         0.00000E+00
         0.00000E+00
         0.00000E+00
         0.00000E+00
         0.00000E+00
         0.00000E+00
         0.00000E+00
         0.00000E+00
         0.00000E+00
         0.00000E+00
         0.00000E+00
         0.00000E+00
         0.00000E+00
         0.00000E+00
         0.00000E+00
         0.00000E+00
         0.00000E+00
         0.00000E+00
         0.00000E+00
         0.00000E+00
         0.00000E+00
         0.00000E+00
         0.00000E+00
         0.00000E+00
         0.00000E+00
         0.00000E+00
         0.00000E+00
         0.00000E+00
         0.00000E+00
         0.00000E+00
         0.00000E+00
         0.00000E+00
         0.00000E+00
         0.00000E+00
         0.00000E+00
         0.00000E+00
         0.00000E+00
         0.00000E+00
         0.00000E+00
         0.00000E+00
         0.00000E+00
         0.00000E+00
         0.00000E+00
         0.00000E+00
         0.00000E+00
         0.00000E+00
         0.00000E+00
         0.00000E+00
         0.00000E+00
         0.00000E+00
         0.00000E+00
         0.00000E+00
         0.00000E+00
         0.00000E+00
         0.00000E+00
         0.00000E+00
         0.00000E+00
         0.00000E+00
         0.00000E+00
         0.00000E+00
         0.00000E+00
         0.00000E+00
         0.00000E+00
         0.00000E+00
         0.00000E+00
         0.00000E+00
         0.00000E+00
         0.00000E+00
         0.00000E+00
         0.00000E+00
         0.00000E+00
         0.00000E+00
         0.00000E+00
         0.00000E+00
         0.00000E+00
         0.00000E+00
         0.00000E+00
         0.00000E+00
         0.00000E+00
         0.00000E+00
         0.00000E+00
         0.00000E+00
         0.00000E+00
         0.00000E+00
         0.00000E+00
         0.00000E+00
         0.00000E+00
         0.00000E+00
         0.00000E+00
         0.00000E+00
         0.00000E+00
         0.00000E+00
         0.00000E+00
         0.00000E+00
         0.00000E+00
         0.00000E+00
         0.00000E+00
         0.00000E+00
         0.00000E+00
         0.00000E+00
         0.00000E+00
         0.00000E+00
         0.00000E+00
         0.00000E+00
         0.00000E+00
         0.00000E+00
         0.00000E+00
         0.00000E+00
         0.00000E+00
         0.00000E+00
         0.00000E+00
         0.00000E+00
         0.00000E+00
         0.00000E+00
         0.00000E+00
         0.00000E+00
         0.00000E+00
         0.00000E+00
         0.00000E+00
         0.00000E+00
         0.00000E+00
         0.00000E+00
         0.00000E+00
         0.00000E+00
         0.00000E+00
         0.00000E+00
         0.00000E+00
         0.00000E+00
         0.00000E+00
         0.00000E+00
         0.00000E+00
         0.00000E+00
         0.00000E+00
         0.00000E+00
         0.00000E+00
         0.00000E+00
         0.00000E+00
         0.00000E+00
         0.00000E+00
         0.00000E+00
         0.00000E+00
         0.00000E+00
         0.00000E+00
         0.00000E+00
         0.00000E+00
         0.00000E+00
         0.00000E+00
         0.00000E+00
         0.00000E+00
         0.00000E+00
         0.00000E+00
         0.00000E+00
         0.00000E+00
         0.00000E+00
         0.00000E+00
         0.00000E+00
         0.00000E+00
         0.00000E+00
         0.00000E+00
         0.00000E+00
         0.00000E+00
         0.00000E+00
         0.00000E+00
         0.00000E+00
         0.00000E+00
         0.00000E+00
         0.00000E+00
         0.00000E+00
         0.00000E+00
         0.00000E+00
         0.00000E+00
         0.00000E+00
         0.00000E+00
         0.00000E+00
         0.00000E+00
         0.00000E+00
         0.00000E+00
         0.00000E+00
         0.00000E+00
         0.00000E+00
         0.00000E+00
         0.00000E+00
         0.00000E+00
         0.00000E+00
         0.00000E+00
         0.00000E+00
         0.00000E+00
         0.00000E+00
         0.00000E+00
         0.00000E+00
         0.00000E+00
         0.00000E+00
         0.00000E+00
         0.00000E+00
         0.00000E+00
         0.00000E+00
         0.00000E+00
         0.00000E+00
         0.00000E+00
         0.00000E+00
         0.00000E+00
         0.00000E+00
         0.00000E+00
         0.00000E+00
         0.00000E+00
         0.00000E+00
         0.00000E+00
         0.00000E+00
         0.00000E+00
         0.00000E+00
         0.00000E+00
         0.00000E+00
         0.00000E+00
         0.00000E+00
         0.00000E+00
         0.00000E+00
         0.00000E+00
         0.00000E+00
         0.00000E+00
         0.00000E+00
         0.00000E+00
         0.00000E+00
         0.00000E+00
         0.00000E+00
         0.00000E+00
         0.00000E+00
         0.00000E+00
         0.00000E+00
         0.00000E+00
         0.00000E+00
         0.00000E+00
         0.00000E+00
         0.00000E+00
         0.00000E+00
         0.00000E+00
         0.00000E+00
         0.00000E+00
         0.00000E+00
         0.00000E+00
         0.00000E+00
         0.00000E+00
         0.00000E+00
         0.00000E+00
         0.00000E+00
         0.00000E+00
         0.00000E+00
         0.00000E+00
         0.00000E+00
         0.00000E+00
         0.00000E+00
         0.00000E+00
         0.00000E+00
         0.00000E+00
         0.00000E+00
         0.00000E+00
         0.00000E+00
         0.00000E+00
         0.00000E+00
         0.00000E+00
         0.00000E+00
         0.00000E+00
         0.00000E+00
         0.00000E+00
         0.00000E+00
         0.00000E+00
         0.00000E+00
         0.00000E+00
         0.00000E+00
         0.00000E+00
         0.00000E+00
         0.00000E+00
         0.00000E+00
         0.00000E+00
         0.00000E+00
         0.00000E+00
         0.00000E+00
         0.00000E+00
         0.00000E+00
         0.00000E+00
         0.00000E+00
         0.00000E+00
         0.00000E+00
         0.00000E+00
         0.00000E+00
         0.00000E+00
         0.00000E+00
         0.00000E+00
         0.00000E+00
         0.00000E+00
         0.00000E+00
         0.00000E+00
         0.00000E+00
         0.00000E+00
         0.00000E+00
         0.00000E+00
         0.00000E+00
         0.00000E+00
         0.00000E+00
         0.00000E+00
         0.00000E+00
         0.00000E+00
         0.00000E+00
         0.00000E+00
         0.00000E+00
         0.00000E+00
         0.00000E+00
         0.00000E+00
         0.00000E+00
         0.00000E+00
         0.00000E+00
         0.00000E+00
         0.00000E+00
         0.00000E+00
         0.00000E+00
         0.00000E+00
         0.00000E+00
         0.00000E+00
         0.00000E+00
         0.00000E+00
         0.00000E+00
         0.00000E+00
         0.00000E+00
         0.00000E+00
         0.00000E+00
         0.00000E+00
         0.00000E+00
         0.00000E+00
         0.00000E+00
         0.00000E+00
         0.00000E+00
         0.00000E+00
         0.00000E+00
         0.00000E+00
         0.00000E+00
         0.00000E+00
         0.00000E+00
         0.00000E+00
         0.00000E+00
         0.00000E+00
         0.00000E+00
         0.00000E+00
         0.00000E+00
         0.00000E+00
         0.00000E+00
         0.00000E+00
         0.00000E+00
         0.00000E+00
         0.00000E+00
         0.00000E+00
         0.00000E+00
         0.00000E+00
         0.00000E+00
         0.00000E+00
         0.00000E+00
         0.00000E+00
         0.00000E+00
         0.00000E+00
         0.00000E+00
         0.00000E+00
         0.00000E+00
         0.00000E+00
         0.00000E+00
         0.00000E+00
         0.00000E+00
         0.00000E+00
         0.00000E+00
         0.00000E+00
         0.00000E+00
         0.00000E+00
         0.00000E+00
         0.00000E+00
         0.00000E+00
         0.00000E+00
         0.00000E+00
         0.00000E+00
         0.00000E+00
         0.00000E+00
         0.00000E+00
         0.00000E+00
         0.00000E+00
         0.00000E+00
         0.00000E+00
         0.00000E+00
         0.00000E+00
         0.00000E+00
         0.00000E+00
         0.00000E+00
         0.00000E+00
         0.00000E+00
         0.00000E+00
         0.00000E+00
         0.00000E+00
         0.00000E+00
         0.00000E+00
         0.00000E+00
         0.00000E+00
         0.00000E+00
         0.00000E+00
         0.00000E+00
         0.00000E+00
         0.00000E+00
         0.00000E+00
         0.00000E+00
         0.00000E+00
         0.00000E+00
         0.00000E+00
         0.00000E+00
         0.00000E+00
         0.00000E+00
         0.00000E+00
         0.00000E+00
         0.00000E+00
         0.00000E+00
         0.00000E+00
         0.00000E+00
         0.00000E+00
         0.00000E+00
         0.00000E+00
         0.00000E+00
         0.00000E+00
         0.00000E+00
         0.00000E+00
         0.00000E+00
         0.00000E+00
         0.00000E+00
         0.00000E+00
         0.00000E+00
         0.00000E+00
         0.00000E+00
         0.00000E+00
         0.00000E+00
         0.00000E+00
         0.00000E+00
         0.00000E+00
         0.00000E+00
         0.00000E+00
         0.00000E+00
         0.00000E+00
         0.00000E+00
         0.00000E+00
         0.00000E+00
         0.00000E+00
         0.00000E+00
         0.00000E+00
         0.00000E+00
         0.00000E+00
         0.00000E+00
         0.00000E+00
         0.00000E+00
         0.00000E+00
         0.00000E+00
         0.00000E+00
         0.00000E+00
         0.00000E+00
         0.00000E+00
         0.00000E+00
         0.00000E+00
         0.00000E+00
         0.00000E+00
         0.00000E+00
         0.00000E+00
         0.00000E+00
         0.00000E+00
         0.00000E+00
         0.00000E+00
         0.00000E+00
         0.00000E+00
         0.00000E+00
         0.00000E+00
         0.00000E+00
         0.00000E+00
         0.00000E+00
         0.00000E+00
         0.00000E+00
         0.00000E+00
         0.00000E+00
         0.00000E+00
         0.00000E+00
         0.00000E+00
         0.00000E+00
         0.00000E+00
         0.00000E+00
         0.00000E+00
         0.00000E+00
         0.00000E+00
         0.00000E+00
         0.00000E+00
         0.00000E+00
         0.00000E+00
         0.00000E+00
         0.00000E+00
         0.00000E+00
         0.00000E+00
         0.00000E+00
         0.00000E+00
         0.00000E+00
         0.00000E+00
         0.00000E+00
         0.00000E+00
         0.00000E+00
         0.00000E+00
         0.00000E+00
         0.00000E+00
         0.00000E+00
         0.00000E+00
         0.00000E+00
         0.00000E+00
         0.00000E+00
         0.00000E+00
         0.00000E+00
         0.00000E+00
         0.00000E+00
         0.00000E+00
         0.00000E+00
         0.00000E+00
         0.00000E+00
         0.00000E+00
         0.00000E+00
         0.00000E+00
         0.00000E+00
         0.00000E+00
         0.00000E+00
         0.00000E+00
         0.00000E+00
         0.00000E+00
         0.00000E+00
         0.00000E+00
         0.00000E+00
         0.00000E+00
         0.00000E+00
         0.00000E+00
         0.00000E+00
         0.00000E+00
         0.00000E+00
         0.00000E+00
         0.00000E+00
         0.00000E+00
         0.00000E+00
         0.00000E+00
         0.00000E+00
         0.00000E+00
         0.00000E+00
         0.00000E+00
         0.00000E+00
         0.00000E+00
         0.00000E+00
         0.00000E+00
         0.00000E+00
         0.00000E+00
         0.00000E+00
         0.00000E+00
         0.00000E+00
         0.00000E+00
         0.00000E+00
         0.00000E+00
         0.00000E+00
         0.00000E+00
         0.00000E+00
         0.00000E+00
         0.00000E+00
         0.00000E+00
         0.00000E+00
         0.00000E+00
         0.00000E+00
         0.00000E+00
         0.00000E+00
         0.00000E+00
         0.00000E+00
         0.00000E+00
         0.00000E+00
         0.00000E+00
         0.00000E+00
         0.00000E+00
         0.00000E+00
         0.00000E+00
         0.00000E+00
         0.00000E+00
         0.00000E+00
         0.00000E+00
         0.00000E+00
         0.00000E+00
         0.00000E+00
         0.00000E+00
         0.00000E+00
         0.00000E+00
         0.00000E+00
         0.00000E+00
         0.00000E+00
         0.00000E+00
         0.00000E+00
         0.00000E+00
         0.00000E+00
         0.00000E+00
         0.00000E+00
         0.00000E+00
         0.00000E+00
         0.00000E+00
         0.00000E+00
         0.00000E+00
         0.00000E+00
         0.00000E+00
         0.00000E+00
         0.00000E+00
         0.00000E+00
         0.00000E+00
         0.00000E+00
         0.00000E+00
         0.00000E+00
         0.00000E+00
         0.00000E+00
         0.00000E+00
         0.00000E+00
         0.00000E+00
         0.00000E+00
         0.00000E+00
         0.00000E+00
         0.00000E+00
         0.00000E+00
         0.00000E+00
         0.00000E+00
         0.00000E+00
         0.00000E+00
         0.00000E+00
         0.00000E+00
         0.00000E+00
         0.00000E+00
         0.00000E+00
         0.00000E+00
         0.00000E+00
         0.00000E+00
         0.00000E+00
         0.00000E+00
         0.00000E+00
         0.00000E+00
         0.00000E+00
         0.00000E+00
         0.00000E+00
         0.00000E+00
         0.00000E+00
         0.00000E+00
         0.00000E+00
         0.00000E+00
         0.00000E+00
         0.00000E+00
         0.00000E+00
         0.00000E+00
         0.00000E+00
         0.00000E+00
         0.00000E+00
         0.00000E+00
         0.00000E+00
         0.00000E+00
         0.00000E+00
         0.00000E+00
         0.00000E+00
         0.00000E+00
         0.00000E+00
         0.00000E+00
         0.00000E+00
         0.00000E+00
         0.00000E+00
         0.00000E+00
         0.00000E+00
         0.00000E+00
         0.00000E+00
         0.00000E+00
         0.00000E+00
         0.00000E+00
         0.00000E+00
         0.00000E+00
         0.00000E+00
         0.00000E+00
         0.00000E+00
         0.00000E+00
         0.00000E+00
         0.00000E+00
         0.00000E+00
         0.00000E+00
         0.00000E+00
         0.00000E+00
         0.00000E+00
         0.00000E+00
         0.00000E+00
         0.00000E+00
         0.00000E+00
         0.00000E+00
         0.00000E+00
         0.00000E+00
         0.00000E+00
         0.00000E+00
         0.00000E+00
         0.00000E+00
         0.00000E+00
         0.00000E+00
         0.00000E+00
         0.00000E+00
         0.00000E+00
         0.00000E+00
         0.00000E+00
         0.00000E+00
         0.00000E+00
         0.00000E+00
         0.00000E+00
         0.00000E+00
         0.00000E+00
         0.00000E+00
         0.00000E+00
         0.00000E+00
         0.00000E+00
         0.00000E+00
         0.00000E+00
         0.00000E+00
         0.00000E+00
         0.00000E+00
         0.00000E+00
         0.00000E+00
         0.00000E+00
         0.00000E+00
         0.00000E+00
         0.00000E+00
         0.00000E+00
         0.00000E+00
         0.00000E+00
         0.00000E+00
         0.00000E+00
         0.00000E+00
         0.00000E+00
         0.00000E+00
         0.00000E+00
         0.00000E+00
         0.00000E+00
         0.00000E+00
         0.00000E+00
         0.00000E+00
         0.00000E+00
         0.00000E+00
         0.00000E+00
         0.00000E+00
         0.00000E+00
         0.00000E+00
         0.00000E+00
         0.00000E+00
         0.00000E+00
         0.00000E+00
         0.00000E+00
         0.00000E+00
         0.00000E+00
         0.00000E+00
         0.00000E+00
         0.00000E+00
         0.00000E+00
         0.00000E+00
         0.00000E+00
         0.00000E+00
         0.00000E+00
         0.00000E+00
         0.00000E+00
         0.00000E+00
         0.00000E+00
         0.00000E+00
         0.00000E+00
         0.00000E+00
         0.00000E+00
         0.00000E+00
         0.00000E+00
         0.00000E+00
         0.00000E+00
         0.00000E+00
         0.00000E+00
         0.00000E+00
         0.00000E+00
         0.00000E+00
         0.00000E+00
         0.00000E+00
         0.00000E+00
         0.00000E+00
         0.00000E+00
         0.00000E+00
         0.00000E+00
         0.00000E+00
         0.00000E+00
         0.00000E+00
         0.00000E+00
         0.00000E+00
         0.00000E+00
         0.00000E+00
         0.00000E+00
         0.00000E+00
         0.00000E+00
         0.00000E+00
         0.00000E+00
         0.00000E+00
         0.00000E+00
         0.00000E+00
         0.00000E+00
         0.00000E+00
         0.00000E+00
         0.00000E+00
         0.00000E+00
         0.00000E+00
         0.00000E+00
         0.00000E+00
         0.00000E+00
         0.00000E+00
         0.00000E+00
         0.00000E+00
         0.00000E+00
         0.00000E+00
         0.00000E+00
         0.00000E+00
         0.00000E+00
         0.00000E+00
         0.00000E+00
         0.00000E+00
         0.00000E+00
         0.00000E+00
         0.00000E+00
         0.00000E+00
         0.00000E+00
         0.00000E+00
         0.00000E+00
         0.00000E+00
         0.00000E+00
         0.00000E+00
         0.00000E+00
         0.00000E+00
         0.00000E+00
         0.00000E+00
         0.00000E+00
         0.00000E+00
         0.00000E+00
         0.00000E+00
         0.00000E+00
         0.00000E+00
         0.00000E+00
         0.00000E+00
         0.00000E+00
         0.00000E+00
         0.00000E+00
         0.00000E+00
         0.00000E+00
         0.00000E+00
         0.00000E+00
         0.00000E+00
         0.00000E+00
         0.00000E+00
         0.00000E+00
         0.00000E+00
         0.00000E+00
         0.00000E+00
         0.00000E+00
         0.00000E+00
         0.00000E+00
         0.00000E+00
         0.00000E+00
         0.00000E+00
         0.00000E+00
         0.00000E+00
         0.00000E+00
         0.00000E+00
         0.00000E+00
         0.00000E+00
         0.00000E+00
         0.00000E+00
         0.00000E+00
         0.00000E+00
         0.00000E+00
         0.00000E+00
         0.00000E+00
         0.00000E+00
         0.00000E+00
         0.00000E+00
         0.00000E+00
         0.00000E+00
         0.00000E+00
         0.00000E+00
         0.00000E+00
         0.00000E+00
         0.00000E+00
         0.00000E+00
         0.00000E+00
         0.00000E+00
         0.00000E+00
         0.00000E+00
         0.00000E+00
         0.00000E+00
         0.00000E+00
         0.00000E+00
         0.00000E+00
         0.00000E+00
         0.00000E+00
         0.00000E+00
         0.00000E+00
         0.00000E+00
         0.00000E+00
         0.00000E+00
         0.00000E+00
         0.00000E+00
         0.00000E+00
         0.00000E+00
         0.00000E+00
         0.00000E+00
         0.00000E+00
         0.00000E+00
         0.00000E+00
         0.00000E+00
         0.00000E+00
         0.00000E+00
         0.00000E+00
         0.00000E+00
         0.00000E+00
         0.00000E+00
         0.00000E+00
         0.00000E+00
         0.00000E+00
         0.00000E+00
         0.00000E+00
         0.00000E+00
         0.00000E+00
         0.00000E+00
         0.00000E+00
         0.00000E+00
         0.00000E+00
         0.00000E+00
         0.00000E+00
         0.00000E+00
         0.00000E+00
         0.00000E+00
         0.00000E+00
         0.00000E+00
         0.00000E+00
         0.00000E+00
         0.00000E+00
         0.00000E+00
         0.00000E+00
         0.00000E+00
         0.00000E+00
         0.00000E+00
         0.00000E+00
         0.00000E+00
         0.00000E+00
         0.00000E+00
         0.00000E+00
         0.00000E+00
         0.00000E+00
         0.00000E+00
         0.00000E+00
         0.00000E+00
         0.00000E+00
         0.00000E+00
         0.00000E+00
         0.00000E+00
         0.00000E+00
         0.00000E+00
         0.00000E+00
         0.00000E+00
         0.00000E+00
         0.00000E+00
         0.00000E+00
         0.00000E+00
         0.00000E+00
         0.00000E+00
         0.00000E+00
         0.00000E+00
         0.00000E+00
         0.00000E+00
         0.00000E+00
         0.00000E+00
         0.00000E+00
         0.00000E+00
         0.00000E+00
         0.00000E+00
         0.00000E+00
         0.00000E+00
         0.00000E+00
         0.00000E+00
         0.00000E+00
         0.00000E+00
         0.00000E+00
         0.00000E+00
         0.00000E+00
         0.00000E+00
         0.00000E+00
         0.00000E+00
         0.00000E+00
         0.00000E+00
         0.00000E+00
         0.00000E+00
         0.00000E+00
         0.00000E+00
         0.00000E+00
         0.00000E+00
         0.00000E+00
         0.00000E+00
         0.00000E+00
         0.00000E+00
         0.00000E+00
         0.00000E+00
         0.00000E+00
         0.00000E+00
         0.00000E+00
         0.00000E+00
         0.00000E+00
         0.00000E+00
         0.00000E+00
         0.00000E+00
         0.00000E+00
         0.00000E+00
         0.00000E+00
         0.00000E+00
         0.00000E+00
         0.00000E+00
         0.00000E+00
         0.00000E+00
         0.00000E+00
         0.00000E+00
         0.00000E+00
         0.00000E+00
         0.00000E+00
         0.00000E+00
         0.00000E+00
         0.00000E+00
         0.00000E+00
         0.00000E+00
         0.00000E+00
         0.00000E+00
         0.00000E+00
         0.00000E+00
         0.00000E+00
         0.00000E+00
         0.00000E+00
         0.00000E+00
         0.00000E+00
         0.00000E+00
         0.00000E+00
         0.00000E+00
         0.00000E+00
         0.00000E+00
         0.00000E+00
         0.00000E+00
         0.00000E+00
         0.00000E+00
         0.00000E+00
         0.00000E+00
         0.00000E+00
         0.00000E+00
         0.00000E+00
         0.00000E+00
         0.00000E+00
         0.00000E+00
         0.00000E+00
         0.00000E+00
         0.00000E+00
         0.00000E+00
         0.00000E+00
         0.00000E+00
         0.00000E+00
         0.00000E+00
         0.00000E+00
         0.00000E+00
         0.00000E+00
         0.00000E+00
         0.00000E+00
         0.00000E+00
         0.00000E+00
         0.00000E+00
         0.00000E+00
         0.00000E+00
         0.00000E+00
         0.00000E+00
         0.00000E+00
         0.00000E+00
         0.00000E+00
         0.00000E+00
         0.00000E+00
         0.00000E+00
         0.00000E+00
         0.00000E+00
         0.00000E+00
         0.00000E+00
         0.00000E+00
         0.00000E+00
         0.00000E+00
         0.00000E+00
         0.00000E+00
         0.00000E+00
         0.00000E+00
         0.00000E+00
         0.00000E+00
         0.00000E+00
         0.00000E+00
         0.00000E+00
         0.00000E+00
         0.00000E+00
         0.00000E+00
         0.00000E+00
         0.00000E+00
         0.00000E+00
         0.00000E+00
         0.00000E+00
         0.00000E+00
         0.00000E+00
         0.00000E+00
         0.00000E+00
         0.00000E+00
         0.00000E+00
         0.00000E+00
         0.00000E+00
         0.00000E+00
         0.00000E+00
         0.00000E+00
         0.00000E+00
         0.00000E+00
         0.00000E+00
         0.00000E+00
         0.00000E+00
         0.00000E+00
         0.00000E+00
         0.00000E+00
         0.00000E+00
         0.00000E+00
         0.00000E+00
         0.00000E+00
         0.00000E+00
         0.00000E+00
         0.00000E+00
         0.00000E+00
         0.00000E+00
         0.00000E+00
         0.00000E+00
         0.00000E+00
         0.00000E+00
         0.00000E+00
         0.00000E+00
         0.00000E+00
         0.00000E+00
         0.00000E+00
         0.00000E+00
         0.00000E+00
         0.00000E+00
         0.00000E+00
         0.00000E+00
         0.00000E+00
         0.00000E+00
         0.00000E+00
         0.00000E+00
         0.00000E+00
         0.00000E+00
         0.00000E+00
         0.00000E+00
         0.00000E+00
         0.00000E+00
         0.00000E+00
         0.00000E+00
         0.00000E+00
         0.00000E+00
         0.00000E+00
         0.00000E+00
         0.00000E+00
         0.00000E+00
         0.00000E+00
         0.00000E+00
         0.00000E+00
         0.00000E+00
         0.00000E+00
         0.00000E+00
         0.00000E+00
         0.00000E+00
         0.00000E+00
         0.00000E+00
         0.00000E+00
         0.00000E+00
         0.00000E+00
         0.00000E+00
         0.00000E+00
         0.00000E+00
         0.00000E+00
         0.00000E+00
         0.00000E+00
         0.00000E+00
         0.00000E+00
         0.00000E+00
         0.00000E+00
         0.00000E+00
         0.00000E+00
         0.00000E+00
         0.00000E+00
         0.00000E+00
         0.00000E+00
         0.00000E+00
         0.00000E+00
         0.00000E+00
         0.00000E+00
         0.00000E+00
         0.00000E+00
         0.00000E+00
         0.00000E+00
         0.00000E+00
         0.00000E+00
         0.00000E+00
         0.00000E+00
         0.00000E+00
         0.00000E+00
         0.00000E+00
         0.00000E+00
         0.00000E+00
         0.00000E+00
         0.00000E+00
         0.00000E+00
         0.00000E+00
         0.00000E+00
         0.00000E+00
         0.00000E+00
         0.00000E+00
         0.00000E+00
         0.00000E+00
         0.00000E+00
         0.00000E+00
         0.00000E+00
         0.00000E+00
         0.00000E+00
         0.00000E+00
         0.00000E+00
         0.00000E+00
         0.00000E+00
         0.00000E+00
         0.00000E+00
         0.00000E+00
         0.00000E+00
         0.00000E+00
         0.00000E+00
         0.00000E+00
         0.00000E+00
         0.00000E+00
         0.00000E+00
         0.00000E+00
         0.00000E+00
         0.00000E+00
         0.00000E+00
         0.00000E+00
         0.00000E+00
         0.00000E+00
         0.00000E+00
         0.00000E+00
         0.00000E+00
         0.00000E+00
         0.00000E+00
         0.00000E+00
         0.00000E+00
         0.00000E+00
         0.00000E+00
         0.00000E+00
         0.00000E+00
         0.00000E+00
         0.00000E+00
         0.00000E+00
         0.00000E+00
         0.00000E+00
         0.00000E+00
         0.00000E+00
         0.00000E+00
         0.00000E+00
         0.00000E+00
         0.00000E+00
         0.00000E+00
         0.00000E+00
         0.00000E+00
         0.00000E+00
         0.00000E+00
         0.00000E+00
         0.00000E+00
         0.00000E+00
         0.00000E+00
         0.00000E+00
         0.00000E+00
         0.00000E+00
         0.00000E+00
         0.00000E+00
         0.00000E+00
         0.00000E+00
         0.00000E+00
         0.00000E+00
         0.00000E+00
         0.00000E+00
         0.00000E+00
         0.00000E+00
         0.00000E+00
         0.00000E+00
         0.00000E+00
         0.00000E+00
         0.00000E+00
         0.00000E+00
         0.00000E+00
         0.00000E+00
         0.00000E+00
         0.00000E+00
         0.00000E+00
         0.00000E+00
         0.00000E+00
         0.00000E+00
         0.00000E+00
         0.00000E+00
         0.00000E+00
         0.00000E+00
         0.00000E+00
         0.00000E+00
         0.00000E+00
         0.00000E+00
         0.00000E+00
         0.00000E+00
         0.00000E+00
         0.00000E+00
         0.00000E+00
         0.00000E+00
         0.00000E+00
         0.00000E+00
         0.00000E+00
         0.00000E+00
         0.00000E+00
         0.00000E+00
         0.00000E+00
         0.00000E+00
         0.00000E+00
         0.00000E+00
         0.00000E+00
         0.00000E+00
         0.00000E+00
         0.00000E+00
         0.00000E+00
         0.00000E+00
         0.00000E+00
         0.00000E+00
         0.00000E+00
         0.00000E+00
         0.00000E+00
         0.00000E+00
         0.00000E+00
         0.00000E+00
         0.00000E+00
         0.00000E+00
         0.00000E+00
         0.00000E+00
         0.00000E+00
         0.00000E+00
         0.00000E+00
         0.00000E+00
         0.00000E+00
         0.00000E+00
         0.00000E+00
         0.00000E+00
         0.00000E+00
         0.00000E+00
         0.00000E+00
         0.00000E+00
         0.00000E+00
         0.00000E+00
         0.00000E+00
         0.00000E+00
         0.00000E+00
         0.00000E+00
         0.00000E+00
         0.00000E+00
         0.00000E+00
         0.00000E+00
         0.00000E+00
         0.00000E+00
         0.00000E+00
         0.00000E+00
         0.00000E+00
         0.00000E+00
         0.00000E+00
         0.00000E+00
         0.00000E+00
         0.00000E+00
         0.00000E+00
         0.00000E+00
         0.00000E+00
         0.00000E+00
         0.00000E+00
         0.00000E+00
         0.00000E+00
         0.00000E+00
         0.00000E+00
         0.00000E+00
         0.00000E+00
         0.00000E+00
         0.00000E+00
         0.00000E+00
         0.00000E+00
         0.00000E+00
         0.00000E+00
         0.00000E+00
         0.00000E+00
         0.00000E+00
         0.00000E+00
         0.00000E+00
         0.00000E+00
         0.00000E+00
         0.00000E+00
         0.00000E+00
         0.00000E+00
         0.00000E+00
         0.00000E+00
         0.00000E+00
         0.00000E+00
         0.00000E+00
         0.00000E+00
         0.00000E+00
         0.00000E+00
         0.00000E+00
         0.00000E+00
         0.00000E+00
         0.00000E+00
         0.00000E+00
         0.00000E+00
         0.00000E+00
         0.00000E+00
         0.00000E+00
         0.00000E+00
         0.00000E+00
         0.00000E+00
         0.00000E+00
         0.00000E+00
         0.00000E+00
         0.00000E+00
         0.00000E+00
         0.00000E+00
         0.00000E+00
         0.00000E+00
         0.00000E+00
         0.00000E+00
         0.00000E+00
         0.00000E+00
         0.00000E+00
         0.00000E+00
         0.00000E+00
         0.00000E+00
         0.00000E+00
         0.00000E+00
         0.00000E+00
         0.00000E+00
         0.00000E+00
         0.00000E+00
         0.00000E+00
         0.00000E+00
         0.00000E+00
         0.00000E+00
         0.00000E+00
         0.00000E+00
         0.00000E+00
         0.00000E+00
         0.00000E+00
         0.00000E+00
         0.00000E+00
         0.00000E+00
         0.00000E+00
         0.00000E+00
         0.00000E+00
         0.00000E+00
         0.00000E+00
         0.00000E+00
         0.00000E+00
         0.00000E+00
         0.00000E+00
         0.00000E+00
         0.00000E+00
         0.00000E+00
         0.00000E+00
         0.00000E+00
         0.00000E+00
         0.00000E+00
         0.00000E+00
         0.00000E+00
         0.00000E+00
         0.00000E+00
         0.00000E+00
         0.00000E+00
         0.00000E+00
         0.00000E+00
         0.00000E+00
         0.00000E+00
         0.00000E+00
         0.00000E+00
         0.00000E+00
         0.00000E+00
         0.00000E+00
         0.00000E+00
         0.00000E+00
         0.00000E+00
         0.00000E+00
         0.00000E+00
         0.00000E+00
         0.00000E+00
         0.00000E+00
         0.00000E+00
         0.00000E+00
         0.00000E+00
         0.00000E+00
         0.00000E+00
         0.00000E+00
         0.00000E+00
         0.00000E+00
         0.00000E+00
         0.00000E+00
         0.00000E+00
         0.00000E+00
         0.00000E+00
         0.00000E+00
         0.00000E+00
         0.00000E+00
         0.00000E+00
         0.00000E+00
         0.00000E+00
         0.00000E+00
         0.00000E+00
         0.00000E+00
         0.00000E+00
         0.00000E+00
         0.00000E+00
         0.00000E+00
         0.00000E+00
         0.00000E+00
         0.00000E+00
         0.00000E+00
         0.00000E+00
         0.00000E+00
         0.00000E+00
         0.00000E+00
         0.00000E+00
         0.00000E+00
         0.00000E+00
         0.00000E+00
         0.00000E+00
         0.00000E+00
         0.00000E+00
         0.00000E+00
         0.00000E+00
         0.00000E+00
         0.00000E+00
         0.00000E+00
         0.00000E+00
         0.00000E+00
         0.00000E+00
         0.00000E+00
         0.00000E+00
         0.00000E+00
         0.00000E+00
         0.00000E+00
         0.00000E+00
         0.00000E+00
         0.00000E+00
         0.00000E+00
         0.00000E+00
         0.00000E+00
         0.00000E+00
         0.00000E+00
         0.00000E+00
         0.00000E+00
         0.00000E+00
         0.00000E+00
         0.00000E+00
         0.00000E+00
         0.00000E+00
         0.00000E+00
         0.00000E+00
         0.00000E+00
         0.00000E+00
         0.00000E+00
         0.00000E+00
         0.00000E+00
         0.00000E+00
         0.00000E+00
         0.00000E+00
         0.00000E+00
         0.00000E+00
         0.00000E+00
         0.00000E+00
         0.00000E+00
         0.00000E+00
         0.00000E+00
         0.00000E+00
         0.00000E+00
         0.00000E+00
         0.00000E+00
         0.00000E+00
         0.00000E+00
         0.00000E+00
         0.00000E+00
         0.00000E+00
         0.00000E+00
         0.00000E+00
         0.00000E+00
         0.00000E+00
         0.00000E+00
         0.00000E+00
         0.00000E+00
         0.00000E+00
         0.00000E+00
         0.00000E+00
         0.00000E+00
         0.00000E+00
         0.00000E+00
         0.00000E+00
         0.00000E+00
         0.00000E+00
         0.00000E+00
         0.00000E+00
         0.00000E+00
         0.00000E+00
         0.00000E+00
         0.00000E+00
         0.00000E+00
         0.00000E+00
         0.00000E+00
         0.00000E+00
         0.00000E+00
         0.00000E+00
         0.00000E+00
         0.00000E+00
         0.00000E+00
         0.00000E+00
         0.00000E+00
         0.00000E+00
         0.00000E+00
         0.00000E+00
         0.00000E+00
         0.00000E+00
         0.00000E+00
         0.00000E+00
         0.00000E+00
         0.00000E+00
         0.00000E+00
         0.00000E+00
         0.00000E+00
         0.00000E+00
         0.00000E+00
         0.00000E+00
         0.00000E+00
         0.00000E+00
         0.00000E+00
         0.00000E+00
         0.00000E+00
         0.00000E+00
         0.00000E+00
         0.00000E+00
         0.00000E+00
         0.00000E+00
         0.00000E+00
         0.00000E+00
         0.00000E+00
         0.00000E+00
         0.00000E+00
         0.00000E+00
         0.00000E+00
         0.00000E+00
         0.00000E+00
         0.00000E+00
         0.00000E+00
         0.00000E+00
         0.00000E+00
         0.00000E+00
         0.00000E+00
         0.00000E+00
         0.00000E+00
         0.00000E+00
         0.00000E+00
         0.00000E+00
         0.00000E+00
         0.00000E+00
         0.00000E+00
         0.00000E+00
         0.00000E+00
         0.00000E+00
         0.00000E+00
         0.00000E+00
         0.00000E+00
         0.00000E+00
         0.00000E+00
         0.00000E+00
         0.00000E+00
         0.00000E+00
         0.00000E+00
         0.00000E+00
         0.00000E+00
         0.00000E+00
         0.00000E+00
         0.00000E+00
         0.00000E+00
         0.00000E+00
         0.00000E+00
         0.00000E+00
         0.00000E+00
         0.00000E+00
         0.00000E+00
         0.00000E+00
         0.00000E+00
         0.00000E+00
         0.00000E+00
         0.00000E+00
         0.00000E+00
         0.00000E+00
         0.00000E+00
         0.00000E+00
         0.00000E+00
         0.00000E+00
         0.00000E+00
         0.00000E+00
         0.00000E+00
         0.00000E+00
         0.00000E+00
         0.00000E+00
         0.00000E+00
         0.00000E+00
         0.00000E+00
         0.00000E+00
         0.00000E+00
         0.00000E+00
         0.00000E+00
         0.00000E+00
         0.00000E+00
         0.00000E+00
         0.00000E+00
         0.00000E+00
  
SCALARS                      eps_shear  double 1
LOOKUP_TABLE default
         0.00000E+00
         0.00000E+00
         0.00000E+00
         0.00000E+00
         0.00000E+00
         0.00000E+00
         0.00000E+00
         0.00000E+00
         0.00000E+00
         0.00000E+00
         0.00000E+00
         0.00000E+00
         0.00000E+00
         0.00000E+00
         0.00000E+00
         0.00000E+00
         0.00000E+00
         0.00000E+00
         0.00000E+00
         0.00000E+00
         0.00000E+00
         0.00000E+00
         0.00000E+00
         0.00000E+00
         0.00000E+00
         0.00000E+00
         0.00000E+00
         0.00000E+00
         0.00000E+00
         0.00000E+00
         0.00000E+00
         0.00000E+00
         0.00000E+00
         0.00000E+00
         0.00000E+00
         0.00000E+00
         0.00000E+00
         0.00000E+00
         0.00000E+00
         0.00000E+00
         0.00000E+00
         0.00000E+00
         0.00000E+00
         0.00000E+00
         0.00000E+00
         0.00000E+00
         0.00000E+00
         0.00000E+00
         0.00000E+00
         0.00000E+00
         0.00000E+00
         0.00000E+00
         0.00000E+00
         0.00000E+00
         0.00000E+00
         0.00000E+00
         0.00000E+00
         0.00000E+00
         0.00000E+00
         0.00000E+00
         0.00000E+00
         0.00000E+00
         0.00000E+00
         0.00000E+00
         0.00000E+00
         0.00000E+00
         0.00000E+00
         0.00000E+00
         0.00000E+00
         0.00000E+00
         0.00000E+00
         0.00000E+00
         0.00000E+00
         0.00000E+00
         0.00000E+00
         0.00000E+00
         0.00000E+00
         0.00000E+00
         0.00000E+00
         0.00000E+00
         0.00000E+00
         0.00000E+00
         0.00000E+00
         0.00000E+00
         0.00000E+00
         0.00000E+00
         0.00000E+00
         0.00000E+00
         0.00000E+00
         0.00000E+00
         0.00000E+00
         0.00000E+00
         0.00000E+00
         0.00000E+00
         0.00000E+00
         0.00000E+00
         0.00000E+00
         0.00000E+00
         0.00000E+00
         0.00000E+00
         0.00000E+00
         0.00000E+00
         0.00000E+00
         0.00000E+00
         0.00000E+00
         0.00000E+00
         0.00000E+00
         0.00000E+00
         0.00000E+00
         0.00000E+00
         0.00000E+00
         0.00000E+00
         0.00000E+00
         0.00000E+00
         0.00000E+00
         0.00000E+00
         0.00000E+00
         0.00000E+00
         0.00000E+00
         0.00000E+00
         0.00000E+00
         0.00000E+00
         0.00000E+00
         0.00000E+00
         0.00000E+00
         0.00000E+00
         0.00000E+00
         0.00000E+00
         0.00000E+00
         0.00000E+00
         0.00000E+00
         0.00000E+00
         0.00000E+00
         0.00000E+00
         0.00000E+00
         0.00000E+00
         0.00000E+00
         0.00000E+00
         0.00000E+00
         0.00000E+00
         0.00000E+00
         0.00000E+00
         0.00000E+00
         0.00000E+00
         0.00000E+00
         0.00000E+00
         0.00000E+00
         0.00000E+00
         0.00000E+00
         0.00000E+00
         0.00000E+00
         0.00000E+00
         0.00000E+00
         0.00000E+00
         0.00000E+00
         0.00000E+00
         0.00000E+00
         0.00000E+00
         0.00000E+00
         0.00000E+00
         0.00000E+00
         0.00000E+00
         0.00000E+00
         0.00000E+00
         0.00000E+00
         0.00000E+00
         0.00000E+00
         0.00000E+00
         0.00000E+00
         0.00000E+00
         0.00000E+00
         0.00000E+00
         0.00000E+00
         0.00000E+00
         0.00000E+00
         0.00000E+00
         0.00000E+00
         0.00000E+00
         0.00000E+00
         0.00000E+00
         0.00000E+00
         0.00000E+00
         0.00000E+00
         0.00000E+00
         0.00000E+00
         0.00000E+00
         0.00000E+00
         0.00000E+00
         0.00000E+00
         0.00000E+00
         0.00000E+00
         0.00000E+00
         0.00000E+00
         0.00000E+00
         0.00000E+00
         0.00000E+00
         0.00000E+00
         0.00000E+00
         0.00000E+00
         0.00000E+00
         0.00000E+00
         0.00000E+00
         0.00000E+00
         0.00000E+00
         0.00000E+00
         0.00000E+00
         0.00000E+00
         0.00000E+00
         0.00000E+00
         0.00000E+00
         0.00000E+00
         0.00000E+00
         0.00000E+00
         0.00000E+00
         0.00000E+00
         0.00000E+00
         0.00000E+00
         0.00000E+00
         0.00000E+00
         0.00000E+00
         0.00000E+00
         0.00000E+00
         0.00000E+00
         0.00000E+00
         0.00000E+00
         0.00000E+00
         0.00000E+00
         0.00000E+00
         0.00000E+00
         0.00000E+00
         0.00000E+00
         0.00000E+00
         0.00000E+00
         0.00000E+00
         0.00000E+00
         0.00000E+00
         0.00000E+00
         0.00000E+00
         0.00000E+00
         0.00000E+00
         0.00000E+00
         0.00000E+00
         0.00000E+00
         0.00000E+00
         0.00000E+00
         0.00000E+00
         0.00000E+00
         0.00000E+00
         0.00000E+00
         0.00000E+00
         0.00000E+00
         0.00000E+00
         0.00000E+00
         0.00000E+00
         0.00000E+00
         0.00000E+00
         0.00000E+00
         0.00000E+00
         0.00000E+00
         0.00000E+00
         0.00000E+00
         0.00000E+00
         0.00000E+00
         0.00000E+00
         0.00000E+00
         0.00000E+00
         0.00000E+00
         0.00000E+00
         0.00000E+00
         0.00000E+00
         0.00000E+00
         0.00000E+00
         0.00000E+00
         0.00000E+00
         0.00000E+00
         0.00000E+00
         0.00000E+00
         0.00000E+00
         0.00000E+00
         0.00000E+00
         0.00000E+00
         0.00000E+00
         0.00000E+00
         0.00000E+00
         0.00000E+00
         0.00000E+00
         0.00000E+00
         0.00000E+00
         0.00000E+00
         0.00000E+00
         0.00000E+00
         0.00000E+00
         0.00000E+00
         0.00000E+00
         0.00000E+00
         0.00000E+00
         0.00000E+00
         0.00000E+00
         0.00000E+00
         0.00000E+00
         0.00000E+00
         0.00000E+00
         0.00000E+00
         0.00000E+00
         0.00000E+00
         0.00000E+00
         0.00000E+00
         0.00000E+00
         0.00000E+00
         0.00000E+00
         0.00000E+00
         0.00000E+00
         0.00000E+00
         0.00000E+00
         0.00000E+00
         0.00000E+00
         0.00000E+00
         0.00000E+00
         0.00000E+00
         0.00000E+00
         0.00000E+00
         0.00000E+00
         0.00000E+00
         0.00000E+00
         0.00000E+00
         0.00000E+00
         0.00000E+00
         0.00000E+00
         0.00000E+00
         0.00000E+00
         0.00000E+00
         0.00000E+00
         0.00000E+00
         0.00000E+00
         0.00000E+00
         0.00000E+00
         0.00000E+00
         0.00000E+00
         0.00000E+00
         0.00000E+00
         0.00000E+00
         0.00000E+00
         0.00000E+00
         0.00000E+00
         0.00000E+00
         0.00000E+00
         0.00000E+00
         0.00000E+00
         0.00000E+00
         0.00000E+00
         0.00000E+00
         0.00000E+00
         0.00000E+00
         0.00000E+00
         0.00000E+00
         0.00000E+00
         0.00000E+00
         0.00000E+00
         0.00000E+00
         0.00000E+00
         0.00000E+00
         0.00000E+00
         0.00000E+00
         0.00000E+00
         0.00000E+00
         0.00000E+00
         0.00000E+00
         0.00000E+00
         0.00000E+00
         0.00000E+00
         0.00000E+00
         0.00000E+00
         0.00000E+00
         0.00000E+00
         0.00000E+00
         0.00000E+00
         0.00000E+00
         0.00000E+00
         0.00000E+00
         0.00000E+00
         0.00000E+00
         0.00000E+00
         0.00000E+00
         0.00000E+00
         0.00000E+00
         0.00000E+00
         0.00000E+00
         0.00000E+00
         0.00000E+00
         0.00000E+00
         0.00000E+00
         0.00000E+00
         0.00000E+00
         0.00000E+00
         0.00000E+00
         0.00000E+00
         0.00000E+00
         0.00000E+00
         0.00000E+00
         0.00000E+00
         0.00000E+00
         0.00000E+00
         0.00000E+00
         0.00000E+00
         0.00000E+00
         0.00000E+00
         0.00000E+00
         0.00000E+00
         0.00000E+00
         0.00000E+00
         0.00000E+00
         0.00000E+00
         0.00000E+00
         0.00000E+00
         0.00000E+00
         0.00000E+00
         0.00000E+00
         0.00000E+00
         0.00000E+00
         0.00000E+00
         0.00000E+00
         0.00000E+00
         0.00000E+00
         0.00000E+00
         0.00000E+00
         0.00000E+00
         0.00000E+00
         0.00000E+00
         0.00000E+00
         0.00000E+00
         0.00000E+00
         0.00000E+00
         0.00000E+00
         0.00000E+00
         0.00000E+00
         0.00000E+00
         0.00000E+00
         0.00000E+00
         0.00000E+00
         0.00000E+00
         0.00000E+00
         0.00000E+00
         0.00000E+00
         0.00000E+00
         0.00000E+00
         0.00000E+00
         0.00000E+00
         0.00000E+00
         0.00000E+00
         0.00000E+00
         0.00000E+00
         0.00000E+00
         0.00000E+00
         0.00000E+00
         0.00000E+00
         0.00000E+00
         0.00000E+00
         0.00000E+00
         0.00000E+00
         0.00000E+00
         0.00000E+00
         0.00000E+00
         0.00000E+00
         0.00000E+00
         0.00000E+00
         0.00000E+00
         0.00000E+00
         0.00000E+00
         0.00000E+00
         0.00000E+00
         0.00000E+00
         0.00000E+00
         0.00000E+00
         0.00000E+00
         0.00000E+00
         0.00000E+00
         0.00000E+00
         0.00000E+00
         0.00000E+00
         0.00000E+00
         0.00000E+00
         0.00000E+00
         0.00000E+00
         0.00000E+00
         0.00000E+00
         0.00000E+00
         0.00000E+00
         0.00000E+00
         0.00000E+00
         0.00000E+00
         0.00000E+00
         0.00000E+00
         0.00000E+00
         0.00000E+00
         0.00000E+00
         0.00000E+00
         0.00000E+00
         0.00000E+00
         0.00000E+00
         0.00000E+00
         0.00000E+00
         0.00000E+00
         0.00000E+00
         0.00000E+00
         0.00000E+00
         0.00000E+00
         0.00000E+00
         0.00000E+00
         0.00000E+00
         0.00000E+00
         0.00000E+00
         0.00000E+00
         0.00000E+00
         0.00000E+00
         0.00000E+00
         0.00000E+00
         0.00000E+00
         0.00000E+00
         0.00000E+00
         0.00000E+00
         0.00000E+00
         0.00000E+00
         0.00000E+00
         0.00000E+00
         0.00000E+00
         0.00000E+00
         0.00000E+00
         0.00000E+00
         0.00000E+00
         0.00000E+00
         0.00000E+00
         0.00000E+00
         0.00000E+00
         0.00000E+00
         0.00000E+00
         0.00000E+00
         0.00000E+00
         0.00000E+00
         0.00000E+00
         0.00000E+00
         0.00000E+00
         0.00000E+00
         0.00000E+00
         0.00000E+00
         0.00000E+00
         0.00000E+00
         0.00000E+00
         0.00000E+00
         0.00000E+00
         0.00000E+00
         0.00000E+00
         0.00000E+00
         0.00000E+00
         0.00000E+00
         0.00000E+00
         0.00000E+00
         0.00000E+00
         0.00000E+00
         0.00000E+00
         0.00000E+00
         0.00000E+00
         0.00000E+00
         0.00000E+00
         0.00000E+00
         0.00000E+00
         0.00000E+00
         0.00000E+00
         0.00000E+00
         0.00000E+00
         0.00000E+00
         0.00000E+00
         0.00000E+00
         0.00000E+00
         0.00000E+00
         0.00000E+00
         0.00000E+00
         0.00000E+00
         0.00000E+00
         0.00000E+00
         0.00000E+00
         0.00000E+00
         0.00000E+00
         0.00000E+00
         0.00000E+00
         0.00000E+00
         0.00000E+00
         0.00000E+00
         0.00000E+00
         0.00000E+00
         0.00000E+00
         0.00000E+00
         0.00000E+00
         0.00000E+00
         0.00000E+00
         0.00000E+00
         0.00000E+00
         0.00000E+00
         0.00000E+00
         0.00000E+00
         0.00000E+00
         0.00000E+00
         0.00000E+00
         0.00000E+00
         0.00000E+00
         0.00000E+00
         0.00000E+00
         0.00000E+00
         0.00000E+00
         0.00000E+00
         0.00000E+00
         0.00000E+00
         0.00000E+00
         0.00000E+00
         0.00000E+00
         0.00000E+00
         0.00000E+00
         0.00000E+00
         0.00000E+00
         0.00000E+00
         0.00000E+00
         0.00000E+00
         0.00000E+00
         0.00000E+00
         0.00000E+00
         0.00000E+00
         0.00000E+00
         0.00000E+00
         0.00000E+00
         0.00000E+00
         0.00000E+00
         0.00000E+00
         0.00000E+00
         0.00000E+00
         0.00000E+00
         0.00000E+00
         0.00000E+00
         0.00000E+00
         0.00000E+00
         0.00000E+00
         0.00000E+00
         0.00000E+00
         0.00000E+00
         0.00000E+00
         0.00000E+00
         0.00000E+00
         0.00000E+00
         0.00000E+00
         0.00000E+00
         0.00000E+00
         0.00000E+00
         0.00000E+00
         0.00000E+00
         0.00000E+00
         0.00000E+00
         0.00000E+00
         0.00000E+00
         0.00000E+00
         0.00000E+00
         0.00000E+00
         0.00000E+00
         0.00000E+00
         0.00000E+00
         0.00000E+00
         0.00000E+00
         0.00000E+00
         0.00000E+00
         0.00000E+00
         0.00000E+00
         0.00000E+00
         0.00000E+00
         0.00000E+00
         0.00000E+00
         0.00000E+00
         0.00000E+00
         0.00000E+00
         0.00000E+00
         0.00000E+00
         0.00000E+00
         0.00000E+00
         0.00000E+00
         0.00000E+00
         0.00000E+00
         0.00000E+00
         0.00000E+00
         0.00000E+00
         0.00000E+00
         0.00000E+00
         0.00000E+00
         0.00000E+00
         0.00000E+00
         0.00000E+00
         0.00000E+00
         0.00000E+00
         0.00000E+00
         0.00000E+00
         0.00000E+00
         0.00000E+00
         0.00000E+00
         0.00000E+00
         0.00000E+00
         0.00000E+00
         0.00000E+00
         0.00000E+00
         0.00000E+00
         0.00000E+00
         0.00000E+00
         0.00000E+00
         0.00000E+00
         0.00000E+00
         0.00000E+00
         0.00000E+00
         0.00000E+00
         0.00000E+00
         0.00000E+00
         0.00000E+00
         0.00000E+00
         0.00000E+00
         0.00000E+00
         0.00000E+00
         0.00000E+00
         0.00000E+00
         0.00000E+00
         0.00000E+00
         0.00000E+00
         0.00000E+00
         0.00000E+00
         0.00000E+00
         0.00000E+00
         0.00000E+00
         0.00000E+00
         0.00000E+00
         0.00000E+00
         0.00000E+00
         0.00000E+00
         0.00000E+00
         0.00000E+00
         0.00000E+00
         0.00000E+00
         0.00000E+00
         0.00000E+00
         0.00000E+00
         0.00000E+00
         0.00000E+00
         0.00000E+00
         0.00000E+00
         0.00000E+00
         0.00000E+00
         0.00000E+00
         0.00000E+00
         0.00000E+00
         0.00000E+00
         0.00000E+00
         0.00000E+00
         0.00000E+00
         0.00000E+00
         0.00000E+00
         0.00000E+00
         0.00000E+00
         0.00000E+00
         0.00000E+00
         0.00000E+00
         0.00000E+00
         0.00000E+00
         0.00000E+00
         0.00000E+00
         0.00000E+00
         0.00000E+00
         0.00000E+00
         0.00000E+00
         0.00000E+00
         0.00000E+00
         0.00000E+00
         0.00000E+00
         0.00000E+00
         0.00000E+00
         0.00000E+00
         0.00000E+00
         0.00000E+00
         0.00000E+00
         0.00000E+00
         0.00000E+00
         0.00000E+00
         0.00000E+00
         0.00000E+00
         0.00000E+00
         0.00000E+00
         0.00000E+00
         0.00000E+00
         0.00000E+00
         0.00000E+00
         0.00000E+00
         0.00000E+00
         0.00000E+00
         0.00000E+00
         0.00000E+00
         0.00000E+00
         0.00000E+00
         0.00000E+00
         0.00000E+00
         0.00000E+00
         0.00000E+00
         0.00000E+00
         0.00000E+00
         0.00000E+00
         0.00000E+00
         0.00000E+00
         0.00000E+00
         0.00000E+00
         0.00000E+00
         0.00000E+00
         0.00000E+00
         0.00000E+00
         0.00000E+00
         0.00000E+00
         0.00000E+00
         0.00000E+00
         0.00000E+00
         0.00000E+00
         0.00000E+00
         0.00000E+00
         0.00000E+00
         0.00000E+00
         0.00000E+00
         0.00000E+00
         0.00000E+00
         0.00000E+00
         0.00000E+00
         0.00000E+00
         0.00000E+00
         0.00000E+00
         0.00000E+00
         0.00000E+00
         0.00000E+00
         0.00000E+00
         0.00000E+00
         0.00000E+00
         0.00000E+00
         0.00000E+00
         0.00000E+00
         0.00000E+00
         0.00000E+00
         0.00000E+00
         0.00000E+00
         0.00000E+00
         0.00000E+00
         0.00000E+00
         0.00000E+00
         0.00000E+00
         0.00000E+00
         0.00000E+00
         0.00000E+00
         0.00000E+00
         0.00000E+00
         0.00000E+00
         0.00000E+00
         0.00000E+00
         0.00000E+00
         0.00000E+00
         0.00000E+00
         0.00000E+00
         0.00000E+00
         0.00000E+00
         0.00000E+00
         0.00000E+00
         0.00000E+00
         0.00000E+00
         0.00000E+00
         0.00000E+00
         0.00000E+00
         0.00000E+00
         0.00000E+00
         0.00000E+00
         0.00000E+00
         0.00000E+00
         0.00000E+00
         0.00000E+00
         0.00000E+00
         0.00000E+00
         0.00000E+00
         0.00000E+00
         0.00000E+00
         0.00000E+00
         0.00000E+00
         0.00000E+00
         0.00000E+00
         0.00000E+00
         0.00000E+00
         0.00000E+00
         0.00000E+00
         0.00000E+00
         0.00000E+00
         0.00000E+00
         0.00000E+00
         0.00000E+00
         0.00000E+00
         0.00000E+00
         0.00000E+00
         0.00000E+00
         0.00000E+00
         0.00000E+00
         0.00000E+00
         0.00000E+00
         0.00000E+00
         0.00000E+00
         0.00000E+00
         0.00000E+00
         0.00000E+00
         0.00000E+00
         0.00000E+00
         0.00000E+00
         0.00000E+00
         0.00000E+00
         0.00000E+00
         0.00000E+00
         0.00000E+00
         0.00000E+00
         0.00000E+00
         0.00000E+00
         0.00000E+00
         0.00000E+00
         0.00000E+00
         0.00000E+00
         0.00000E+00
         0.00000E+00
         0.00000E+00
         0.00000E+00
         0.00000E+00
         0.00000E+00
         0.00000E+00
         0.00000E+00
         0.00000E+00
         0.00000E+00
         0.00000E+00
         0.00000E+00
         0.00000E+00
         0.00000E+00
         0.00000E+00
         0.00000E+00
         0.00000E+00
         0.00000E+00
         0.00000E+00
         0.00000E+00
         0.00000E+00
         0.00000E+00
         0.00000E+00
         0.00000E+00
         0.00000E+00
         0.00000E+00
         0.00000E+00
         0.00000E+00
         0.00000E+00
         0.00000E+00
         0.00000E+00
         0.00000E+00
         0.00000E+00
         0.00000E+00
         0.00000E+00
         0.00000E+00
         0.00000E+00
         0.00000E+00
         0.00000E+00
         0.00000E+00
         0.00000E+00
         0.00000E+00
         0.00000E+00
         0.00000E+00
         0.00000E+00
         0.00000E+00
         0.00000E+00
         0.00000E+00
         0.00000E+00
         0.00000E+00
         0.00000E+00
         0.00000E+00
         0.00000E+00
         0.00000E+00
         0.00000E+00
         0.00000E+00
         0.00000E+00
         0.00000E+00
         0.00000E+00
         0.00000E+00
         0.00000E+00
         0.00000E+00
         0.00000E+00
         0.00000E+00
         0.00000E+00
         0.00000E+00
         0.00000E+00
         0.00000E+00
         0.00000E+00
         0.00000E+00
         0.00000E+00
         0.00000E+00
         0.00000E+00
         0.00000E+00
         0.00000E+00
         0.00000E+00
         0.00000E+00
         0.00000E+00
         0.00000E+00
         0.00000E+00
         0.00000E+00
         0.00000E+00
         0.00000E+00
         0.00000E+00
         0.00000E+00
         0.00000E+00
         0.00000E+00
         0.00000E+00
         0.00000E+00
         0.00000E+00
         0.00000E+00
         0.00000E+00
         0.00000E+00
         0.00000E+00
         0.00000E+00
         0.00000E+00
         0.00000E+00
         0.00000E+00
         0.00000E+00
         0.00000E+00
         0.00000E+00
         0.00000E+00
         0.00000E+00
         0.00000E+00
         0.00000E+00
         0.00000E+00
         0.00000E+00
         0.00000E+00
         0.00000E+00
         0.00000E+00
         0.00000E+00
         0.00000E+00
         0.00000E+00
         0.00000E+00
         0.00000E+00
         0.00000E+00
         0.00000E+00
         0.00000E+00
         0.00000E+00
         0.00000E+00
         0.00000E+00
         0.00000E+00
         0.00000E+00
         0.00000E+00
         0.00000E+00
         0.00000E+00
         0.00000E+00
         0.00000E+00
         0.00000E+00
         0.00000E+00
         0.00000E+00
         0.00000E+00
         0.00000E+00
         0.00000E+00
         0.00000E+00
         0.00000E+00
         0.00000E+00
         0.00000E+00
         0.00000E+00
         0.00000E+00
         0.00000E+00
         0.00000E+00
         0.00000E+00
         0.00000E+00
         0.00000E+00
         0.00000E+00
         0.00000E+00
         0.00000E+00
         0.00000E+00
         0.00000E+00
         0.00000E+00
         0.00000E+00
         0.00000E+00
         0.00000E+00
         0.00000E+00
         0.00000E+00
         0.00000E+00
         0.00000E+00
         0.00000E+00
         0.00000E+00
         0.00000E+00
         0.00000E+00
         0.00000E+00
         0.00000E+00
         0.00000E+00
         0.00000E+00
         0.00000E+00
         0.00000E+00
         0.00000E+00
         0.00000E+00
         0.00000E+00
         0.00000E+00
         0.00000E+00
         0.00000E+00
         0.00000E+00
         0.00000E+00
         0.00000E+00
         0.00000E+00
         0.00000E+00
         0.00000E+00
         0.00000E+00
         0.00000E+00
         0.00000E+00
         0.00000E+00
         0.00000E+00
         0.00000E+00
         0.00000E+00
         0.00000E+00
         0.00000E+00
         0.00000E+00
         0.00000E+00
         0.00000E+00
         0.00000E+00
         0.00000E+00
         0.00000E+00
         0.00000E+00
         0.00000E+00
         0.00000E+00
         0.00000E+00
         0.00000E+00
         0.00000E+00
         0.00000E+00
         0.00000E+00
         0.00000E+00
         0.00000E+00
         0.00000E+00
         0.00000E+00
         0.00000E+00
         0.00000E+00
         0.00000E+00
         0.00000E+00
         0.00000E+00
         0.00000E+00
         0.00000E+00
         0.00000E+00
         0.00000E+00
         0.00000E+00
         0.00000E+00
         0.00000E+00
         0.00000E+00
         0.00000E+00
         0.00000E+00
         0.00000E+00
         0.00000E+00
         0.00000E+00
         0.00000E+00
         0.00000E+00
         0.00000E+00
         0.00000E+00
         0.00000E+00
         0.00000E+00
         0.00000E+00
         0.00000E+00
         0.00000E+00
         0.00000E+00
         0.00000E+00
         0.00000E+00
         0.00000E+00
         0.00000E+00
         0.00000E+00
         0.00000E+00
         0.00000E+00
         0.00000E+00
         0.00000E+00
         0.00000E+00
         0.00000E+00
         0.00000E+00
         0.00000E+00
         0.00000E+00
         0.00000E+00
         0.00000E+00
         0.00000E+00
         0.00000E+00
         0.00000E+00
         0.00000E+00
         0.00000E+00
         0.00000E+00
         0.00000E+00
         0.00000E+00
         0.00000E+00
         0.00000E+00
         0.00000E+00
         0.00000E+00
         0.00000E+00
         0.00000E+00
         0.00000E+00
         0.00000E+00
         0.00000E+00
         0.00000E+00
         0.00000E+00
         0.00000E+00
         0.00000E+00
         0.00000E+00
         0.00000E+00
         0.00000E+00
         0.00000E+00
         0.00000E+00
         0.00000E+00
         0.00000E+00
         0.00000E+00
         0.00000E+00
         0.00000E+00
         0.00000E+00
         0.00000E+00
         0.00000E+00
         0.00000E+00
         0.00000E+00
         0.00000E+00
         0.00000E+00
         0.00000E+00
         0.00000E+00
         0.00000E+00
         0.00000E+00
         0.00000E+00
         0.00000E+00
         0.00000E+00
         0.00000E+00
         0.00000E+00
         0.00000E+00
         0.00000E+00
         0.00000E+00
         0.00000E+00
         0.00000E+00
         0.00000E+00
         0.00000E+00
         0.00000E+00
         0.00000E+00
         0.00000E+00
         0.00000E+00
         0.00000E+00
         0.00000E+00
         0.00000E+00
         0.00000E+00
         0.00000E+00
         0.00000E+00
         0.00000E+00
         0.00000E+00
         0.00000E+00
         0.00000E+00
         0.00000E+00
         0.00000E+00
         0.00000E+00
         0.00000E+00
         0.00000E+00
         0.00000E+00
         0.00000E+00
         0.00000E+00
         0.00000E+00
         0.00000E+00
         0.00000E+00
         0.00000E+00
         0.00000E+00
         0.00000E+00
         0.00000E+00
         0.00000E+00
         0.00000E+00
         0.00000E+00
         0.00000E+00
         0.00000E+00
         0.00000E+00
         0.00000E+00
         0.00000E+00
         0.00000E+00
         0.00000E+00
         0.00000E+00
         0.00000E+00
         0.00000E+00
         0.00000E+00
         0.00000E+00
         0.00000E+00
         0.00000E+00
         0.00000E+00
         0.00000E+00
         0.00000E+00
         0.00000E+00
         0.00000E+00
         0.00000E+00
         0.00000E+00
         0.00000E+00
         0.00000E+00
         0.00000E+00
         0.00000E+00
         0.00000E+00
         0.00000E+00
         0.00000E+00
         0.00000E+00
         0.00000E+00
         0.00000E+00
         0.00000E+00
         0.00000E+00
         0.00000E+00
         0.00000E+00
         0.00000E+00
         0.00000E+00
         0.00000E+00
         0.00000E+00
         0.00000E+00
         0.00000E+00
         0.00000E+00
         0.00000E+00
         0.00000E+00
         0.00000E+00
         0.00000E+00
         0.00000E+00
         0.00000E+00
         0.00000E+00
         0.00000E+00
         0.00000E+00
         0.00000E+00
         0.00000E+00
         0.00000E+00
         0.00000E+00
         0.00000E+00
         0.00000E+00
         0.00000E+00
         0.00000E+00
         0.00000E+00
         0.00000E+00
         0.00000E+00
         0.00000E+00
         0.00000E+00
         0.00000E+00
         0.00000E+00
         0.00000E+00
         0.00000E+00
         0.00000E+00
         0.00000E+00
         0.00000E+00
         0.00000E+00
         0.00000E+00
         0.00000E+00
         0.00000E+00
         0.00000E+00
         0.00000E+00
         0.00000E+00
         0.00000E+00
         0.00000E+00
         0.00000E+00
         0.00000E+00
         0.00000E+00
         0.00000E+00
         0.00000E+00
         0.00000E+00
         0.00000E+00
         0.00000E+00
         0.00000E+00
         0.00000E+00
         0.00000E+00
         0.00000E+00
         0.00000E+00
         0.00000E+00
         0.00000E+00
         0.00000E+00
         0.00000E+00
         0.00000E+00
         0.00000E+00
         0.00000E+00
         0.00000E+00
         0.00000E+00
         0.00000E+00
         0.00000E+00
         0.00000E+00
         0.00000E+00
         0.00000E+00
         0.00000E+00
         0.00000E+00
         0.00000E+00
         0.00000E+00
         0.00000E+00
         0.00000E+00
         0.00000E+00
         0.00000E+00
         0.00000E+00
         0.00000E+00
         0.00000E+00
         0.00000E+00
         0.00000E+00
         0.00000E+00
         0.00000E+00
         0.00000E+00
         0.00000E+00
         0.00000E+00
         0.00000E+00
         0.00000E+00
         0.00000E+00
         0.00000E+00
         0.00000E+00
         0.00000E+00
         0.00000E+00
         0.00000E+00
         0.00000E+00
         0.00000E+00
         0.00000E+00
         0.00000E+00
         0.00000E+00
         0.00000E+00
         0.00000E+00
         0.00000E+00
         0.00000E+00
         0.00000E+00
         0.00000E+00
         0.00000E+00
         0.00000E+00
         0.00000E+00
         0.00000E+00
         0.00000E+00
         0.00000E+00
         0.00000E+00
         0.00000E+00
         0.00000E+00
         0.00000E+00
         0.00000E+00
         0.00000E+00
         0.00000E+00
         0.00000E+00
         0.00000E+00
         0.00000E+00
         0.00000E+00
         0.00000E+00
         0.00000E+00
         0.00000E+00
         0.00000E+00
         0.00000E+00
         0.00000E+00
         0.00000E+00
         0.00000E+00
         0.00000E+00
         0.00000E+00
         0.00000E+00
         0.00000E+00
         0.00000E+00
         0.00000E+00
         0.00000E+00
         0.00000E+00
         0.00000E+00
         0.00000E+00
         0.00000E+00
         0.00000E+00
         0.00000E+00
         0.00000E+00
         0.00000E+00
         0.00000E+00
         0.00000E+00
         0.00000E+00
         0.00000E+00
         0.00000E+00
         0.00000E+00
         0.00000E+00
         0.00000E+00
         0.00000E+00
         0.00000E+00
         0.00000E+00
         0.00000E+00
         0.00000E+00
         0.00000E+00
         0.00000E+00
         0.00000E+00
         0.00000E+00
         0.00000E+00
         0.00000E+00
         0.00000E+00
         0.00000E+00
         0.00000E+00
         0.00000E+00
         0.00000E+00
         0.00000E+00
         0.00000E+00
         0.00000E+00
         0.00000E+00
         0.00000E+00
         0.00000E+00
         0.00000E+00
         0.00000E+00
         0.00000E+00
         0.00000E+00
         0.00000E+00
         0.00000E+00
         0.00000E+00
         0.00000E+00
         0.00000E+00
         0.00000E+00
         0.00000E+00
         0.00000E+00
         0.00000E+00
         0.00000E+00
         0.00000E+00
         0.00000E+00
         0.00000E+00
         0.00000E+00
         0.00000E+00
         0.00000E+00
         0.00000E+00
         0.00000E+00
         0.00000E+00
         0.00000E+00
         0.00000E+00
         0.00000E+00
         0.00000E+00
         0.00000E+00
         0.00000E+00
         0.00000E+00
         0.00000E+00
         0.00000E+00
         0.00000E+00
         0.00000E+00
         0.00000E+00
         0.00000E+00
         0.00000E+00
         0.00000E+00
         0.00000E+00
         0.00000E+00
         0.00000E+00
         0.00000E+00
         0.00000E+00
         0.00000E+00
         0.00000E+00
         0.00000E+00
         0.00000E+00
         0.00000E+00
         0.00000E+00
         0.00000E+00
         0.00000E+00
         0.00000E+00
         0.00000E+00
         0.00000E+00
         0.00000E+00
         0.00000E+00
         0.00000E+00
         0.00000E+00
         0.00000E+00
         0.00000E+00
         0.00000E+00
         0.00000E+00
         0.00000E+00
         0.00000E+00
         0.00000E+00
         0.00000E+00
         0.00000E+00
         0.00000E+00
         0.00000E+00
         0.00000E+00
         0.00000E+00
         0.00000E+00
         0.00000E+00
         0.00000E+00
         0.00000E+00
         0.00000E+00
         0.00000E+00
         0.00000E+00
         0.00000E+00
         0.00000E+00
         0.00000E+00
         0.00000E+00
         0.00000E+00
         0.00000E+00
         0.00000E+00
         0.00000E+00
         0.00000E+00
         0.00000E+00
         0.00000E+00
         0.00000E+00
         0.00000E+00
         0.00000E+00
         0.00000E+00
         0.00000E+00
         0.00000E+00
         0.00000E+00
         0.00000E+00
         0.00000E+00
         0.00000E+00
         0.00000E+00
         0.00000E+00
         0.00000E+00
         0.00000E+00
         0.00000E+00
         0.00000E+00
         0.00000E+00
         0.00000E+00
         0.00000E+00
         0.00000E+00
         0.00000E+00
         0.00000E+00
         0.00000E+00
         0.00000E+00
         0.00000E+00
         0.00000E+00
         0.00000E+00
         0.00000E+00
         0.00000E+00
         0.00000E+00
         0.00000E+00
         0.00000E+00
         0.00000E+00
         0.00000E+00
         0.00000E+00
         0.00000E+00
         0.00000E+00
         0.00000E+00
         0.00000E+00
         0.00000E+00
         0.00000E+00
         0.00000E+00
         0.00000E+00
         0.00000E+00
         0.00000E+00
         0.00000E+00
         0.00000E+00
         0.00000E+00
         0.00000E+00
         0.00000E+00
         0.00000E+00
         0.00000E+00
         0.00000E+00
         0.00000E+00
         0.00000E+00
         0.00000E+00
         0.00000E+00
         0.00000E+00
         0.00000E+00
         0.00000E+00
         0.00000E+00
         0.00000E+00
         0.00000E+00
         0.00000E+00
         0.00000E+00
         0.00000E+00
         0.00000E+00
         0.00000E+00
         0.00000E+00
         0.00000E+00
         0.00000E+00
         0.00000E+00
         0.00000E+00
         0.00000E+00
         0.00000E+00
         0.00000E+00
         0.00000E+00
         0.00000E+00
         0.00000E+00
         0.00000E+00
         0.00000E+00
         0.00000E+00
         0.00000E+00
         0.00000E+00
         0.00000E+00
         0.00000E+00
         0.00000E+00
         0.00000E+00
         0.00000E+00
         0.00000E+00
         0.00000E+00
         0.00000E+00
         0.00000E+00
         0.00000E+00
         0.00000E+00
         0.00000E+00
         0.00000E+00
         0.00000E+00
         0.00000E+00
         0.00000E+00
         0.00000E+00
         0.00000E+00
         0.00000E+00
         0.00000E+00
         0.00000E+00
         0.00000E+00
         0.00000E+00
         0.00000E+00
         0.00000E+00
         0.00000E+00
         0.00000E+00
         0.00000E+00
         0.00000E+00
         0.00000E+00
         0.00000E+00
         0.00000E+00
         0.00000E+00
         0.00000E+00
         0.00000E+00
         0.00000E+00
         0.00000E+00
         0.00000E+00
         0.00000E+00
         0.00000E+00
         0.00000E+00
         0.00000E+00
         0.00000E+00
         0.00000E+00
         0.00000E+00
         0.00000E+00
         0.00000E+00
         0.00000E+00
         0.00000E+00
         0.00000E+00
         0.00000E+00
         0.00000E+00
         0.00000E+00
         0.00000E+00
         0.00000E+00
         0.00000E+00
         0.00000E+00
         0.00000E+00
         0.00000E+00
         0.00000E+00
         0.00000E+00
         0.00000E+00
         0.00000E+00
         0.00000E+00
         0.00000E+00
         0.00000E+00
         0.00000E+00
         0.00000E+00
         0.00000E+00
         0.00000E+00
         0.00000E+00
         0.00000E+00
         0.00000E+00
         0.00000E+00
         0.00000E+00
         0.00000E+00
         0.00000E+00
         0.00000E+00
         0.00000E+00
         0.00000E+00
         0.00000E+00
         0.00000E+00
         0.00000E+00
         0.00000E+00
         0.00000E+00
         0.00000E+00
         0.00000E+00
         0.00000E+00
         0.00000E+00
         0.00000E+00
         0.00000E+00
         0.00000E+00
         0.00000E+00
         0.00000E+00
         0.00000E+00
         0.00000E+00
         0.00000E+00
         0.00000E+00
         0.00000E+00
         0.00000E+00
         0.00000E+00
         0.00000E+00
         0.00000E+00
         0.00000E+00
         0.00000E+00
         0.00000E+00
         0.00000E+00
         0.00000E+00
         0.00000E+00
         0.00000E+00
         0.00000E+00
         0.00000E+00
         0.00000E+00
         0.00000E+00
         0.00000E+00
         0.00000E+00
         0.00000E+00
         0.00000E+00
         0.00000E+00
         0.00000E+00
         0.00000E+00
         0.00000E+00
         0.00000E+00
         0.00000E+00
         0.00000E+00
         0.00000E+00
         0.00000E+00
         0.00000E+00
         0.00000E+00
         0.00000E+00
         0.00000E+00
         0.00000E+00
         0.00000E+00
         0.00000E+00
         0.00000E+00
         0.00000E+00
         0.00000E+00
         0.00000E+00
         0.00000E+00
         0.00000E+00
         0.00000E+00
         0.00000E+00
         0.00000E+00
         0.00000E+00
         0.00000E+00
         0.00000E+00
         0.00000E+00
         0.00000E+00
         0.00000E+00
         0.00000E+00
         0.00000E+00
         0.00000E+00
         0.00000E+00
         0.00000E+00
         0.00000E+00
         0.00000E+00
         0.00000E+00
         0.00000E+00
         0.00000E+00
         0.00000E+00
         0.00000E+00
         0.00000E+00
         0.00000E+00
         0.00000E+00
         0.00000E+00
         0.00000E+00
         0.00000E+00
         0.00000E+00
         0.00000E+00
         0.00000E+00
         0.00000E+00
         0.00000E+00
         0.00000E+00
         0.00000E+00
         0.00000E+00
         0.00000E+00
         0.00000E+00
         0.00000E+00
         0.00000E+00
         0.00000E+00
         0.00000E+00
         0.00000E+00
         0.00000E+00
         0.00000E+00
         0.00000E+00
         0.00000E+00
         0.00000E+00
         0.00000E+00
         0.00000E+00
         0.00000E+00
         0.00000E+00
         0.00000E+00
         0.00000E+00
         0.00000E+00
         0.00000E+00
         0.00000E+00
         0.00000E+00
         0.00000E+00
         0.00000E+00
         0.00000E+00
         0.00000E+00
         0.00000E+00
         0.00000E+00
         0.00000E+00
         0.00000E+00
         0.00000E+00
         0.00000E+00
         0.00000E+00
         0.00000E+00
         0.00000E+00
         0.00000E+00
         0.00000E+00
         0.00000E+00
         0.00000E+00
         0.00000E+00
         0.00000E+00
         0.00000E+00
         0.00000E+00
         0.00000E+00
         0.00000E+00
         0.00000E+00
         0.00000E+00
         0.00000E+00
         0.00000E+00
         0.00000E+00
         0.00000E+00
         0.00000E+00
         0.00000E+00
         0.00000E+00
         0.00000E+00
         0.00000E+00
         0.00000E+00
         0.00000E+00
         0.00000E+00
         0.00000E+00
         0.00000E+00
         0.00000E+00
         0.00000E+00
         0.00000E+00
         0.00000E+00
         0.00000E+00
         0.00000E+00
         0.00000E+00
         0.00000E+00
         0.00000E+00
         0.00000E+00
         0.00000E+00
         0.00000E+00
         0.00000E+00
         0.00000E+00
         0.00000E+00
         0.00000E+00
         0.00000E+00
         0.00000E+00
         0.00000E+00
         0.00000E+00
         0.00000E+00
         0.00000E+00
         0.00000E+00
         0.00000E+00
         0.00000E+00
         0.00000E+00
         0.00000E+00
         0.00000E+00
         0.00000E+00
         0.00000E+00
         0.00000E+00
         0.00000E+00
         0.00000E+00
         0.00000E+00
         0.00000E+00
         0.00000E+00
         0.00000E+00
         0.00000E+00
         0.00000E+00
         0.00000E+00
         0.00000E+00
         0.00000E+00
         0.00000E+00
         0.00000E+00
         0.00000E+00
         0.00000E+00
         0.00000E+00
         0.00000E+00
         0.00000E+00
         0.00000E+00
         0.00000E+00
         0.00000E+00
         0.00000E+00
         0.00000E+00
         0.00000E+00
         0.00000E+00
         0.00000E+00
         0.00000E+00
         0.00000E+00
         0.00000E+00
         0.00000E+00
         0.00000E+00
         0.00000E+00
         0.00000E+00
         0.00000E+00
         0.00000E+00
         0.00000E+00
         0.00000E+00
  
SCALARS                        eps_vol  double 1
LOOKUP_TABLE default
         0.00000E+00
         0.00000E+00
         0.00000E+00
         0.00000E+00
         0.00000E+00
         0.00000E+00
         0.00000E+00
         0.00000E+00
         0.00000E+00
         0.00000E+00
         0.00000E+00
         0.00000E+00
         0.00000E+00
         0.00000E+00
         0.00000E+00
         0.00000E+00
         0.00000E+00
         0.00000E+00
         0.00000E+00
         0.00000E+00
         0.00000E+00
         0.00000E+00
         0.00000E+00
         0.00000E+00
         0.00000E+00
         0.00000E+00
         0.00000E+00
         0.00000E+00
         0.00000E+00
         0.00000E+00
         0.00000E+00
         0.00000E+00
         0.00000E+00
         0.00000E+00
         0.00000E+00
         0.00000E+00
         0.00000E+00
         0.00000E+00
         0.00000E+00
         0.00000E+00
         0.00000E+00
         0.00000E+00
         0.00000E+00
         0.00000E+00
         0.00000E+00
         0.00000E+00
         0.00000E+00
         0.00000E+00
         0.00000E+00
         0.00000E+00
         0.00000E+00
         0.00000E+00
         0.00000E+00
         0.00000E+00
         0.00000E+00
         0.00000E+00
         0.00000E+00
         0.00000E+00
         0.00000E+00
         0.00000E+00
         0.00000E+00
         0.00000E+00
         0.00000E+00
         0.00000E+00
         0.00000E+00
         0.00000E+00
         0.00000E+00
         0.00000E+00
         0.00000E+00
         0.00000E+00
         0.00000E+00
         0.00000E+00
         0.00000E+00
         0.00000E+00
         0.00000E+00
         0.00000E+00
         0.00000E+00
         0.00000E+00
         0.00000E+00
         0.00000E+00
         0.00000E+00
         0.00000E+00
         0.00000E+00
         0.00000E+00
         0.00000E+00
         0.00000E+00
         0.00000E+00
         0.00000E+00
         0.00000E+00
         0.00000E+00
         0.00000E+00
         0.00000E+00
         0.00000E+00
         0.00000E+00
         0.00000E+00
         0.00000E+00
         0.00000E+00
         0.00000E+00
         0.00000E+00
         0.00000E+00
         0.00000E+00
         0.00000E+00
         0.00000E+00
         0.00000E+00
         0.00000E+00
         0.00000E+00
         0.00000E+00
         0.00000E+00
         0.00000E+00
         0.00000E+00
         0.00000E+00
         0.00000E+00
         0.00000E+00
         0.00000E+00
         0.00000E+00
         0.00000E+00
         0.00000E+00
         0.00000E+00
         0.00000E+00
         0.00000E+00
         0.00000E+00
         0.00000E+00
         0.00000E+00
         0.00000E+00
         0.00000E+00
         0.00000E+00
         0.00000E+00
         0.00000E+00
         0.00000E+00
         0.00000E+00
         0.00000E+00
         0.00000E+00
         0.00000E+00
         0.00000E+00
         0.00000E+00
         0.00000E+00
         0.00000E+00
         0.00000E+00
         0.00000E+00
         0.00000E+00
         0.00000E+00
         0.00000E+00
         0.00000E+00
         0.00000E+00
         0.00000E+00
         0.00000E+00
         0.00000E+00
         0.00000E+00
         0.00000E+00
         0.00000E+00
         0.00000E+00
         0.00000E+00
         0.00000E+00
         0.00000E+00
         0.00000E+00
         0.00000E+00
         0.00000E+00
         0.00000E+00
         0.00000E+00
         0.00000E+00
         0.00000E+00
         0.00000E+00
         0.00000E+00
         0.00000E+00
         0.00000E+00
         0.00000E+00
         0.00000E+00
         0.00000E+00
         0.00000E+00
         0.00000E+00
         0.00000E+00
         0.00000E+00
         0.00000E+00
         0.00000E+00
         0.00000E+00
         0.00000E+00
         0.00000E+00
         0.00000E+00
         0.00000E+00
         0.00000E+00
         0.00000E+00
         0.00000E+00
         0.00000E+00
         0.00000E+00
         0.00000E+00
         0.00000E+00
         0.00000E+00
         0.00000E+00
         0.00000E+00
         0.00000E+00
         0.00000E+00
         0.00000E+00
         0.00000E+00
         0.00000E+00
         0.00000E+00
         0.00000E+00
         0.00000E+00
         0.00000E+00
         0.00000E+00
         0.00000E+00
         0.00000E+00
         0.00000E+00
         0.00000E+00
         0.00000E+00
         0.00000E+00
         0.00000E+00
         0.00000E+00
         0.00000E+00
         0.00000E+00
         0.00000E+00
         0.00000E+00
         0.00000E+00
         0.00000E+00
         0.00000E+00
         0.00000E+00
         0.00000E+00
         0.00000E+00
         0.00000E+00
         0.00000E+00
         0.00000E+00
         0.00000E+00
         0.00000E+00
         0.00000E+00
         0.00000E+00
         0.00000E+00
         0.00000E+00
         0.00000E+00
         0.00000E+00
         0.00000E+00
         0.00000E+00
         0.00000E+00
         0.00000E+00
         0.00000E+00
         0.00000E+00
         0.00000E+00
         0.00000E+00
         0.00000E+00
         0.00000E+00
         0.00000E+00
         0.00000E+00
         0.00000E+00
         0.00000E+00
         0.00000E+00
         0.00000E+00
         0.00000E+00
         0.00000E+00
         0.00000E+00
         0.00000E+00
         0.00000E+00
         0.00000E+00
         0.00000E+00
         0.00000E+00
         0.00000E+00
         0.00000E+00
         0.00000E+00
         0.00000E+00
         0.00000E+00
         0.00000E+00
         0.00000E+00
         0.00000E+00
         0.00000E+00
         0.00000E+00
         0.00000E+00
         0.00000E+00
         0.00000E+00
         0.00000E+00
         0.00000E+00
         0.00000E+00
         0.00000E+00
         0.00000E+00
         0.00000E+00
         0.00000E+00
         0.00000E+00
         0.00000E+00
         0.00000E+00
         0.00000E+00
         0.00000E+00
         0.00000E+00
         0.00000E+00
         0.00000E+00
         0.00000E+00
         0.00000E+00
         0.00000E+00
         0.00000E+00
         0.00000E+00
         0.00000E+00
         0.00000E+00
         0.00000E+00
         0.00000E+00
         0.00000E+00
         0.00000E+00
         0.00000E+00
         0.00000E+00
         0.00000E+00
         0.00000E+00
         0.00000E+00
         0.00000E+00
         0.00000E+00
         0.00000E+00
         0.00000E+00
         0.00000E+00
         0.00000E+00
         0.00000E+00
         0.00000E+00
         0.00000E+00
         0.00000E+00
         0.00000E+00
         0.00000E+00
         0.00000E+00
         0.00000E+00
         0.00000E+00
         0.00000E+00
         0.00000E+00
         0.00000E+00
         0.00000E+00
         0.00000E+00
         0.00000E+00
         0.00000E+00
         0.00000E+00
         0.00000E+00
         0.00000E+00
         0.00000E+00
         0.00000E+00
         0.00000E+00
         0.00000E+00
         0.00000E+00
         0.00000E+00
         0.00000E+00
         0.00000E+00
         0.00000E+00
         0.00000E+00
         0.00000E+00
         0.00000E+00
         0.00000E+00
         0.00000E+00
         0.00000E+00
         0.00000E+00
         0.00000E+00
         0.00000E+00
         0.00000E+00
         0.00000E+00
         0.00000E+00
         0.00000E+00
         0.00000E+00
         0.00000E+00
         0.00000E+00
         0.00000E+00
         0.00000E+00
         0.00000E+00
         0.00000E+00
         0.00000E+00
         0.00000E+00
         0.00000E+00
         0.00000E+00
         0.00000E+00
         0.00000E+00
         0.00000E+00
         0.00000E+00
         0.00000E+00
         0.00000E+00
         0.00000E+00
         0.00000E+00
         0.00000E+00
         0.00000E+00
         0.00000E+00
         0.00000E+00
         0.00000E+00
         0.00000E+00
         0.00000E+00
         0.00000E+00
         0.00000E+00
         0.00000E+00
         0.00000E+00
         0.00000E+00
         0.00000E+00
         0.00000E+00
         0.00000E+00
         0.00000E+00
         0.00000E+00
         0.00000E+00
         0.00000E+00
         0.00000E+00
         0.00000E+00
         0.00000E+00
         0.00000E+00
         0.00000E+00
         0.00000E+00
         0.00000E+00
         0.00000E+00
         0.00000E+00
         0.00000E+00
         0.00000E+00
         0.00000E+00
         0.00000E+00
         0.00000E+00
         0.00000E+00
         0.00000E+00
         0.00000E+00
         0.00000E+00
         0.00000E+00
         0.00000E+00
         0.00000E+00
         0.00000E+00
         0.00000E+00
         0.00000E+00
         0.00000E+00
         0.00000E+00
         0.00000E+00
         0.00000E+00
         0.00000E+00
         0.00000E+00
         0.00000E+00
         0.00000E+00
         0.00000E+00
         0.00000E+00
         0.00000E+00
         0.00000E+00
         0.00000E+00
         0.00000E+00
         0.00000E+00
         0.00000E+00
         0.00000E+00
         0.00000E+00
         0.00000E+00
         0.00000E+00
         0.00000E+00
         0.00000E+00
         0.00000E+00
         0.00000E+00
         0.00000E+00
         0.00000E+00
         0.00000E+00
         0.00000E+00
         0.00000E+00
         0.00000E+00
         0.00000E+00
         0.00000E+00
         0.00000E+00
         0.00000E+00
         0.00000E+00
         0.00000E+00
         0.00000E+00
         0.00000E+00
         0.00000E+00
         0.00000E+00
         0.00000E+00
         0.00000E+00
         0.00000E+00
         0.00000E+00
         0.00000E+00
         0.00000E+00
         0.00000E+00
         0.00000E+00
         0.00000E+00
         0.00000E+00
         0.00000E+00
         0.00000E+00
         0.00000E+00
         0.00000E+00
         0.00000E+00
         0.00000E+00
         0.00000E+00
         0.00000E+00
         0.00000E+00
         0.00000E+00
         0.00000E+00
         0.00000E+00
         0.00000E+00
         0.00000E+00
         0.00000E+00
         0.00000E+00
         0.00000E+00
         0.00000E+00
         0.00000E+00
         0.00000E+00
         0.00000E+00
         0.00000E+00
         0.00000E+00
         0.00000E+00
         0.00000E+00
         0.00000E+00
         0.00000E+00
         0.00000E+00
         0.00000E+00
         0.00000E+00
         0.00000E+00
         0.00000E+00
         0.00000E+00
         0.00000E+00
         0.00000E+00
         0.00000E+00
         0.00000E+00
         0.00000E+00
         0.00000E+00
         0.00000E+00
         0.00000E+00
         0.00000E+00
         0.00000E+00
         0.00000E+00
         0.00000E+00
         0.00000E+00
         0.00000E+00
         0.00000E+00
         0.00000E+00
         0.00000E+00
         0.00000E+00
         0.00000E+00
         0.00000E+00
         0.00000E+00
         0.00000E+00
         0.00000E+00
         0.00000E+00
         0.00000E+00
         0.00000E+00
         0.00000E+00
         0.00000E+00
         0.00000E+00
         0.00000E+00
         0.00000E+00
         0.00000E+00
         0.00000E+00
         0.00000E+00
         0.00000E+00
         0.00000E+00
         0.00000E+00
         0.00000E+00
         0.00000E+00
         0.00000E+00
         0.00000E+00
         0.00000E+00
         0.00000E+00
         0.00000E+00
         0.00000E+00
         0.00000E+00
         0.00000E+00
         0.00000E+00
         0.00000E+00
         0.00000E+00
         0.00000E+00
         0.00000E+00
         0.00000E+00
         0.00000E+00
         0.00000E+00
         0.00000E+00
         0.00000E+00
         0.00000E+00
         0.00000E+00
         0.00000E+00
         0.00000E+00
         0.00000E+00
         0.00000E+00
         0.00000E+00
         0.00000E+00
         0.00000E+00
         0.00000E+00
         0.00000E+00
         0.00000E+00
         0.00000E+00
         0.00000E+00
         0.00000E+00
         0.00000E+00
         0.00000E+00
         0.00000E+00
         0.00000E+00
         0.00000E+00
         0.00000E+00
         0.00000E+00
         0.00000E+00
         0.00000E+00
         0.00000E+00
         0.00000E+00
         0.00000E+00
         0.00000E+00
         0.00000E+00
         0.00000E+00
         0.00000E+00
         0.00000E+00
         0.00000E+00
         0.00000E+00
         0.00000E+00
         0.00000E+00
         0.00000E+00
         0.00000E+00
         0.00000E+00
         0.00000E+00
         0.00000E+00
         0.00000E+00
         0.00000E+00
         0.00000E+00
         0.00000E+00
         0.00000E+00
         0.00000E+00
         0.00000E+00
         0.00000E+00
         0.00000E+00
         0.00000E+00
         0.00000E+00
         0.00000E+00
         0.00000E+00
         0.00000E+00
         0.00000E+00
         0.00000E+00
         0.00000E+00
         0.00000E+00
         0.00000E+00
         0.00000E+00
         0.00000E+00
         0.00000E+00
         0.00000E+00
         0.00000E+00
         0.00000E+00
         0.00000E+00
         0.00000E+00
         0.00000E+00
         0.00000E+00
         0.00000E+00
         0.00000E+00
         0.00000E+00
         0.00000E+00
         0.00000E+00
         0.00000E+00
         0.00000E+00
         0.00000E+00
         0.00000E+00
         0.00000E+00
         0.00000E+00
         0.00000E+00
         0.00000E+00
         0.00000E+00
         0.00000E+00
         0.00000E+00
         0.00000E+00
         0.00000E+00
         0.00000E+00
         0.00000E+00
         0.00000E+00
         0.00000E+00
         0.00000E+00
         0.00000E+00
         0.00000E+00
         0.00000E+00
         0.00000E+00
         0.00000E+00
         0.00000E+00
         0.00000E+00
         0.00000E+00
         0.00000E+00
         0.00000E+00
         0.00000E+00
         0.00000E+00
         0.00000E+00
         0.00000E+00
         0.00000E+00
         0.00000E+00
         0.00000E+00
         0.00000E+00
         0.00000E+00
         0.00000E+00
         0.00000E+00
         0.00000E+00
         0.00000E+00
         0.00000E+00
         0.00000E+00
         0.00000E+00
         0.00000E+00
         0.00000E+00
         0.00000E+00
         0.00000E+00
         0.00000E+00
         0.00000E+00
         0.00000E+00
         0.00000E+00
         0.00000E+00
         0.00000E+00
         0.00000E+00
         0.00000E+00
         0.00000E+00
         0.00000E+00
         0.00000E+00
         0.00000E+00
         0.00000E+00
         0.00000E+00
         0.00000E+00
         0.00000E+00
         0.00000E+00
         0.00000E+00
         0.00000E+00
         0.00000E+00
         0.00000E+00
         0.00000E+00
         0.00000E+00
         0.00000E+00
         0.00000E+00
         0.00000E+00
         0.00000E+00
         0.00000E+00
         0.00000E+00
         0.00000E+00
         0.00000E+00
         0.00000E+00
         0.00000E+00
         0.00000E+00
         0.00000E+00
         0.00000E+00
         0.00000E+00
         0.00000E+00
         0.00000E+00
         0.00000E+00
         0.00000E+00
         0.00000E+00
         0.00000E+00
         0.00000E+00
         0.00000E+00
         0.00000E+00
         0.00000E+00
         0.00000E+00
         0.00000E+00
         0.00000E+00
         0.00000E+00
         0.00000E+00
         0.00000E+00
         0.00000E+00
         0.00000E+00
         0.00000E+00
         0.00000E+00
         0.00000E+00
         0.00000E+00
         0.00000E+00
         0.00000E+00
         0.00000E+00
         0.00000E+00
         0.00000E+00
         0.00000E+00
         0.00000E+00
         0.00000E+00
         0.00000E+00
         0.00000E+00
         0.00000E+00
         0.00000E+00
         0.00000E+00
         0.00000E+00
         0.00000E+00
         0.00000E+00
         0.00000E+00
         0.00000E+00
         0.00000E+00
         0.00000E+00
         0.00000E+00
         0.00000E+00
         0.00000E+00
         0.00000E+00
         0.00000E+00
         0.00000E+00
         0.00000E+00
         0.00000E+00
         0.00000E+00
         0.00000E+00
         0.00000E+00
         0.00000E+00
         0.00000E+00
         0.00000E+00
         0.00000E+00
         0.00000E+00
         0.00000E+00
         0.00000E+00
         0.00000E+00
         0.00000E+00
         0.00000E+00
         0.00000E+00
         0.00000E+00
         0.00000E+00
         0.00000E+00
         0.00000E+00
         0.00000E+00
         0.00000E+00
         0.00000E+00
         0.00000E+00
         0.00000E+00
         0.00000E+00
         0.00000E+00
         0.00000E+00
         0.00000E+00
         0.00000E+00
         0.00000E+00
         0.00000E+00
         0.00000E+00
         0.00000E+00
         0.00000E+00
         0.00000E+00
         0.00000E+00
         0.00000E+00
         0.00000E+00
         0.00000E+00
         0.00000E+00
         0.00000E+00
         0.00000E+00
         0.00000E+00
         0.00000E+00
         0.00000E+00
         0.00000E+00
         0.00000E+00
         0.00000E+00
         0.00000E+00
         0.00000E+00
         0.00000E+00
         0.00000E+00
         0.00000E+00
         0.00000E+00
         0.00000E+00
         0.00000E+00
         0.00000E+00
         0.00000E+00
         0.00000E+00
         0.00000E+00
         0.00000E+00
         0.00000E+00
         0.00000E+00
         0.00000E+00
         0.00000E+00
         0.00000E+00
         0.00000E+00
         0.00000E+00
         0.00000E+00
         0.00000E+00
         0.00000E+00
         0.00000E+00
         0.00000E+00
         0.00000E+00
         0.00000E+00
         0.00000E+00
         0.00000E+00
         0.00000E+00
         0.00000E+00
         0.00000E+00
         0.00000E+00
         0.00000E+00
         0.00000E+00
         0.00000E+00
         0.00000E+00
         0.00000E+00
         0.00000E+00
         0.00000E+00
         0.00000E+00
         0.00000E+00
         0.00000E+00
         0.00000E+00
         0.00000E+00
         0.00000E+00
         0.00000E+00
         0.00000E+00
         0.00000E+00
         0.00000E+00
         0.00000E+00
         0.00000E+00
         0.00000E+00
         0.00000E+00
         0.00000E+00
         0.00000E+00
         0.00000E+00
         0.00000E+00
         0.00000E+00
         0.00000E+00
         0.00000E+00
         0.00000E+00
         0.00000E+00
         0.00000E+00
         0.00000E+00
         0.00000E+00
         0.00000E+00
         0.00000E+00
         0.00000E+00
         0.00000E+00
         0.00000E+00
         0.00000E+00
         0.00000E+00
         0.00000E+00
         0.00000E+00
         0.00000E+00
         0.00000E+00
         0.00000E+00
         0.00000E+00
         0.00000E+00
         0.00000E+00
         0.00000E+00
         0.00000E+00
         0.00000E+00
         0.00000E+00
         0.00000E+00
         0.00000E+00
         0.00000E+00
         0.00000E+00
         0.00000E+00
         0.00000E+00
         0.00000E+00
         0.00000E+00
         0.00000E+00
         0.00000E+00
         0.00000E+00
         0.00000E+00
         0.00000E+00
         0.00000E+00
         0.00000E+00
         0.00000E+00
         0.00000E+00
         0.00000E+00
         0.00000E+00
         0.00000E+00
         0.00000E+00
         0.00000E+00
         0.00000E+00
         0.00000E+00
         0.00000E+00
         0.00000E+00
         0.00000E+00
         0.00000E+00
         0.00000E+00
         0.00000E+00
         0.00000E+00
         0.00000E+00
         0.00000E+00
         0.00000E+00
         0.00000E+00
         0.00000E+00
         0.00000E+00
         0.00000E+00
         0.00000E+00
         0.00000E+00
         0.00000E+00
         0.00000E+00
         0.00000E+00
         0.00000E+00
         0.00000E+00
         0.00000E+00
         0.00000E+00
         0.00000E+00
         0.00000E+00
         0.00000E+00
         0.00000E+00
         0.00000E+00
         0.00000E+00
         0.00000E+00
         0.00000E+00
         0.00000E+00
         0.00000E+00
         0.00000E+00
         0.00000E+00
         0.00000E+00
         0.00000E+00
         0.00000E+00
         0.00000E+00
         0.00000E+00
         0.00000E+00
         0.00000E+00
         0.00000E+00
         0.00000E+00
         0.00000E+00
         0.00000E+00
         0.00000E+00
         0.00000E+00
         0.00000E+00
         0.00000E+00
         0.00000E+00
         0.00000E+00
         0.00000E+00
         0.00000E+00
         0.00000E+00
         0.00000E+00
         0.00000E+00
         0.00000E+00
         0.00000E+00
         0.00000E+00
         0.00000E+00
         0.00000E+00
         0.00000E+00
         0.00000E+00
         0.00000E+00
         0.00000E+00
         0.00000E+00
         0.00000E+00
         0.00000E+00
         0.00000E+00
         0.00000E+00
         0.00000E+00
         0.00000E+00
         0.00000E+00
         0.00000E+00
         0.00000E+00
         0.00000E+00
         0.00000E+00
         0.00000E+00
         0.00000E+00
         0.00000E+00
         0.00000E+00
         0.00000E+00
         0.00000E+00
         0.00000E+00
         0.00000E+00
         0.00000E+00
         0.00000E+00
         0.00000E+00
         0.00000E+00
         0.00000E+00
         0.00000E+00
         0.00000E+00
         0.00000E+00
         0.00000E+00
         0.00000E+00
         0.00000E+00
         0.00000E+00
         0.00000E+00
         0.00000E+00
         0.00000E+00
         0.00000E+00
         0.00000E+00
         0.00000E+00
         0.00000E+00
         0.00000E+00
         0.00000E+00
         0.00000E+00
         0.00000E+00
         0.00000E+00
         0.00000E+00
         0.00000E+00
         0.00000E+00
         0.00000E+00
         0.00000E+00
         0.00000E+00
         0.00000E+00
         0.00000E+00
         0.00000E+00
         0.00000E+00
         0.00000E+00
         0.00000E+00
         0.00000E+00
         0.00000E+00
         0.00000E+00
         0.00000E+00
         0.00000E+00
         0.00000E+00
         0.00000E+00
         0.00000E+00
         0.00000E+00
         0.00000E+00
         0.00000E+00
         0.00000E+00
         0.00000E+00
         0.00000E+00
         0.00000E+00
         0.00000E+00
         0.00000E+00
         0.00000E+00
         0.00000E+00
         0.00000E+00
         0.00000E+00
         0.00000E+00
         0.00000E+00
         0.00000E+00
         0.00000E+00
         0.00000E+00
         0.00000E+00
         0.00000E+00
         0.00000E+00
         0.00000E+00
         0.00000E+00
         0.00000E+00
         0.00000E+00
         0.00000E+00
         0.00000E+00
         0.00000E+00
         0.00000E+00
         0.00000E+00
         0.00000E+00
         0.00000E+00
         0.00000E+00
         0.00000E+00
         0.00000E+00
         0.00000E+00
         0.00000E+00
         0.00000E+00
         0.00000E+00
         0.00000E+00
         0.00000E+00
         0.00000E+00
         0.00000E+00
         0.00000E+00
         0.00000E+00
         0.00000E+00
         0.00000E+00
         0.00000E+00
         0.00000E+00
         0.00000E+00
         0.00000E+00
         0.00000E+00
         0.00000E+00
         0.00000E+00
         0.00000E+00
         0.00000E+00
         0.00000E+00
         0.00000E+00
         0.00000E+00
         0.00000E+00
         0.00000E+00
         0.00000E+00
         0.00000E+00
         0.00000E+00
         0.00000E+00
         0.00000E+00
         0.00000E+00
         0.00000E+00
         0.00000E+00
         0.00000E+00
         0.00000E+00
         0.00000E+00
         0.00000E+00
         0.00000E+00
         0.00000E+00
         0.00000E+00
         0.00000E+00
         0.00000E+00
         0.00000E+00
         0.00000E+00
         0.00000E+00
         0.00000E+00
         0.00000E+00
         0.00000E+00
         0.00000E+00
         0.00000E+00
         0.00000E+00
         0.00000E+00
         0.00000E+00
         0.00000E+00
         0.00000E+00
         0.00000E+00
         0.00000E+00
         0.00000E+00
         0.00000E+00
         0.00000E+00
         0.00000E+00
         0.00000E+00
         0.00000E+00
         0.00000E+00
         0.00000E+00
         0.00000E+00
         0.00000E+00
         0.00000E+00
         0.00000E+00
         0.00000E+00
         0.00000E+00
         0.00000E+00
         0.00000E+00
         0.00000E+00
         0.00000E+00
         0.00000E+00
         0.00000E+00
         0.00000E+00
         0.00000E+00
         0.00000E+00
         0.00000E+00
         0.00000E+00
         0.00000E+00
         0.00000E+00
         0.00000E+00
         0.00000E+00
         0.00000E+00
         0.00000E+00
         0.00000E+00
         0.00000E+00
         0.00000E+00
         0.00000E+00
         0.00000E+00
         0.00000E+00
         0.00000E+00
         0.00000E+00
         0.00000E+00
         0.00000E+00
         0.00000E+00
         0.00000E+00
         0.00000E+00
         0.00000E+00
         0.00000E+00
         0.00000E+00
         0.00000E+00
         0.00000E+00
         0.00000E+00
         0.00000E+00
         0.00000E+00
         0.00000E+00
         0.00000E+00
         0.00000E+00
         0.00000E+00
         0.00000E+00
         0.00000E+00
         0.00000E+00
         0.00000E+00
         0.00000E+00
         0.00000E+00
         0.00000E+00
         0.00000E+00
         0.00000E+00
         0.00000E+00
         0.00000E+00
         0.00000E+00
         0.00000E+00
         0.00000E+00
         0.00000E+00
         0.00000E+00
         0.00000E+00
         0.00000E+00
         0.00000E+00
         0.00000E+00
         0.00000E+00
         0.00000E+00
         0.00000E+00
         0.00000E+00
         0.00000E+00
         0.00000E+00
         0.00000E+00
         0.00000E+00
         0.00000E+00
         0.00000E+00
         0.00000E+00
         0.00000E+00
         0.00000E+00
         0.00000E+00
         0.00000E+00
         0.00000E+00
         0.00000E+00
         0.00000E+00
         0.00000E+00
         0.00000E+00
         0.00000E+00
         0.00000E+00
         0.00000E+00
         0.00000E+00
         0.00000E+00
         0.00000E+00
         0.00000E+00
         0.00000E+00
         0.00000E+00
         0.00000E+00
         0.00000E+00
         0.00000E+00
         0.00000E+00
         0.00000E+00
         0.00000E+00
         0.00000E+00
         0.00000E+00
         0.00000E+00
         0.00000E+00
         0.00000E+00
         0.00000E+00
         0.00000E+00
         0.00000E+00
         0.00000E+00
         0.00000E+00
         0.00000E+00
         0.00000E+00
         0.00000E+00
         0.00000E+00
         0.00000E+00
         0.00000E+00
         0.00000E+00
         0.00000E+00
         0.00000E+00
         0.00000E+00
         0.00000E+00
         0.00000E+00
         0.00000E+00
         0.00000E+00
         0.00000E+00
         0.00000E+00
         0.00000E+00
         0.00000E+00
         0.00000E+00
         0.00000E+00
         0.00000E+00
         0.00000E+00
         0.00000E+00
         0.00000E+00
         0.00000E+00
         0.00000E+00
         0.00000E+00
         0.00000E+00
         0.00000E+00
         0.00000E+00
         0.00000E+00
         0.00000E+00
         0.00000E+00
         0.00000E+00
         0.00000E+00
         0.00000E+00
         0.00000E+00
         0.00000E+00
         0.00000E+00
         0.00000E+00
         0.00000E+00
         0.00000E+00
         0.00000E+00
         0.00000E+00
         0.00000E+00
         0.00000E+00
         0.00000E+00
         0.00000E+00
         0.00000E+00
         0.00000E+00
         0.00000E+00
         0.00000E+00
         0.00000E+00
         0.00000E+00
         0.00000E+00
         0.00000E+00
         0.00000E+00
         0.00000E+00
         0.00000E+00
         0.00000E+00
         0.00000E+00
         0.00000E+00
         0.00000E+00
         0.00000E+00
         0.00000E+00
         0.00000E+00
         0.00000E+00
         0.00000E+00
         0.00000E+00
         0.00000E+00
         0.00000E+00
         0.00000E+00
         0.00000E+00
         0.00000E+00
         0.00000E+00
         0.00000E+00
         0.00000E+00
         0.00000E+00
         0.00000E+00
         0.00000E+00
         0.00000E+00
         0.00000E+00
         0.00000E+00
         0.00000E+00
         0.00000E+00
         0.00000E+00
         0.00000E+00
         0.00000E+00
         0.00000E+00
         0.00000E+00
         0.00000E+00
         0.00000E+00
         0.00000E+00
         0.00000E+00
         0.00000E+00
         0.00000E+00
         0.00000E+00
         0.00000E+00
         0.00000E+00
         0.00000E+00
         0.00000E+00
         0.00000E+00
         0.00000E+00
         0.00000E+00
         0.00000E+00
         0.00000E+00
         0.00000E+00
         0.00000E+00
         0.00000E+00
         0.00000E+00
         0.00000E+00
         0.00000E+00
         0.00000E+00
         0.00000E+00
         0.00000E+00
         0.00000E+00
         0.00000E+00
         0.00000E+00
         0.00000E+00
         0.00000E+00
         0.00000E+00
         0.00000E+00
         0.00000E+00
         0.00000E+00
         0.00000E+00
         0.00000E+00
         0.00000E+00
         0.00000E+00
         0.00000E+00
         0.00000E+00
         0.00000E+00
         0.00000E+00
         0.00000E+00
         0.00000E+00
         0.00000E+00
         0.00000E+00
         0.00000E+00
         0.00000E+00
         0.00000E+00
         0.00000E+00
         0.00000E+00
         0.00000E+00
         0.00000E+00
         0.00000E+00
         0.00000E+00
         0.00000E+00
         0.00000E+00
         0.00000E+00
         0.00000E+00
         0.00000E+00
         0.00000E+00
         0.00000E+00
         0.00000E+00
         0.00000E+00
         0.00000E+00
         0.00000E+00
         0.00000E+00
         0.00000E+00
         0.00000E+00
         0.00000E+00
         0.00000E+00
         0.00000E+00
         0.00000E+00
         0.00000E+00
         0.00000E+00
         0.00000E+00
         0.00000E+00
         0.00000E+00
         0.00000E+00
         0.00000E+00
         0.00000E+00
         0.00000E+00
         0.00000E+00
         0.00000E+00
         0.00000E+00
         0.00000E+00
         0.00000E+00
         0.00000E+00
         0.00000E+00
         0.00000E+00
         0.00000E+00
         0.00000E+00
         0.00000E+00
         0.00000E+00
         0.00000E+00
         0.00000E+00
         0.00000E+00
         0.00000E+00
         0.00000E+00
         0.00000E+00
         0.00000E+00
         0.00000E+00
         0.00000E+00
         0.00000E+00
         0.00000E+00
         0.00000E+00
         0.00000E+00
         0.00000E+00
         0.00000E+00
         0.00000E+00
         0.00000E+00
         0.00000E+00
         0.00000E+00
         0.00000E+00
         0.00000E+00
         0.00000E+00
         0.00000E+00
         0.00000E+00
         0.00000E+00
         0.00000E+00
         0.00000E+00
         0.00000E+00
         0.00000E+00
         0.00000E+00
         0.00000E+00
         0.00000E+00
         0.00000E+00
         0.00000E+00
         0.00000E+00
         0.00000E+00
         0.00000E+00
         0.00000E+00
         0.00000E+00
         0.00000E+00
         0.00000E+00
         0.00000E+00
         0.00000E+00
         0.00000E+00
         0.00000E+00
         0.00000E+00
         0.00000E+00
         0.00000E+00
         0.00000E+00
         0.00000E+00
         0.00000E+00
         0.00000E+00
         0.00000E+00
         0.00000E+00
         0.00000E+00
         0.00000E+00
         0.00000E+00
         0.00000E+00
         0.00000E+00
         0.00000E+00
         0.00000E+00
         0.00000E+00
         0.00000E+00
         0.00000E+00
         0.00000E+00
         0.00000E+00
         0.00000E+00
         0.00000E+00
         0.00000E+00
         0.00000E+00
         0.00000E+00
         0.00000E+00
         0.00000E+00
         0.00000E+00
         0.00000E+00
         0.00000E+00
         0.00000E+00
         0.00000E+00
         0.00000E+00
         0.00000E+00
         0.00000E+00
         0.00000E+00
         0.00000E+00
         0.00000E+00
         0.00000E+00
         0.00000E+00
         0.00000E+00
         0.00000E+00
         0.00000E+00
         0.00000E+00
         0.00000E+00
         0.00000E+00
         0.00000E+00
         0.00000E+00
         0.00000E+00
         0.00000E+00
         0.00000E+00
         0.00000E+00
         0.00000E+00
         0.00000E+00
         0.00000E+00
         0.00000E+00
         0.00000E+00
         0.00000E+00
         0.00000E+00
         0.00000E+00
         0.00000E+00
         0.00000E+00
         0.00000E+00
         0.00000E+00
         0.00000E+00
         0.00000E+00
         0.00000E+00
         0.00000E+00
         0.00000E+00
         0.00000E+00
         0.00000E+00
         0.00000E+00
         0.00000E+00
         0.00000E+00
         0.00000E+00
         0.00000E+00
         0.00000E+00
         0.00000E+00
         0.00000E+00
         0.00000E+00
         0.00000E+00
         0.00000E+00
         0.00000E+00
         0.00000E+00
         0.00000E+00
         0.00000E+00
         0.00000E+00
         0.00000E+00
         0.00000E+00
         0.00000E+00
         0.00000E+00
         0.00000E+00
         0.00000E+00
         0.00000E+00
         0.00000E+00
         0.00000E+00
         0.00000E+00
         0.00000E+00
         0.00000E+00
         0.00000E+00
         0.00000E+00
         0.00000E+00
         0.00000E+00
         0.00000E+00
         0.00000E+00
         0.00000E+00
         0.00000E+00
         0.00000E+00
         0.00000E+00
         0.00000E+00
         0.00000E+00
         0.00000E+00
         0.00000E+00
         0.00000E+00
         0.00000E+00
         0.00000E+00
         0.00000E+00
         0.00000E+00
         0.00000E+00
         0.00000E+00
         0.00000E+00
         0.00000E+00
         0.00000E+00
         0.00000E+00
         0.00000E+00
         0.00000E+00
         0.00000E+00
         0.00000E+00
         0.00000E+00
         0.00000E+00
         0.00000E+00
         0.00000E+00
         0.00000E+00
         0.00000E+00
         0.00000E+00
         0.00000E+00
         0.00000E+00
         0.00000E+00
         0.00000E+00
         0.00000E+00
         0.00000E+00
         0.00000E+00
         0.00000E+00
         0.00000E+00
         0.00000E+00
         0.00000E+00
         0.00000E+00
         0.00000E+00
         0.00000E+00
         0.00000E+00
         0.00000E+00
         0.00000E+00
         0.00000E+00
         0.00000E+00
         0.00000E+00
         0.00000E+00
         0.00000E+00
         0.00000E+00
         0.00000E+00
         0.00000E+00
         0.00000E+00
         0.00000E+00
         0.00000E+00
         0.00000E+00
         0.00000E+00
         0.00000E+00
         0.00000E+00
         0.00000E+00
         0.00000E+00
         0.00000E+00
         0.00000E+00
         0.00000E+00
         0.00000E+00
         0.00000E+00
         0.00000E+00
         0.00000E+00
         0.00000E+00
         0.00000E+00
         0.00000E+00
         0.00000E+00
         0.00000E+00
         0.00000E+00
         0.00000E+00
         0.00000E+00
         0.00000E+00
         0.00000E+00
         0.00000E+00
         0.00000E+00
         0.00000E+00
         0.00000E+00
         0.00000E+00
         0.00000E+00
         0.00000E+00
         0.00000E+00
         0.00000E+00
         0.00000E+00
         0.00000E+00
         0.00000E+00
         0.00000E+00
         0.00000E+00
         0.00000E+00
         0.00000E+00
         0.00000E+00
         0.00000E+00
         0.00000E+00
         0.00000E+00
         0.00000E+00
         0.00000E+00
         0.00000E+00
         0.00000E+00
         0.00000E+00
         0.00000E+00
         0.00000E+00
         0.00000E+00
         0.00000E+00
         0.00000E+00
         0.00000E+00
         0.00000E+00
         0.00000E+00
         0.00000E+00
         0.00000E+00
         0.00000E+00
         0.00000E+00
         0.00000E+00
         0.00000E+00
         0.00000E+00
         0.00000E+00
         0.00000E+00
         0.00000E+00
         0.00000E+00
         0.00000E+00
         0.00000E+00
         0.00000E+00
         0.00000E+00
         0.00000E+00
         0.00000E+00
         0.00000E+00
         0.00000E+00
         0.00000E+00
         0.00000E+00
         0.00000E+00
         0.00000E+00
         0.00000E+00
         0.00000E+00
         0.00000E+00
         0.00000E+00
         0.00000E+00
         0.00000E+00
         0.00000E+00
         0.00000E+00
         0.00000E+00
         0.00000E+00
         0.00000E+00
         0.00000E+00
         0.00000E+00
         0.00000E+00
         0.00000E+00
         0.00000E+00
         0.00000E+00
         0.00000E+00
         0.00000E+00
         0.00000E+00
         0.00000E+00
         0.00000E+00
         0.00000E+00
         0.00000E+00
         0.00000E+00
         0.00000E+00
         0.00000E+00
         0.00000E+00
         0.00000E+00
         0.00000E+00
         0.00000E+00
         0.00000E+00
         0.00000E+00
         0.00000E+00
         0.00000E+00
         0.00000E+00
         0.00000E+00
         0.00000E+00
         0.00000E+00
         0.00000E+00
         0.00000E+00
         0.00000E+00
         0.00000E+00
         0.00000E+00
         0.00000E+00
         0.00000E+00
         0.00000E+00
         0.00000E+00
         0.00000E+00
         0.00000E+00
         0.00000E+00
         0.00000E+00
         0.00000E+00
         0.00000E+00
         0.00000E+00
         0.00000E+00
         0.00000E+00
         0.00000E+00
         0.00000E+00
         0.00000E+00
         0.00000E+00
         0.00000E+00
         0.00000E+00
         0.00000E+00
         0.00000E+00
         0.00000E+00
         0.00000E+00
         0.00000E+00
         0.00000E+00
         0.00000E+00
         0.00000E+00
         0.00000E+00
         0.00000E+00
         0.00000E+00
         0.00000E+00
         0.00000E+00
         0.00000E+00
         0.00000E+00
         0.00000E+00
         0.00000E+00
         0.00000E+00
         0.00000E+00
         0.00000E+00
         0.00000E+00
         0.00000E+00
         0.00000E+00
         0.00000E+00
         0.00000E+00
         0.00000E+00
         0.00000E+00
         0.00000E+00
         0.00000E+00
         0.00000E+00
         0.00000E+00
         0.00000E+00
         0.00000E+00
         0.00000E+00
         0.00000E+00
         0.00000E+00
         0.00000E+00
         0.00000E+00
         0.00000E+00
         0.00000E+00
         0.00000E+00
         0.00000E+00
         0.00000E+00
         0.00000E+00
         0.00000E+00
         0.00000E+00
         0.00000E+00
         0.00000E+00
         0.00000E+00
         0.00000E+00
         0.00000E+00
         0.00000E+00
         0.00000E+00
         0.00000E+00
         0.00000E+00
         0.00000E+00
         0.00000E+00
         0.00000E+00
         0.00000E+00
         0.00000E+00
         0.00000E+00
         0.00000E+00
         0.00000E+00
         0.00000E+00
         0.00000E+00
         0.00000E+00
         0.00000E+00
         0.00000E+00
         0.00000E+00
         0.00000E+00
         0.00000E+00
         0.00000E+00
         0.00000E+00
         0.00000E+00
         0.00000E+00
         0.00000E+00
         0.00000E+00
         0.00000E+00
         0.00000E+00
         0.00000E+00
         0.00000E+00
         0.00000E+00
         0.00000E+00
         0.00000E+00
         0.00000E+00
         0.00000E+00
         0.00000E+00
         0.00000E+00
         0.00000E+00
         0.00000E+00
         0.00000E+00
         0.00000E+00
         0.00000E+00
         0.00000E+00
         0.00000E+00
         0.00000E+00
         0.00000E+00
         0.00000E+00
         0.00000E+00
         0.00000E+00
         0.00000E+00
         0.00000E+00
         0.00000E+00
         0.00000E+00
         0.00000E+00
         0.00000E+00
         0.00000E+00
         0.00000E+00
         0.00000E+00
         0.00000E+00
         0.00000E+00
         0.00000E+00
         0.00000E+00
         0.00000E+00
         0.00000E+00
         0.00000E+00
         0.00000E+00
         0.00000E+00
         0.00000E+00
         0.00000E+00
         0.00000E+00
         0.00000E+00
         0.00000E+00
         0.00000E+00
         0.00000E+00
         0.00000E+00
         0.00000E+00
         0.00000E+00
         0.00000E+00
         0.00000E+00
         0.00000E+00
         0.00000E+00
         0.00000E+00
         0.00000E+00
         0.00000E+00
         0.00000E+00
         0.00000E+00
         0.00000E+00
         0.00000E+00
         0.00000E+00
         0.00000E+00
         0.00000E+00
         0.00000E+00
         0.00000E+00
         0.00000E+00
         0.00000E+00
         0.00000E+00
         0.00000E+00
         0.00000E+00
         0.00000E+00
         0.00000E+00
         0.00000E+00
         0.00000E+00
         0.00000E+00
         0.00000E+00
         0.00000E+00
         0.00000E+00
         0.00000E+00
         0.00000E+00
         0.00000E+00
  
SCALARS                            eps  double 1
LOOKUP_TABLE default
         0.46301E+00
         0.45917E+00
         0.46160E+00
         0.46603E+00
         0.00000E+00
         0.00000E+00
         0.00000E+00
         0.00000E+00
         0.45907E+00
         0.46035E+00
         0.00000E+00
         0.00000E+00
         0.45360E+00
         0.45339E+00
         0.00000E+00
         0.00000E+00
         0.46538E+00
         0.45370E+00
         0.00000E+00
         0.00000E+00
         0.44946E+00
         0.44622E+00
         0.45140E+00
         0.00000E+00
         0.00000E+00
         0.00000E+00
         0.44633E+00
         0.44158E+00
         0.00000E+00
         0.00000E+00
         0.46517E+00
         0.46006E+00
         0.47016E+00
         0.00000E+00
         0.00000E+00
         0.00000E+00
         0.46219E+00
         0.45575E+00
         0.00000E+00
         0.00000E+00
         0.45965E+00
         0.45468E+00
         0.00000E+00
         0.00000E+00
         0.46388E+00
         0.46578E+00
         0.00000E+00
         0.00000E+00
         0.45069E+00
         0.00000E+00
         0.46541E+00
         0.00000E+00
         0.44495E+00
         0.00000E+00
         0.44345E+00
         0.00000E+00
         0.44348E+00
         0.44880E+00
         0.00000E+00
         0.00000E+00
         0.46506E+00
         0.46309E+00
         0.00000E+00
         0.00000E+00
         0.46630E+00
         0.00000E+00
         0.46395E+00
         0.00000E+00
         0.45791E+00
         0.45726E+00
         0.00000E+00
         0.00000E+00
         0.45587E+00
         0.00000E+00
         0.43992E+00
         0.00000E+00
         0.43911E+00
         0.00000E+00
         0.43953E+00
         0.00000E+00
         0.44183E+00
         0.44419E+00
         0.00000E+00
         0.00000E+00
         0.44899E+00
         0.00000E+00
         0.46379E+00
         0.00000E+00
         0.46147E+00
         0.00000E+00
         0.45962E+00
         0.45854E+00
         0.00000E+00
         0.00000E+00
         0.45980E+00
         0.00000E+00
         0.46071E+00
         0.00000E+00
         0.45990E+00
         0.00000E+00
         0.45964E+00
         0.46045E+00
         0.00000E+00
         0.00000E+00
         0.45522E+00
         0.45746E+00
         0.00000E+00
         0.00000E+00
         0.45486E+00
         0.00000E+00
         0.45744E+00
         0.00000E+00
         0.45493E+00
         0.00000E+00
         0.44947E+00
         0.00000E+00
         0.44426E+00
         0.00000E+00
         0.44114E+00
         0.00000E+00
         0.44082E+00
         0.00000E+00
         0.44091E+00
         0.00000E+00
         0.44429E+00
         0.00000E+00
         0.45072E+00
         0.00000E+00
         0.45786E+00
         0.00000E+00
         0.46199E+00
         0.00000E+00
         0.46615E+00
         0.00000E+00
         0.46892E+00
         0.00000E+00
         0.46884E+00
         0.00000E+00
         0.46204E+00
         0.00000E+00
         0.45737E+00
         0.00000E+00
         0.45586E+00
         0.00000E+00
         0.45838E+00
         0.00000E+00
         0.45964E+00
         0.00000E+00
         0.45741E+00
         0.00000E+00
         0.45739E+00
         0.00000E+00
         0.45908E+00
         0.00000E+00
         0.46126E+00
         0.00000E+00
         0.17135E+00
         0.17413E+00
         0.17376E+00
         0.17012E+00
         0.17681E+00
         0.17346E+00
         0.17757E+00
         0.17543E+00
         0.17070E+00
         0.17367E+00
         0.17983E+00
         0.18058E+00
         0.17873E+00
         0.17856E+00
         0.17981E+00
         0.17030E+00
         0.17098E+00
         0.16906E+00
         0.17443E+00
         0.17346E+00
         0.17488E+00
         0.17398E+00
         0.17565E+00
         0.17518E+00
         0.17355E+00
         0.17366E+00
         0.17644E+00
         0.17618E+00
         0.17822E+00
         0.17514E+00
         0.17063E+00
         0.17417E+00
         0.17066E+00
         0.17298E+00
         0.18104E+00
         0.17849E+00
         0.17728E+00
         0.17874E+00
         0.17891E+00
         0.18120E+00
         0.18290E+00
         0.17881E+00
         0.17484E+00
         0.17537E+00
         0.17741E+00
         0.18096E+00
         0.17792E+00
         0.17463E+00
         0.17486E+00
         0.17741E+00
         0.17999E+00
         0.17651E+00
         0.18727E+00
         0.18439E+00
         0.18493E+00
         0.18428E+00
         0.18453E+00
         0.18622E+00
         0.18780E+00
         0.18820E+00
         0.18794E+00
         0.18815E+00
         0.18879E+00
         0.18462E+00
         0.18287E+00
         0.18219E+00
         0.18119E+00
         0.18042E+00
         0.18051E+00
         0.18193E+00
         0.18636E+00
         0.18536E+00
         0.18376E+00
         0.18373E+00
         0.18400E+00
         0.18544E+00
         0.18331E+00
         0.18252E+00
         0.00000E+00
         0.00000E+00
         0.00000E+00
         0.00000E+00
         0.00000E+00
         0.00000E+00
         0.00000E+00
         0.00000E+00
         0.00000E+00
         0.00000E+00
         0.00000E+00
         0.21682E-02
         0.89783E-03
         0.00000E+00
         0.24187E-02
         0.00000E+00
         0.00000E+00
         0.00000E+00
         0.00000E+00
         0.00000E+00
         0.10403E-02
         0.78417E-03
         0.68262E-03
         0.00000E+00
         0.00000E+00
         0.00000E+00
         0.00000E+00
         0.00000E+00
         0.00000E+00
         0.00000E+00
         0.00000E+00
         0.00000E+00
         0.00000E+00
         0.00000E+00
         0.52982E-03
         0.00000E+00
         0.00000E+00
         0.13975E-02
         0.35925E-03
         0.12017E-03
         0.14735E-02
         0.10452E-02
         0.10728E-02
         0.13092E-03
         0.00000E+00
         0.84620E-03
         0.00000E+00
         0.00000E+00
         0.00000E+00
         0.00000E+00
         0.40260E-03
         0.00000E+00
         0.12423E-01
         0.12798E-01
         0.13526E-01
         0.13404E-01
         0.14506E-01
         0.15818E-01
         0.15045E-01
         0.13013E-01
         0.12598E-01
         0.13713E-01
         0.13374E-01
         0.13148E-01
         0.10304E-01
         0.96353E-02
         0.10904E-01
         0.11911E-01
         0.12484E-01
         0.13935E-01
         0.13279E-01
         0.13728E-01
         0.12035E-01
         0.11263E-01
         0.12228E-01
         0.11880E-01
         0.12320E-01
         0.12189E-01
         0.00000E+00
         0.00000E+00
         0.00000E+00
         0.00000E+00
         0.00000E+00
         0.00000E+00
         0.00000E+00
         0.00000E+00
         0.00000E+00
         0.00000E+00
         0.00000E+00
         0.21680E-02
         0.89940E-03
         0.00000E+00
         0.24244E-02
         0.00000E+00
         0.00000E+00
         0.00000E+00
         0.00000E+00
         0.00000E+00
         0.10406E-02
         0.78390E-03
         0.68238E-03
         0.00000E+00
         0.00000E+00
         0.00000E+00
         0.00000E+00
         0.00000E+00
         0.00000E+00
         0.00000E+00
         0.00000E+00
         0.00000E+00
         0.00000E+00
         0.00000E+00
         0.53144E-03
         0.00000E+00
         0.00000E+00
         0.14045E-02
         0.36699E-03
         0.12462E-03
         0.14765E-02
         0.10474E-02
         0.10733E-02
         0.13085E-03
         0.00000E+00
         0.84598E-03
         0.00000E+00
         0.00000E+00
         0.00000E+00
         0.00000E+00
         0.40065E-03
         0.00000E+00
         0.12417E-01
         0.12794E-01
         0.13526E-01
         0.13404E-01
         0.14503E-01
         0.15811E-01
         0.15037E-01
         0.13009E-01
         0.12594E-01
         0.13708E-01
         0.13371E-01
         0.13148E-01
         0.10303E-01
         0.96348E-02
         0.10906E-01
         0.11915E-01
         0.12488E-01
         0.13939E-01
         0.13278E-01
         0.13727E-01
         0.12033E-01
         0.11262E-01
         0.12222E-01
         0.11870E-01
         0.12311E-01
         0.12181E-01
         0.00000E+00
         0.00000E+00
         0.00000E+00
         0.00000E+00
         0.00000E+00
         0.00000E+00
         0.00000E+00
         0.00000E+00
         0.00000E+00
         0.00000E+00
         0.00000E+00
         0.21678E-02
         0.90098E-03
         0.00000E+00
         0.24301E-02
         0.00000E+00
         0.00000E+00
         0.00000E+00
         0.00000E+00
         0.00000E+00
         0.10410E-02
         0.78363E-03
         0.68217E-03
         0.00000E+00
         0.00000E+00
         0.00000E+00
         0.00000E+00
         0.00000E+00
         0.00000E+00
         0.00000E+00
         0.00000E+00
         0.00000E+00
         0.00000E+00
         0.00000E+00
         0.53307E-03
         0.00000E+00
         0.00000E+00
         0.14116E-02
         0.37478E-03
         0.12911E-03
         0.14796E-02
         0.10496E-02
         0.10739E-02
         0.13094E-03
         0.00000E+00
         0.84588E-03
         0.00000E+00
         0.00000E+00
         0.00000E+00
         0.00000E+00
         0.39876E-03
         0.00000E+00
         0.12411E-01
         0.12790E-01
         0.13526E-01
         0.13404E-01
         0.14500E-01
         0.15805E-01
         0.15030E-01
         0.13005E-01
         0.12590E-01
         0.13703E-01
         0.13369E-01
         0.13149E-01
         0.10301E-01
         0.96343E-02
         0.10908E-01
         0.11919E-01
         0.12493E-01
         0.13943E-01
         0.13278E-01
         0.13726E-01
         0.12032E-01
         0.11261E-01
         0.12217E-01
         0.11861E-01
         0.12303E-01
         0.12172E-01
         0.00000E+00
         0.00000E+00
         0.00000E+00
         0.00000E+00
         0.00000E+00
         0.00000E+00
         0.00000E+00
         0.00000E+00
         0.00000E+00
         0.00000E+00
         0.00000E+00
         0.21677E-02
         0.90262E-03
         0.00000E+00
         0.24359E-02
         0.00000E+00
         0.00000E+00
         0.00000E+00
         0.00000E+00
         0.00000E+00
         0.10416E-02
         0.78349E-03
         0.68223E-03
         0.00000E+00
         0.00000E+00
         0.00000E+00
         0.00000E+00
         0.00000E+00
         0.00000E+00
         0.00000E+00
         0.00000E+00
         0.00000E+00
         0.00000E+00
         0.00000E+00
         0.53463E-03
         0.00000E+00
         0.00000E+00
         0.14186E-02
         0.38270E-03
         0.13384E-03
         0.14829E-02
         0.10519E-02
         0.10747E-02
         0.13130E-03
         0.00000E+00
         0.84582E-03
         0.00000E+00
         0.00000E+00
         0.00000E+00
         0.00000E+00
         0.39675E-03
         0.00000E+00
         0.12405E-01
         0.12786E-01
         0.13526E-01
         0.13404E-01
         0.14497E-01
         0.15798E-01
         0.15022E-01
         0.13000E-01
         0.12586E-01
         0.13698E-01
         0.13366E-01
         0.13150E-01
         0.10301E-01
         0.96338E-02
         0.10910E-01
         0.11923E-01
         0.12497E-01
         0.13947E-01
         0.13277E-01
         0.13725E-01
         0.12030E-01
         0.11260E-01
         0.12212E-01
         0.11851E-01
         0.12294E-01
         0.12164E-01
         0.00000E+00
         0.00000E+00
         0.00000E+00
         0.00000E+00
         0.00000E+00
         0.00000E+00
         0.00000E+00
         0.00000E+00
         0.00000E+00
         0.00000E+00
         0.00000E+00
         0.21675E-02
         0.90420E-03
         0.00000E+00
         0.24416E-02
         0.00000E+00
         0.00000E+00
         0.00000E+00
         0.00000E+00
         0.00000E+00
         0.10422E-02
         0.78339E-03
         0.68246E-03
         0.00000E+00
         0.00000E+00
         0.00000E+00
         0.00000E+00
         0.00000E+00
         0.00000E+00
         0.00000E+00
         0.00000E+00
         0.00000E+00
         0.00000E+00
         0.00000E+00
         0.53626E-03
         0.00000E+00
         0.00000E+00
         0.14257E-02
         0.39074E-03
         0.13877E-03
         0.14864E-02
         0.10543E-02
         0.10756E-02
         0.13198E-03
         0.00000E+00
         0.84600E-03
         0.00000E+00
         0.00000E+00
         0.00000E+00
         0.00000E+00
         0.39487E-03
         0.00000E+00
         0.12400E-01
         0.12782E-01
         0.13526E-01
         0.13404E-01
         0.14494E-01
         0.15792E-01
         0.15014E-01
         0.12996E-01
         0.12582E-01
         0.13693E-01
         0.13363E-01
         0.13151E-01
         0.10300E-01
         0.96336E-02
         0.10912E-01
         0.11928E-01
         0.12502E-01
         0.13951E-01
         0.13276E-01
         0.13724E-01
         0.12028E-01
         0.11259E-01
         0.12206E-01
         0.11841E-01
         0.12285E-01
         0.12156E-01
         0.00000E+00
         0.00000E+00
         0.00000E+00
         0.00000E+00
         0.00000E+00
         0.00000E+00
         0.00000E+00
         0.00000E+00
         0.00000E+00
         0.00000E+00
         0.00000E+00
         0.21674E-02
         0.90581E-03
         0.00000E+00
         0.24473E-02
         0.00000E+00
         0.00000E+00
         0.00000E+00
         0.00000E+00
         0.00000E+00
         0.10429E-02
         0.78338E-03
         0.68284E-03
         0.00000E+00
         0.00000E+00
         0.00000E+00
         0.00000E+00
         0.00000E+00
         0.00000E+00
         0.00000E+00
         0.00000E+00
         0.00000E+00
         0.00000E+00
         0.00000E+00
         0.53794E-03
         0.00000E+00
         0.00000E+00
         0.14328E-02
         0.39890E-03
         0.14386E-03
         0.14900E-02
         0.10568E-02
         0.10767E-02
         0.13276E-03
         0.00000E+00
         0.84636E-03
         0.00000E+00
         0.00000E+00
         0.00000E+00
         0.00000E+00
         0.39299E-03
         0.00000E+00
         0.12394E-01
         0.12779E-01
         0.13526E-01
         0.13405E-01
         0.14491E-01
         0.15786E-01
         0.15007E-01
         0.12992E-01
         0.12578E-01
         0.13688E-01
         0.13360E-01
         0.13152E-01
         0.10299E-01
         0.96333E-02
         0.10914E-01
         0.11933E-01
         0.12508E-01
         0.13955E-01
         0.13275E-01
         0.13723E-01
         0.12027E-01
         0.11258E-01
         0.12201E-01
         0.11831E-01
         0.12276E-01
         0.12148E-01
         0.00000E+00
         0.00000E+00
         0.00000E+00
         0.00000E+00
         0.00000E+00
         0.00000E+00
         0.00000E+00
         0.00000E+00
         0.00000E+00
         0.00000E+00
         0.00000E+00
         0.21674E-02
         0.90761E-03
         0.00000E+00
         0.24531E-02
         0.00000E+00
         0.00000E+00
         0.00000E+00
         0.00000E+00
         0.00000E+00
         0.10436E-02
         0.78340E-03
         0.68327E-03
         0.00000E+00
         0.00000E+00
         0.00000E+00
         0.00000E+00
         0.00000E+00
         0.00000E+00
         0.00000E+00
         0.00000E+00
         0.00000E+00
         0.00000E+00
         0.00000E+00
         0.53962E-03
         0.00000E+00
         0.00000E+00
         0.14400E-02
         0.40712E-03
         0.14895E-03
         0.14937E-02
         0.10592E-02
         0.10778E-02
         0.13359E-03
         0.00000E+00
         0.84688E-03
         0.00000E+00
         0.00000E+00
         0.00000E+00
         0.00000E+00
         0.39126E-03
         0.00000E+00
         0.12388E-01
         0.12775E-01
         0.13525E-01
         0.13405E-01
         0.14488E-01
         0.15779E-01
         0.14999E-01
         0.12987E-01
         0.12574E-01
         0.13682E-01
         0.13358E-01
         0.13153E-01
         0.10299E-01
         0.96331E-02
         0.10916E-01
         0.11938E-01
         0.12513E-01
         0.13959E-01
         0.13274E-01
         0.13722E-01
         0.12025E-01
         0.11257E-01
         0.12196E-01
         0.11821E-01
         0.12268E-01
         0.12140E-01
         0.00000E+00
         0.00000E+00
         0.00000E+00
         0.00000E+00
         0.00000E+00
         0.00000E+00
         0.00000E+00
         0.00000E+00
         0.00000E+00
         0.00000E+00
         0.00000E+00
         0.21674E-02
         0.90941E-03
         0.00000E+00
         0.24589E-02
         0.00000E+00
         0.00000E+00
         0.00000E+00
         0.00000E+00
         0.00000E+00
         0.10443E-02
         0.78339E-03
         0.68366E-03
         0.00000E+00
         0.00000E+00
         0.00000E+00
         0.00000E+00
         0.00000E+00
         0.00000E+00
         0.00000E+00
         0.00000E+00
         0.00000E+00
         0.00000E+00
         0.00000E+00
         0.54141E-03
         0.00000E+00
         0.00000E+00
         0.14472E-02
         0.41536E-03
         0.15409E-03
         0.14973E-02
         0.10618E-02
         0.10788E-02
         0.13450E-03
         0.00000E+00
         0.84752E-03
         0.00000E+00
         0.00000E+00
         0.00000E+00
         0.00000E+00
         0.38959E-03
         0.00000E+00
         0.12383E-01
         0.12771E-01
         0.13525E-01
         0.13405E-01
         0.14485E-01
         0.15773E-01
         0.14991E-01
         0.12983E-01
         0.12570E-01
         0.13677E-01
         0.13355E-01
         0.13154E-01
         0.10298E-01
         0.96328E-02
         0.10918E-01
         0.11943E-01
         0.12519E-01
         0.13963E-01
         0.13273E-01
         0.13721E-01
         0.12024E-01
         0.11257E-01
         0.12190E-01
         0.11811E-01
         0.12259E-01
         0.12131E-01
         0.00000E+00
         0.00000E+00
         0.00000E+00
         0.00000E+00
         0.00000E+00
         0.00000E+00
         0.00000E+00
         0.00000E+00
         0.00000E+00
         0.00000E+00
         0.00000E+00
         0.21675E-02
         0.91121E-03
         0.00000E+00
         0.24648E-02
         0.00000E+00
         0.00000E+00
         0.00000E+00
         0.00000E+00
         0.00000E+00
         0.10450E-02
         0.78341E-03
         0.68409E-03
         0.00000E+00
         0.00000E+00
         0.00000E+00
         0.00000E+00
         0.00000E+00
         0.00000E+00
         0.00000E+00
         0.00000E+00
         0.00000E+00
         0.00000E+00
         0.00000E+00
         0.54321E-03
         0.00000E+00
         0.00000E+00
         0.14545E-02
         0.42366E-03
         0.15916E-03
         0.15010E-02
         0.10643E-02
         0.10799E-02
         0.13544E-03
         0.00000E+00
         0.84816E-03
         0.00000E+00
         0.00000E+00
         0.00000E+00
         0.00000E+00
         0.38799E-03
         0.00000E+00
         0.12377E-01
         0.12767E-01
         0.13525E-01
         0.13405E-01
         0.14482E-01
         0.15766E-01
         0.14983E-01
         0.12979E-01
         0.12566E-01
         0.13672E-01
         0.13352E-01
         0.13155E-01
         0.10298E-01
         0.96326E-02
         0.10920E-01
         0.11948E-01
         0.12524E-01
         0.13967E-01
         0.13272E-01
         0.13720E-01
         0.12023E-01
         0.11256E-01
         0.12185E-01
         0.11801E-01
         0.12250E-01
         0.12123E-01
         0.00000E+00
         0.00000E+00
         0.00000E+00
         0.00000E+00
         0.00000E+00
         0.00000E+00
         0.00000E+00
         0.00000E+00
         0.00000E+00
         0.00000E+00
         0.00000E+00
         0.21675E-02
         0.91308E-03
         0.00000E+00
         0.24706E-02
         0.00000E+00
         0.00000E+00
         0.00000E+00
         0.00000E+00
         0.00000E+00
         0.10458E-02
         0.78339E-03
         0.68445E-03
         0.00000E+00
         0.00000E+00
         0.00000E+00
         0.00000E+00
         0.00000E+00
         0.00000E+00
         0.00000E+00
         0.00000E+00
         0.00000E+00
         0.00000E+00
         0.00000E+00
         0.54494E-03
         0.00000E+00
         0.00000E+00
         0.14617E-02
         0.43193E-03
         0.16429E-03
         0.15047E-02
         0.10669E-02
         0.10810E-02
         0.13635E-03
         0.00000E+00
         0.84877E-03
         0.00000E+00
         0.00000E+00
         0.00000E+00
         0.00000E+00
         0.38628E-03
         0.00000E+00
         0.12371E-01
         0.12763E-01
         0.13525E-01
         0.13405E-01
         0.14479E-01
         0.15760E-01
         0.14976E-01
         0.12974E-01
         0.12562E-01
         0.13667E-01
         0.13350E-01
         0.13156E-01
         0.10297E-01
         0.96323E-02
         0.10922E-01
         0.11953E-01
         0.12530E-01
         0.13971E-01
         0.13270E-01
         0.13719E-01
         0.12021E-01
         0.11255E-01
         0.12180E-01
         0.11791E-01
         0.12242E-01
         0.12115E-01
         0.00000E+00
         0.00000E+00
         0.00000E+00
         0.00000E+00
         0.00000E+00
         0.00000E+00
         0.00000E+00
         0.00000E+00
         0.00000E+00
         0.00000E+00
         0.00000E+00
         0.21675E-02
         0.91489E-03
         0.00000E+00
         0.24765E-02
         0.00000E+00
         0.00000E+00
         0.00000E+00
         0.00000E+00
         0.00000E+00
         0.10465E-02
         0.78340E-03
         0.68487E-03
         0.00000E+00
         0.00000E+00
         0.00000E+00
         0.00000E+00
         0.00000E+00
         0.00000E+00
         0.00000E+00
         0.00000E+00
         0.00000E+00
         0.00000E+00
         0.00000E+00
         0.54674E-03
         0.00000E+00
         0.00000E+00
         0.14690E-02
         0.44023E-03
         0.16934E-03
         0.15083E-02
         0.10694E-02
         0.10821E-02
         0.13721E-03
         0.00000E+00
         0.84943E-03
         0.00000E+00
         0.00000E+00
         0.00000E+00
         0.00000E+00
         0.38469E-03
         0.00000E+00
         0.12366E-01
         0.12760E-01
         0.13525E-01
         0.13405E-01
         0.14476E-01
         0.15753E-01
         0.14968E-01
         0.12970E-01
         0.12558E-01
         0.13661E-01
         0.13347E-01
         0.13157E-01
         0.10297E-01
         0.96321E-02
         0.10925E-01
         0.11958E-01
         0.12535E-01
         0.13975E-01
         0.13269E-01
         0.13718E-01
         0.12020E-01
         0.11255E-01
         0.12174E-01
         0.11782E-01
         0.12233E-01
         0.12107E-01
         0.00000E+00
         0.00000E+00
         0.00000E+00
         0.00000E+00
         0.00000E+00
         0.00000E+00
         0.00000E+00
         0.00000E+00
         0.00000E+00
         0.00000E+00
         0.00000E+00
         0.21675E-02
         0.91667E-03
         0.00000E+00
         0.24823E-02
         0.00000E+00
         0.00000E+00
         0.00000E+00
         0.00000E+00
         0.00000E+00
         0.10472E-02
         0.78337E-03
         0.68530E-03
         0.00000E+00
         0.00000E+00
         0.00000E+00
         0.00000E+00
         0.00000E+00
         0.00000E+00
         0.00000E+00
         0.00000E+00
         0.00000E+00
         0.00000E+00
         0.00000E+00
         0.54857E-03
         0.00000E+00
         0.00000E+00
         0.14763E-02
         0.44852E-03
         0.17446E-03
         0.15120E-02
         0.10719E-02
         0.10832E-02
         0.13812E-03
         0.00000E+00
         0.85009E-03
         0.00000E+00
         0.00000E+00
         0.00000E+00
         0.00000E+00
         0.38303E-03
         0.00000E+00
         0.12360E-01
         0.12756E-01
         0.13524E-01
         0.13405E-01
         0.14473E-01
         0.15747E-01
         0.14960E-01
         0.12966E-01
         0.12554E-01
         0.13656E-01
         0.13344E-01
         0.13158E-01
         0.10296E-01
         0.96319E-02
         0.10927E-01
         0.11963E-01
         0.12541E-01
         0.13979E-01
         0.13268E-01
         0.13716E-01
         0.12019E-01
         0.11254E-01
         0.12169E-01
         0.11772E-01
         0.12224E-01
         0.12099E-01
         0.00000E+00
         0.00000E+00
         0.00000E+00
         0.00000E+00
         0.00000E+00
         0.00000E+00
         0.00000E+00
         0.00000E+00
         0.00000E+00
         0.00000E+00
         0.00000E+00
         0.21676E-02
         0.91854E-03
         0.00000E+00
         0.24882E-02
         0.00000E+00
         0.00000E+00
         0.00000E+00
         0.00000E+00
         0.00000E+00
         0.10479E-02
         0.78340E-03
         0.68568E-03
         0.00000E+00
         0.00000E+00
         0.00000E+00
         0.00000E+00
         0.00000E+00
         0.00000E+00
         0.00000E+00
         0.00000E+00
         0.00000E+00
         0.00000E+00
         0.00000E+00
         0.55031E-03
         0.00000E+00
         0.00000E+00
         0.14835E-02
         0.45684E-03
         0.17955E-03
         0.15157E-02
         0.10744E-02
         0.10843E-02
         0.13907E-03
         0.00000E+00
         0.85062E-03
         0.00000E+00
         0.00000E+00
         0.00000E+00
         0.00000E+00
         0.38131E-03
         0.00000E+00
         0.12354E-01
         0.12752E-01
         0.13524E-01
         0.13405E-01
         0.14470E-01
         0.15740E-01
         0.14952E-01
         0.12961E-01
         0.12550E-01
         0.13651E-01
         0.13341E-01
         0.13159E-01
         0.10296E-01
         0.96316E-02
         0.10929E-01
         0.11969E-01
         0.12546E-01
         0.13983E-01
         0.13267E-01
         0.13715E-01
         0.12017E-01
         0.11253E-01
         0.12164E-01
         0.11762E-01
         0.12216E-01
         0.12091E-01
         0.00000E+00
         0.00000E+00
         0.00000E+00
         0.00000E+00
         0.00000E+00
         0.00000E+00
         0.00000E+00
         0.00000E+00
         0.00000E+00
         0.00000E+00
         0.00000E+00
         0.21676E-02
         0.92035E-03
         0.00000E+00
         0.24940E-02
         0.00000E+00
         0.00000E+00
         0.00000E+00
         0.00000E+00
         0.00000E+00
         0.10486E-02
         0.78337E-03
         0.68611E-03
         0.00000E+00
         0.00000E+00
         0.00000E+00
         0.00000E+00
         0.00000E+00
         0.00000E+00
         0.00000E+00
         0.00000E+00
         0.00000E+00
         0.00000E+00
         0.00000E+00
         0.55214E-03
         0.00000E+00
         0.00000E+00
         0.14908E-02
         0.46517E-03
         0.18460E-03
         0.15193E-02
         0.10769E-02
         0.10854E-02
         0.13997E-03
         0.00000E+00
         0.85129E-03
         0.00000E+00
         0.00000E+00
         0.00000E+00
         0.00000E+00
         0.37971E-03
         0.00000E+00
         0.12348E-01
         0.12748E-01
         0.13524E-01
         0.13405E-01
         0.14467E-01
         0.15733E-01
         0.14944E-01
         0.12957E-01
         0.12546E-01
         0.13645E-01
         0.13339E-01
         0.13160E-01
         0.10295E-01
         0.96314E-02
         0.10931E-01
         0.11974E-01
         0.12551E-01
         0.13987E-01
         0.13266E-01
         0.13714E-01
         0.12016E-01
         0.11253E-01
         0.12158E-01
         0.11752E-01
         0.12207E-01
         0.12082E-01
         0.00000E+00
         0.00000E+00
         0.00000E+00
         0.00000E+00
         0.00000E+00
         0.00000E+00
         0.00000E+00
         0.00000E+00
         0.00000E+00
         0.00000E+00
         0.00000E+00
         0.21677E-02
         0.92214E-03
         0.00000E+00
         0.24999E-02
         0.00000E+00
         0.00000E+00
         0.00000E+00
         0.00000E+00
         0.00000E+00
         0.10493E-02
         0.78337E-03
         0.68647E-03
         0.00000E+00
         0.00000E+00
         0.00000E+00
         0.00000E+00
         0.00000E+00
         0.00000E+00
         0.00000E+00
         0.00000E+00
         0.00000E+00
         0.00000E+00
         0.00000E+00
         0.55389E-03
         0.00000E+00
         0.00000E+00
         0.14981E-02
         0.47350E-03
         0.18968E-03
         0.15230E-02
         0.10794E-02
         0.10864E-02
         0.14087E-03
         0.00000E+00
         0.85195E-03
         0.00000E+00
         0.00000E+00
         0.00000E+00
         0.00000E+00
         0.37805E-03
         0.00000E+00
         0.12343E-01
         0.12745E-01
         0.13524E-01
         0.13405E-01
         0.14465E-01
         0.15727E-01
         0.14936E-01
         0.12952E-01
         0.12542E-01
         0.13640E-01
         0.13336E-01
         0.13161E-01
         0.10295E-01
         0.96312E-02
         0.10933E-01
         0.11979E-01
         0.12557E-01
         0.13991E-01
         0.13265E-01
         0.13713E-01
         0.12014E-01
         0.11252E-01
         0.12153E-01
         0.11742E-01
         0.12199E-01
         0.12074E-01
         0.00000E+00
         0.00000E+00
         0.00000E+00
         0.00000E+00
         0.00000E+00
         0.00000E+00
         0.00000E+00
         0.00000E+00
         0.00000E+00
         0.00000E+00
         0.00000E+00
         0.21677E-02
         0.92401E-03
         0.00000E+00
         0.25057E-02
         0.00000E+00
         0.00000E+00
         0.00000E+00
         0.00000E+00
         0.00000E+00
         0.10500E-02
         0.78336E-03
         0.68690E-03
         0.00000E+00
         0.00000E+00
         0.00000E+00
         0.00000E+00
         0.00000E+00
         0.00000E+00
         0.00000E+00
         0.00000E+00
         0.00000E+00
         0.00000E+00
         0.00000E+00
         0.55573E-03
         0.00000E+00
         0.00000E+00
         0.15054E-02
         0.48181E-03
         0.19467E-03
         0.15266E-02
         0.10819E-02
         0.10875E-02
         0.14172E-03
         0.00000E+00
         0.85257E-03
         0.00000E+00
         0.00000E+00
         0.00000E+00
         0.00000E+00
         0.37640E-03
         0.00000E+00
         0.12337E-01
         0.12741E-01
         0.13523E-01
         0.13405E-01
         0.14462E-01
         0.15720E-01
         0.14928E-01
         0.12948E-01
         0.12539E-01
         0.13635E-01
         0.13333E-01
         0.13163E-01
         0.10294E-01
         0.96309E-02
         0.10935E-01
         0.11984E-01
         0.12562E-01
         0.13995E-01
         0.13264E-01
         0.13712E-01
         0.12013E-01
         0.11251E-01
         0.12147E-01
         0.11732E-01
         0.12190E-01
         0.12066E-01
         0.00000E+00
         0.00000E+00
         0.00000E+00
         0.00000E+00
         0.00000E+00
         0.00000E+00
         0.00000E+00
         0.00000E+00
         0.00000E+00
         0.00000E+00
         0.00000E+00
         0.21677E-02
         0.92582E-03
         0.00000E+00
         0.25115E-02
         0.00000E+00
         0.00000E+00
         0.00000E+00
         0.00000E+00
         0.00000E+00
         0.10507E-02
         0.78331E-03
         0.68729E-03
         0.00000E+00
         0.00000E+00
         0.00000E+00
         0.00000E+00
         0.00000E+00
         0.00000E+00
         0.00000E+00
         0.00000E+00
         0.00000E+00
         0.00000E+00
         0.00000E+00
         0.55757E-03
         0.00000E+00
         0.00000E+00
         0.15127E-02
         0.49014E-03
         0.19969E-03
         0.15302E-02
         0.10844E-02
         0.10885E-02
         0.14267E-03
         0.00000E+00
         0.85323E-03
         0.00000E+00
         0.00000E+00
         0.00000E+00
         0.00000E+00
         0.37474E-03
         0.00000E+00
         0.12331E-01
         0.12737E-01
         0.13523E-01
         0.13405E-01
         0.14459E-01
         0.15714E-01
         0.14920E-01
         0.12943E-01
         0.12535E-01
         0.13629E-01
         0.13331E-01
         0.13164E-01
         0.10294E-01
         0.96307E-02
         0.10938E-01
         0.11989E-01
         0.12568E-01
         0.13999E-01
         0.13263E-01
         0.13711E-01
         0.12012E-01
         0.11251E-01
         0.12142E-01
         0.11723E-01
         0.12181E-01
         0.12058E-01
         0.00000E+00
         0.00000E+00
         0.00000E+00
         0.00000E+00
         0.00000E+00
         0.00000E+00
         0.00000E+00
         0.00000E+00
         0.00000E+00
         0.00000E+00
         0.00000E+00
         0.21678E-02
         0.92760E-03
         0.00000E+00
         0.25173E-02
         0.00000E+00
         0.00000E+00
         0.00000E+00
         0.00000E+00
         0.00000E+00
         0.10514E-02
         0.78328E-03
         0.68774E-03
         0.00000E+00
         0.00000E+00
         0.00000E+00
         0.00000E+00
         0.00000E+00
         0.00000E+00
         0.00000E+00
         0.00000E+00
         0.00000E+00
         0.00000E+00
         0.00000E+00
         0.55934E-03
         0.00000E+00
         0.00000E+00
         0.15200E-02
         0.49846E-03
         0.20448E-03
         0.15336E-02
         0.10866E-02
         0.10895E-02
         0.14359E-03
         0.00000E+00
         0.85387E-03
         0.00000E+00
         0.00000E+00
         0.00000E+00
         0.00000E+00
         0.37315E-03
         0.00000E+00
         0.12326E-01
         0.12733E-01
         0.13523E-01
         0.13405E-01
         0.14456E-01
         0.15707E-01
         0.14913E-01
         0.12939E-01
         0.12531E-01
         0.13623E-01
         0.13328E-01
         0.13165E-01
         0.10294E-01
         0.96305E-02
         0.10940E-01
         0.11994E-01
         0.12573E-01
         0.14003E-01
         0.13262E-01
         0.13710E-01
         0.12010E-01
         0.11250E-01
         0.12137E-01
         0.11713E-01
         0.12173E-01
         0.12050E-01
         0.00000E+00
         0.00000E+00
         0.00000E+00
         0.00000E+00
         0.00000E+00
         0.00000E+00
         0.00000E+00
         0.00000E+00
         0.00000E+00
         0.00000E+00
         0.00000E+00
         0.21678E-02
         0.92947E-03
         0.00000E+00
         0.25232E-02
         0.00000E+00
         0.00000E+00
         0.00000E+00
         0.00000E+00
         0.00000E+00
         0.10522E-02
         0.78318E-03
         0.68816E-03
         0.00000E+00
         0.00000E+00
         0.00000E+00
         0.00000E+00
         0.00000E+00
         0.00000E+00
         0.00000E+00
         0.00000E+00
         0.00000E+00
         0.00000E+00
         0.00000E+00
         0.56119E-03
         0.00000E+00
         0.00000E+00
         0.15274E-02
         0.50672E-03
         0.20920E-03
         0.15368E-02
         0.10886E-02
         0.10903E-02
         0.14449E-03
         0.00000E+00
         0.85454E-03
         0.00000E+00
         0.00000E+00
         0.00000E+00
         0.00000E+00
         0.37143E-03
         0.00000E+00
         0.12320E-01
         0.12730E-01
         0.13522E-01
         0.13405E-01
         0.14453E-01
         0.15701E-01
         0.14905E-01
         0.12934E-01
         0.12527E-01
         0.13617E-01
         0.13325E-01
         0.13168E-01
         0.10294E-01
         0.96303E-02
         0.10942E-01
         0.11999E-01
         0.12579E-01
         0.14007E-01
         0.13261E-01
         0.13709E-01
         0.12009E-01
         0.11249E-01
         0.12131E-01
         0.11703E-01
         0.12164E-01
         0.12042E-01
         0.00000E+00
         0.00000E+00
         0.00000E+00
         0.00000E+00
         0.00000E+00
         0.00000E+00
         0.00000E+00
         0.00000E+00
         0.00000E+00
         0.00000E+00
         0.00000E+00
         0.21679E-02
         0.93126E-03
         0.00000E+00
         0.25290E-02
         0.00000E+00
         0.00000E+00
         0.00000E+00
         0.00000E+00
         0.00000E+00
         0.10529E-02
         0.78310E-03
         0.68851E-03
         0.00000E+00
         0.00000E+00
         0.00000E+00
         0.00000E+00
         0.00000E+00
         0.00000E+00
         0.00000E+00
         0.00000E+00
         0.00000E+00
         0.00000E+00
         0.00000E+00
         0.56306E-03
         0.00000E+00
         0.00000E+00
         0.15347E-02
         0.51498E-03
         0.21373E-03
         0.15398E-02
         0.10906E-02
         0.10912E-02
         0.14540E-03
         0.00000E+00
         0.85519E-03
         0.00000E+00
         0.00000E+00
         0.00000E+00
         0.00000E+00
         0.36986E-03
         0.00000E+00
         0.12314E-01
         0.12726E-01
         0.13522E-01
         0.13406E-01
         0.14450E-01
         0.15694E-01
         0.14897E-01
         0.12930E-01
         0.12523E-01
         0.13611E-01
         0.13323E-01
         0.13170E-01
         0.10294E-01
         0.96301E-02
         0.10944E-01
         0.12004E-01
         0.12584E-01
         0.14011E-01
         0.13260E-01
         0.13708E-01
         0.12008E-01
         0.11248E-01
         0.12126E-01
         0.11693E-01
         0.12156E-01
         0.12033E-01
         0.00000E+00
         0.00000E+00
         0.00000E+00
         0.00000E+00
         0.00000E+00
         0.00000E+00
         0.00000E+00
         0.00000E+00
         0.00000E+00
         0.00000E+00
         0.00000E+00
         0.23074E-02
         0.10740E-02
         0.00000E+00
         0.26743E-02
         0.00000E+00
         0.00000E+00
         0.00000E+00
         0.00000E+00
         0.00000E+00
         0.11719E-02
         0.91005E-03
         0.80625E-03
         0.00000E+00
         0.00000E+00
         0.00000E+00
         0.00000E+00
         0.00000E+00
         0.00000E+00
         0.00000E+00
         0.00000E+00
         0.00000E+00
         0.00000E+00
         0.00000E+00
         0.72278E-03
         0.00000E+00
         0.00000E+00
         0.16884E-02
         0.68949E-03
         0.39262E-03
         0.16841E-02
         0.12305E-02
         0.12175E-02
         0.27174E-03
         0.00000E+00
         0.10050E-02
         0.00000E+00
         0.00000E+00
         0.00000E+00
         0.00000E+00
         0.52060E-03
         0.00000E+00
         0.12463E-01
         0.12870E-01
         0.13671E-01
         0.13548E-01
         0.14593E-01
         0.15842E-01
         0.15047E-01
         0.13089E-01
         0.12685E-01
         0.13774E-01
         0.13482E-01
         0.13320E-01
         0.10429E-01
         0.97563E-02
         0.11069E-01
         0.12131E-01
         0.12712E-01
         0.14149E-01
         0.13411E-01
         0.13859E-01
         0.12146E-01
         0.11383E-01
         0.12259E-01
         0.11823E-01
         0.12283E-01
         0.12162E-01
         0.62889E-02
         0.60766E-02
         0.59246E-02
         0.50531E-02
         0.74443E-02
         0.64988E-02
         0.65431E-02
         0.73146E-02
         0.55685E-02
         0.72719E-02
         0.75034E-02
         0.10729E-01
         0.89751E-02
         0.79955E-02
         0.11368E-01
         0.55502E-02
         0.57476E-02
         0.45930E-02
         0.60947E-02
         0.63870E-02
         0.83091E-02
         0.83268E-02
         0.77241E-02
         0.56728E-02
         0.69636E-02
         0.52945E-02
         0.79608E-02
         0.74376E-02
         0.75360E-02
         0.73055E-02
         0.54915E-02
         0.56148E-02
         0.51040E-02
         0.54281E-02
         0.87361E-02
         0.71912E-02
         0.75370E-02
         0.10388E-01
         0.94809E-02
         0.91826E-02
         0.10203E-01
         0.94124E-02
         0.89132E-02
         0.71782E-02
         0.72817E-02
         0.88983E-02
         0.74520E-02
         0.67396E-02
         0.63865E-02
         0.68246E-02
         0.82499E-02
         0.69571E-02
         0.22353E-01
         0.22456E-01
         0.23446E-01
         0.23067E-01
         0.24371E-01
         0.26153E-01
         0.25721E-01
         0.23901E-01
         0.23560E-01
         0.24767E-01
         0.24184E-01
         0.23360E-01
         0.19634E-01
         0.18510E-01
         0.19658E-01
         0.20658E-01
         0.21274E-01
         0.23316E-01
         0.23227E-01
         0.23722E-01
         0.21465E-01
         0.20494E-01
         0.21598E-01
         0.21155E-01
         0.21455E-01
         0.21255E-01
  
SCALARS                            dam  double 1
LOOKUP_TABLE default
         0.00000E+00
         0.00000E+00
         0.00000E+00
         0.00000E+00
         0.00000E+00
         0.00000E+00
         0.00000E+00
         0.00000E+00
         0.00000E+00
         0.00000E+00
         0.00000E+00
         0.00000E+00
         0.00000E+00
         0.00000E+00
         0.00000E+00
         0.00000E+00
         0.00000E+00
         0.00000E+00
         0.00000E+00
         0.00000E+00
         0.00000E+00
         0.00000E+00
         0.00000E+00
         0.00000E+00
         0.00000E+00
         0.00000E+00
         0.00000E+00
         0.00000E+00
         0.00000E+00
         0.00000E+00
         0.00000E+00
         0.00000E+00
         0.00000E+00
         0.00000E+00
         0.00000E+00
         0.00000E+00
         0.00000E+00
         0.00000E+00
         0.00000E+00
         0.00000E+00
         0.00000E+00
         0.00000E+00
         0.00000E+00
         0.00000E+00
         0.00000E+00
         0.00000E+00
         0.00000E+00
         0.00000E+00
         0.00000E+00
         0.00000E+00
         0.00000E+00
         0.00000E+00
         0.00000E+00
         0.00000E+00
         0.00000E+00
         0.00000E+00
         0.00000E+00
         0.00000E+00
         0.00000E+00
         0.00000E+00
         0.00000E+00
         0.00000E+00
         0.00000E+00
         0.00000E+00
         0.00000E+00
         0.00000E+00
         0.00000E+00
         0.00000E+00
         0.00000E+00
         0.00000E+00
         0.00000E+00
         0.00000E+00
         0.00000E+00
         0.00000E+00
         0.00000E+00
         0.00000E+00
         0.00000E+00
         0.00000E+00
         0.00000E+00
         0.00000E+00
         0.00000E+00
         0.00000E+00
         0.00000E+00
         0.00000E+00
         0.00000E+00
         0.00000E+00
         0.00000E+00
         0.00000E+00
         0.00000E+00
         0.00000E+00
         0.00000E+00
         0.00000E+00
         0.00000E+00
         0.00000E+00
         0.00000E+00
         0.00000E+00
         0.00000E+00
         0.00000E+00
         0.00000E+00
         0.00000E+00
         0.00000E+00
         0.00000E+00
         0.00000E+00
         0.00000E+00
         0.00000E+00
         0.00000E+00
         0.00000E+00
         0.00000E+00
         0.00000E+00
         0.00000E+00
         0.00000E+00
         0.00000E+00
         0.00000E+00
         0.00000E+00
         0.00000E+00
         0.00000E+00
         0.00000E+00
         0.00000E+00
         0.00000E+00
         0.00000E+00
         0.00000E+00
         0.00000E+00
         0.00000E+00
         0.00000E+00
         0.00000E+00
         0.00000E+00
         0.00000E+00
         0.00000E+00
         0.00000E+00
         0.00000E+00
         0.00000E+00
         0.00000E+00
         0.00000E+00
         0.00000E+00
         0.00000E+00
         0.00000E+00
         0.00000E+00
         0.00000E+00
         0.00000E+00
         0.00000E+00
         0.00000E+00
         0.00000E+00
         0.00000E+00
         0.00000E+00
         0.00000E+00
         0.00000E+00
         0.00000E+00
         0.00000E+00
         0.00000E+00
         0.00000E+00
         0.00000E+00
         0.00000E+00
         0.00000E+00
         0.00000E+00
         0.00000E+00
         0.00000E+00
         0.00000E+00
         0.00000E+00
         0.00000E+00
         0.00000E+00
         0.00000E+00
         0.00000E+00
         0.00000E+00
         0.00000E+00
         0.00000E+00
         0.00000E+00
         0.00000E+00
         0.00000E+00
         0.00000E+00
         0.00000E+00
         0.00000E+00
         0.00000E+00
         0.00000E+00
         0.00000E+00
         0.00000E+00
         0.00000E+00
         0.00000E+00
         0.00000E+00
         0.00000E+00
         0.00000E+00
         0.00000E+00
         0.00000E+00
         0.00000E+00
         0.00000E+00
         0.00000E+00
         0.00000E+00
         0.00000E+00
         0.00000E+00
         0.00000E+00
         0.00000E+00
         0.00000E+00
         0.00000E+00
         0.00000E+00
         0.00000E+00
         0.00000E+00
         0.00000E+00
         0.00000E+00
         0.00000E+00
         0.00000E+00
         0.00000E+00
         0.00000E+00
         0.00000E+00
         0.00000E+00
         0.00000E+00
         0.00000E+00
         0.00000E+00
         0.00000E+00
         0.00000E+00
         0.00000E+00
         0.00000E+00
         0.00000E+00
         0.00000E+00
         0.00000E+00
         0.00000E+00
         0.00000E+00
         0.00000E+00
         0.00000E+00
         0.00000E+00
         0.00000E+00
         0.00000E+00
         0.00000E+00
         0.00000E+00
         0.00000E+00
         0.00000E+00
         0.00000E+00
         0.00000E+00
         0.00000E+00
         0.00000E+00
         0.00000E+00
         0.00000E+00
         0.00000E+00
         0.00000E+00
         0.00000E+00
         0.00000E+00
         0.00000E+00
         0.00000E+00
         0.00000E+00
         0.00000E+00
         0.00000E+00
         0.00000E+00
         0.00000E+00
         0.00000E+00
         0.00000E+00
         0.00000E+00
         0.00000E+00
         0.00000E+00
         0.00000E+00
         0.00000E+00
         0.00000E+00
         0.00000E+00
         0.00000E+00
         0.00000E+00
         0.00000E+00
         0.00000E+00
         0.00000E+00
         0.00000E+00
         0.00000E+00
         0.00000E+00
         0.00000E+00
         0.00000E+00
         0.00000E+00
         0.00000E+00
         0.00000E+00
         0.00000E+00
         0.00000E+00
         0.00000E+00
         0.00000E+00
         0.00000E+00
         0.00000E+00
         0.00000E+00
         0.00000E+00
         0.00000E+00
         0.00000E+00
         0.00000E+00
         0.00000E+00
         0.00000E+00
         0.00000E+00
         0.00000E+00
         0.00000E+00
         0.00000E+00
         0.00000E+00
         0.00000E+00
         0.00000E+00
         0.00000E+00
         0.00000E+00
         0.00000E+00
         0.00000E+00
         0.00000E+00
         0.00000E+00
         0.00000E+00
         0.00000E+00
         0.00000E+00
         0.00000E+00
         0.00000E+00
         0.00000E+00
         0.00000E+00
         0.00000E+00
         0.00000E+00
         0.00000E+00
         0.00000E+00
         0.00000E+00
         0.00000E+00
         0.00000E+00
         0.00000E+00
         0.00000E+00
         0.00000E+00
         0.00000E+00
         0.00000E+00
         0.00000E+00
         0.00000E+00
         0.00000E+00
         0.00000E+00
         0.00000E+00
         0.00000E+00
         0.00000E+00
         0.00000E+00
         0.00000E+00
         0.00000E+00
         0.00000E+00
         0.00000E+00
         0.00000E+00
         0.00000E+00
         0.00000E+00
         0.00000E+00
         0.00000E+00
         0.00000E+00
         0.00000E+00
         0.00000E+00
         0.00000E+00
         0.00000E+00
         0.00000E+00
         0.00000E+00
         0.00000E+00
         0.00000E+00
         0.00000E+00
         0.00000E+00
         0.00000E+00
         0.00000E+00
         0.00000E+00
         0.00000E+00
         0.00000E+00
         0.00000E+00
         0.00000E+00
         0.00000E+00
         0.00000E+00
         0.00000E+00
         0.00000E+00
         0.00000E+00
         0.00000E+00
         0.00000E+00
         0.00000E+00
         0.00000E+00
         0.00000E+00
         0.00000E+00
         0.00000E+00
         0.00000E+00
         0.00000E+00
         0.00000E+00
         0.00000E+00
         0.00000E+00
         0.00000E+00
         0.00000E+00
         0.00000E+00
         0.00000E+00
         0.00000E+00
         0.00000E+00
         0.00000E+00
         0.00000E+00
         0.00000E+00
         0.00000E+00
         0.00000E+00
         0.00000E+00
         0.00000E+00
         0.00000E+00
         0.00000E+00
         0.00000E+00
         0.00000E+00
         0.00000E+00
         0.00000E+00
         0.00000E+00
         0.00000E+00
         0.00000E+00
         0.00000E+00
         0.00000E+00
         0.00000E+00
         0.00000E+00
         0.00000E+00
         0.00000E+00
         0.00000E+00
         0.00000E+00
         0.00000E+00
         0.00000E+00
         0.00000E+00
         0.00000E+00
         0.00000E+00
         0.00000E+00
         0.00000E+00
         0.00000E+00
         0.00000E+00
         0.00000E+00
         0.00000E+00
         0.00000E+00
         0.00000E+00
         0.00000E+00
         0.00000E+00
         0.00000E+00
         0.00000E+00
         0.00000E+00
         0.00000E+00
         0.00000E+00
         0.00000E+00
         0.00000E+00
         0.00000E+00
         0.00000E+00
         0.00000E+00
         0.00000E+00
         0.00000E+00
         0.00000E+00
         0.00000E+00
         0.00000E+00
         0.00000E+00
         0.00000E+00
         0.00000E+00
         0.00000E+00
         0.00000E+00
         0.00000E+00
         0.00000E+00
         0.00000E+00
         0.00000E+00
         0.00000E+00
         0.00000E+00
         0.00000E+00
         0.00000E+00
         0.00000E+00
         0.00000E+00
         0.00000E+00
         0.00000E+00
         0.00000E+00
         0.00000E+00
         0.00000E+00
         0.00000E+00
         0.00000E+00
         0.00000E+00
         0.00000E+00
         0.00000E+00
         0.00000E+00
         0.00000E+00
         0.00000E+00
         0.00000E+00
         0.00000E+00
         0.00000E+00
         0.00000E+00
         0.00000E+00
         0.00000E+00
         0.00000E+00
         0.00000E+00
         0.00000E+00
         0.00000E+00
         0.00000E+00
         0.00000E+00
         0.00000E+00
         0.00000E+00
         0.00000E+00
         0.00000E+00
         0.00000E+00
         0.00000E+00
         0.00000E+00
         0.00000E+00
         0.00000E+00
         0.00000E+00
         0.00000E+00
         0.00000E+00
         0.00000E+00
         0.00000E+00
         0.00000E+00
         0.00000E+00
         0.00000E+00
         0.00000E+00
         0.00000E+00
         0.00000E+00
         0.00000E+00
         0.00000E+00
         0.00000E+00
         0.00000E+00
         0.00000E+00
         0.00000E+00
         0.00000E+00
         0.00000E+00
         0.00000E+00
         0.00000E+00
         0.00000E+00
         0.00000E+00
         0.00000E+00
         0.00000E+00
         0.00000E+00
         0.00000E+00
         0.00000E+00
         0.00000E+00
         0.00000E+00
         0.00000E+00
         0.00000E+00
         0.00000E+00
         0.00000E+00
         0.00000E+00
         0.00000E+00
         0.00000E+00
         0.00000E+00
         0.00000E+00
         0.00000E+00
         0.00000E+00
         0.00000E+00
         0.00000E+00
         0.00000E+00
         0.00000E+00
         0.00000E+00
         0.00000E+00
         0.00000E+00
         0.00000E+00
         0.00000E+00
         0.00000E+00
         0.00000E+00
         0.00000E+00
         0.00000E+00
         0.00000E+00
         0.00000E+00
         0.00000E+00
         0.00000E+00
         0.00000E+00
         0.00000E+00
         0.00000E+00
         0.00000E+00
         0.00000E+00
         0.00000E+00
         0.00000E+00
         0.00000E+00
         0.00000E+00
         0.00000E+00
         0.00000E+00
         0.00000E+00
         0.00000E+00
         0.00000E+00
         0.00000E+00
         0.00000E+00
         0.00000E+00
         0.00000E+00
         0.00000E+00
         0.00000E+00
         0.00000E+00
         0.00000E+00
         0.00000E+00
         0.00000E+00
         0.00000E+00
         0.00000E+00
         0.00000E+00
         0.00000E+00
         0.00000E+00
         0.00000E+00
         0.00000E+00
         0.00000E+00
         0.00000E+00
         0.00000E+00
         0.00000E+00
         0.00000E+00
         0.00000E+00
         0.00000E+00
         0.00000E+00
         0.00000E+00
         0.00000E+00
         0.00000E+00
         0.00000E+00
         0.00000E+00
         0.00000E+00
         0.00000E+00
         0.00000E+00
         0.00000E+00
         0.00000E+00
         0.00000E+00
         0.00000E+00
         0.00000E+00
         0.00000E+00
         0.00000E+00
         0.00000E+00
         0.00000E+00
         0.00000E+00
         0.00000E+00
         0.00000E+00
         0.00000E+00
         0.00000E+00
         0.00000E+00
         0.00000E+00
         0.00000E+00
         0.00000E+00
         0.00000E+00
         0.00000E+00
         0.00000E+00
         0.00000E+00
         0.00000E+00
         0.00000E+00
         0.00000E+00
         0.00000E+00
         0.00000E+00
         0.00000E+00
         0.00000E+00
         0.00000E+00
         0.00000E+00
         0.00000E+00
         0.00000E+00
         0.00000E+00
         0.00000E+00
         0.00000E+00
         0.00000E+00
         0.00000E+00
         0.00000E+00
         0.00000E+00
         0.00000E+00
         0.00000E+00
         0.00000E+00
         0.00000E+00
         0.00000E+00
         0.00000E+00
         0.00000E+00
         0.00000E+00
         0.00000E+00
         0.00000E+00
         0.00000E+00
         0.00000E+00
         0.00000E+00
         0.00000E+00
         0.00000E+00
         0.00000E+00
         0.00000E+00
         0.00000E+00
         0.00000E+00
         0.00000E+00
         0.00000E+00
         0.00000E+00
         0.00000E+00
         0.00000E+00
         0.00000E+00
         0.00000E+00
         0.00000E+00
         0.00000E+00
         0.00000E+00
         0.00000E+00
         0.00000E+00
         0.00000E+00
         0.00000E+00
         0.00000E+00
         0.00000E+00
         0.00000E+00
         0.00000E+00
         0.00000E+00
         0.00000E+00
         0.00000E+00
         0.00000E+00
         0.00000E+00
         0.00000E+00
         0.00000E+00
         0.00000E+00
         0.00000E+00
         0.00000E+00
         0.00000E+00
         0.00000E+00
         0.00000E+00
         0.00000E+00
         0.00000E+00
         0.00000E+00
         0.00000E+00
         0.00000E+00
         0.00000E+00
         0.00000E+00
         0.00000E+00
         0.00000E+00
         0.00000E+00
         0.00000E+00
         0.00000E+00
         0.00000E+00
         0.00000E+00
         0.00000E+00
         0.00000E+00
         0.00000E+00
         0.00000E+00
         0.00000E+00
         0.00000E+00
         0.00000E+00
         0.00000E+00
         0.00000E+00
         0.00000E+00
         0.00000E+00
         0.00000E+00
         0.00000E+00
         0.00000E+00
         0.00000E+00
         0.00000E+00
         0.00000E+00
         0.00000E+00
         0.00000E+00
         0.00000E+00
         0.00000E+00
         0.00000E+00
         0.00000E+00
         0.00000E+00
         0.00000E+00
         0.00000E+00
         0.00000E+00
         0.00000E+00
         0.00000E+00
         0.00000E+00
         0.00000E+00
         0.00000E+00
         0.00000E+00
         0.00000E+00
         0.00000E+00
         0.00000E+00
         0.00000E+00
         0.00000E+00
         0.00000E+00
         0.00000E+00
         0.00000E+00
         0.00000E+00
         0.00000E+00
         0.00000E+00
         0.00000E+00
         0.00000E+00
         0.00000E+00
         0.00000E+00
         0.00000E+00
         0.00000E+00
         0.00000E+00
         0.00000E+00
         0.00000E+00
         0.00000E+00
         0.00000E+00
         0.00000E+00
         0.00000E+00
         0.00000E+00
         0.00000E+00
         0.00000E+00
         0.00000E+00
         0.00000E+00
         0.00000E+00
         0.00000E+00
         0.00000E+00
         0.00000E+00
         0.00000E+00
         0.00000E+00
         0.00000E+00
         0.00000E+00
         0.00000E+00
         0.00000E+00
         0.00000E+00
         0.00000E+00
         0.00000E+00
         0.00000E+00
         0.00000E+00
         0.00000E+00
         0.00000E+00
         0.00000E+00
         0.00000E+00
         0.00000E+00
         0.00000E+00
         0.00000E+00
         0.00000E+00
         0.00000E+00
         0.00000E+00
         0.00000E+00
         0.00000E+00
         0.00000E+00
         0.00000E+00
         0.00000E+00
         0.00000E+00
         0.00000E+00
         0.00000E+00
         0.00000E+00
         0.00000E+00
         0.00000E+00
         0.00000E+00
         0.00000E+00
         0.00000E+00
         0.00000E+00
         0.00000E+00
         0.00000E+00
         0.00000E+00
         0.00000E+00
         0.00000E+00
         0.00000E+00
         0.00000E+00
         0.00000E+00
         0.00000E+00
         0.00000E+00
         0.00000E+00
         0.00000E+00
         0.00000E+00
         0.00000E+00
         0.00000E+00
         0.00000E+00
         0.00000E+00
         0.00000E+00
         0.00000E+00
         0.00000E+00
         0.00000E+00
         0.00000E+00
         0.00000E+00
         0.00000E+00
         0.00000E+00
         0.00000E+00
         0.00000E+00
         0.00000E+00
         0.00000E+00
         0.00000E+00
         0.00000E+00
         0.00000E+00
         0.00000E+00
         0.00000E+00
         0.00000E+00
         0.00000E+00
         0.00000E+00
         0.00000E+00
         0.00000E+00
         0.00000E+00
         0.00000E+00
         0.00000E+00
         0.00000E+00
         0.00000E+00
         0.00000E+00
         0.00000E+00
         0.00000E+00
         0.00000E+00
         0.00000E+00
         0.00000E+00
         0.00000E+00
         0.00000E+00
         0.00000E+00
         0.00000E+00
         0.00000E+00
         0.00000E+00
         0.00000E+00
         0.00000E+00
         0.00000E+00
         0.00000E+00
         0.00000E+00
         0.00000E+00
         0.00000E+00
         0.00000E+00
         0.00000E+00
         0.00000E+00
         0.00000E+00
         0.00000E+00
         0.00000E+00
         0.00000E+00
         0.00000E+00
         0.00000E+00
         0.00000E+00
         0.00000E+00
         0.00000E+00
         0.00000E+00
         0.00000E+00
         0.00000E+00
         0.00000E+00
         0.00000E+00
         0.00000E+00
         0.00000E+00
         0.00000E+00
         0.00000E+00
         0.00000E+00
         0.00000E+00
         0.00000E+00
         0.00000E+00
         0.00000E+00
         0.00000E+00
         0.00000E+00
         0.00000E+00
         0.00000E+00
         0.00000E+00
         0.00000E+00
         0.00000E+00
         0.00000E+00
         0.00000E+00
         0.00000E+00
         0.00000E+00
         0.00000E+00
         0.00000E+00
         0.00000E+00
         0.00000E+00
         0.00000E+00
         0.00000E+00
         0.00000E+00
         0.00000E+00
         0.00000E+00
         0.00000E+00
         0.00000E+00
         0.00000E+00
         0.00000E+00
         0.00000E+00
         0.00000E+00
         0.00000E+00
         0.00000E+00
         0.00000E+00
         0.00000E+00
         0.00000E+00
         0.00000E+00
         0.00000E+00
         0.00000E+00
         0.00000E+00
         0.00000E+00
         0.00000E+00
         0.00000E+00
         0.00000E+00
         0.00000E+00
         0.00000E+00
         0.00000E+00
         0.00000E+00
         0.00000E+00
         0.00000E+00
         0.00000E+00
         0.00000E+00
         0.00000E+00
         0.00000E+00
         0.00000E+00
         0.00000E+00
         0.00000E+00
         0.00000E+00
         0.00000E+00
         0.00000E+00
         0.00000E+00
         0.00000E+00
         0.00000E+00
         0.00000E+00
         0.00000E+00
         0.00000E+00
         0.00000E+00
         0.00000E+00
         0.00000E+00
         0.00000E+00
         0.00000E+00
         0.00000E+00
         0.00000E+00
         0.00000E+00
         0.00000E+00
         0.00000E+00
         0.00000E+00
         0.00000E+00
         0.00000E+00
         0.00000E+00
         0.00000E+00
         0.00000E+00
         0.00000E+00
         0.00000E+00
         0.00000E+00
         0.00000E+00
         0.00000E+00
         0.00000E+00
         0.00000E+00
         0.00000E+00
         0.00000E+00
         0.00000E+00
         0.00000E+00
         0.00000E+00
         0.00000E+00
         0.00000E+00
         0.00000E+00
         0.00000E+00
         0.00000E+00
         0.00000E+00
         0.00000E+00
         0.00000E+00
         0.00000E+00
         0.00000E+00
         0.00000E+00
         0.00000E+00
         0.00000E+00
         0.00000E+00
         0.00000E+00
         0.00000E+00
         0.00000E+00
         0.00000E+00
         0.00000E+00
         0.00000E+00
         0.00000E+00
         0.00000E+00
         0.00000E+00
         0.00000E+00
         0.00000E+00
         0.00000E+00
         0.00000E+00
         0.00000E+00
         0.00000E+00
         0.00000E+00
         0.00000E+00
         0.00000E+00
         0.00000E+00
         0.00000E+00
         0.00000E+00
         0.00000E+00
         0.00000E+00
         0.00000E+00
         0.00000E+00
         0.00000E+00
         0.00000E+00
         0.00000E+00
         0.00000E+00
         0.00000E+00
         0.00000E+00
         0.00000E+00
         0.00000E+00
         0.00000E+00
         0.00000E+00
         0.00000E+00
         0.00000E+00
         0.00000E+00
         0.00000E+00
         0.00000E+00
         0.00000E+00
         0.00000E+00
         0.00000E+00
         0.00000E+00
         0.00000E+00
         0.00000E+00
         0.00000E+00
         0.00000E+00
         0.00000E+00
         0.00000E+00
         0.00000E+00
         0.00000E+00
         0.00000E+00
         0.00000E+00
         0.00000E+00
         0.00000E+00
         0.00000E+00
         0.00000E+00
         0.00000E+00
         0.00000E+00
         0.00000E+00
         0.00000E+00
         0.00000E+00
         0.00000E+00
         0.00000E+00
         0.00000E+00
         0.00000E+00
         0.00000E+00
         0.00000E+00
         0.00000E+00
         0.00000E+00
         0.00000E+00
         0.00000E+00
         0.00000E+00
         0.00000E+00
         0.00000E+00
         0.00000E+00
         0.00000E+00
         0.00000E+00
         0.00000E+00
         0.00000E+00
         0.00000E+00
         0.00000E+00
         0.00000E+00
         0.00000E+00
         0.00000E+00
         0.00000E+00
         0.00000E+00
         0.00000E+00
         0.00000E+00
         0.00000E+00
         0.00000E+00
         0.00000E+00
         0.00000E+00
         0.00000E+00
         0.00000E+00
         0.00000E+00
         0.00000E+00
         0.00000E+00
         0.00000E+00
         0.00000E+00
         0.00000E+00
         0.00000E+00
         0.00000E+00
         0.00000E+00
         0.00000E+00
         0.00000E+00
         0.00000E+00
         0.00000E+00
         0.00000E+00
         0.00000E+00
         0.00000E+00
         0.00000E+00
         0.00000E+00
         0.00000E+00
         0.00000E+00
         0.00000E+00
         0.00000E+00
         0.00000E+00
         0.00000E+00
         0.00000E+00
         0.00000E+00
         0.00000E+00
         0.00000E+00
         0.00000E+00
         0.00000E+00
         0.00000E+00
         0.00000E+00
         0.00000E+00
         0.00000E+00
         0.00000E+00
         0.00000E+00
         0.00000E+00
         0.00000E+00
         0.00000E+00
         0.00000E+00
         0.00000E+00
         0.00000E+00
         0.00000E+00
         0.00000E+00
         0.00000E+00
         0.00000E+00
         0.00000E+00
         0.00000E+00
         0.00000E+00
         0.00000E+00
         0.00000E+00
         0.00000E+00
         0.00000E+00
         0.00000E+00
         0.00000E+00
         0.00000E+00
         0.00000E+00
         0.00000E+00
         0.00000E+00
         0.00000E+00
         0.00000E+00
         0.00000E+00
         0.00000E+00
         0.00000E+00
         0.00000E+00
         0.00000E+00
         0.00000E+00
         0.00000E+00
         0.00000E+00
         0.00000E+00
         0.00000E+00
         0.00000E+00
         0.00000E+00
         0.00000E+00
         0.00000E+00
         0.00000E+00
         0.00000E+00
         0.00000E+00
         0.00000E+00
         0.00000E+00
         0.00000E+00
         0.00000E+00
         0.00000E+00
         0.00000E+00
         0.00000E+00
         0.00000E+00
         0.00000E+00
         0.00000E+00
         0.00000E+00
         0.00000E+00
         0.00000E+00
         0.00000E+00
         0.00000E+00
         0.00000E+00
         0.00000E+00
         0.00000E+00
         0.00000E+00
         0.00000E+00
         0.00000E+00
         0.00000E+00
         0.00000E+00
         0.00000E+00
         0.00000E+00
         0.00000E+00
         0.00000E+00
         0.00000E+00
         0.00000E+00
         0.00000E+00
         0.00000E+00
         0.00000E+00
         0.00000E+00
         0.00000E+00
         0.00000E+00
         0.00000E+00
         0.00000E+00
         0.00000E+00
         0.00000E+00
         0.00000E+00
         0.00000E+00
         0.00000E+00
         0.00000E+00
         0.00000E+00
         0.00000E+00
         0.00000E+00
         0.00000E+00
         0.00000E+00
         0.00000E+00
         0.00000E+00
         0.00000E+00
         0.00000E+00
         0.00000E+00
         0.00000E+00
         0.00000E+00
         0.00000E+00
         0.00000E+00
         0.00000E+00
         0.00000E+00
         0.00000E+00
         0.00000E+00
         0.00000E+00
         0.00000E+00
         0.00000E+00
         0.00000E+00
         0.00000E+00
         0.00000E+00
         0.00000E+00
         0.00000E+00
         0.00000E+00
         0.00000E+00
         0.00000E+00
         0.00000E+00
         0.00000E+00
         0.00000E+00
         0.00000E+00
         0.00000E+00
         0.00000E+00
         0.00000E+00
         0.00000E+00
         0.00000E+00
         0.00000E+00
         0.00000E+00
         0.00000E+00
         0.00000E+00
         0.00000E+00
         0.00000E+00
         0.00000E+00
         0.00000E+00
         0.00000E+00
         0.00000E+00
         0.00000E+00
         0.00000E+00
         0.00000E+00
         0.00000E+00
         0.00000E+00
         0.00000E+00
         0.00000E+00
         0.00000E+00
         0.00000E+00
         0.00000E+00
         0.00000E+00
         0.00000E+00
         0.00000E+00
         0.00000E+00
         0.00000E+00
         0.00000E+00
         0.00000E+00
         0.00000E+00
         0.00000E+00
         0.00000E+00
         0.00000E+00
         0.00000E+00
         0.00000E+00
         0.00000E+00
         0.00000E+00
         0.00000E+00
         0.00000E+00
         0.00000E+00
         0.00000E+00
         0.00000E+00
         0.00000E+00
         0.00000E+00
         0.00000E+00
         0.00000E+00
         0.00000E+00
         0.00000E+00
         0.00000E+00
         0.00000E+00
         0.00000E+00
         0.00000E+00
         0.00000E+00
         0.00000E+00
         0.00000E+00
         0.00000E+00
         0.00000E+00
         0.00000E+00
         0.00000E+00
         0.00000E+00
         0.00000E+00
         0.00000E+00
         0.00000E+00
         0.00000E+00
         0.00000E+00
         0.00000E+00
         0.00000E+00
         0.00000E+00
         0.00000E+00
         0.00000E+00
         0.00000E+00
         0.00000E+00
         0.00000E+00
         0.00000E+00
         0.00000E+00
         0.00000E+00
         0.00000E+00
         0.00000E+00
         0.00000E+00
         0.00000E+00
         0.00000E+00
         0.00000E+00
         0.00000E+00
         0.00000E+00
         0.00000E+00
         0.00000E+00
         0.00000E+00
         0.00000E+00
         0.00000E+00
         0.00000E+00
         0.00000E+00
         0.00000E+00
         0.00000E+00
         0.00000E+00
         0.00000E+00
         0.00000E+00
         0.00000E+00
         0.00000E+00
         0.00000E+00
         0.00000E+00
         0.00000E+00
         0.00000E+00
         0.00000E+00
         0.00000E+00
         0.00000E+00
         0.00000E+00
         0.00000E+00
         0.00000E+00
         0.00000E+00
         0.00000E+00
         0.00000E+00
         0.00000E+00
         0.00000E+00
         0.00000E+00
         0.00000E+00
         0.00000E+00
         0.00000E+00
         0.00000E+00
         0.00000E+00
         0.00000E+00
         0.00000E+00
         0.00000E+00
         0.00000E+00
         0.00000E+00
         0.00000E+00
         0.00000E+00
         0.00000E+00
         0.00000E+00
         0.00000E+00
         0.00000E+00
         0.00000E+00
         0.00000E+00
         0.00000E+00
         0.00000E+00
         0.00000E+00
         0.00000E+00
         0.00000E+00
         0.00000E+00
         0.00000E+00
         0.00000E+00
         0.00000E+00
         0.00000E+00
         0.00000E+00
         0.00000E+00
         0.00000E+00
         0.00000E+00
         0.00000E+00
         0.00000E+00
         0.00000E+00
         0.00000E+00
         0.00000E+00
         0.00000E+00
         0.00000E+00
         0.00000E+00
         0.00000E+00
         0.00000E+00
         0.00000E+00
         0.00000E+00
         0.00000E+00
         0.00000E+00
         0.00000E+00
         0.00000E+00
         0.00000E+00
         0.00000E+00
         0.00000E+00
         0.00000E+00
         0.00000E+00
         0.00000E+00
         0.00000E+00
         0.00000E+00
         0.00000E+00
         0.00000E+00
         0.00000E+00
         0.00000E+00
         0.00000E+00
         0.00000E+00
         0.00000E+00
         0.00000E+00
         0.00000E+00
         0.00000E+00
         0.00000E+00
         0.00000E+00
         0.00000E+00
         0.00000E+00
         0.00000E+00
         0.00000E+00
         0.00000E+00
         0.00000E+00
         0.00000E+00
         0.00000E+00
         0.00000E+00
         0.00000E+00
         0.00000E+00
         0.00000E+00
         0.00000E+00
         0.00000E+00
         0.00000E+00
         0.00000E+00
         0.00000E+00
         0.00000E+00
         0.00000E+00
         0.00000E+00
         0.00000E+00
         0.00000E+00
         0.00000E+00
         0.00000E+00
         0.00000E+00
         0.00000E+00
         0.00000E+00
         0.00000E+00
         0.00000E+00
         0.00000E+00
         0.00000E+00
         0.00000E+00
         0.00000E+00
         0.00000E+00
         0.00000E+00
         0.00000E+00
         0.00000E+00
         0.00000E+00
         0.00000E+00
         0.00000E+00
         0.00000E+00
         0.00000E+00
         0.00000E+00
         0.00000E+00
         0.00000E+00
         0.00000E+00
         0.00000E+00
         0.00000E+00
         0.00000E+00
         0.00000E+00
         0.00000E+00
         0.00000E+00
         0.00000E+00
         0.00000E+00
         0.00000E+00
         0.00000E+00
         0.00000E+00
         0.00000E+00
         0.00000E+00
         0.00000E+00
         0.00000E+00
         0.00000E+00
         0.00000E+00
         0.00000E+00
         0.00000E+00
         0.00000E+00
         0.00000E+00
         0.00000E+00
         0.00000E+00
         0.00000E+00
         0.00000E+00
         0.00000E+00
         0.00000E+00
         0.00000E+00
         0.00000E+00
         0.00000E+00
         0.00000E+00
         0.00000E+00
         0.00000E+00
         0.00000E+00
         0.00000E+00
         0.00000E+00
         0.00000E+00
         0.00000E+00
         0.00000E+00
         0.00000E+00
         0.00000E+00
         0.00000E+00
         0.00000E+00
         0.00000E+00
         0.00000E+00
         0.00000E+00
         0.00000E+00
         0.00000E+00
         0.00000E+00
         0.00000E+00
         0.00000E+00
         0.00000E+00
         0.00000E+00
         0.00000E+00
         0.00000E+00
         0.00000E+00
         0.00000E+00
         0.00000E+00
         0.00000E+00
         0.00000E+00
         0.00000E+00
         0.00000E+00
         0.00000E+00
         0.00000E+00
         0.00000E+00
         0.00000E+00
         0.00000E+00
         0.00000E+00
         0.00000E+00
         0.00000E+00
         0.00000E+00
         0.00000E+00
         0.00000E+00
         0.00000E+00
         0.00000E+00
         0.00000E+00
         0.00000E+00
         0.00000E+00
         0.00000E+00
         0.00000E+00
         0.00000E+00
         0.00000E+00
         0.00000E+00
         0.00000E+00
         0.00000E+00
         0.00000E+00
         0.00000E+00
         0.00000E+00
         0.00000E+00
         0.00000E+00
         0.00000E+00
         0.00000E+00
         0.00000E+00
         0.00000E+00
         0.00000E+00
         0.00000E+00
         0.00000E+00
         0.00000E+00
         0.00000E+00
         0.00000E+00
         0.00000E+00
         0.00000E+00
         0.00000E+00
         0.00000E+00
         0.00000E+00
         0.00000E+00
         0.00000E+00
         0.00000E+00
         0.00000E+00
         0.00000E+00
         0.00000E+00
         0.00000E+00
         0.00000E+00
         0.00000E+00
         0.00000E+00
         0.00000E+00
         0.00000E+00
         0.00000E+00
         0.00000E+00
         0.00000E+00
         0.00000E+00
         0.00000E+00
         0.00000E+00
         0.00000E+00
         0.00000E+00
         0.00000E+00
         0.00000E+00
         0.00000E+00
         0.00000E+00
         0.00000E+00
         0.00000E+00
         0.00000E+00
         0.00000E+00
         0.00000E+00
         0.00000E+00
         0.00000E+00
         0.00000E+00
         0.00000E+00
         0.00000E+00
         0.00000E+00
         0.00000E+00
         0.00000E+00
         0.00000E+00
         0.00000E+00
         0.00000E+00
         0.00000E+00
         0.00000E+00
         0.00000E+00
         0.00000E+00
         0.00000E+00
         0.00000E+00
         0.00000E+00
         0.00000E+00
         0.00000E+00
         0.00000E+00
         0.00000E+00
         0.00000E+00
         0.00000E+00
         0.00000E+00
         0.00000E+00
         0.00000E+00
         0.00000E+00
         0.00000E+00
         0.00000E+00
         0.00000E+00
         0.00000E+00
         0.00000E+00
         0.00000E+00
         0.00000E+00
         0.00000E+00
         0.00000E+00
         0.00000E+00
         0.00000E+00
         0.00000E+00
         0.00000E+00
         0.00000E+00
         0.00000E+00
         0.00000E+00
         0.00000E+00
         0.00000E+00
         0.00000E+00
         0.00000E+00
         0.00000E+00
         0.00000E+00
         0.00000E+00
         0.00000E+00
         0.00000E+00
         0.00000E+00
         0.00000E+00
         0.00000E+00
         0.00000E+00
         0.00000E+00
         0.00000E+00
         0.00000E+00
         0.00000E+00
         0.00000E+00
         0.00000E+00
         0.00000E+00
         0.00000E+00
         0.00000E+00
         0.00000E+00
         0.00000E+00
         0.00000E+00
         0.00000E+00
         0.00000E+00
         0.00000E+00
         0.00000E+00
         0.00000E+00
         0.00000E+00
         0.00000E+00
         0.00000E+00
         0.00000E+00
         0.00000E+00
         0.00000E+00
         0.00000E+00
         0.00000E+00
         0.00000E+00
         0.00000E+00
         0.00000E+00
         0.00000E+00
         0.00000E+00
         0.00000E+00
         0.00000E+00
         0.00000E+00
         0.00000E+00
         0.00000E+00
         0.00000E+00
         0.00000E+00
         0.00000E+00
         0.00000E+00
         0.00000E+00
         0.00000E+00
         0.00000E+00
         0.00000E+00
         0.00000E+00
         0.00000E+00
         0.00000E+00
         0.00000E+00
         0.00000E+00
         0.00000E+00
         0.00000E+00
         0.00000E+00
         0.00000E+00
         0.00000E+00
         0.00000E+00
         0.00000E+00
         0.00000E+00
         0.00000E+00
         0.00000E+00
         0.00000E+00
         0.00000E+00
         0.00000E+00
         0.00000E+00
         0.00000E+00
         0.00000E+00
         0.00000E+00
         0.00000E+00
         0.00000E+00
         0.00000E+00
         0.00000E+00
         0.00000E+00
         0.00000E+00
         0.00000E+00
         0.00000E+00
         0.00000E+00
         0.00000E+00
         0.00000E+00
         0.00000E+00
         0.00000E+00
         0.00000E+00
         0.00000E+00
         0.00000E+00
         0.00000E+00
         0.00000E+00
         0.00000E+00
         0.00000E+00
         0.00000E+00
         0.00000E+00
         0.00000E+00
         0.00000E+00
         0.00000E+00
         0.00000E+00
         0.00000E+00
         0.00000E+00
         0.00000E+00
         0.00000E+00
         0.00000E+00
         0.00000E+00
         0.00000E+00
         0.00000E+00
         0.00000E+00
         0.00000E+00
         0.00000E+00
         0.00000E+00
         0.00000E+00
         0.00000E+00
         0.00000E+00
         0.00000E+00
         0.00000E+00
         0.00000E+00
         0.00000E+00
         0.00000E+00
         0.00000E+00
         0.00000E+00
         0.00000E+00
         0.00000E+00
         0.00000E+00
         0.00000E+00
         0.00000E+00
         0.00000E+00
         0.00000E+00
         0.00000E+00
         0.00000E+00
         0.00000E+00
         0.00000E+00
         0.00000E+00
         0.00000E+00
         0.00000E+00
         0.00000E+00
         0.00000E+00
         0.00000E+00
         0.00000E+00
         0.00000E+00
         0.00000E+00
         0.00000E+00
         0.00000E+00
         0.00000E+00
         0.00000E+00
         0.00000E+00
         0.00000E+00
         0.00000E+00
         0.00000E+00
         0.00000E+00
         0.00000E+00
         0.00000E+00
         0.00000E+00
         0.00000E+00
         0.00000E+00
         0.00000E+00
         0.00000E+00
         0.00000E+00
         0.00000E+00
         0.00000E+00
         0.00000E+00
         0.00000E+00
         0.00000E+00
         0.00000E+00
         0.00000E+00
         0.00000E+00
         0.00000E+00
         0.00000E+00
         0.00000E+00
         0.00000E+00
         0.00000E+00
         0.00000E+00
         0.00000E+00
         0.00000E+00
         0.00000E+00
         0.00000E+00
         0.00000E+00
         0.00000E+00
         0.00000E+00
         0.00000E+00
         0.00000E+00
         0.00000E+00
         0.00000E+00
         0.00000E+00
         0.00000E+00
         0.00000E+00
         0.00000E+00
         0.00000E+00
         0.00000E+00
         0.00000E+00
         0.00000E+00
         0.00000E+00
         0.00000E+00
         0.00000E+00
         0.00000E+00
         0.00000E+00
         0.00000E+00
         0.00000E+00
         0.00000E+00
         0.00000E+00
         0.00000E+00
         0.00000E+00
         0.00000E+00
         0.00000E+00
         0.00000E+00
         0.00000E+00
         0.00000E+00
         0.00000E+00
         0.00000E+00
         0.00000E+00
         0.00000E+00
         0.00000E+00
         0.00000E+00
         0.00000E+00
         0.00000E+00
         0.00000E+00
         0.00000E+00
         0.00000E+00
         0.00000E+00
         0.00000E+00
         0.00000E+00
         0.00000E+00
         0.00000E+00
         0.00000E+00
         0.00000E+00
         0.00000E+00
         0.00000E+00
         0.00000E+00
         0.00000E+00
         0.00000E+00
         0.00000E+00
         0.00000E+00
         0.00000E+00
         0.00000E+00
         0.00000E+00
         0.00000E+00
         0.00000E+00
         0.00000E+00
         0.00000E+00
         0.00000E+00
         0.00000E+00
         0.00000E+00
         0.00000E+00
         0.00000E+00
         0.00000E+00
         0.00000E+00
         0.00000E+00
         0.00000E+00
         0.00000E+00
         0.00000E+00
         0.00000E+00
         0.00000E+00
         0.00000E+00
         0.00000E+00
         0.00000E+00
         0.00000E+00
         0.00000E+00
         0.00000E+00
         0.00000E+00
         0.00000E+00
         0.00000E+00
         0.00000E+00
         0.00000E+00
         0.00000E+00
         0.00000E+00
         0.00000E+00
         0.00000E+00
         0.00000E+00
         0.00000E+00
         0.00000E+00
         0.00000E+00
         0.00000E+00
         0.00000E+00
         0.00000E+00
         0.00000E+00
         0.00000E+00
         0.00000E+00
         0.00000E+00
         0.00000E+00
         0.00000E+00
         0.00000E+00
         0.00000E+00
         0.00000E+00
         0.00000E+00
         0.00000E+00
         0.00000E+00
         0.00000E+00
         0.00000E+00
         0.00000E+00
         0.00000E+00
         0.00000E+00
         0.00000E+00
         0.00000E+00
         0.00000E+00
         0.00000E+00
         0.00000E+00
         0.00000E+00
         0.00000E+00
         0.00000E+00
         0.00000E+00
         0.00000E+00
         0.00000E+00
         0.00000E+00
         0.00000E+00
         0.00000E+00
         0.00000E+00
         0.00000E+00
         0.00000E+00
         0.00000E+00
         0.00000E+00
         0.00000E+00
         0.00000E+00
         0.00000E+00
         0.00000E+00
  
SCALARS           initial_coordinate_x  double 1
LOOKUP_TABLE default
         0.10378E-02
         0.17452E-02
         0.23177E-02
         0.16698E-02
         0.10379E-02
         0.17453E-02
         0.23178E-02
         0.16700E-02
         0.30377E-02
         0.27791E-02
         0.30377E-02
         0.27788E-02
         0.12850E-02
         0.65139E-03
         0.12851E-02
         0.65164E-03
         0.12757E-03
        -0.12822E-03
         0.12783E-03
        -0.12804E-03
         0.94500E-03
         0.11327E-02
         0.17490E-02
         0.94533E-03
         0.11330E-02
         0.17494E-02
         0.40588E-03
         0.39779E-03
         0.40594E-03
         0.39781E-03
        -0.76303E-03
        -0.86604E-03
         0.46119E-03
        -0.76268E-03
        -0.86593E-03
         0.46164E-03
        -0.18300E-02
        -0.18440E-02
        -0.18297E-02
        -0.18441E-02
        -0.27238E-02
        -0.28028E-02
        -0.27238E-02
        -0.28031E-02
        -0.25365E-02
        -0.19287E-02
        -0.25363E-02
        -0.19283E-02
        -0.99363E-03
        -0.99377E-03
        -0.14380E-02
        -0.14377E-02
        -0.31574E-03
        -0.31594E-03
        -0.11068E-02
        -0.11071E-02
        -0.18845E-02
        -0.18713E-02
        -0.18846E-02
        -0.18714E-02
        -0.15871E-03
        -0.94089E-03
        -0.15844E-03
        -0.94029E-03
         0.78856E-03
         0.78922E-03
         0.17211E-02
         0.17211E-02
         0.32050E-02
         0.28046E-02
         0.32047E-02
         0.28047E-02
         0.23059E-02
         0.23060E-02
        -0.40614E-03
        -0.40627E-03
        -0.12092E-02
        -0.12092E-02
        -0.19448E-02
        -0.19448E-02
        -0.25029E-02
        -0.26371E-02
        -0.25029E-02
        -0.26372E-02
        -0.27671E-02
        -0.27674E-02
        -0.21123E-02
        -0.21122E-02
        -0.16087E-02
        -0.16087E-02
        -0.11939E-02
        -0.58641E-03
        -0.11937E-02
        -0.58606E-03
         0.20912E-03
         0.20952E-03
         0.10586E-02
         0.10589E-02
         0.18413E-02
         0.18413E-02
         0.24544E-02
         0.26022E-02
         0.24543E-02
         0.26021E-02
         0.37964E-02
         0.39100E-02
         0.37964E-02
         0.39100E-02
         0.34621E-02
         0.34621E-02
         0.29267E-02
         0.29267E-02
         0.22211E-02
         0.22211E-02
         0.13865E-02
         0.13865E-02
         0.47130E-03
         0.47130E-03
        -0.47130E-03
        -0.47130E-03
        -0.13865E-02
        -0.13865E-02
        -0.22211E-02
        -0.22211E-02
        -0.29267E-02
        -0.29267E-02
        -0.34621E-02
        -0.34621E-02
        -0.37964E-02
        -0.37964E-02
        -0.39100E-02
        -0.39100E-02
        -0.37964E-02
        -0.37964E-02
        -0.34621E-02
        -0.34621E-02
        -0.29267E-02
        -0.29267E-02
        -0.22211E-02
        -0.22211E-02
        -0.13865E-02
        -0.13865E-02
        -0.47130E-03
        -0.47130E-03
         0.47130E-03
         0.47130E-03
         0.13865E-02
         0.13865E-02
         0.22211E-02
         0.22211E-02
         0.29267E-02
         0.29267E-02
         0.34621E-02
         0.34621E-02
         0.37964E-02
         0.37964E-02
         0.10376E-02
         0.17450E-02
         0.23175E-02
         0.16696E-02
         0.30377E-02
         0.27795E-02
         0.12849E-02
         0.65115E-03
         0.12731E-03
        -0.12841E-03
         0.94467E-03
         0.11323E-02
         0.17487E-02
         0.40583E-03
         0.39777E-03
        -0.76338E-03
        -0.86615E-03
         0.46074E-03
        -0.18303E-02
        -0.18439E-02
        -0.27238E-02
        -0.28025E-02
        -0.25366E-02
        -0.19292E-02
        -0.99349E-03
        -0.14384E-02
        -0.31554E-03
        -0.11064E-02
        -0.18845E-02
        -0.18712E-02
        -0.15899E-03
        -0.94149E-03
         0.78790E-03
         0.17210E-02
         0.32053E-02
         0.28046E-02
         0.23058E-02
        -0.40600E-03
        -0.12092E-02
        -0.19447E-02
        -0.25028E-02
        -0.26370E-02
        -0.27668E-02
        -0.21125E-02
        -0.16088E-02
        -0.11940E-02
        -0.58676E-03
         0.20871E-03
         0.10583E-02
         0.18413E-02
         0.24545E-02
         0.26022E-02
         0.37964E-02
         0.39100E-02
         0.34621E-02
         0.29267E-02
         0.22211E-02
         0.13865E-02
         0.47130E-03
        -0.47130E-03
        -0.13865E-02
        -0.22211E-02
        -0.29267E-02
        -0.34621E-02
        -0.37964E-02
        -0.39100E-02
        -0.37964E-02
        -0.34621E-02
        -0.29267E-02
        -0.22211E-02
        -0.13865E-02
        -0.47130E-03
         0.47130E-03
         0.13865E-02
         0.22211E-02
         0.29267E-02
         0.34621E-02
         0.37964E-02
         0.10375E-02
         0.17448E-02
         0.23174E-02
         0.16694E-02
         0.30377E-02
         0.27798E-02
         0.12848E-02
         0.65090E-03
         0.12705E-03
        -0.12859E-03
         0.94434E-03
         0.11320E-02
         0.17483E-02
         0.40577E-03
         0.39776E-03
        -0.76374E-03
        -0.86626E-03
         0.46029E-03
        -0.18306E-02
        -0.18438E-02
        -0.27238E-02
        -0.28022E-02
        -0.25368E-02
        -0.19296E-02
        -0.99334E-03
        -0.14387E-02
        -0.31534E-03
        -0.11061E-02
        -0.18844E-02
        -0.18710E-02
        -0.15926E-03
        -0.94209E-03
         0.78724E-03
         0.17210E-02
         0.32056E-02
         0.28046E-02
         0.23057E-02
        -0.40586E-03
        -0.12092E-02
        -0.19447E-02
        -0.25028E-02
        -0.26369E-02
        -0.27665E-02
        -0.21126E-02
        -0.16088E-02
        -0.11941E-02
        -0.58711E-03
         0.20830E-03
         0.10580E-02
         0.18414E-02
         0.24546E-02
         0.26023E-02
         0.37964E-02
         0.39100E-02
         0.34621E-02
         0.29267E-02
         0.22211E-02
         0.13865E-02
         0.47130E-03
        -0.47130E-03
        -0.13865E-02
        -0.22211E-02
        -0.29267E-02
        -0.34621E-02
        -0.37964E-02
        -0.39100E-02
        -0.37964E-02
        -0.34621E-02
        -0.29267E-02
        -0.22211E-02
        -0.13865E-02
        -0.47130E-03
         0.47130E-03
         0.13865E-02
         0.22211E-02
         0.29267E-02
         0.34621E-02
         0.37964E-02
         0.10374E-02
         0.17446E-02
         0.23173E-02
         0.16692E-02
         0.30376E-02
         0.27801E-02
         0.12847E-02
         0.65065E-03
         0.12678E-03
        -0.12878E-03
         0.94401E-03
         0.11316E-02
         0.17479E-02
         0.40572E-03
         0.39774E-03
        -0.76409E-03
        -0.86637E-03
         0.45985E-03
        -0.18309E-02
        -0.18437E-02
        -0.27237E-02
        -0.28020E-02
        -0.25369E-02
        -0.19300E-02
        -0.99320E-03
        -0.14391E-02
        -0.31514E-03
        -0.11057E-02
        -0.18844E-02
        -0.18709E-02
        -0.15954E-03
        -0.94269E-03
         0.78658E-03
         0.17209E-02
         0.32060E-02
         0.28046E-02
         0.23056E-02
        -0.40572E-03
        -0.12092E-02
        -0.19446E-02
        -0.25028E-02
        -0.26368E-02
        -0.27662E-02
        -0.21128E-02
        -0.16088E-02
        -0.11942E-02
        -0.58746E-03
         0.20790E-03
         0.10577E-02
         0.18414E-02
         0.24548E-02
         0.26024E-02
         0.37964E-02
         0.39100E-02
         0.34621E-02
         0.29267E-02
         0.22211E-02
         0.13865E-02
         0.47130E-03
        -0.47130E-03
        -0.13865E-02
        -0.22211E-02
        -0.29267E-02
        -0.34621E-02
        -0.37964E-02
        -0.39100E-02
        -0.37964E-02
        -0.34621E-02
        -0.29267E-02
        -0.22211E-02
        -0.13865E-02
        -0.47130E-03
         0.47130E-03
         0.13865E-02
         0.22211E-02
         0.29267E-02
         0.34621E-02
         0.37964E-02
         0.10373E-02
         0.17445E-02
         0.23172E-02
         0.16689E-02
         0.30376E-02
         0.27805E-02
         0.12846E-02
         0.65041E-03
         0.12652E-03
        -0.12896E-03
         0.94367E-03
         0.11313E-02
         0.17475E-02
         0.40566E-03
         0.39772E-03
        -0.76444E-03
        -0.86648E-03
         0.45940E-03
        -0.18312E-02
        -0.18436E-02
        -0.27237E-02
        -0.28017E-02
        -0.25371E-02
        -0.19305E-02
        -0.99305E-03
        -0.14394E-02
        -0.31494E-03
        -0.11054E-02
        -0.18843E-02
        -0.18708E-02
        -0.15981E-03
        -0.94328E-03
         0.78592E-03
         0.17209E-02
         0.32063E-02
         0.28045E-02
         0.23055E-02
        -0.40558E-03
        -0.12092E-02
        -0.19446E-02
        -0.25027E-02
        -0.26367E-02
        -0.27658E-02
        -0.21129E-02
        -0.16089E-02
        -0.11943E-02
        -0.58781E-03
         0.20749E-03
         0.10574E-02
         0.18415E-02
         0.24549E-02
         0.26025E-02
         0.37964E-02
         0.39100E-02
         0.34621E-02
         0.29267E-02
         0.22211E-02
         0.13865E-02
         0.47130E-03
        -0.47130E-03
        -0.13865E-02
        -0.22211E-02
        -0.29267E-02
        -0.34621E-02
        -0.37964E-02
        -0.39100E-02
        -0.37964E-02
        -0.34621E-02
        -0.29267E-02
        -0.22211E-02
        -0.13865E-02
        -0.47130E-03
         0.47130E-03
         0.13865E-02
         0.22211E-02
         0.29267E-02
         0.34621E-02
         0.37964E-02
         0.10372E-02
         0.17443E-02
         0.23171E-02
         0.16687E-02
         0.30376E-02
         0.27808E-02
         0.12845E-02
         0.65016E-03
         0.12626E-03
        -0.12915E-03
         0.94334E-03
         0.11310E-02
         0.17471E-02
         0.40561E-03
         0.39770E-03
        -0.76480E-03
        -0.86659E-03
         0.45895E-03
        -0.18315E-02
        -0.18435E-02
        -0.27237E-02
        -0.28014E-02
        -0.25372E-02
        -0.19309E-02
        -0.99291E-03
        -0.14398E-02
        -0.31474E-03
        -0.11051E-02
        -0.18843E-02
        -0.18706E-02
        -0.16009E-03
        -0.94388E-03
         0.78526E-03
         0.17208E-02
         0.32066E-02
         0.28045E-02
         0.23053E-02
        -0.40545E-03
        -0.12092E-02
        -0.19446E-02
        -0.25027E-02
        -0.26366E-02
        -0.27655E-02
        -0.21130E-02
        -0.16089E-02
        -0.11944E-02
        -0.58816E-03
         0.20709E-03
         0.10571E-02
         0.18415E-02
         0.24550E-02
         0.26025E-02
         0.37964E-02
         0.39100E-02
         0.34621E-02
         0.29267E-02
         0.22211E-02
         0.13865E-02
         0.47130E-03
        -0.47130E-03
        -0.13865E-02
        -0.22211E-02
        -0.29267E-02
        -0.34621E-02
        -0.37964E-02
        -0.39100E-02
        -0.37964E-02
        -0.34621E-02
        -0.29267E-02
        -0.22211E-02
        -0.13865E-02
        -0.47130E-03
         0.47130E-03
         0.13865E-02
         0.22211E-02
         0.29267E-02
         0.34621E-02
         0.37964E-02
         0.10371E-02
         0.17441E-02
         0.23169E-02
         0.16685E-02
         0.30376E-02
         0.27812E-02
         0.12844E-02
         0.64992E-03
         0.12600E-03
        -0.12933E-03
         0.94301E-03
         0.11306E-02
         0.17467E-02
         0.40556E-03
         0.39769E-03
        -0.76515E-03
        -0.86670E-03
         0.45850E-03
        -0.18318E-02
        -0.18434E-02
        -0.27236E-02
        -0.28011E-02
        -0.25374E-02
        -0.19313E-02
        -0.99277E-03
        -0.14401E-02
        -0.31454E-03
        -0.11047E-02
        -0.18842E-02
        -0.18705E-02
        -0.16036E-03
        -0.94448E-03
         0.78460E-03
         0.17208E-02
         0.32070E-02
         0.28045E-02
         0.23052E-02
        -0.40531E-03
        -0.12092E-02
        -0.19445E-02
        -0.25027E-02
        -0.26366E-02
        -0.27652E-02
        -0.21132E-02
        -0.16090E-02
        -0.11946E-02
        -0.58851E-03
         0.20668E-03
         0.10567E-02
         0.18416E-02
         0.24551E-02
         0.26026E-02
         0.37964E-02
         0.39100E-02
         0.34621E-02
         0.29267E-02
         0.22211E-02
         0.13865E-02
         0.47130E-03
        -0.47130E-03
        -0.13865E-02
        -0.22211E-02
        -0.29267E-02
        -0.34621E-02
        -0.37964E-02
        -0.39100E-02
        -0.37964E-02
        -0.34621E-02
        -0.29267E-02
        -0.22211E-02
        -0.13865E-02
        -0.47130E-03
         0.47130E-03
         0.13865E-02
         0.22211E-02
         0.29267E-02
         0.34621E-02
         0.37964E-02
         0.10370E-02
         0.17439E-02
         0.23168E-02
         0.16683E-02
         0.30375E-02
         0.27815E-02
         0.12843E-02
         0.64967E-03
         0.12573E-03
        -0.12952E-03
         0.94268E-03
         0.11303E-02
         0.17463E-02
         0.40550E-03
         0.39767E-03
        -0.76551E-03
        -0.86680E-03
         0.45806E-03
        -0.18321E-02
        -0.18433E-02
        -0.27236E-02
        -0.28009E-02
        -0.25375E-02
        -0.19317E-02
        -0.99262E-03
        -0.14405E-02
        -0.31434E-03
        -0.11044E-02
        -0.18842E-02
        -0.18704E-02
        -0.16064E-03
        -0.94508E-03
         0.78394E-03
         0.17208E-02
         0.32073E-02
         0.28045E-02
         0.23051E-02
        -0.40517E-03
        -0.12092E-02
        -0.19445E-02
        -0.25026E-02
        -0.26365E-02
        -0.27649E-02
        -0.21133E-02
        -0.16090E-02
        -0.11947E-02
        -0.58886E-03
         0.20627E-03
         0.10564E-02
         0.18416E-02
         0.24553E-02
         0.26027E-02
         0.37964E-02
         0.39100E-02
         0.34621E-02
         0.29267E-02
         0.22211E-02
         0.13865E-02
         0.47130E-03
        -0.47130E-03
        -0.13865E-02
        -0.22211E-02
        -0.29267E-02
        -0.34621E-02
        -0.37964E-02
        -0.39100E-02
        -0.37964E-02
        -0.34621E-02
        -0.29267E-02
        -0.22211E-02
        -0.13865E-02
        -0.47130E-03
         0.47130E-03
         0.13865E-02
         0.22211E-02
         0.29267E-02
         0.34621E-02
         0.37964E-02
         0.10368E-02
         0.17438E-02
         0.23167E-02
         0.16681E-02
         0.30375E-02
         0.27819E-02
         0.12842E-02
         0.64943E-03
         0.12547E-03
        -0.12970E-03
         0.94235E-03
         0.11300E-02
         0.17459E-02
         0.40545E-03
         0.39766E-03
        -0.76586E-03
        -0.86691E-03
         0.45761E-03
        -0.18324E-02
        -0.18432E-02
        -0.27236E-02
        -0.28006E-02
        -0.25377E-02
        -0.19322E-02
        -0.99248E-03
        -0.14408E-02
        -0.31414E-03
        -0.11040E-02
        -0.18841E-02
        -0.18703E-02
        -0.16091E-03
        -0.94568E-03
         0.78328E-03
         0.17207E-02
         0.32076E-02
         0.28044E-02
         0.23050E-02
        -0.40503E-03
        -0.12092E-02
        -0.19445E-02
        -0.25026E-02
        -0.26364E-02
        -0.27646E-02
        -0.21134E-02
        -0.16091E-02
        -0.11948E-02
        -0.58921E-03
         0.20587E-03
         0.10561E-02
         0.18416E-02
         0.24554E-02
         0.26027E-02
         0.37964E-02
         0.39100E-02
         0.34621E-02
         0.29267E-02
         0.22211E-02
         0.13865E-02
         0.47130E-03
        -0.47130E-03
        -0.13865E-02
        -0.22211E-02
        -0.29267E-02
        -0.34621E-02
        -0.37964E-02
        -0.39100E-02
        -0.37964E-02
        -0.34621E-02
        -0.29267E-02
        -0.22211E-02
        -0.13865E-02
        -0.47130E-03
         0.47130E-03
         0.13865E-02
         0.22211E-02
         0.29267E-02
         0.34621E-02
         0.37964E-02
         0.10367E-02
         0.17436E-02
         0.23166E-02
         0.16679E-02
         0.30375E-02
         0.27822E-02
         0.12841E-02
         0.64918E-03
         0.12521E-03
        -0.12989E-03
         0.94202E-03
         0.11296E-02
         0.17455E-02
         0.40539E-03
         0.39764E-03
        -0.76621E-03
        -0.86702E-03
         0.45716E-03
        -0.18326E-02
        -0.18431E-02
        -0.27235E-02
        -0.28003E-02
        -0.25379E-02
        -0.19326E-02
        -0.99233E-03
        -0.14412E-02
        -0.31394E-03
        -0.11037E-02
        -0.18841E-02
        -0.18701E-02
        -0.16119E-03
        -0.94628E-03
         0.78262E-03
         0.17207E-02
         0.32079E-02
         0.28044E-02
         0.23049E-02
        -0.40490E-03
        -0.12093E-02
        -0.19444E-02
        -0.25026E-02
        -0.26363E-02
        -0.27643E-02
        -0.21136E-02
        -0.16091E-02
        -0.11949E-02
        -0.58956E-03
         0.20546E-03
         0.10558E-02
         0.18417E-02
         0.24555E-02
         0.26028E-02
         0.37964E-02
         0.39100E-02
         0.34621E-02
         0.29267E-02
         0.22211E-02
         0.13865E-02
         0.47130E-03
        -0.47130E-03
        -0.13865E-02
        -0.22211E-02
        -0.29267E-02
        -0.34621E-02
        -0.37964E-02
        -0.39100E-02
        -0.37964E-02
        -0.34621E-02
        -0.29267E-02
        -0.22211E-02
        -0.13865E-02
        -0.47130E-03
         0.47130E-03
         0.13865E-02
         0.22211E-02
         0.29267E-02
         0.34621E-02
         0.37964E-02
         0.10366E-02
         0.17434E-02
         0.23164E-02
         0.16677E-02
         0.30375E-02
         0.27825E-02
         0.12840E-02
         0.64894E-03
         0.12495E-03
        -0.13007E-03
         0.94169E-03
         0.11293E-02
         0.17451E-02
         0.40534E-03
         0.39762E-03
        -0.76657E-03
        -0.86713E-03
         0.45671E-03
        -0.18329E-02
        -0.18430E-02
        -0.27235E-02
        -0.28001E-02
        -0.25380E-02
        -0.19330E-02
        -0.99219E-03
        -0.14415E-02
        -0.31374E-03
        -0.11033E-02
        -0.18840E-02
        -0.18700E-02
        -0.16146E-03
        -0.94687E-03
         0.78195E-03
         0.17207E-02
         0.32083E-02
         0.28044E-02
         0.23048E-02
        -0.40476E-03
        -0.12093E-02
        -0.19444E-02
        -0.25026E-02
        -0.26362E-02
        -0.27640E-02
        -0.21137E-02
        -0.16091E-02
        -0.11950E-02
        -0.58991E-03
         0.20505E-03
         0.10555E-02
         0.18417E-02
         0.24556E-02
         0.26029E-02
         0.37964E-02
         0.39100E-02
         0.34621E-02
         0.29267E-02
         0.22211E-02
         0.13865E-02
         0.47130E-03
        -0.47130E-03
        -0.13865E-02
        -0.22211E-02
        -0.29267E-02
        -0.34621E-02
        -0.37964E-02
        -0.39100E-02
        -0.37964E-02
        -0.34621E-02
        -0.29267E-02
        -0.22211E-02
        -0.13865E-02
        -0.47130E-03
         0.47130E-03
         0.13865E-02
         0.22211E-02
         0.29267E-02
         0.34621E-02
         0.37964E-02
         0.10365E-02
         0.17432E-02
         0.23163E-02
         0.16675E-02
         0.30374E-02
         0.27829E-02
         0.12839E-02
         0.64869E-03
         0.12468E-03
        -0.13026E-03
         0.94135E-03
         0.11289E-02
         0.17447E-02
         0.40528E-03
         0.39760E-03
        -0.76692E-03
        -0.86724E-03
         0.45626E-03
        -0.18332E-02
        -0.18430E-02
        -0.27235E-02
        -0.27998E-02
        -0.25382E-02
        -0.19334E-02
        -0.99205E-03
        -0.14419E-02
        -0.31354E-03
        -0.11030E-02
        -0.18840E-02
        -0.18699E-02
        -0.16174E-03
        -0.94747E-03
         0.78129E-03
         0.17206E-02
         0.32086E-02
         0.28044E-02
         0.23047E-02
        -0.40462E-03
        -0.12093E-02
        -0.19444E-02
        -0.25025E-02
        -0.26361E-02
        -0.27637E-02
        -0.21139E-02
        -0.16092E-02
        -0.11951E-02
        -0.59025E-03
         0.20465E-03
         0.10552E-02
         0.18418E-02
         0.24558E-02
         0.26030E-02
         0.37964E-02
         0.39100E-02
         0.34621E-02
         0.29267E-02
         0.22211E-02
         0.13865E-02
         0.47130E-03
        -0.47130E-03
        -0.13865E-02
        -0.22211E-02
        -0.29267E-02
        -0.34621E-02
        -0.37964E-02
        -0.39100E-02
        -0.37964E-02
        -0.34621E-02
        -0.29267E-02
        -0.22211E-02
        -0.13865E-02
        -0.47130E-03
         0.47130E-03
         0.13865E-02
         0.22211E-02
         0.29267E-02
         0.34621E-02
         0.37964E-02
         0.10364E-02
         0.17430E-02
         0.23162E-02
         0.16672E-02
         0.30374E-02
         0.27832E-02
         0.12838E-02
         0.64845E-03
         0.12442E-03
        -0.13044E-03
         0.94102E-03
         0.11286E-02
         0.17443E-02
         0.40523E-03
         0.39759E-03
        -0.76727E-03
        -0.86735E-03
         0.45582E-03
        -0.18335E-02
        -0.18429E-02
        -0.27235E-02
        -0.27995E-02
        -0.25383E-02
        -0.19339E-02
        -0.99190E-03
        -0.14422E-02
        -0.31334E-03
        -0.11026E-02
        -0.18839E-02
        -0.18697E-02
        -0.16201E-03
        -0.94807E-03
         0.78063E-03
         0.17206E-02
         0.32089E-02
         0.28043E-02
         0.23046E-02
        -0.40448E-03
        -0.12093E-02
        -0.19443E-02
        -0.25025E-02
        -0.26360E-02
        -0.27633E-02
        -0.21140E-02
        -0.16092E-02
        -0.11953E-02
        -0.59060E-03
         0.20424E-03
         0.10549E-02
         0.18418E-02
         0.24559E-02
         0.26030E-02
         0.37964E-02
         0.39100E-02
         0.34621E-02
         0.29267E-02
         0.22211E-02
         0.13865E-02
         0.47130E-03
        -0.47130E-03
        -0.13865E-02
        -0.22211E-02
        -0.29267E-02
        -0.34621E-02
        -0.37964E-02
        -0.39100E-02
        -0.37964E-02
        -0.34621E-02
        -0.29267E-02
        -0.22211E-02
        -0.13865E-02
        -0.47130E-03
         0.47130E-03
         0.13865E-02
         0.22211E-02
         0.29267E-02
         0.34621E-02
         0.37964E-02
         0.10363E-02
         0.17429E-02
         0.23161E-02
         0.16670E-02
         0.30374E-02
         0.27836E-02
         0.12837E-02
         0.64820E-03
         0.12416E-03
        -0.13063E-03
         0.94069E-03
         0.11282E-02
         0.17439E-02
         0.40518E-03
         0.39757E-03
        -0.76763E-03
        -0.86746E-03
         0.45537E-03
        -0.18338E-02
        -0.18428E-02
        -0.27234E-02
        -0.27992E-02
        -0.25385E-02
        -0.19343E-02
        -0.99176E-03
        -0.14425E-02
        -0.31314E-03
        -0.11023E-02
        -0.18839E-02
        -0.18696E-02
        -0.16229E-03
        -0.94867E-03
         0.77997E-03
         0.17205E-02
         0.32092E-02
         0.28043E-02
         0.23044E-02
        -0.40434E-03
        -0.12093E-02
        -0.19443E-02
        -0.25025E-02
        -0.26359E-02
        -0.27630E-02
        -0.21141E-02
        -0.16093E-02
        -0.11954E-02
        -0.59095E-03
         0.20384E-03
         0.10546E-02
         0.18419E-02
         0.24560E-02
         0.26031E-02
         0.37964E-02
         0.39100E-02
         0.34621E-02
         0.29267E-02
         0.22211E-02
         0.13865E-02
         0.47130E-03
        -0.47130E-03
        -0.13865E-02
        -0.22211E-02
        -0.29267E-02
        -0.34621E-02
        -0.37964E-02
        -0.39100E-02
        -0.37964E-02
        -0.34621E-02
        -0.29267E-02
        -0.22211E-02
        -0.13865E-02
        -0.47130E-03
         0.47130E-03
         0.13865E-02
         0.22211E-02
         0.29267E-02
         0.34621E-02
         0.37964E-02
         0.10362E-02
         0.17427E-02
         0.23160E-02
         0.16668E-02
         0.30373E-02
         0.27839E-02
         0.12836E-02
         0.64796E-03
         0.12390E-03
        -0.13082E-03
         0.94036E-03
         0.11279E-02
         0.17435E-02
         0.40512E-03
         0.39755E-03
        -0.76798E-03
        -0.86756E-03
         0.45492E-03
        -0.18341E-02
        -0.18427E-02
        -0.27234E-02
        -0.27990E-02
        -0.25386E-02
        -0.19347E-02
        -0.99161E-03
        -0.14429E-02
        -0.31294E-03
        -0.11019E-02
        -0.18838E-02
        -0.18695E-02
        -0.16256E-03
        -0.94927E-03
         0.77931E-03
         0.17205E-02
         0.32096E-02
         0.28043E-02
         0.23043E-02
        -0.40420E-03
        -0.12093E-02
        -0.19443E-02
        -0.25024E-02
        -0.26358E-02
        -0.27627E-02
        -0.21143E-02
        -0.16093E-02
        -0.11955E-02
        -0.59130E-03
         0.20343E-03
         0.10543E-02
         0.18419E-02
         0.24561E-02
         0.26032E-02
         0.37964E-02
         0.39100E-02
         0.34621E-02
         0.29267E-02
         0.22211E-02
         0.13865E-02
         0.47130E-03
        -0.47130E-03
        -0.13865E-02
        -0.22211E-02
        -0.29267E-02
        -0.34621E-02
        -0.37964E-02
        -0.39100E-02
        -0.37964E-02
        -0.34621E-02
        -0.29267E-02
        -0.22211E-02
        -0.13865E-02
        -0.47130E-03
         0.47130E-03
         0.13865E-02
         0.22211E-02
         0.29267E-02
         0.34621E-02
         0.37964E-02
         0.10360E-02
         0.17425E-02
         0.23158E-02
         0.16666E-02
         0.30373E-02
         0.27842E-02
         0.12835E-02
         0.64771E-03
         0.12363E-03
        -0.13100E-03
         0.94003E-03
         0.11276E-02
         0.17432E-02
         0.40507E-03
         0.39754E-03
        -0.76834E-03
        -0.86767E-03
         0.45447E-03
        -0.18344E-02
        -0.18426E-02
        -0.27234E-02
        -0.27987E-02
        -0.25388E-02
        -0.19352E-02
        -0.99147E-03
        -0.14433E-02
        -0.31274E-03
        -0.11016E-02
        -0.18838E-02
        -0.18694E-02
        -0.16284E-03
        -0.94986E-03
         0.77865E-03
         0.17205E-02
         0.32099E-02
         0.28042E-02
         0.23042E-02
        -0.40407E-03
        -0.12093E-02
        -0.19442E-02
        -0.25024E-02
        -0.26358E-02
        -0.27624E-02
        -0.21144E-02
        -0.16094E-02
        -0.11956E-02
        -0.59165E-03
         0.20302E-03
         0.10540E-02
         0.18419E-02
         0.24563E-02
         0.26033E-02
         0.37964E-02
         0.39100E-02
         0.34621E-02
         0.29267E-02
         0.22211E-02
         0.13865E-02
         0.47130E-03
        -0.47130E-03
        -0.13865E-02
        -0.22211E-02
        -0.29267E-02
        -0.34621E-02
        -0.37964E-02
        -0.39100E-02
        -0.37964E-02
        -0.34621E-02
        -0.29267E-02
        -0.22211E-02
        -0.13865E-02
        -0.47130E-03
         0.47130E-03
         0.13865E-02
         0.22211E-02
         0.29267E-02
         0.34621E-02
         0.37964E-02
         0.10359E-02
         0.17423E-02
         0.23157E-02
         0.16664E-02
         0.30373E-02
         0.27846E-02
         0.12834E-02
         0.64747E-03
         0.12337E-03
        -0.13118E-03
         0.93970E-03
         0.11272E-02
         0.17428E-02
         0.40501E-03
         0.39752E-03
        -0.76869E-03
        -0.86778E-03
         0.45402E-03
        -0.18347E-02
        -0.18425E-02
        -0.27234E-02
        -0.27984E-02
        -0.25389E-02
        -0.19356E-02
        -0.99133E-03
        -0.14436E-02
        -0.31254E-03
        -0.11013E-02
        -0.18837E-02
        -0.18692E-02
        -0.16311E-03
        -0.95046E-03
         0.77799E-03
         0.17204E-02
         0.32102E-02
         0.28042E-02
         0.23041E-02
        -0.40393E-03
        -0.12093E-02
        -0.19442E-02
        -0.25024E-02
        -0.26357E-02
        -0.27621E-02
        -0.21146E-02
        -0.16094E-02
        -0.11957E-02
        -0.59200E-03
         0.20262E-03
         0.10536E-02
         0.18420E-02
         0.24564E-02
         0.26033E-02
         0.37964E-02
         0.39100E-02
         0.34621E-02
         0.29267E-02
         0.22211E-02
         0.13865E-02
         0.47130E-03
        -0.47130E-03
        -0.13865E-02
        -0.22211E-02
        -0.29267E-02
        -0.34621E-02
        -0.37964E-02
        -0.39100E-02
        -0.37964E-02
        -0.34621E-02
        -0.29267E-02
        -0.22211E-02
        -0.13865E-02
        -0.47130E-03
         0.47130E-03
         0.13865E-02
         0.22211E-02
         0.29267E-02
         0.34621E-02
         0.37964E-02
         0.10358E-02
         0.17422E-02
         0.23156E-02
         0.16662E-02
         0.30373E-02
         0.27849E-02
         0.12833E-02
         0.64722E-03
         0.12311E-03
        -0.13137E-03
         0.93937E-03
         0.11269E-02
         0.17424E-02
         0.40496E-03
         0.39750E-03
        -0.76904E-03
        -0.86789E-03
         0.45358E-03
        -0.18350E-02
        -0.18424E-02
        -0.27233E-02
        -0.27981E-02
        -0.25391E-02
        -0.19360E-02
        -0.99118E-03
        -0.14440E-02
        -0.31234E-03
        -0.11009E-02
        -0.18836E-02
        -0.18691E-02
        -0.16339E-03
        -0.95106E-03
         0.77733E-03
         0.17204E-02
         0.32105E-02
         0.28042E-02
         0.23040E-02
        -0.40379E-03
        -0.12093E-02
        -0.19441E-02
        -0.25023E-02
        -0.26356E-02
        -0.27618E-02
        -0.21147E-02
        -0.16094E-02
        -0.11958E-02
        -0.59235E-03
         0.20221E-03
         0.10533E-02
         0.18420E-02
         0.24565E-02
         0.26034E-02
         0.37964E-02
         0.39100E-02
         0.34621E-02
         0.29267E-02
         0.22211E-02
         0.13865E-02
         0.47130E-03
        -0.47130E-03
        -0.13865E-02
        -0.22211E-02
        -0.29267E-02
        -0.34621E-02
        -0.37964E-02
        -0.39100E-02
        -0.37964E-02
        -0.34621E-02
        -0.29267E-02
        -0.22211E-02
        -0.13865E-02
        -0.47130E-03
         0.47130E-03
         0.13865E-02
         0.22211E-02
         0.29267E-02
         0.34621E-02
         0.37964E-02
         0.10357E-02
         0.17420E-02
         0.23155E-02
         0.16660E-02
         0.30372E-02
         0.27853E-02
         0.12832E-02
         0.64698E-03
         0.12285E-03
        -0.13155E-03
         0.93903E-03
         0.11266E-02
         0.17420E-02
         0.40490E-03
         0.39749E-03
        -0.76940E-03
        -0.86800E-03
         0.45313E-03
        -0.18353E-02
        -0.18423E-02
        -0.27233E-02
        -0.27979E-02
        -0.25393E-02
        -0.19365E-02
        -0.99104E-03
        -0.14443E-02
        -0.31214E-03
        -0.11006E-02
        -0.18836E-02
        -0.18690E-02
        -0.16366E-03
        -0.95166E-03
         0.77667E-03
         0.17203E-02
         0.32109E-02
         0.28042E-02
         0.23039E-02
        -0.40365E-03
        -0.12093E-02
        -0.19441E-02
        -0.25023E-02
        -0.26355E-02
        -0.27615E-02
        -0.21148E-02
        -0.16095E-02
        -0.11960E-02
        -0.59270E-03
         0.20180E-03
         0.10530E-02
         0.18421E-02
         0.24566E-02
         0.26035E-02
         0.37964E-02
         0.39100E-02
         0.34621E-02
         0.29267E-02
         0.22211E-02
         0.13865E-02
         0.47130E-03
        -0.47130E-03
        -0.13865E-02
        -0.22211E-02
        -0.29267E-02
        -0.34621E-02
        -0.37964E-02
        -0.39100E-02
        -0.37964E-02
        -0.34621E-02
        -0.29267E-02
        -0.22211E-02
        -0.13865E-02
        -0.47130E-03
         0.47130E-03
         0.13865E-02
         0.22211E-02
         0.29267E-02
         0.34621E-02
         0.37964E-02
         0.10356E-02
         0.17418E-02
         0.23153E-02
         0.16657E-02
         0.30372E-02
         0.27856E-02
         0.12830E-02
         0.64673E-03
         0.12259E-03
        -0.13174E-03
         0.93870E-03
         0.11262E-02
         0.17416E-02
         0.40485E-03
         0.39747E-03
        -0.76975E-03
        -0.86811E-03
         0.45268E-03
        -0.18356E-02
        -0.18422E-02
        -0.27233E-02
        -0.27976E-02
        -0.25394E-02
        -0.19369E-02
        -0.99090E-03
        -0.14446E-02
        -0.31194E-03
        -0.11002E-02
        -0.18835E-02
        -0.18689E-02
        -0.16394E-03
        -0.95226E-03
         0.77601E-03
         0.17203E-02
         0.32112E-02
         0.28042E-02
         0.23038E-02
        -0.40352E-03
        -0.12093E-02
        -0.19441E-02
        -0.25023E-02
        -0.26354E-02
        -0.27612E-02
        -0.21150E-02
        -0.16095E-02
        -0.11961E-02
        -0.59305E-03
         0.20140E-03
         0.10527E-02
         0.18421E-02
         0.24568E-02
         0.26036E-02
         0.37964E-02
         0.39100E-02
         0.34621E-02
         0.29267E-02
         0.22211E-02
         0.13865E-02
         0.47130E-03
        -0.47130E-03
        -0.13865E-02
        -0.22211E-02
        -0.29267E-02
        -0.34621E-02
        -0.37964E-02
        -0.39100E-02
        -0.37964E-02
        -0.34621E-02
        -0.29267E-02
        -0.22211E-02
        -0.13865E-02
        -0.47130E-03
         0.47130E-03
         0.13865E-02
         0.22211E-02
         0.29267E-02
         0.34621E-02
         0.37964E-02
         0.10355E-02
         0.17416E-02
         0.23152E-02
         0.16655E-02
         0.30372E-02
         0.27860E-02
         0.12829E-02
         0.64649E-03
         0.12232E-03
        -0.13193E-03
         0.93837E-03
         0.11259E-02
         0.17412E-02
         0.40480E-03
         0.39745E-03
        -0.77011E-03
        -0.86822E-03
         0.45223E-03
        -0.18359E-02
        -0.18421E-02
        -0.27232E-02
        -0.27973E-02
        -0.25396E-02
        -0.19373E-02
        -0.99075E-03
        -0.14450E-02
        -0.31173E-03
        -0.10999E-02
        -0.18835E-02
        -0.18687E-02
        -0.16421E-03
        -0.95285E-03
         0.77535E-03
         0.17202E-02
         0.32115E-02
         0.28041E-02
         0.23037E-02
        -0.40338E-03
        -0.12093E-02
        -0.19440E-02
        -0.25023E-02
        -0.26353E-02
        -0.27609E-02
        -0.21151E-02
        -0.16096E-02
        -0.11962E-02
        -0.59340E-03
         0.20099E-03
         0.10524E-02
         0.18422E-02
         0.24569E-02
         0.26036E-02
         0.37964E-02
         0.39100E-02
         0.34621E-02
         0.29267E-02
         0.22211E-02
         0.13865E-02
         0.47130E-03
        -0.47130E-03
        -0.13865E-02
        -0.22211E-02
        -0.29267E-02
        -0.34621E-02
        -0.37964E-02
        -0.39100E-02
        -0.37964E-02
        -0.34621E-02
        -0.29267E-02
        -0.22211E-02
        -0.13865E-02
        -0.47130E-03
         0.47130E-03
         0.13865E-02
         0.22211E-02
         0.29267E-02
         0.34621E-02
         0.37964E-02
         0.10354E-02
         0.17414E-02
         0.23151E-02
         0.16653E-02
         0.30372E-02
         0.27863E-02
         0.12829E-02
         0.64624E-03
         0.12206E-03
        -0.13211E-03
         0.93804E-03
         0.11255E-02
         0.17408E-02
         0.40474E-03
         0.39744E-03
        -0.77046E-03
        -0.86832E-03
         0.45179E-03
        -0.18362E-02
        -0.18420E-02
        -0.27232E-02
        -0.27970E-02
        -0.25397E-02
        -0.19377E-02
        -0.99061E-03
        -0.14453E-02
        -0.31153E-03
        -0.10995E-02
        -0.18834E-02
        -0.18686E-02
        -0.16449E-03
        -0.95345E-03
         0.77469E-03
         0.17202E-02
         0.32119E-02
         0.28041E-02
         0.23036E-02
        -0.40324E-03
        -0.12093E-02
        -0.19440E-02
        -0.25022E-02
        -0.26352E-02
        -0.27606E-02
        -0.21152E-02
        -0.16096E-02
        -0.11963E-02
        -0.59375E-03
         0.20059E-03
         0.10521E-02
         0.18422E-02
         0.24570E-02
         0.26037E-02
         0.37964E-02
         0.39100E-02
         0.34621E-02
         0.29267E-02
         0.22211E-02
         0.13865E-02
         0.47130E-03
        -0.47130E-03
        -0.13865E-02
        -0.22211E-02
        -0.29267E-02
        -0.34621E-02
        -0.37964E-02
        -0.39100E-02
        -0.37964E-02
        -0.34621E-02
        -0.29267E-02
        -0.22211E-02
        -0.13865E-02
        -0.47130E-03
         0.47130E-03
         0.13865E-02
         0.22211E-02
         0.29267E-02
         0.34621E-02
         0.37964E-02
         0.10352E-02
         0.17413E-02
         0.23150E-02
         0.16651E-02
         0.30371E-02
         0.27866E-02
         0.12827E-02
         0.64600E-03
         0.12180E-03
        -0.13230E-03
         0.93771E-03
         0.11252E-02
         0.17404E-02
         0.40469E-03
         0.39742E-03
        -0.77081E-03
        -0.86843E-03
         0.45134E-03
        -0.18365E-02
        -0.18419E-02
        -0.27232E-02
        -0.27968E-02
        -0.25399E-02
        -0.19382E-02
        -0.99046E-03
        -0.14457E-02
        -0.31133E-03
        -0.10992E-02
        -0.18834E-02
        -0.18685E-02
        -0.16476E-03
        -0.95405E-03
         0.77402E-03
         0.17202E-02
         0.32122E-02
         0.28041E-02
         0.23034E-02
        -0.40310E-03
        -0.12093E-02
        -0.19440E-02
        -0.25022E-02
        -0.26351E-02
        -0.27602E-02
        -0.21154E-02
        -0.16097E-02
        -0.11964E-02
        -0.59409E-03
         0.20018E-03
         0.10518E-02
         0.18422E-02
         0.24571E-02
         0.26038E-02
         0.37964E-02
         0.39100E-02
         0.34621E-02
         0.29267E-02
         0.22211E-02
         0.13865E-02
         0.47130E-03
        -0.47130E-03
        -0.13865E-02
        -0.22211E-02
        -0.29267E-02
        -0.34621E-02
        -0.37964E-02
        -0.39100E-02
        -0.37964E-02
        -0.34621E-02
        -0.29267E-02
        -0.22211E-02
        -0.13865E-02
        -0.47130E-03
         0.47130E-03
         0.13865E-02
         0.22211E-02
         0.29267E-02
         0.34621E-02
         0.37964E-02
         0.10351E-02
         0.17411E-02
         0.23149E-02
         0.16649E-02
         0.30371E-02
         0.27870E-02
         0.12826E-02
         0.64575E-03
         0.12154E-03
        -0.13248E-03
         0.93738E-03
         0.11249E-02
         0.17400E-02
         0.40463E-03
         0.39740E-03
        -0.77117E-03
        -0.86854E-03
         0.45089E-03
        -0.18368E-02
        -0.18418E-02
        -0.27232E-02
        -0.27965E-02
        -0.25400E-02
        -0.19386E-02
        -0.99032E-03
        -0.14460E-02
        -0.31113E-03
        -0.10988E-02
        -0.18833E-02
        -0.18683E-02
        -0.16504E-03
        -0.95465E-03
         0.77336E-03
         0.17201E-02
         0.32125E-02
         0.28041E-02
         0.23033E-02
        -0.40296E-03
        -0.12093E-02
        -0.19439E-02
        -0.25022E-02
        -0.26350E-02
        -0.27599E-02
        -0.21155E-02
        -0.16097E-02
        -0.11965E-02
        -0.59444E-03
         0.19977E-03
         0.10515E-02
         0.18423E-02
         0.24573E-02
         0.26039E-02
         0.37964E-02
         0.39100E-02
         0.34621E-02
         0.29267E-02
         0.22211E-02
         0.13865E-02
         0.47130E-03
        -0.47130E-03
        -0.13865E-02
        -0.22211E-02
        -0.29267E-02
        -0.34621E-02
        -0.37964E-02
        -0.39100E-02
        -0.37964E-02
        -0.34621E-02
        -0.29267E-02
        -0.22211E-02
        -0.13865E-02
        -0.47130E-03
         0.47130E-03
         0.13865E-02
         0.22211E-02
         0.29267E-02
         0.34621E-02
         0.37964E-02
  
SCALARS           initial_coordinate_y  double 1
LOOKUP_TABLE default
         0.67292E-03
         0.12308E-02
         0.59151E-03
        -0.33775E-03
         0.67237E-03
         0.12301E-02
         0.59098E-03
        -0.33851E-03
         0.14882E-03
        -0.67643E-03
         0.14846E-03
        -0.67692E-03
         0.18412E-02
         0.14576E-02
         0.18410E-02
         0.14566E-02
         0.29933E-03
         0.11672E-02
         0.29819E-03
         0.11655E-02
         0.22748E-02
         0.28286E-02
         0.24238E-02
         0.22746E-02
         0.28291E-02
         0.24236E-02
         0.21685E-02
         0.29366E-02
         0.21684E-02
         0.29369E-02
        -0.10033E-02
         0.78969E-04
        -0.70318E-03
        -0.10032E-02
         0.78160E-04
        -0.70391E-03
        -0.71196E-03
         0.82749E-04
        -0.71210E-03
         0.82626E-04
        -0.77865E-03
         0.40713E-04
        -0.77882E-03
         0.40439E-04
        -0.15195E-02
        -0.13230E-02
        -0.15195E-02
        -0.13231E-02
         0.98847E-03
         0.98712E-03
        -0.17325E-02
        -0.17325E-02
         0.20220E-02
         0.20217E-02
         0.18615E-02
         0.18616E-02
         0.17175E-02
         0.90940E-03
         0.17175E-02
         0.90916E-03
        -0.19800E-02
        -0.23489E-02
        -0.19800E-02
        -0.23489E-02
        -0.17074E-02
        -0.17074E-02
        -0.14894E-02
        -0.14892E-02
         0.76036E-03
         0.12477E-02
         0.75936E-03
         0.12473E-02
         0.18665E-02
         0.18664E-02
         0.29038E-02
         0.29049E-02
         0.27207E-02
         0.27212E-02
         0.24642E-02
         0.24645E-02
         0.22359E-02
         0.16503E-02
         0.22359E-02
         0.16503E-02
         0.87493E-03
         0.87466E-03
        -0.21373E-02
        -0.21373E-02
        -0.26931E-02
        -0.26931E-02
        -0.31291E-02
        -0.30382E-02
        -0.31291E-02
        -0.30382E-02
        -0.28748E-02
        -0.28748E-02
        -0.26423E-02
        -0.26420E-02
        -0.23707E-02
        -0.23705E-02
        -0.21445E-02
        -0.15105E-02
        -0.21439E-02
        -0.15106E-02
         0.93572E-03
         0.00000E+00
         0.93572E-03
         0.00000E+00
         0.18171E-02
         0.18171E-02
         0.25928E-02
         0.25928E-02
         0.32179E-02
         0.32179E-02
         0.36559E-02
         0.36559E-02
         0.38815E-02
         0.38815E-02
         0.38815E-02
         0.38815E-02
         0.36559E-02
         0.36559E-02
         0.32179E-02
         0.32179E-02
         0.25928E-02
         0.25928E-02
         0.18171E-02
         0.18171E-02
         0.93572E-03
         0.93572E-03
         0.22152E-17
        -0.47884E-18
        -0.93572E-03
        -0.93572E-03
        -0.18171E-02
        -0.18171E-02
        -0.25928E-02
        -0.25928E-02
        -0.32179E-02
        -0.32179E-02
        -0.36559E-02
        -0.36559E-02
        -0.38815E-02
        -0.38815E-02
        -0.38815E-02
        -0.38815E-02
        -0.36559E-02
        -0.36559E-02
        -0.32179E-02
        -0.32179E-02
        -0.25928E-02
        -0.25928E-02
        -0.18171E-02
        -0.18171E-02
        -0.93572E-03
        -0.93572E-03
         0.67348E-03
         0.12314E-02
         0.59203E-03
        -0.33700E-03
         0.14918E-03
        -0.67594E-03
         0.18414E-02
         0.14586E-02
         0.30048E-03
         0.11690E-02
         0.22749E-02
         0.28282E-02
         0.24239E-02
         0.21685E-02
         0.29364E-02
        -0.10035E-02
         0.79778E-04
        -0.70245E-03
        -0.71182E-03
         0.82873E-04
        -0.77848E-03
         0.40986E-04
        -0.15194E-02
        -0.13228E-02
         0.98983E-03
        -0.17324E-02
         0.20223E-02
         0.18614E-02
         0.17175E-02
         0.90964E-03
        -0.19800E-02
        -0.23489E-02
        -0.17074E-02
        -0.14896E-02
         0.76137E-03
         0.12481E-02
         0.18665E-02
         0.29027E-02
         0.27202E-02
         0.24640E-02
         0.22359E-02
         0.16503E-02
         0.87519E-03
        -0.21373E-02
        -0.26932E-02
        -0.31291E-02
        -0.30382E-02
        -0.28748E-02
        -0.26426E-02
        -0.23709E-02
        -0.21450E-02
        -0.15104E-02
         0.93572E-03
         0.00000E+00
         0.18171E-02
         0.25928E-02
         0.32179E-02
         0.36559E-02
         0.38815E-02
         0.38815E-02
         0.36559E-02
         0.32179E-02
         0.25928E-02
         0.18171E-02
         0.93572E-03
        -0.47884E-18
        -0.93572E-03
        -0.18171E-02
        -0.25928E-02
        -0.32179E-02
        -0.36559E-02
        -0.38815E-02
        -0.38815E-02
        -0.36559E-02
        -0.32179E-02
        -0.25928E-02
        -0.18171E-02
        -0.93572E-03
         0.67403E-03
         0.12321E-02
         0.59255E-03
        -0.33624E-03
         0.14955E-03
        -0.67544E-03
         0.18415E-02
         0.14596E-02
         0.30163E-03
         0.11707E-02
         0.22750E-02
         0.28277E-02
         0.24241E-02
         0.21685E-02
         0.29361E-02
        -0.10036E-02
         0.80588E-04
        -0.70173E-03
        -0.71168E-03
         0.82996E-04
        -0.77831E-03
         0.41259E-04
        -0.15194E-02
        -0.13227E-02
         0.99119E-03
        -0.17324E-02
         0.20226E-02
         0.18613E-02
         0.17175E-02
         0.90988E-03
        -0.19801E-02
        -0.23490E-02
        -0.17074E-02
        -0.14899E-02
         0.76237E-03
         0.12485E-02
         0.18666E-02
         0.29017E-02
         0.27198E-02
         0.24638E-02
         0.22359E-02
         0.16503E-02
         0.87545E-03
        -0.21374E-02
        -0.26932E-02
        -0.31291E-02
        -0.30382E-02
        -0.28748E-02
        -0.26428E-02
        -0.23711E-02
        -0.21456E-02
        -0.15103E-02
         0.93572E-03
         0.00000E+00
         0.18171E-02
         0.25928E-02
         0.32179E-02
         0.36559E-02
         0.38815E-02
         0.38815E-02
         0.36559E-02
         0.32179E-02
         0.25928E-02
         0.18171E-02
         0.93572E-03
         0.39516E-17
        -0.93572E-03
        -0.18171E-02
        -0.25928E-02
        -0.32179E-02
        -0.36559E-02
        -0.38815E-02
        -0.38815E-02
        -0.36559E-02
        -0.32179E-02
        -0.25928E-02
        -0.18171E-02
        -0.93572E-03
         0.67459E-03
         0.12328E-02
         0.59308E-03
        -0.33549E-03
         0.14991E-03
        -0.67495E-03
         0.18417E-02
         0.14606E-02
         0.30278E-03
         0.11725E-02
         0.22752E-02
         0.28273E-02
         0.24242E-02
         0.21686E-02
         0.29359E-02
        -0.10038E-02
         0.81397E-04
        -0.70100E-03
        -0.71154E-03
         0.83120E-04
        -0.77814E-03
         0.41533E-04
        -0.15193E-02
        -0.13227E-02
         0.99254E-03
        -0.17324E-02
         0.20228E-02
         0.18611E-02
         0.17175E-02
         0.91012E-03
        -0.19801E-02
        -0.23490E-02
        -0.17074E-02
        -0.14901E-02
         0.76338E-03
         0.12490E-02
         0.18666E-02
         0.29006E-02
         0.27193E-02
         0.24636E-02
         0.22359E-02
         0.16503E-02
         0.87571E-03
        -0.21374E-02
        -0.26932E-02
        -0.31291E-02
        -0.30382E-02
        -0.28748E-02
        -0.26431E-02
        -0.23713E-02
        -0.21461E-02
        -0.15102E-02
         0.93572E-03
         0.00000E+00
         0.18171E-02
         0.25928E-02
         0.32179E-02
         0.36559E-02
         0.38815E-02
         0.38815E-02
         0.36559E-02
         0.32179E-02
         0.25928E-02
         0.18171E-02
         0.93572E-03
        -0.47884E-18
        -0.93572E-03
        -0.18171E-02
        -0.25928E-02
        -0.32179E-02
        -0.36559E-02
        -0.38815E-02
        -0.38815E-02
        -0.36559E-02
        -0.32179E-02
        -0.25928E-02
        -0.18171E-02
        -0.93572E-03
         0.67514E-03
         0.12334E-02
         0.59360E-03
        -0.33474E-03
         0.15027E-03
        -0.67446E-03
         0.18419E-02
         0.14616E-02
         0.30393E-03
         0.11742E-02
         0.22753E-02
         0.28269E-02
         0.24244E-02
         0.21686E-02
         0.29356E-02
        -0.10039E-02
         0.82206E-04
        -0.70028E-03
        -0.71140E-03
         0.83243E-04
        -0.77797E-03
         0.41806E-04
        -0.15193E-02
        -0.13226E-02
         0.99390E-03
        -0.17323E-02
         0.20231E-02
         0.18610E-02
         0.17175E-02
         0.91036E-03
        -0.19801E-02
        -0.23490E-02
        -0.17074E-02
        -0.14904E-02
         0.76439E-03
         0.12494E-02
         0.18666E-02
         0.28995E-02
         0.27188E-02
         0.24633E-02
         0.22359E-02
         0.16503E-02
         0.87597E-03
        -0.21374E-02
        -0.26932E-02
        -0.31291E-02
        -0.30382E-02
        -0.28748E-02
        -0.26434E-02
        -0.23715E-02
        -0.21467E-02
        -0.15101E-02
         0.93572E-03
         0.00000E+00
         0.18171E-02
         0.25928E-02
         0.32179E-02
         0.36559E-02
         0.38815E-02
         0.38815E-02
         0.36559E-02
         0.32179E-02
         0.25928E-02
         0.18171E-02
         0.93572E-03
        -0.47884E-18
        -0.93572E-03
        -0.18171E-02
        -0.25928E-02
        -0.32179E-02
        -0.36559E-02
        -0.38815E-02
        -0.38815E-02
        -0.36559E-02
        -0.32179E-02
        -0.25928E-02
        -0.18171E-02
        -0.93572E-03
         0.67570E-03
         0.12341E-02
         0.59412E-03
        -0.33398E-03
         0.15064E-03
        -0.67396E-03
         0.18421E-02
         0.14626E-02
         0.30507E-03
         0.11760E-02
         0.22754E-02
         0.28264E-02
         0.24245E-02
         0.21686E-02
         0.29353E-02
        -0.10040E-02
         0.83015E-04
        -0.69955E-03
        -0.71126E-03
         0.83367E-04
        -0.77780E-03
         0.42080E-04
        -0.15192E-02
        -0.13224E-02
         0.99526E-03
        -0.17323E-02
         0.20234E-02
         0.18609E-02
         0.17175E-02
         0.91060E-03
        -0.19801E-02
        -0.23490E-02
        -0.17074E-02
        -0.14906E-02
         0.76539E-03
         0.12498E-02
         0.18667E-02
         0.28984E-02
         0.27184E-02
         0.24631E-02
         0.22359E-02
         0.16503E-02
         0.87623E-03
        -0.21374E-02
        -0.26932E-02
        -0.31291E-02
        -0.30382E-02
        -0.28748E-02
        -0.26436E-02
        -0.23717E-02
        -0.21472E-02
        -0.15100E-02
         0.93572E-03
         0.00000E+00
         0.18171E-02
         0.25928E-02
         0.32179E-02
         0.36559E-02
         0.38815E-02
         0.38815E-02
         0.36559E-02
         0.32179E-02
         0.25928E-02
         0.18171E-02
         0.93572E-03
        -0.47884E-18
        -0.93572E-03
        -0.18171E-02
        -0.25928E-02
        -0.32179E-02
        -0.36559E-02
        -0.38815E-02
        -0.38815E-02
        -0.36559E-02
        -0.32179E-02
        -0.25928E-02
        -0.18171E-02
        -0.93572E-03
         0.67625E-03
         0.12348E-02
         0.59465E-03
        -0.33323E-03
         0.15100E-03
        -0.67347E-03
         0.18423E-02
         0.14636E-02
         0.30622E-03
         0.11777E-02
         0.22755E-02
         0.28260E-02
         0.24247E-02
         0.21687E-02
         0.29351E-02
        -0.10042E-02
         0.83825E-04
        -0.69882E-03
        -0.71112E-03
         0.83490E-04
        -0.77763E-03
         0.42353E-04
        -0.15192E-02
        -0.13223E-02
         0.99661E-03
        -0.17322E-02
         0.20237E-02
         0.18607E-02
         0.17175E-02
         0.91084E-03
        -0.19801E-02
        -0.23491E-02
        -0.17074E-02
        -0.14909E-02
         0.76640E-03
         0.12503E-02
         0.18667E-02
         0.28974E-02
         0.27179E-02
         0.24629E-02
         0.22359E-02
         0.16503E-02
         0.87650E-03
        -0.21374E-02
        -0.26933E-02
        -0.31291E-02
        -0.30382E-02
        -0.28749E-02
        -0.26439E-02
        -0.23719E-02
        -0.21478E-02
        -0.15099E-02
         0.93572E-03
         0.00000E+00
         0.18171E-02
         0.25928E-02
         0.32179E-02
         0.36559E-02
         0.38815E-02
         0.38815E-02
         0.36559E-02
         0.32179E-02
         0.25928E-02
         0.18171E-02
         0.93572E-03
        -0.47884E-18
        -0.93572E-03
        -0.18171E-02
        -0.25928E-02
        -0.32179E-02
        -0.36559E-02
        -0.38815E-02
        -0.38815E-02
        -0.36559E-02
        -0.32179E-02
        -0.25928E-02
        -0.18171E-02
        -0.93572E-03
         0.67680E-03
         0.12354E-02
         0.59517E-03
        -0.33247E-03
         0.15136E-03
        -0.67298E-03
         0.18425E-02
         0.14646E-02
         0.30737E-03
         0.11795E-02
         0.22757E-02
         0.28255E-02
         0.24248E-02
         0.21687E-02
         0.29348E-02
        -0.10043E-02
         0.84634E-04
        -0.69810E-03
        -0.71098E-03
         0.83614E-04
        -0.77746E-03
         0.42626E-04
        -0.15191E-02
        -0.13223E-02
         0.99797E-03
        -0.17322E-02
         0.20240E-02
         0.18606E-02
         0.17175E-02
         0.91108E-03
        -0.19802E-02
        -0.23491E-02
        -0.17074E-02
        -0.14911E-02
         0.76740E-03
         0.12507E-02
         0.18668E-02
         0.28963E-02
         0.27174E-02
         0.24627E-02
         0.22358E-02
         0.16503E-02
         0.87676E-03
        -0.21374E-02
        -0.26933E-02
        -0.31291E-02
        -0.30382E-02
        -0.28749E-02
        -0.26442E-02
        -0.23721E-02
        -0.21483E-02
        -0.15097E-02
         0.93572E-03
         0.00000E+00
         0.18171E-02
         0.25928E-02
         0.32179E-02
         0.36559E-02
         0.38815E-02
         0.38815E-02
         0.36559E-02
         0.32179E-02
         0.25928E-02
         0.18171E-02
         0.93572E-03
        -0.47884E-18
        -0.93572E-03
        -0.18171E-02
        -0.25928E-02
        -0.32179E-02
        -0.36559E-02
        -0.38815E-02
        -0.38815E-02
        -0.36559E-02
        -0.32179E-02
        -0.25928E-02
        -0.18171E-02
        -0.93572E-03
         0.67736E-03
         0.12361E-02
         0.59570E-03
        -0.33172E-03
         0.15173E-03
        -0.67248E-03
         0.18427E-02
         0.14656E-02
         0.30852E-03
         0.11812E-02
         0.22758E-02
         0.28251E-02
         0.24249E-02
         0.21688E-02
         0.29345E-02
        -0.10044E-02
         0.85443E-04
        -0.69737E-03
        -0.71084E-03
         0.83737E-04
        -0.77729E-03
         0.42899E-04
        -0.15191E-02
        -0.13222E-02
         0.99932E-03
        -0.17322E-02
         0.20243E-02
         0.18605E-02
         0.17175E-02
         0.91132E-03
        -0.19802E-02
        -0.23491E-02
        -0.17074E-02
        -0.14914E-02
         0.76841E-03
         0.12511E-02
         0.18668E-02
         0.28952E-02
         0.27170E-02
         0.24624E-02
         0.22358E-02
         0.16503E-02
         0.87702E-03
        -0.21374E-02
        -0.26933E-02
        -0.31291E-02
        -0.30382E-02
        -0.28749E-02
        -0.26444E-02
        -0.23723E-02
        -0.21489E-02
        -0.15096E-02
         0.93572E-03
         0.00000E+00
         0.18171E-02
         0.25928E-02
         0.32179E-02
         0.36559E-02
         0.38815E-02
         0.38815E-02
         0.36559E-02
         0.32179E-02
         0.25928E-02
         0.18171E-02
         0.93572E-03
        -0.47884E-18
        -0.93572E-03
        -0.18171E-02
        -0.25928E-02
        -0.32179E-02
        -0.36559E-02
        -0.38815E-02
        -0.38815E-02
        -0.36559E-02
        -0.32179E-02
        -0.25928E-02
        -0.18171E-02
        -0.93572E-03
         0.67791E-03
         0.12368E-02
         0.59622E-03
        -0.33096E-03
         0.15209E-03
        -0.67199E-03
         0.18429E-02
         0.14666E-02
         0.30967E-03
         0.11830E-02
         0.22759E-02
         0.28247E-02
         0.24251E-02
         0.21688E-02
         0.29343E-02
        -0.10046E-02
         0.86253E-04
        -0.69665E-03
        -0.71070E-03
         0.83861E-04
        -0.77712E-03
         0.43173E-04
        -0.15190E-02
        -0.13220E-02
         0.10007E-02
        -0.17321E-02
         0.20245E-02
         0.18603E-02
         0.17175E-02
         0.91156E-03
        -0.19802E-02
        -0.23491E-02
        -0.17074E-02
        -0.14916E-02
         0.76941E-03
         0.12515E-02
         0.18668E-02
         0.28942E-02
         0.27165E-02
         0.24622E-02
         0.22358E-02
         0.16503E-02
         0.87728E-03
        -0.21374E-02
        -0.26933E-02
        -0.31291E-02
        -0.30382E-02
        -0.28749E-02
        -0.26447E-02
        -0.23725E-02
        -0.21494E-02
        -0.15095E-02
         0.93572E-03
         0.00000E+00
         0.18171E-02
         0.25928E-02
         0.32179E-02
         0.36559E-02
         0.38815E-02
         0.38815E-02
         0.36559E-02
         0.32179E-02
         0.25928E-02
         0.18171E-02
         0.93572E-03
        -0.47884E-18
        -0.93572E-03
        -0.18171E-02
        -0.25928E-02
        -0.32179E-02
        -0.36559E-02
        -0.38815E-02
        -0.38815E-02
        -0.36559E-02
        -0.32179E-02
        -0.25928E-02
        -0.18171E-02
        -0.93572E-03
         0.67847E-03
         0.12374E-02
         0.59674E-03
        -0.33021E-03
         0.15245E-03
        -0.67150E-03
         0.18430E-02
         0.14676E-02
         0.31081E-03
         0.11847E-02
         0.22761E-02
         0.28242E-02
         0.24252E-02
         0.21688E-02
         0.29340E-02
        -0.10047E-02
         0.87062E-04
        -0.69592E-03
        -0.71056E-03
         0.83985E-04
        -0.77695E-03
         0.43446E-04
        -0.15190E-02
        -0.13219E-02
         0.10020E-02
        -0.17321E-02
         0.20248E-02
         0.18602E-02
         0.17175E-02
         0.91180E-03
        -0.19803E-02
        -0.23491E-02
        -0.17073E-02
        -0.14919E-02
         0.77042E-03
         0.12520E-02
         0.18669E-02
         0.28931E-02
         0.27160E-02
         0.24620E-02
         0.22358E-02
         0.16503E-02
         0.87754E-03
        -0.21374E-02
        -0.26933E-02
        -0.31291E-02
        -0.30382E-02
        -0.28749E-02
        -0.26450E-02
        -0.23727E-02
        -0.21500E-02
        -0.15094E-02
         0.93572E-03
         0.00000E+00
         0.18171E-02
         0.25928E-02
         0.32179E-02
         0.36559E-02
         0.38815E-02
         0.38815E-02
         0.36559E-02
         0.32179E-02
         0.25928E-02
         0.18171E-02
         0.93572E-03
         0.39516E-17
        -0.93572E-03
        -0.18171E-02
        -0.25928E-02
        -0.32179E-02
        -0.36559E-02
        -0.38815E-02
        -0.38815E-02
        -0.36559E-02
        -0.32179E-02
        -0.25928E-02
        -0.18171E-02
        -0.93572E-03
         0.67902E-03
         0.12381E-02
         0.59727E-03
        -0.32945E-03
         0.15282E-03
        -0.67100E-03
         0.18432E-02
         0.14686E-02
         0.31196E-03
         0.11865E-02
         0.22762E-02
         0.28238E-02
         0.24254E-02
         0.21688E-02
         0.29337E-02
        -0.10049E-02
         0.87871E-04
        -0.69519E-03
        -0.71042E-03
         0.84108E-04
        -0.77678E-03
         0.43720E-04
        -0.15189E-02
        -0.13219E-02
         0.10034E-02
        -0.17320E-02
         0.20251E-02
         0.18601E-02
         0.17175E-02
         0.91204E-03
        -0.19803E-02
        -0.23492E-02
        -0.17073E-02
        -0.14921E-02
         0.77142E-03
         0.12524E-02
         0.18669E-02
         0.28920E-02
         0.27155E-02
         0.24618E-02
         0.22358E-02
         0.16503E-02
         0.87781E-03
        -0.21374E-02
        -0.26934E-02
        -0.31291E-02
        -0.30382E-02
        -0.28749E-02
        -0.26452E-02
        -0.23729E-02
        -0.21505E-02
        -0.15093E-02
         0.93572E-03
         0.00000E+00
         0.18171E-02
         0.25928E-02
         0.32179E-02
         0.36559E-02
         0.38815E-02
         0.38815E-02
         0.36559E-02
         0.32179E-02
         0.25928E-02
         0.18171E-02
         0.93572E-03
        -0.47884E-18
        -0.93572E-03
        -0.18171E-02
        -0.25928E-02
        -0.32179E-02
        -0.36559E-02
        -0.38815E-02
        -0.38815E-02
        -0.36559E-02
        -0.32179E-02
        -0.25928E-02
        -0.18171E-02
        -0.93572E-03
         0.67958E-03
         0.12387E-02
         0.59779E-03
        -0.32870E-03
         0.15318E-03
        -0.67051E-03
         0.18434E-02
         0.14696E-02
         0.31311E-03
         0.11882E-02
         0.22763E-02
         0.28233E-02
         0.24255E-02
         0.21689E-02
         0.29335E-02
        -0.10050E-02
         0.88681E-04
        -0.69447E-03
        -0.71028E-03
         0.84232E-04
        -0.77661E-03
         0.43993E-04
        -0.15189E-02
        -0.13218E-02
         0.10048E-02
        -0.17320E-02
         0.20254E-02
         0.18599E-02
         0.17175E-02
         0.91228E-03
        -0.19803E-02
        -0.23492E-02
        -0.17073E-02
        -0.14923E-02
         0.77243E-03
         0.12528E-02
         0.18670E-02
         0.28910E-02
         0.27151E-02
         0.24615E-02
         0.22358E-02
         0.16503E-02
         0.87807E-03
        -0.21374E-02
        -0.26934E-02
        -0.31291E-02
        -0.30382E-02
        -0.28749E-02
        -0.26455E-02
        -0.23732E-02
        -0.21511E-02
        -0.15092E-02
         0.93572E-03
         0.00000E+00
         0.18171E-02
         0.25928E-02
         0.32179E-02
         0.36559E-02
         0.38815E-02
         0.38815E-02
         0.36559E-02
         0.32179E-02
         0.25928E-02
         0.18171E-02
         0.93572E-03
         0.22152E-17
        -0.93572E-03
        -0.18171E-02
        -0.25928E-02
        -0.32179E-02
        -0.36559E-02
        -0.38815E-02
        -0.38815E-02
        -0.36559E-02
        -0.32179E-02
        -0.25928E-02
        -0.18171E-02
        -0.93572E-03
         0.68013E-03
         0.12394E-02
         0.59831E-03
        -0.32794E-03
         0.15354E-03
        -0.67002E-03
         0.18436E-02
         0.14706E-02
         0.31426E-03
         0.11900E-02
         0.22765E-02
         0.28229E-02
         0.24257E-02
         0.21689E-02
         0.29332E-02
        -0.10051E-02
         0.89490E-04
        -0.69374E-03
        -0.71013E-03
         0.84355E-04
        -0.77644E-03
         0.44266E-04
        -0.15188E-02
        -0.13216E-02
         0.10061E-02
        -0.17320E-02
         0.20257E-02
         0.18598E-02
         0.17175E-02
         0.91252E-03
        -0.19803E-02
        -0.23492E-02
        -0.17073E-02
        -0.14926E-02
         0.77343E-03
         0.12533E-02
         0.18670E-02
         0.28899E-02
         0.27146E-02
         0.24613E-02
         0.22358E-02
         0.16503E-02
         0.87833E-03
        -0.21374E-02
        -0.26934E-02
        -0.31291E-02
        -0.30382E-02
        -0.28750E-02
        -0.26458E-02
        -0.23734E-02
        -0.21516E-02
        -0.15091E-02
         0.93572E-03
         0.00000E+00
         0.18171E-02
         0.25928E-02
         0.32179E-02
         0.36559E-02
         0.38815E-02
         0.38815E-02
         0.36559E-02
         0.32179E-02
         0.25928E-02
         0.18171E-02
         0.93572E-03
        -0.47884E-18
        -0.93572E-03
        -0.18171E-02
        -0.25928E-02
        -0.32179E-02
        -0.36559E-02
        -0.38815E-02
        -0.38815E-02
        -0.36559E-02
        -0.32179E-02
        -0.25928E-02
        -0.18171E-02
        -0.93572E-03
         0.68068E-03
         0.12401E-02
         0.59884E-03
        -0.32719E-03
         0.15391E-03
        -0.66953E-03
         0.18438E-02
         0.14716E-02
         0.31541E-03
         0.11917E-02
         0.22766E-02
         0.28225E-02
         0.24258E-02
         0.21690E-02
         0.29330E-02
        -0.10053E-02
         0.90299E-04
        -0.69302E-03
        -0.70999E-03
         0.84479E-04
        -0.77627E-03
         0.44540E-04
        -0.15188E-02
        -0.13215E-02
         0.10075E-02
        -0.17319E-02
         0.20260E-02
         0.18597E-02
         0.17175E-02
         0.91276E-03
        -0.19804E-02
        -0.23493E-02
        -0.17073E-02
        -0.14928E-02
         0.77444E-03
         0.12537E-02
         0.18670E-02
         0.28888E-02
         0.27141E-02
         0.24611E-02
         0.22358E-02
         0.16503E-02
         0.87859E-03
        -0.21374E-02
        -0.26934E-02
        -0.31291E-02
        -0.30382E-02
        -0.28750E-02
        -0.26460E-02
        -0.23736E-02
        -0.21521E-02
        -0.15090E-02
         0.93572E-03
         0.00000E+00
         0.18171E-02
         0.25928E-02
         0.32179E-02
         0.36559E-02
         0.38815E-02
         0.38815E-02
         0.36559E-02
         0.32179E-02
         0.25928E-02
         0.18171E-02
         0.93572E-03
         0.22152E-17
        -0.93572E-03
        -0.18171E-02
        -0.25928E-02
        -0.32179E-02
        -0.36559E-02
        -0.38815E-02
        -0.38815E-02
        -0.36559E-02
        -0.32179E-02
        -0.25928E-02
        -0.18171E-02
        -0.93572E-03
         0.68124E-03
         0.12407E-02
         0.59936E-03
        -0.32643E-03
         0.15427E-03
        -0.66903E-03
         0.18440E-02
         0.14727E-02
         0.31656E-03
         0.11935E-02
         0.22767E-02
         0.28220E-02
         0.24260E-02
         0.21690E-02
         0.29327E-02
        -0.10054E-02
         0.91108E-04
        -0.69229E-03
        -0.70985E-03
         0.84602E-04
        -0.77610E-03
         0.44813E-04
        -0.15187E-02
        -0.13215E-02
         0.10088E-02
        -0.17319E-02
         0.20262E-02
         0.18595E-02
         0.17175E-02
         0.91300E-03
        -0.19804E-02
        -0.23493E-02
        -0.17073E-02
        -0.14931E-02
         0.77544E-03
         0.12541E-02
         0.18671E-02
         0.28877E-02
         0.27137E-02
         0.24609E-02
         0.22358E-02
         0.16503E-02
         0.87885E-03
        -0.21374E-02
        -0.26934E-02
        -0.31291E-02
        -0.30382E-02
        -0.28750E-02
        -0.26463E-02
        -0.23738E-02
        -0.21527E-02
        -0.15088E-02
         0.93572E-03
         0.00000E+00
         0.18171E-02
         0.25928E-02
         0.32179E-02
         0.36559E-02
         0.38815E-02
         0.38815E-02
         0.36559E-02
         0.32179E-02
         0.25928E-02
         0.18171E-02
         0.93572E-03
        -0.47884E-18
        -0.93572E-03
        -0.18171E-02
        -0.25928E-02
        -0.32179E-02
        -0.36559E-02
        -0.38815E-02
        -0.38815E-02
        -0.36559E-02
        -0.32179E-02
        -0.25928E-02
        -0.18171E-02
        -0.93572E-03
         0.68179E-03
         0.12414E-02
         0.59988E-03
        -0.32568E-03
         0.15463E-03
        -0.66854E-03
         0.18442E-02
         0.14736E-02
         0.31770E-03
         0.11952E-02
         0.22768E-02
         0.28216E-02
         0.24261E-02
         0.21690E-02
         0.29324E-02
        -0.10056E-02
         0.91918E-04
        -0.69156E-03
        -0.70971E-03
         0.84726E-04
        -0.77593E-03
         0.45086E-04
        -0.15187E-02
        -0.13213E-02
         0.10102E-02
        -0.17318E-02
         0.20265E-02
         0.18594E-02
         0.17175E-02
         0.91324E-03
        -0.19804E-02
        -0.23493E-02
        -0.17073E-02
        -0.14933E-02
         0.77645E-03
         0.12545E-02
         0.18671E-02
         0.28867E-02
         0.27132E-02
         0.24606E-02
         0.22358E-02
         0.16503E-02
         0.87912E-03
        -0.21374E-02
        -0.26935E-02
        -0.31291E-02
        -0.30381E-02
        -0.28750E-02
        -0.26466E-02
        -0.23740E-02
        -0.21533E-02
        -0.15087E-02
         0.93572E-03
         0.00000E+00
         0.18171E-02
         0.25928E-02
         0.32179E-02
         0.36559E-02
         0.38815E-02
         0.38815E-02
         0.36559E-02
         0.32179E-02
         0.25928E-02
         0.18171E-02
         0.93572E-03
        -0.47884E-18
        -0.93572E-03
        -0.18171E-02
        -0.25928E-02
        -0.32179E-02
        -0.36559E-02
        -0.38815E-02
        -0.38815E-02
        -0.36559E-02
        -0.32179E-02
        -0.25928E-02
        -0.18171E-02
        -0.93572E-03
         0.68235E-03
         0.12421E-02
         0.60041E-03
        -0.32493E-03
         0.15500E-03
        -0.66805E-03
         0.18444E-02
         0.14747E-02
         0.31885E-03
         0.11970E-02
         0.22770E-02
         0.28211E-02
         0.24262E-02
         0.21691E-02
         0.29322E-02
        -0.10057E-02
         0.92727E-04
        -0.69084E-03
        -0.70957E-03
         0.84849E-04
        -0.77576E-03
         0.45359E-04
        -0.15186E-02
        -0.13212E-02
         0.10115E-02
        -0.17318E-02
         0.20268E-02
         0.18593E-02
         0.17175E-02
         0.91347E-03
        -0.19804E-02
        -0.23493E-02
        -0.17073E-02
        -0.14936E-02
         0.77745E-03
         0.12550E-02
         0.18671E-02
         0.28856E-02
         0.27127E-02
         0.24604E-02
         0.22358E-02
         0.16503E-02
         0.87938E-03
        -0.21374E-02
        -0.26935E-02
        -0.31291E-02
        -0.30381E-02
        -0.28750E-02
        -0.26468E-02
        -0.23742E-02
        -0.21538E-02
        -0.15086E-02
         0.93572E-03
         0.00000E+00
         0.18171E-02
         0.25928E-02
         0.32179E-02
         0.36559E-02
         0.38815E-02
         0.38815E-02
         0.36559E-02
         0.32179E-02
         0.25928E-02
         0.18171E-02
         0.93572E-03
        -0.47884E-18
        -0.93572E-03
        -0.18171E-02
        -0.25928E-02
        -0.32179E-02
        -0.36559E-02
        -0.38815E-02
        -0.38815E-02
        -0.36559E-02
        -0.32179E-02
        -0.25928E-02
        -0.18171E-02
        -0.93572E-03
         0.68290E-03
         0.12427E-02
         0.60093E-03
        -0.32417E-03
         0.15536E-03
        -0.66755E-03
         0.18445E-02
         0.14757E-02
         0.32000E-03
         0.11987E-02
         0.22771E-02
         0.28207E-02
         0.24264E-02
         0.21691E-02
         0.29319E-02
        -0.10058E-02
         0.93536E-04
        -0.69011E-03
        -0.70943E-03
         0.84973E-04
        -0.77559E-03
         0.45633E-04
        -0.15186E-02
        -0.13212E-02
         0.10129E-02
        -0.17318E-02
         0.20271E-02
         0.18592E-02
         0.17175E-02
         0.91371E-03
        -0.19805E-02
        -0.23493E-02
        -0.17073E-02
        -0.14938E-02
         0.77846E-03
         0.12554E-02
         0.18672E-02
         0.28845E-02
         0.27122E-02
         0.24602E-02
         0.22358E-02
         0.16502E-02
         0.87964E-03
        -0.21374E-02
        -0.26935E-02
        -0.31291E-02
        -0.30381E-02
        -0.28750E-02
        -0.26471E-02
        -0.23744E-02
        -0.21543E-02
        -0.15085E-02
         0.93572E-03
         0.00000E+00
         0.18171E-02
         0.25928E-02
         0.32179E-02
         0.36559E-02
         0.38815E-02
         0.38815E-02
         0.36559E-02
         0.32179E-02
         0.25928E-02
         0.18171E-02
         0.93572E-03
        -0.47884E-18
        -0.93572E-03
        -0.18171E-02
        -0.25928E-02
        -0.32179E-02
        -0.36559E-02
        -0.38815E-02
        -0.38815E-02
        -0.36559E-02
        -0.32179E-02
        -0.25928E-02
        -0.18171E-02
        -0.93572E-03
         0.68346E-03
         0.12434E-02
         0.60145E-03
        -0.32342E-03
         0.15572E-03
        -0.66706E-03
         0.18447E-02
         0.14767E-02
         0.32115E-03
         0.12005E-02
         0.22772E-02
         0.28203E-02
         0.24265E-02
         0.21691E-02
         0.29316E-02
        -0.10060E-02
         0.94345E-04
        -0.68939E-03
        -0.70929E-03
         0.85096E-04
        -0.77542E-03
         0.45906E-04
        -0.15185E-02
        -0.13211E-02
         0.10142E-02
        -0.17317E-02
         0.20274E-02
         0.18590E-02
         0.17175E-02
         0.91395E-03
        -0.19805E-02
        -0.23494E-02
        -0.17073E-02
        -0.14941E-02
         0.77946E-03
         0.12558E-02
         0.18672E-02
         0.28835E-02
         0.27118E-02
         0.24600E-02
         0.22358E-02
         0.16502E-02
         0.87990E-03
        -0.21374E-02
        -0.26935E-02
        -0.31291E-02
        -0.30381E-02
        -0.28750E-02
        -0.26474E-02
        -0.23746E-02
        -0.21549E-02
        -0.15084E-02
         0.93572E-03
         0.00000E+00
         0.18171E-02
         0.25928E-02
         0.32179E-02
         0.36559E-02
         0.38815E-02
         0.38815E-02
         0.36559E-02
         0.32179E-02
         0.25928E-02
         0.18171E-02
         0.93572E-03
         0.22152E-17
        -0.93572E-03
        -0.18171E-02
        -0.25928E-02
        -0.32179E-02
        -0.36559E-02
        -0.38815E-02
        -0.38815E-02
        -0.36559E-02
        -0.32179E-02
        -0.25928E-02
        -0.18171E-02
        -0.93572E-03
         0.68401E-03
         0.12440E-02
         0.60198E-03
        -0.32266E-03
         0.15609E-03
        -0.66657E-03
         0.18449E-02
         0.14777E-02
         0.32230E-03
         0.12022E-02
         0.22774E-02
         0.28198E-02
         0.24267E-02
         0.21692E-02
         0.29314E-02
        -0.10061E-02
         0.95155E-04
        -0.68866E-03
        -0.70915E-03
         0.85220E-04
        -0.77525E-03
         0.46180E-04
        -0.15185E-02
        -0.13210E-02
         0.10156E-02
        -0.17317E-02
         0.20277E-02
         0.18589E-02
         0.17175E-02
         0.91419E-03
        -0.19805E-02
        -0.23494E-02
        -0.17073E-02
        -0.14943E-02
         0.78047E-03
         0.12563E-02
         0.18672E-02
         0.28824E-02
         0.27113E-02
         0.24597E-02
         0.22358E-02
         0.16502E-02
         0.88016E-03
        -0.21374E-02
        -0.26935E-02
        -0.31291E-02
        -0.30381E-02
        -0.28751E-02
        -0.26476E-02
        -0.23748E-02
        -0.21554E-02
        -0.15083E-02
         0.93572E-03
         0.00000E+00
         0.18171E-02
         0.25928E-02
         0.32179E-02
         0.36559E-02
         0.38815E-02
         0.38815E-02
         0.36559E-02
         0.32179E-02
         0.25928E-02
         0.18171E-02
         0.93572E-03
        -0.47884E-18
        -0.93572E-03
        -0.18171E-02
        -0.25928E-02
        -0.32179E-02
        -0.36559E-02
        -0.38815E-02
        -0.38815E-02
        -0.36559E-02
        -0.32179E-02
        -0.25928E-02
        -0.18171E-02
        -0.93572E-03
         0.68457E-03
         0.12447E-02
         0.60250E-03
        -0.32191E-03
         0.15645E-03
        -0.66607E-03
         0.18451E-02
         0.14787E-02
         0.32345E-03
         0.12040E-02
         0.22775E-02
         0.28194E-02
         0.24268E-02
         0.21692E-02
         0.29311E-02
        -0.10062E-02
         0.95964E-04
        -0.68793E-03
        -0.70901E-03
         0.85343E-04
        -0.77507E-03
         0.46453E-04
        -0.15184E-02
        -0.13209E-02
         0.10169E-02
        -0.17316E-02
         0.20280E-02
         0.18588E-02
         0.17175E-02
         0.91443E-03
        -0.19806E-02
        -0.23494E-02
        -0.17073E-02
        -0.14945E-02
         0.78148E-03
         0.12567E-02
         0.18673E-02
         0.28813E-02
         0.27108E-02
         0.24595E-02
         0.22358E-02
         0.16502E-02
         0.88043E-03
        -0.21374E-02
        -0.26936E-02
        -0.31291E-02
        -0.30381E-02
        -0.28751E-02
        -0.26479E-02
        -0.23750E-02
        -0.21560E-02
        -0.15082E-02
         0.93572E-03
         0.00000E+00
         0.18171E-02
         0.25928E-02
         0.32179E-02
         0.36559E-02
         0.38815E-02
         0.38815E-02
         0.36559E-02
         0.32179E-02
         0.25928E-02
         0.18171E-02
         0.93572E-03
        -0.47884E-18
        -0.93572E-03
        -0.18171E-02
        -0.25928E-02
        -0.32179E-02
        -0.36559E-02
        -0.38815E-02
        -0.38815E-02
        -0.36559E-02
        -0.32179E-02
        -0.25928E-02
        -0.18171E-02
        -0.93572E-03
         0.68512E-03
         0.12454E-02
         0.60302E-03
        -0.32115E-03
         0.15681E-03
        -0.66558E-03
         0.18453E-02
         0.14797E-02
         0.32459E-03
         0.12058E-02
         0.22776E-02
         0.28189E-02
         0.24270E-02
         0.21693E-02
         0.29308E-02
        -0.10064E-02
         0.96773E-04
        -0.68721E-03
        -0.70887E-03
         0.85467E-04
        -0.77490E-03
         0.46726E-04
        -0.15184E-02
        -0.13208E-02
         0.10183E-02
        -0.17316E-02
         0.20283E-02
         0.18586E-02
         0.17175E-02
         0.91467E-03
        -0.19806E-02
        -0.23494E-02
        -0.17073E-02
        -0.14948E-02
         0.78248E-03
         0.12571E-02
         0.18673E-02
         0.28802E-02
         0.27103E-02
         0.24593E-02
         0.22358E-02
         0.16502E-02
         0.88069E-03
        -0.21374E-02
        -0.26936E-02
        -0.31291E-02
        -0.30381E-02
        -0.28751E-02
        -0.26482E-02
        -0.23752E-02
        -0.21565E-02
        -0.15081E-02
         0.93572E-03
         0.00000E+00
         0.18171E-02
         0.25928E-02
         0.32179E-02
         0.36559E-02
         0.38815E-02
         0.38815E-02
         0.36559E-02
         0.32179E-02
         0.25928E-02
         0.18171E-02
         0.93572E-03
        -0.47884E-18
        -0.93572E-03
        -0.18171E-02
        -0.25928E-02
        -0.32179E-02
        -0.36559E-02
        -0.38815E-02
        -0.38815E-02
        -0.36559E-02
        -0.32179E-02
        -0.25928E-02
        -0.18171E-02
        -0.93572E-03
         0.68567E-03
         0.12460E-02
         0.60355E-03
        -0.32040E-03
         0.15718E-03
        -0.66509E-03
         0.18455E-02
         0.14807E-02
         0.32574E-03
         0.12075E-02
         0.22777E-02
         0.28185E-02
         0.24271E-02
         0.21693E-02
         0.29306E-02
        -0.10065E-02
         0.97583E-04
        -0.68648E-03
        -0.70873E-03
         0.85591E-04
        -0.77474E-03
         0.47000E-04
        -0.15183E-02
        -0.13207E-02
         0.10197E-02
        -0.17316E-02
         0.20285E-02
         0.18585E-02
         0.17175E-02
         0.91491E-03
        -0.19806E-02
        -0.23495E-02
        -0.17073E-02
        -0.14950E-02
         0.78348E-03
         0.12576E-02
         0.18674E-02
         0.28792E-02
         0.27099E-02
         0.24591E-02
         0.22358E-02
         0.16502E-02
         0.88095E-03
        -0.21374E-02
        -0.26936E-02
        -0.31290E-02
        -0.30381E-02
        -0.28751E-02
        -0.26484E-02
        -0.23754E-02
        -0.21571E-02
        -0.15080E-02
         0.93572E-03
         0.00000E+00
         0.18171E-02
         0.25928E-02
         0.32179E-02
         0.36559E-02
         0.38815E-02
         0.38815E-02
         0.36559E-02
         0.32179E-02
         0.25928E-02
         0.18171E-02
         0.93572E-03
         0.47884E-18
        -0.93572E-03
        -0.18171E-02
        -0.25928E-02
        -0.32179E-02
        -0.36559E-02
        -0.38815E-02
        -0.38815E-02
        -0.36559E-02
        -0.32179E-02
        -0.25928E-02
        -0.18171E-02
        -0.93572E-03
  
SCALARS           initial_coordinate_z  double 1
LOOKUP_TABLE default
        -0.10771E-01
        -0.10771E-01
        -0.10771E-01
        -0.10771E-01
        -0.11750E-01
        -0.11750E-01
        -0.11750E-01
        -0.11750E-01
        -0.10771E-01
        -0.10771E-01
        -0.11750E-01
        -0.11750E-01
        -0.10771E-01
        -0.10771E-01
        -0.11750E-01
        -0.11750E-01
        -0.10771E-01
        -0.10771E-01
        -0.11750E-01
        -0.11750E-01
        -0.10771E-01
        -0.10771E-01
        -0.10771E-01
        -0.11750E-01
        -0.11750E-01
        -0.11750E-01
        -0.10771E-01
        -0.10771E-01
        -0.11750E-01
        -0.11750E-01
        -0.10771E-01
        -0.10771E-01
        -0.10771E-01
        -0.11750E-01
        -0.11750E-01
        -0.11750E-01
        -0.10771E-01
        -0.10771E-01
        -0.11750E-01
        -0.11750E-01
        -0.10771E-01
        -0.10771E-01
        -0.11750E-01
        -0.11750E-01
        -0.10771E-01
        -0.10771E-01
        -0.11750E-01
        -0.11750E-01
        -0.10771E-01
        -0.11750E-01
        -0.10771E-01
        -0.11750E-01
        -0.10771E-01
        -0.11750E-01
        -0.10771E-01
        -0.11750E-01
        -0.10771E-01
        -0.10771E-01
        -0.11750E-01
        -0.11750E-01
        -0.10771E-01
        -0.10771E-01
        -0.11750E-01
        -0.11750E-01
        -0.10771E-01
        -0.11750E-01
        -0.10771E-01
        -0.11750E-01
        -0.10771E-01
        -0.10771E-01
        -0.11750E-01
        -0.11750E-01
        -0.10771E-01
        -0.11750E-01
        -0.10771E-01
        -0.11750E-01
        -0.10771E-01
        -0.11750E-01
        -0.10771E-01
        -0.11750E-01
        -0.10771E-01
        -0.10771E-01
        -0.11750E-01
        -0.11750E-01
        -0.10771E-01
        -0.11750E-01
        -0.10771E-01
        -0.11750E-01
        -0.10771E-01
        -0.11750E-01
        -0.10771E-01
        -0.10771E-01
        -0.11750E-01
        -0.11750E-01
        -0.10771E-01
        -0.11750E-01
        -0.10771E-01
        -0.11750E-01
        -0.10771E-01
        -0.11750E-01
        -0.10771E-01
        -0.10771E-01
        -0.11750E-01
        -0.11750E-01
        -0.10771E-01
        -0.10771E-01
        -0.11750E-01
        -0.11750E-01
        -0.10771E-01
        -0.11750E-01
        -0.10771E-01
        -0.11750E-01
        -0.10771E-01
        -0.11750E-01
        -0.10771E-01
        -0.11750E-01
        -0.10771E-01
        -0.11750E-01
        -0.10771E-01
        -0.11750E-01
        -0.10771E-01
        -0.11750E-01
        -0.10771E-01
        -0.11750E-01
        -0.10771E-01
        -0.11750E-01
        -0.10771E-01
        -0.11750E-01
        -0.10771E-01
        -0.11750E-01
        -0.10771E-01
        -0.11750E-01
        -0.10771E-01
        -0.11750E-01
        -0.10771E-01
        -0.11750E-01
        -0.10771E-01
        -0.11750E-01
        -0.10771E-01
        -0.11750E-01
        -0.10771E-01
        -0.11750E-01
        -0.10771E-01
        -0.11750E-01
        -0.10771E-01
        -0.11750E-01
        -0.10771E-01
        -0.11750E-01
        -0.10771E-01
        -0.11750E-01
        -0.10771E-01
        -0.11750E-01
        -0.10771E-01
        -0.11750E-01
        -0.10771E-01
        -0.11750E-01
        -0.97917E-02
        -0.97917E-02
        -0.97917E-02
        -0.97917E-02
        -0.97917E-02
        -0.97917E-02
        -0.97917E-02
        -0.97917E-02
        -0.97917E-02
        -0.97917E-02
        -0.97917E-02
        -0.97917E-02
        -0.97917E-02
        -0.97917E-02
        -0.97917E-02
        -0.97917E-02
        -0.97917E-02
        -0.97917E-02
        -0.97917E-02
        -0.97917E-02
        -0.97917E-02
        -0.97917E-02
        -0.97917E-02
        -0.97917E-02
        -0.97917E-02
        -0.97917E-02
        -0.97917E-02
        -0.97917E-02
        -0.97917E-02
        -0.97917E-02
        -0.97917E-02
        -0.97917E-02
        -0.97917E-02
        -0.97917E-02
        -0.97917E-02
        -0.97917E-02
        -0.97917E-02
        -0.97917E-02
        -0.97917E-02
        -0.97917E-02
        -0.97917E-02
        -0.97917E-02
        -0.97917E-02
        -0.97917E-02
        -0.97917E-02
        -0.97917E-02
        -0.97917E-02
        -0.97917E-02
        -0.97917E-02
        -0.97917E-02
        -0.97917E-02
        -0.97917E-02
        -0.97917E-02
        -0.97917E-02
        -0.97917E-02
        -0.97917E-02
        -0.97917E-02
        -0.97917E-02
        -0.97917E-02
        -0.97917E-02
        -0.97917E-02
        -0.97917E-02
        -0.97917E-02
        -0.97917E-02
        -0.97917E-02
        -0.97917E-02
        -0.97917E-02
        -0.97917E-02
        -0.97917E-02
        -0.97917E-02
        -0.97917E-02
        -0.97917E-02
        -0.97917E-02
        -0.97917E-02
        -0.97917E-02
        -0.97917E-02
        -0.97917E-02
        -0.97917E-02
        -0.88125E-02
        -0.88125E-02
        -0.88125E-02
        -0.88125E-02
        -0.88125E-02
        -0.88125E-02
        -0.88125E-02
        -0.88125E-02
        -0.88125E-02
        -0.88125E-02
        -0.88125E-02
        -0.88125E-02
        -0.88125E-02
        -0.88125E-02
        -0.88125E-02
        -0.88125E-02
        -0.88125E-02
        -0.88125E-02
        -0.88125E-02
        -0.88125E-02
        -0.88125E-02
        -0.88125E-02
        -0.88125E-02
        -0.88125E-02
        -0.88125E-02
        -0.88125E-02
        -0.88125E-02
        -0.88125E-02
        -0.88125E-02
        -0.88125E-02
        -0.88125E-02
        -0.88125E-02
        -0.88125E-02
        -0.88125E-02
        -0.88125E-02
        -0.88125E-02
        -0.88125E-02
        -0.88125E-02
        -0.88125E-02
        -0.88125E-02
        -0.88125E-02
        -0.88125E-02
        -0.88125E-02
        -0.88125E-02
        -0.88125E-02
        -0.88125E-02
        -0.88125E-02
        -0.88125E-02
        -0.88125E-02
        -0.88125E-02
        -0.88125E-02
        -0.88125E-02
        -0.88125E-02
        -0.88125E-02
        -0.88125E-02
        -0.88125E-02
        -0.88125E-02
        -0.88125E-02
        -0.88125E-02
        -0.88125E-02
        -0.88125E-02
        -0.88125E-02
        -0.88125E-02
        -0.88125E-02
        -0.88125E-02
        -0.88125E-02
        -0.88125E-02
        -0.88125E-02
        -0.88125E-02
        -0.88125E-02
        -0.88125E-02
        -0.88125E-02
        -0.88125E-02
        -0.88125E-02
        -0.88125E-02
        -0.88125E-02
        -0.88125E-02
        -0.88125E-02
        -0.78333E-02
        -0.78333E-02
        -0.78333E-02
        -0.78333E-02
        -0.78333E-02
        -0.78333E-02
        -0.78333E-02
        -0.78333E-02
        -0.78333E-02
        -0.78333E-02
        -0.78333E-02
        -0.78333E-02
        -0.78333E-02
        -0.78333E-02
        -0.78333E-02
        -0.78333E-02
        -0.78333E-02
        -0.78333E-02
        -0.78333E-02
        -0.78333E-02
        -0.78333E-02
        -0.78333E-02
        -0.78333E-02
        -0.78333E-02
        -0.78333E-02
        -0.78333E-02
        -0.78333E-02
        -0.78333E-02
        -0.78333E-02
        -0.78333E-02
        -0.78333E-02
        -0.78333E-02
        -0.78333E-02
        -0.78333E-02
        -0.78333E-02
        -0.78333E-02
        -0.78333E-02
        -0.78333E-02
        -0.78333E-02
        -0.78333E-02
        -0.78333E-02
        -0.78333E-02
        -0.78333E-02
        -0.78333E-02
        -0.78333E-02
        -0.78333E-02
        -0.78333E-02
        -0.78333E-02
        -0.78333E-02
        -0.78333E-02
        -0.78333E-02
        -0.78333E-02
        -0.78333E-02
        -0.78333E-02
        -0.78333E-02
        -0.78333E-02
        -0.78333E-02
        -0.78333E-02
        -0.78333E-02
        -0.78333E-02
        -0.78333E-02
        -0.78333E-02
        -0.78333E-02
        -0.78333E-02
        -0.78333E-02
        -0.78333E-02
        -0.78333E-02
        -0.78333E-02
        -0.78333E-02
        -0.78333E-02
        -0.78333E-02
        -0.78333E-02
        -0.78333E-02
        -0.78333E-02
        -0.78333E-02
        -0.78333E-02
        -0.78333E-02
        -0.78333E-02
        -0.68542E-02
        -0.68542E-02
        -0.68542E-02
        -0.68542E-02
        -0.68542E-02
        -0.68542E-02
        -0.68542E-02
        -0.68542E-02
        -0.68542E-02
        -0.68542E-02
        -0.68542E-02
        -0.68542E-02
        -0.68542E-02
        -0.68542E-02
        -0.68542E-02
        -0.68542E-02
        -0.68542E-02
        -0.68542E-02
        -0.68542E-02
        -0.68542E-02
        -0.68542E-02
        -0.68542E-02
        -0.68542E-02
        -0.68542E-02
        -0.68542E-02
        -0.68542E-02
        -0.68542E-02
        -0.68542E-02
        -0.68542E-02
        -0.68542E-02
        -0.68542E-02
        -0.68542E-02
        -0.68542E-02
        -0.68542E-02
        -0.68542E-02
        -0.68542E-02
        -0.68542E-02
        -0.68542E-02
        -0.68542E-02
        -0.68542E-02
        -0.68542E-02
        -0.68542E-02
        -0.68542E-02
        -0.68542E-02
        -0.68542E-02
        -0.68542E-02
        -0.68542E-02
        -0.68542E-02
        -0.68542E-02
        -0.68542E-02
        -0.68542E-02
        -0.68542E-02
        -0.68542E-02
        -0.68542E-02
        -0.68542E-02
        -0.68542E-02
        -0.68542E-02
        -0.68542E-02
        -0.68542E-02
        -0.68542E-02
        -0.68542E-02
        -0.68542E-02
        -0.68542E-02
        -0.68542E-02
        -0.68542E-02
        -0.68542E-02
        -0.68542E-02
        -0.68542E-02
        -0.68542E-02
        -0.68542E-02
        -0.68542E-02
        -0.68542E-02
        -0.68542E-02
        -0.68542E-02
        -0.68542E-02
        -0.68542E-02
        -0.68542E-02
        -0.68542E-02
        -0.58750E-02
        -0.58750E-02
        -0.58750E-02
        -0.58750E-02
        -0.58750E-02
        -0.58750E-02
        -0.58750E-02
        -0.58750E-02
        -0.58750E-02
        -0.58750E-02
        -0.58750E-02
        -0.58750E-02
        -0.58750E-02
        -0.58750E-02
        -0.58750E-02
        -0.58750E-02
        -0.58750E-02
        -0.58750E-02
        -0.58750E-02
        -0.58750E-02
        -0.58750E-02
        -0.58750E-02
        -0.58750E-02
        -0.58750E-02
        -0.58750E-02
        -0.58750E-02
        -0.58750E-02
        -0.58750E-02
        -0.58750E-02
        -0.58750E-02
        -0.58750E-02
        -0.58750E-02
        -0.58750E-02
        -0.58750E-02
        -0.58750E-02
        -0.58750E-02
        -0.58750E-02
        -0.58750E-02
        -0.58750E-02
        -0.58750E-02
        -0.58750E-02
        -0.58750E-02
        -0.58750E-02
        -0.58750E-02
        -0.58750E-02
        -0.58750E-02
        -0.58750E-02
        -0.58750E-02
        -0.58750E-02
        -0.58750E-02
        -0.58750E-02
        -0.58750E-02
        -0.58750E-02
        -0.58750E-02
        -0.58750E-02
        -0.58750E-02
        -0.58750E-02
        -0.58750E-02
        -0.58750E-02
        -0.58750E-02
        -0.58750E-02
        -0.58750E-02
        -0.58750E-02
        -0.58750E-02
        -0.58750E-02
        -0.58750E-02
        -0.58750E-02
        -0.58750E-02
        -0.58750E-02
        -0.58750E-02
        -0.58750E-02
        -0.58750E-02
        -0.58750E-02
        -0.58750E-02
        -0.58750E-02
        -0.58750E-02
        -0.58750E-02
        -0.58750E-02
        -0.48958E-02
        -0.48958E-02
        -0.48958E-02
        -0.48958E-02
        -0.48958E-02
        -0.48958E-02
        -0.48958E-02
        -0.48958E-02
        -0.48958E-02
        -0.48958E-02
        -0.48958E-02
        -0.48958E-02
        -0.48958E-02
        -0.48958E-02
        -0.48958E-02
        -0.48958E-02
        -0.48958E-02
        -0.48958E-02
        -0.48958E-02
        -0.48958E-02
        -0.48958E-02
        -0.48958E-02
        -0.48958E-02
        -0.48958E-02
        -0.48958E-02
        -0.48958E-02
        -0.48958E-02
        -0.48958E-02
        -0.48958E-02
        -0.48958E-02
        -0.48958E-02
        -0.48958E-02
        -0.48958E-02
        -0.48958E-02
        -0.48958E-02
        -0.48958E-02
        -0.48958E-02
        -0.48958E-02
        -0.48958E-02
        -0.48958E-02
        -0.48958E-02
        -0.48958E-02
        -0.48958E-02
        -0.48958E-02
        -0.48958E-02
        -0.48958E-02
        -0.48958E-02
        -0.48958E-02
        -0.48958E-02
        -0.48958E-02
        -0.48958E-02
        -0.48958E-02
        -0.48958E-02
        -0.48958E-02
        -0.48958E-02
        -0.48958E-02
        -0.48958E-02
        -0.48958E-02
        -0.48958E-02
        -0.48958E-02
        -0.48958E-02
        -0.48958E-02
        -0.48958E-02
        -0.48958E-02
        -0.48958E-02
        -0.48958E-02
        -0.48958E-02
        -0.48958E-02
        -0.48958E-02
        -0.48958E-02
        -0.48958E-02
        -0.48958E-02
        -0.48958E-02
        -0.48958E-02
        -0.48958E-02
        -0.48958E-02
        -0.48958E-02
        -0.48958E-02
        -0.39167E-02
        -0.39167E-02
        -0.39167E-02
        -0.39167E-02
        -0.39167E-02
        -0.39167E-02
        -0.39167E-02
        -0.39167E-02
        -0.39167E-02
        -0.39167E-02
        -0.39167E-02
        -0.39167E-02
        -0.39167E-02
        -0.39167E-02
        -0.39167E-02
        -0.39167E-02
        -0.39167E-02
        -0.39167E-02
        -0.39167E-02
        -0.39167E-02
        -0.39167E-02
        -0.39167E-02
        -0.39167E-02
        -0.39167E-02
        -0.39167E-02
        -0.39167E-02
        -0.39167E-02
        -0.39167E-02
        -0.39167E-02
        -0.39167E-02
        -0.39167E-02
        -0.39167E-02
        -0.39167E-02
        -0.39167E-02
        -0.39167E-02
        -0.39167E-02
        -0.39167E-02
        -0.39167E-02
        -0.39167E-02
        -0.39167E-02
        -0.39167E-02
        -0.39167E-02
        -0.39167E-02
        -0.39167E-02
        -0.39167E-02
        -0.39167E-02
        -0.39167E-02
        -0.39167E-02
        -0.39167E-02
        -0.39167E-02
        -0.39167E-02
        -0.39167E-02
        -0.39167E-02
        -0.39167E-02
        -0.39167E-02
        -0.39167E-02
        -0.39167E-02
        -0.39167E-02
        -0.39167E-02
        -0.39167E-02
        -0.39167E-02
        -0.39167E-02
        -0.39167E-02
        -0.39167E-02
        -0.39167E-02
        -0.39167E-02
        -0.39167E-02
        -0.39167E-02
        -0.39167E-02
        -0.39167E-02
        -0.39167E-02
        -0.39167E-02
        -0.39167E-02
        -0.39167E-02
        -0.39167E-02
        -0.39167E-02
        -0.39167E-02
        -0.39167E-02
        -0.29375E-02
        -0.29375E-02
        -0.29375E-02
        -0.29375E-02
        -0.29375E-02
        -0.29375E-02
        -0.29375E-02
        -0.29375E-02
        -0.29375E-02
        -0.29375E-02
        -0.29375E-02
        -0.29375E-02
        -0.29375E-02
        -0.29375E-02
        -0.29375E-02
        -0.29375E-02
        -0.29375E-02
        -0.29375E-02
        -0.29375E-02
        -0.29375E-02
        -0.29375E-02
        -0.29375E-02
        -0.29375E-02
        -0.29375E-02
        -0.29375E-02
        -0.29375E-02
        -0.29375E-02
        -0.29375E-02
        -0.29375E-02
        -0.29375E-02
        -0.29375E-02
        -0.29375E-02
        -0.29375E-02
        -0.29375E-02
        -0.29375E-02
        -0.29375E-02
        -0.29375E-02
        -0.29375E-02
        -0.29375E-02
        -0.29375E-02
        -0.29375E-02
        -0.29375E-02
        -0.29375E-02
        -0.29375E-02
        -0.29375E-02
        -0.29375E-02
        -0.29375E-02
        -0.29375E-02
        -0.29375E-02
        -0.29375E-02
        -0.29375E-02
        -0.29375E-02
        -0.29375E-02
        -0.29375E-02
        -0.29375E-02
        -0.29375E-02
        -0.29375E-02
        -0.29375E-02
        -0.29375E-02
        -0.29375E-02
        -0.29375E-02
        -0.29375E-02
        -0.29375E-02
        -0.29375E-02
        -0.29375E-02
        -0.29375E-02
        -0.29375E-02
        -0.29375E-02
        -0.29375E-02
        -0.29375E-02
        -0.29375E-02
        -0.29375E-02
        -0.29375E-02
        -0.29375E-02
        -0.29375E-02
        -0.29375E-02
        -0.29375E-02
        -0.29375E-02
        -0.19583E-02
        -0.19583E-02
        -0.19583E-02
        -0.19583E-02
        -0.19583E-02
        -0.19583E-02
        -0.19583E-02
        -0.19583E-02
        -0.19583E-02
        -0.19583E-02
        -0.19583E-02
        -0.19583E-02
        -0.19583E-02
        -0.19583E-02
        -0.19583E-02
        -0.19583E-02
        -0.19583E-02
        -0.19583E-02
        -0.19583E-02
        -0.19583E-02
        -0.19583E-02
        -0.19583E-02
        -0.19583E-02
        -0.19583E-02
        -0.19583E-02
        -0.19583E-02
        -0.19583E-02
        -0.19583E-02
        -0.19583E-02
        -0.19583E-02
        -0.19583E-02
        -0.19583E-02
        -0.19583E-02
        -0.19583E-02
        -0.19583E-02
        -0.19583E-02
        -0.19583E-02
        -0.19583E-02
        -0.19583E-02
        -0.19583E-02
        -0.19583E-02
        -0.19583E-02
        -0.19583E-02
        -0.19583E-02
        -0.19583E-02
        -0.19583E-02
        -0.19583E-02
        -0.19583E-02
        -0.19583E-02
        -0.19583E-02
        -0.19583E-02
        -0.19583E-02
        -0.19583E-02
        -0.19583E-02
        -0.19583E-02
        -0.19583E-02
        -0.19583E-02
        -0.19583E-02
        -0.19583E-02
        -0.19583E-02
        -0.19583E-02
        -0.19583E-02
        -0.19583E-02
        -0.19583E-02
        -0.19583E-02
        -0.19583E-02
        -0.19583E-02
        -0.19583E-02
        -0.19583E-02
        -0.19583E-02
        -0.19583E-02
        -0.19583E-02
        -0.19583E-02
        -0.19583E-02
        -0.19583E-02
        -0.19583E-02
        -0.19583E-02
        -0.19583E-02
        -0.97917E-03
        -0.97917E-03
        -0.97917E-03
        -0.97917E-03
        -0.97917E-03
        -0.97917E-03
        -0.97917E-03
        -0.97917E-03
        -0.97917E-03
        -0.97917E-03
        -0.97917E-03
        -0.97917E-03
        -0.97917E-03
        -0.97917E-03
        -0.97917E-03
        -0.97917E-03
        -0.97917E-03
        -0.97917E-03
        -0.97917E-03
        -0.97917E-03
        -0.97917E-03
        -0.97917E-03
        -0.97917E-03
        -0.97917E-03
        -0.97917E-03
        -0.97917E-03
        -0.97917E-03
        -0.97917E-03
        -0.97917E-03
        -0.97917E-03
        -0.97917E-03
        -0.97917E-03
        -0.97917E-03
        -0.97917E-03
        -0.97917E-03
        -0.97917E-03
        -0.97917E-03
        -0.97917E-03
        -0.97917E-03
        -0.97917E-03
        -0.97917E-03
        -0.97917E-03
        -0.97917E-03
        -0.97917E-03
        -0.97917E-03
        -0.97917E-03
        -0.97917E-03
        -0.97917E-03
        -0.97917E-03
        -0.97917E-03
        -0.97917E-03
        -0.97917E-03
        -0.97917E-03
        -0.97917E-03
        -0.97917E-03
        -0.97917E-03
        -0.97917E-03
        -0.97917E-03
        -0.97917E-03
        -0.97917E-03
        -0.97917E-03
        -0.97917E-03
        -0.97917E-03
        -0.97917E-03
        -0.97917E-03
        -0.97917E-03
        -0.97917E-03
        -0.97917E-03
        -0.97917E-03
        -0.97917E-03
        -0.97917E-03
        -0.97917E-03
        -0.97917E-03
        -0.97917E-03
        -0.97917E-03
        -0.97917E-03
        -0.97917E-03
        -0.97917E-03
         0.38917E-18
         0.44621E-18
         0.34485E-18
         0.23671E-18
         0.26613E-18
         0.16162E-18
         0.53980E-18
         0.50579E-18
         0.36337E-18
         0.48798E-18
         0.60712E-18
         0.67611E-18
         0.60634E-18
         0.60658E-18
         0.70997E-18
         0.20892E-18
         0.35894E-18
         0.21887E-18
         0.27638E-18
         0.38382E-18
         0.29058E-18
         0.40326E-18
         0.18564E-18
         0.19650E-18
         0.48570E-18
         0.12837E-18
         0.60589E-18
         0.60416E-18
         0.60524E-18
         0.49621E-18
         0.61582E-19
         0.32255E-19
         0.73874E-19
         0.78478E-19
         0.34514E-18
         0.42054E-18
         0.51644E-18
         0.72521E-18
         0.72233E-18
         0.70722E-18
         0.69126E-18
         0.61573E-18
         0.51484E-18
         0.91170E-19
         0.30347E-20
        -0.66516E-19
        -0.69988E-19
        -0.68643E-19
        -0.59779E-19
        -0.43507E-19
        -0.29471E-19
         0.53205E-19
         0.86819E-18
         0.00000E+00
         0.86819E-18
         0.86819E-18
         0.00000E+00
         0.00000E+00
         0.00000E+00
         0.17364E-17
         0.17364E-17
         0.17364E-17
         0.43410E-18
         0.43410E-18
         0.43410E-18
         0.00000E+00
         0.00000E+00
         0.00000E+00
         0.00000E+00
         0.00000E+00
         0.21705E-18
        -0.21705E-18
         0.00000E+00
         0.00000E+00
         0.00000E+00
        -0.32557E-18
         0.54262E-19
        -0.40697E-18
         0.97917E-03
         0.97917E-03
         0.97917E-03
         0.97917E-03
         0.97917E-03
         0.97917E-03
         0.97917E-03
         0.97917E-03
         0.97917E-03
         0.97917E-03
         0.97917E-03
         0.97917E-03
         0.97917E-03
         0.97917E-03
         0.97917E-03
         0.97917E-03
         0.97917E-03
         0.97917E-03
         0.97917E-03
         0.97917E-03
         0.97917E-03
         0.97917E-03
         0.97917E-03
         0.97917E-03
         0.97917E-03
         0.97917E-03
         0.97917E-03
         0.97917E-03
         0.97917E-03
         0.97917E-03
         0.97917E-03
         0.97917E-03
         0.97917E-03
         0.97917E-03
         0.97917E-03
         0.97917E-03
         0.97917E-03
         0.97917E-03
         0.97917E-03
         0.97917E-03
         0.97917E-03
         0.97917E-03
         0.97917E-03
         0.97917E-03
         0.97917E-03
         0.97917E-03
         0.97917E-03
         0.97917E-03
         0.97917E-03
         0.97917E-03
         0.97917E-03
         0.97917E-03
         0.97917E-03
         0.97917E-03
         0.97917E-03
         0.97917E-03
         0.97917E-03
         0.97917E-03
         0.97917E-03
         0.97917E-03
         0.97917E-03
         0.97917E-03
         0.97917E-03
         0.97917E-03
         0.97917E-03
         0.97917E-03
         0.97917E-03
         0.97917E-03
         0.97917E-03
         0.97917E-03
         0.97917E-03
         0.97917E-03
         0.97917E-03
         0.97917E-03
         0.97917E-03
         0.97917E-03
         0.97917E-03
         0.97917E-03
         0.19583E-02
         0.19583E-02
         0.19583E-02
         0.19583E-02
         0.19583E-02
         0.19583E-02
         0.19583E-02
         0.19583E-02
         0.19583E-02
         0.19583E-02
         0.19583E-02
         0.19583E-02
         0.19583E-02
         0.19583E-02
         0.19583E-02
         0.19583E-02
         0.19583E-02
         0.19583E-02
         0.19583E-02
         0.19583E-02
         0.19583E-02
         0.19583E-02
         0.19583E-02
         0.19583E-02
         0.19583E-02
         0.19583E-02
         0.19583E-02
         0.19583E-02
         0.19583E-02
         0.19583E-02
         0.19583E-02
         0.19583E-02
         0.19583E-02
         0.19583E-02
         0.19583E-02
         0.19583E-02
         0.19583E-02
         0.19583E-02
         0.19583E-02
         0.19583E-02
         0.19583E-02
         0.19583E-02
         0.19583E-02
         0.19583E-02
         0.19583E-02
         0.19583E-02
         0.19583E-02
         0.19583E-02
         0.19583E-02
         0.19583E-02
         0.19583E-02
         0.19583E-02
         0.19583E-02
         0.19583E-02
         0.19583E-02
         0.19583E-02
         0.19583E-02
         0.19583E-02
         0.19583E-02
         0.19583E-02
         0.19583E-02
         0.19583E-02
         0.19583E-02
         0.19583E-02
         0.19583E-02
         0.19583E-02
         0.19583E-02
         0.19583E-02
         0.19583E-02
         0.19583E-02
         0.19583E-02
         0.19583E-02
         0.19583E-02
         0.19583E-02
         0.19583E-02
         0.19583E-02
         0.19583E-02
         0.19583E-02
         0.29375E-02
         0.29375E-02
         0.29375E-02
         0.29375E-02
         0.29375E-02
         0.29375E-02
         0.29375E-02
         0.29375E-02
         0.29375E-02
         0.29375E-02
         0.29375E-02
         0.29375E-02
         0.29375E-02
         0.29375E-02
         0.29375E-02
         0.29375E-02
         0.29375E-02
         0.29375E-02
         0.29375E-02
         0.29375E-02
         0.29375E-02
         0.29375E-02
         0.29375E-02
         0.29375E-02
         0.29375E-02
         0.29375E-02
         0.29375E-02
         0.29375E-02
         0.29375E-02
         0.29375E-02
         0.29375E-02
         0.29375E-02
         0.29375E-02
         0.29375E-02
         0.29375E-02
         0.29375E-02
         0.29375E-02
         0.29375E-02
         0.29375E-02
         0.29375E-02
         0.29375E-02
         0.29375E-02
         0.29375E-02
         0.29375E-02
         0.29375E-02
         0.29375E-02
         0.29375E-02
         0.29375E-02
         0.29375E-02
         0.29375E-02
         0.29375E-02
         0.29375E-02
         0.29375E-02
         0.29375E-02
         0.29375E-02
         0.29375E-02
         0.29375E-02
         0.29375E-02
         0.29375E-02
         0.29375E-02
         0.29375E-02
         0.29375E-02
         0.29375E-02
         0.29375E-02
         0.29375E-02
         0.29375E-02
         0.29375E-02
         0.29375E-02
         0.29375E-02
         0.29375E-02
         0.29375E-02
         0.29375E-02
         0.29375E-02
         0.29375E-02
         0.29375E-02
         0.29375E-02
         0.29375E-02
         0.29375E-02
         0.39167E-02
         0.39167E-02
         0.39167E-02
         0.39167E-02
         0.39167E-02
         0.39167E-02
         0.39167E-02
         0.39167E-02
         0.39167E-02
         0.39167E-02
         0.39167E-02
         0.39167E-02
         0.39167E-02
         0.39167E-02
         0.39167E-02
         0.39167E-02
         0.39167E-02
         0.39167E-02
         0.39167E-02
         0.39167E-02
         0.39167E-02
         0.39167E-02
         0.39167E-02
         0.39167E-02
         0.39167E-02
         0.39167E-02
         0.39167E-02
         0.39167E-02
         0.39167E-02
         0.39167E-02
         0.39167E-02
         0.39167E-02
         0.39167E-02
         0.39167E-02
         0.39167E-02
         0.39167E-02
         0.39167E-02
         0.39167E-02
         0.39167E-02
         0.39167E-02
         0.39167E-02
         0.39167E-02
         0.39167E-02
         0.39167E-02
         0.39167E-02
         0.39167E-02
         0.39167E-02
         0.39167E-02
         0.39167E-02
         0.39167E-02
         0.39167E-02
         0.39167E-02
         0.39167E-02
         0.39167E-02
         0.39167E-02
         0.39167E-02
         0.39167E-02
         0.39167E-02
         0.39167E-02
         0.39167E-02
         0.39167E-02
         0.39167E-02
         0.39167E-02
         0.39167E-02
         0.39167E-02
         0.39167E-02
         0.39167E-02
         0.39167E-02
         0.39167E-02
         0.39167E-02
         0.39167E-02
         0.39167E-02
         0.39167E-02
         0.39167E-02
         0.39167E-02
         0.39167E-02
         0.39167E-02
         0.39167E-02
         0.48958E-02
         0.48958E-02
         0.48958E-02
         0.48958E-02
         0.48958E-02
         0.48958E-02
         0.48958E-02
         0.48958E-02
         0.48958E-02
         0.48958E-02
         0.48958E-02
         0.48958E-02
         0.48958E-02
         0.48958E-02
         0.48958E-02
         0.48958E-02
         0.48958E-02
         0.48958E-02
         0.48958E-02
         0.48958E-02
         0.48958E-02
         0.48958E-02
         0.48958E-02
         0.48958E-02
         0.48958E-02
         0.48958E-02
         0.48958E-02
         0.48958E-02
         0.48958E-02
         0.48958E-02
         0.48958E-02
         0.48958E-02
         0.48958E-02
         0.48958E-02
         0.48958E-02
         0.48958E-02
         0.48958E-02
         0.48958E-02
         0.48958E-02
         0.48958E-02
         0.48958E-02
         0.48958E-02
         0.48958E-02
         0.48958E-02
         0.48958E-02
         0.48958E-02
         0.48958E-02
         0.48958E-02
         0.48958E-02
         0.48958E-02
         0.48958E-02
         0.48958E-02
         0.48958E-02
         0.48958E-02
         0.48958E-02
         0.48958E-02
         0.48958E-02
         0.48958E-02
         0.48958E-02
         0.48958E-02
         0.48958E-02
         0.48958E-02
         0.48958E-02
         0.48958E-02
         0.48958E-02
         0.48958E-02
         0.48958E-02
         0.48958E-02
         0.48958E-02
         0.48958E-02
         0.48958E-02
         0.48958E-02
         0.48958E-02
         0.48958E-02
         0.48958E-02
         0.48958E-02
         0.48958E-02
         0.48958E-02
         0.58750E-02
         0.58750E-02
         0.58750E-02
         0.58750E-02
         0.58750E-02
         0.58750E-02
         0.58750E-02
         0.58750E-02
         0.58750E-02
         0.58750E-02
         0.58750E-02
         0.58750E-02
         0.58750E-02
         0.58750E-02
         0.58750E-02
         0.58750E-02
         0.58750E-02
         0.58750E-02
         0.58750E-02
         0.58750E-02
         0.58750E-02
         0.58750E-02
         0.58750E-02
         0.58750E-02
         0.58750E-02
         0.58750E-02
         0.58750E-02
         0.58750E-02
         0.58750E-02
         0.58750E-02
         0.58750E-02
         0.58750E-02
         0.58750E-02
         0.58750E-02
         0.58750E-02
         0.58750E-02
         0.58750E-02
         0.58750E-02
         0.58750E-02
         0.58750E-02
         0.58750E-02
         0.58750E-02
         0.58750E-02
         0.58750E-02
         0.58750E-02
         0.58750E-02
         0.58750E-02
         0.58750E-02
         0.58750E-02
         0.58750E-02
         0.58750E-02
         0.58750E-02
         0.58750E-02
         0.58750E-02
         0.58750E-02
         0.58750E-02
         0.58750E-02
         0.58750E-02
         0.58750E-02
         0.58750E-02
         0.58750E-02
         0.58750E-02
         0.58750E-02
         0.58750E-02
         0.58750E-02
         0.58750E-02
         0.58750E-02
         0.58750E-02
         0.58750E-02
         0.58750E-02
         0.58750E-02
         0.58750E-02
         0.58750E-02
         0.58750E-02
         0.58750E-02
         0.58750E-02
         0.58750E-02
         0.58750E-02
         0.68542E-02
         0.68542E-02
         0.68542E-02
         0.68542E-02
         0.68542E-02
         0.68542E-02
         0.68542E-02
         0.68542E-02
         0.68542E-02
         0.68542E-02
         0.68542E-02
         0.68542E-02
         0.68542E-02
         0.68542E-02
         0.68542E-02
         0.68542E-02
         0.68542E-02
         0.68542E-02
         0.68542E-02
         0.68542E-02
         0.68542E-02
         0.68542E-02
         0.68542E-02
         0.68542E-02
         0.68542E-02
         0.68542E-02
         0.68542E-02
         0.68542E-02
         0.68542E-02
         0.68542E-02
         0.68542E-02
         0.68542E-02
         0.68542E-02
         0.68542E-02
         0.68542E-02
         0.68542E-02
         0.68542E-02
         0.68542E-02
         0.68542E-02
         0.68542E-02
         0.68542E-02
         0.68542E-02
         0.68542E-02
         0.68542E-02
         0.68542E-02
         0.68542E-02
         0.68542E-02
         0.68542E-02
         0.68542E-02
         0.68542E-02
         0.68542E-02
         0.68542E-02
         0.68542E-02
         0.68542E-02
         0.68542E-02
         0.68542E-02
         0.68542E-02
         0.68542E-02
         0.68542E-02
         0.68542E-02
         0.68542E-02
         0.68542E-02
         0.68542E-02
         0.68542E-02
         0.68542E-02
         0.68542E-02
         0.68542E-02
         0.68542E-02
         0.68542E-02
         0.68542E-02
         0.68542E-02
         0.68542E-02
         0.68542E-02
         0.68542E-02
         0.68542E-02
         0.68542E-02
         0.68542E-02
         0.68542E-02
         0.78333E-02
         0.78333E-02
         0.78333E-02
         0.78333E-02
         0.78333E-02
         0.78333E-02
         0.78333E-02
         0.78333E-02
         0.78333E-02
         0.78333E-02
         0.78333E-02
         0.78333E-02
         0.78333E-02
         0.78333E-02
         0.78333E-02
         0.78333E-02
         0.78333E-02
         0.78333E-02
         0.78333E-02
         0.78333E-02
         0.78333E-02
         0.78333E-02
         0.78333E-02
         0.78333E-02
         0.78333E-02
         0.78333E-02
         0.78333E-02
         0.78333E-02
         0.78333E-02
         0.78333E-02
         0.78333E-02
         0.78333E-02
         0.78333E-02
         0.78333E-02
         0.78333E-02
         0.78333E-02
         0.78333E-02
         0.78333E-02
         0.78333E-02
         0.78333E-02
         0.78333E-02
         0.78333E-02
         0.78333E-02
         0.78333E-02
         0.78333E-02
         0.78333E-02
         0.78333E-02
         0.78333E-02
         0.78333E-02
         0.78333E-02
         0.78333E-02
         0.78333E-02
         0.78333E-02
         0.78333E-02
         0.78333E-02
         0.78333E-02
         0.78333E-02
         0.78333E-02
         0.78333E-02
         0.78333E-02
         0.78333E-02
         0.78333E-02
         0.78333E-02
         0.78333E-02
         0.78333E-02
         0.78333E-02
         0.78333E-02
         0.78333E-02
         0.78333E-02
         0.78333E-02
         0.78333E-02
         0.78333E-02
         0.78333E-02
         0.78333E-02
         0.78333E-02
         0.78333E-02
         0.78333E-02
         0.78333E-02
         0.88125E-02
         0.88125E-02
         0.88125E-02
         0.88125E-02
         0.88125E-02
         0.88125E-02
         0.88125E-02
         0.88125E-02
         0.88125E-02
         0.88125E-02
         0.88125E-02
         0.88125E-02
         0.88125E-02
         0.88125E-02
         0.88125E-02
         0.88125E-02
         0.88125E-02
         0.88125E-02
         0.88125E-02
         0.88125E-02
         0.88125E-02
         0.88125E-02
         0.88125E-02
         0.88125E-02
         0.88125E-02
         0.88125E-02
         0.88125E-02
         0.88125E-02
         0.88125E-02
         0.88125E-02
         0.88125E-02
         0.88125E-02
         0.88125E-02
         0.88125E-02
         0.88125E-02
         0.88125E-02
         0.88125E-02
         0.88125E-02
         0.88125E-02
         0.88125E-02
         0.88125E-02
         0.88125E-02
         0.88125E-02
         0.88125E-02
         0.88125E-02
         0.88125E-02
         0.88125E-02
         0.88125E-02
         0.88125E-02
         0.88125E-02
         0.88125E-02
         0.88125E-02
         0.88125E-02
         0.88125E-02
         0.88125E-02
         0.88125E-02
         0.88125E-02
         0.88125E-02
         0.88125E-02
         0.88125E-02
         0.88125E-02
         0.88125E-02
         0.88125E-02
         0.88125E-02
         0.88125E-02
         0.88125E-02
         0.88125E-02
         0.88125E-02
         0.88125E-02
         0.88125E-02
         0.88125E-02
         0.88125E-02
         0.88125E-02
         0.88125E-02
         0.88125E-02
         0.88125E-02
         0.88125E-02
         0.88125E-02
         0.97917E-02
         0.97917E-02
         0.97917E-02
         0.97917E-02
         0.97917E-02
         0.97917E-02
         0.97917E-02
         0.97917E-02
         0.97917E-02
         0.97917E-02
         0.97917E-02
         0.97917E-02
         0.97917E-02
         0.97917E-02
         0.97917E-02
         0.97917E-02
         0.97917E-02
         0.97917E-02
         0.97917E-02
         0.97917E-02
         0.97917E-02
         0.97917E-02
         0.97917E-02
         0.97917E-02
         0.97917E-02
         0.97917E-02
         0.97917E-02
         0.97917E-02
         0.97917E-02
         0.97917E-02
         0.97917E-02
         0.97917E-02
         0.97917E-02
         0.97917E-02
         0.97917E-02
         0.97917E-02
         0.97917E-02
         0.97917E-02
         0.97917E-02
         0.97917E-02
         0.97917E-02
         0.97917E-02
         0.97917E-02
         0.97917E-02
         0.97917E-02
         0.97917E-02
         0.97917E-02
         0.97917E-02
         0.97917E-02
         0.97917E-02
         0.97917E-02
         0.97917E-02
         0.97917E-02
         0.97917E-02
         0.97917E-02
         0.97917E-02
         0.97917E-02
         0.97917E-02
         0.97917E-02
         0.97917E-02
         0.97917E-02
         0.97917E-02
         0.97917E-02
         0.97917E-02
         0.97917E-02
         0.97917E-02
         0.97917E-02
         0.97917E-02
         0.97917E-02
         0.97917E-02
         0.97917E-02
         0.97917E-02
         0.97917E-02
         0.97917E-02
         0.97917E-02
         0.97917E-02
         0.97917E-02
         0.97917E-02
         0.10771E-01
         0.10771E-01
         0.10771E-01
         0.10771E-01
         0.10771E-01
         0.10771E-01
         0.10771E-01
         0.10771E-01
         0.10771E-01
         0.10771E-01
         0.10771E-01
         0.10771E-01
         0.10771E-01
         0.10771E-01
         0.10771E-01
         0.10771E-01
         0.10771E-01
         0.10771E-01
         0.10771E-01
         0.10771E-01
         0.10771E-01
         0.10771E-01
         0.10771E-01
         0.10771E-01
         0.10771E-01
         0.10771E-01
         0.10771E-01
         0.10771E-01
         0.10771E-01
         0.10771E-01
         0.10771E-01
         0.10771E-01
         0.10771E-01
         0.10771E-01
         0.10771E-01
         0.10771E-01
         0.10771E-01
         0.10771E-01
         0.10771E-01
         0.10771E-01
         0.10771E-01
         0.10771E-01
         0.10771E-01
         0.10771E-01
         0.10771E-01
         0.10771E-01
         0.10771E-01
         0.10771E-01
         0.10771E-01
         0.10771E-01
         0.10771E-01
         0.10771E-01
         0.10771E-01
         0.10771E-01
         0.10771E-01
         0.10771E-01
         0.10771E-01
         0.10771E-01
         0.10771E-01
         0.10771E-01
         0.10771E-01
         0.10771E-01
         0.10771E-01
         0.10771E-01
         0.10771E-01
         0.10771E-01
         0.10771E-01
         0.10771E-01
         0.10771E-01
         0.10771E-01
         0.10771E-01
         0.10771E-01
         0.10771E-01
         0.10771E-01
         0.10771E-01
         0.10771E-01
         0.10771E-01
         0.10771E-01
         0.11750E-01
         0.11750E-01
         0.11750E-01
         0.11750E-01
         0.11750E-01
         0.11750E-01
         0.11750E-01
         0.11750E-01
         0.11750E-01
         0.11750E-01
         0.11750E-01
         0.11750E-01
         0.11750E-01
         0.11750E-01
         0.11750E-01
         0.11750E-01
         0.11750E-01
         0.11750E-01
         0.11750E-01
         0.11750E-01
         0.11750E-01
         0.11750E-01
         0.11750E-01
         0.11750E-01
         0.11750E-01
         0.11750E-01
         0.11750E-01
         0.11750E-01
         0.11750E-01
         0.11750E-01
         0.11750E-01
         0.11750E-01
         0.11750E-01
         0.11750E-01
         0.11750E-01
         0.11750E-01
         0.11750E-01
         0.11750E-01
         0.11750E-01
         0.11750E-01
         0.11750E-01
         0.11750E-01
         0.11750E-01
         0.11750E-01
         0.11750E-01
         0.11750E-01
         0.11750E-01
         0.11750E-01
         0.11750E-01
         0.11750E-01
         0.11750E-01
         0.11750E-01
         0.11750E-01
         0.11750E-01
         0.11750E-01
         0.11750E-01
         0.11750E-01
         0.11750E-01
         0.11750E-01
         0.11750E-01
         0.11750E-01
         0.11750E-01
         0.11750E-01
         0.11750E-01
         0.11750E-01
         0.11750E-01
         0.11750E-01
         0.11750E-01
         0.11750E-01
         0.11750E-01
         0.11750E-01
         0.11750E-01
         0.11750E-01
         0.11750E-01
         0.11750E-01
         0.11750E-01
         0.11750E-01
         0.11750E-01
  
SCALARS                init_velocity_x  double 1
LOOKUP_TABLE default
         0.00000E+00
         0.00000E+00
         0.00000E+00
         0.00000E+00
         0.00000E+00
         0.00000E+00
         0.00000E+00
         0.00000E+00
         0.00000E+00
         0.00000E+00
         0.00000E+00
         0.00000E+00
         0.00000E+00
         0.00000E+00
         0.00000E+00
         0.00000E+00
         0.00000E+00
         0.00000E+00
         0.00000E+00
         0.00000E+00
         0.00000E+00
         0.00000E+00
         0.00000E+00
         0.00000E+00
         0.00000E+00
         0.00000E+00
         0.00000E+00
         0.00000E+00
         0.00000E+00
         0.00000E+00
         0.00000E+00
         0.00000E+00
         0.00000E+00
         0.00000E+00
         0.00000E+00
         0.00000E+00
         0.00000E+00
         0.00000E+00
         0.00000E+00
         0.00000E+00
         0.00000E+00
         0.00000E+00
         0.00000E+00
         0.00000E+00
         0.00000E+00
         0.00000E+00
         0.00000E+00
         0.00000E+00
         0.00000E+00
         0.00000E+00
         0.00000E+00
         0.00000E+00
         0.00000E+00
         0.00000E+00
         0.00000E+00
         0.00000E+00
         0.00000E+00
         0.00000E+00
         0.00000E+00
         0.00000E+00
         0.00000E+00
         0.00000E+00
         0.00000E+00
         0.00000E+00
         0.00000E+00
         0.00000E+00
         0.00000E+00
         0.00000E+00
         0.00000E+00
         0.00000E+00
         0.00000E+00
         0.00000E+00
         0.00000E+00
         0.00000E+00
         0.00000E+00
         0.00000E+00
         0.00000E+00
         0.00000E+00
         0.00000E+00
         0.00000E+00
         0.00000E+00
         0.00000E+00
         0.00000E+00
         0.00000E+00
         0.00000E+00
         0.00000E+00
         0.00000E+00
         0.00000E+00
         0.00000E+00
         0.00000E+00
         0.00000E+00
         0.00000E+00
         0.00000E+00
         0.00000E+00
         0.00000E+00
         0.00000E+00
         0.00000E+00
         0.00000E+00
         0.00000E+00
         0.00000E+00
         0.00000E+00
         0.00000E+00
         0.00000E+00
         0.00000E+00
         0.00000E+00
         0.00000E+00
         0.00000E+00
         0.00000E+00
         0.00000E+00
         0.00000E+00
         0.00000E+00
         0.00000E+00
         0.00000E+00
         0.00000E+00
         0.00000E+00
         0.00000E+00
         0.00000E+00
         0.00000E+00
         0.00000E+00
         0.00000E+00
         0.00000E+00
         0.00000E+00
         0.00000E+00
         0.00000E+00
         0.00000E+00
         0.00000E+00
         0.00000E+00
         0.00000E+00
         0.00000E+00
         0.00000E+00
         0.00000E+00
         0.00000E+00
         0.00000E+00
         0.00000E+00
         0.00000E+00
         0.00000E+00
         0.00000E+00
         0.00000E+00
         0.00000E+00
         0.00000E+00
         0.00000E+00
         0.00000E+00
         0.00000E+00
         0.00000E+00
         0.00000E+00
         0.00000E+00
         0.00000E+00
         0.00000E+00
         0.00000E+00
         0.00000E+00
         0.00000E+00
         0.00000E+00
         0.00000E+00
         0.00000E+00
         0.00000E+00
         0.00000E+00
         0.00000E+00
         0.00000E+00
         0.00000E+00
         0.00000E+00
         0.00000E+00
         0.00000E+00
         0.00000E+00
         0.00000E+00
         0.00000E+00
         0.00000E+00
         0.00000E+00
         0.00000E+00
         0.00000E+00
         0.00000E+00
         0.00000E+00
         0.00000E+00
         0.00000E+00
         0.00000E+00
         0.00000E+00
         0.00000E+00
         0.00000E+00
         0.00000E+00
         0.00000E+00
         0.00000E+00
         0.00000E+00
         0.00000E+00
         0.00000E+00
         0.00000E+00
         0.00000E+00
         0.00000E+00
         0.00000E+00
         0.00000E+00
         0.00000E+00
         0.00000E+00
         0.00000E+00
         0.00000E+00
         0.00000E+00
         0.00000E+00
         0.00000E+00
         0.00000E+00
         0.00000E+00
         0.00000E+00
         0.00000E+00
         0.00000E+00
         0.00000E+00
         0.00000E+00
         0.00000E+00
         0.00000E+00
         0.00000E+00
         0.00000E+00
         0.00000E+00
         0.00000E+00
         0.00000E+00
         0.00000E+00
         0.00000E+00
         0.00000E+00
         0.00000E+00
         0.00000E+00
         0.00000E+00
         0.00000E+00
         0.00000E+00
         0.00000E+00
         0.00000E+00
         0.00000E+00
         0.00000E+00
         0.00000E+00
         0.00000E+00
         0.00000E+00
         0.00000E+00
         0.00000E+00
         0.00000E+00
         0.00000E+00
         0.00000E+00
         0.00000E+00
         0.00000E+00
         0.00000E+00
         0.00000E+00
         0.00000E+00
         0.00000E+00
         0.00000E+00
         0.00000E+00
         0.00000E+00
         0.00000E+00
         0.00000E+00
         0.00000E+00
         0.00000E+00
         0.00000E+00
         0.00000E+00
         0.00000E+00
         0.00000E+00
         0.00000E+00
         0.00000E+00
         0.00000E+00
         0.00000E+00
         0.00000E+00
         0.00000E+00
         0.00000E+00
         0.00000E+00
         0.00000E+00
         0.00000E+00
         0.00000E+00
         0.00000E+00
         0.00000E+00
         0.00000E+00
         0.00000E+00
         0.00000E+00
         0.00000E+00
         0.00000E+00
         0.00000E+00
         0.00000E+00
         0.00000E+00
         0.00000E+00
         0.00000E+00
         0.00000E+00
         0.00000E+00
         0.00000E+00
         0.00000E+00
         0.00000E+00
         0.00000E+00
         0.00000E+00
         0.00000E+00
         0.00000E+00
         0.00000E+00
         0.00000E+00
         0.00000E+00
         0.00000E+00
         0.00000E+00
         0.00000E+00
         0.00000E+00
         0.00000E+00
         0.00000E+00
         0.00000E+00
         0.00000E+00
         0.00000E+00
         0.00000E+00
         0.00000E+00
         0.00000E+00
         0.00000E+00
         0.00000E+00
         0.00000E+00
         0.00000E+00
         0.00000E+00
         0.00000E+00
         0.00000E+00
         0.00000E+00
         0.00000E+00
         0.00000E+00
         0.00000E+00
         0.00000E+00
         0.00000E+00
         0.00000E+00
         0.00000E+00
         0.00000E+00
         0.00000E+00
         0.00000E+00
         0.00000E+00
         0.00000E+00
         0.00000E+00
         0.00000E+00
         0.00000E+00
         0.00000E+00
         0.00000E+00
         0.00000E+00
         0.00000E+00
         0.00000E+00
         0.00000E+00
         0.00000E+00
         0.00000E+00
         0.00000E+00
         0.00000E+00
         0.00000E+00
         0.00000E+00
         0.00000E+00
         0.00000E+00
         0.00000E+00
         0.00000E+00
         0.00000E+00
         0.00000E+00
         0.00000E+00
         0.00000E+00
         0.00000E+00
         0.00000E+00
         0.00000E+00
         0.00000E+00
         0.00000E+00
         0.00000E+00
         0.00000E+00
         0.00000E+00
         0.00000E+00
         0.00000E+00
         0.00000E+00
         0.00000E+00
         0.00000E+00
         0.00000E+00
         0.00000E+00
         0.00000E+00
         0.00000E+00
         0.00000E+00
         0.00000E+00
         0.00000E+00
         0.00000E+00
         0.00000E+00
         0.00000E+00
         0.00000E+00
         0.00000E+00
         0.00000E+00
         0.00000E+00
         0.00000E+00
         0.00000E+00
         0.00000E+00
         0.00000E+00
         0.00000E+00
         0.00000E+00
         0.00000E+00
         0.00000E+00
         0.00000E+00
         0.00000E+00
         0.00000E+00
         0.00000E+00
         0.00000E+00
         0.00000E+00
         0.00000E+00
         0.00000E+00
         0.00000E+00
         0.00000E+00
         0.00000E+00
         0.00000E+00
         0.00000E+00
         0.00000E+00
         0.00000E+00
         0.00000E+00
         0.00000E+00
         0.00000E+00
         0.00000E+00
         0.00000E+00
         0.00000E+00
         0.00000E+00
         0.00000E+00
         0.00000E+00
         0.00000E+00
         0.00000E+00
         0.00000E+00
         0.00000E+00
         0.00000E+00
         0.00000E+00
         0.00000E+00
         0.00000E+00
         0.00000E+00
         0.00000E+00
         0.00000E+00
         0.00000E+00
         0.00000E+00
         0.00000E+00
         0.00000E+00
         0.00000E+00
         0.00000E+00
         0.00000E+00
         0.00000E+00
         0.00000E+00
         0.00000E+00
         0.00000E+00
         0.00000E+00
         0.00000E+00
         0.00000E+00
         0.00000E+00
         0.00000E+00
         0.00000E+00
         0.00000E+00
         0.00000E+00
         0.00000E+00
         0.00000E+00
         0.00000E+00
         0.00000E+00
         0.00000E+00
         0.00000E+00
         0.00000E+00
         0.00000E+00
         0.00000E+00
         0.00000E+00
         0.00000E+00
         0.00000E+00
         0.00000E+00
         0.00000E+00
         0.00000E+00
         0.00000E+00
         0.00000E+00
         0.00000E+00
         0.00000E+00
         0.00000E+00
         0.00000E+00
         0.00000E+00
         0.00000E+00
         0.00000E+00
         0.00000E+00
         0.00000E+00
         0.00000E+00
         0.00000E+00
         0.00000E+00
         0.00000E+00
         0.00000E+00
         0.00000E+00
         0.00000E+00
         0.00000E+00
         0.00000E+00
         0.00000E+00
         0.00000E+00
         0.00000E+00
         0.00000E+00
         0.00000E+00
         0.00000E+00
         0.00000E+00
         0.00000E+00
         0.00000E+00
         0.00000E+00
         0.00000E+00
         0.00000E+00
         0.00000E+00
         0.00000E+00
         0.00000E+00
         0.00000E+00
         0.00000E+00
         0.00000E+00
         0.00000E+00
         0.00000E+00
         0.00000E+00
         0.00000E+00
         0.00000E+00
         0.00000E+00
         0.00000E+00
         0.00000E+00
         0.00000E+00
         0.00000E+00
         0.00000E+00
         0.00000E+00
         0.00000E+00
         0.00000E+00
         0.00000E+00
         0.00000E+00
         0.00000E+00
         0.00000E+00
         0.00000E+00
         0.00000E+00
         0.00000E+00
         0.00000E+00
         0.00000E+00
         0.00000E+00
         0.00000E+00
         0.00000E+00
         0.00000E+00
         0.00000E+00
         0.00000E+00
         0.00000E+00
         0.00000E+00
         0.00000E+00
         0.00000E+00
         0.00000E+00
         0.00000E+00
         0.00000E+00
         0.00000E+00
         0.00000E+00
         0.00000E+00
         0.00000E+00
         0.00000E+00
         0.00000E+00
         0.00000E+00
         0.00000E+00
         0.00000E+00
         0.00000E+00
         0.00000E+00
         0.00000E+00
         0.00000E+00
         0.00000E+00
         0.00000E+00
         0.00000E+00
         0.00000E+00
         0.00000E+00
         0.00000E+00
         0.00000E+00
         0.00000E+00
         0.00000E+00
         0.00000E+00
         0.00000E+00
         0.00000E+00
         0.00000E+00
         0.00000E+00
         0.00000E+00
         0.00000E+00
         0.00000E+00
         0.00000E+00
         0.00000E+00
         0.00000E+00
         0.00000E+00
         0.00000E+00
         0.00000E+00
         0.00000E+00
         0.00000E+00
         0.00000E+00
         0.00000E+00
         0.00000E+00
         0.00000E+00
         0.00000E+00
         0.00000E+00
         0.00000E+00
         0.00000E+00
         0.00000E+00
         0.00000E+00
         0.00000E+00
         0.00000E+00
         0.00000E+00
         0.00000E+00
         0.00000E+00
         0.00000E+00
         0.00000E+00
         0.00000E+00
         0.00000E+00
         0.00000E+00
         0.00000E+00
         0.00000E+00
         0.00000E+00
         0.00000E+00
         0.00000E+00
         0.00000E+00
         0.00000E+00
         0.00000E+00
         0.00000E+00
         0.00000E+00
         0.00000E+00
         0.00000E+00
         0.00000E+00
         0.00000E+00
         0.00000E+00
         0.00000E+00
         0.00000E+00
         0.00000E+00
         0.00000E+00
         0.00000E+00
         0.00000E+00
         0.00000E+00
         0.00000E+00
         0.00000E+00
         0.00000E+00
         0.00000E+00
         0.00000E+00
         0.00000E+00
         0.00000E+00
         0.00000E+00
         0.00000E+00
         0.00000E+00
         0.00000E+00
         0.00000E+00
         0.00000E+00
         0.00000E+00
         0.00000E+00
         0.00000E+00
         0.00000E+00
         0.00000E+00
         0.00000E+00
         0.00000E+00
         0.00000E+00
         0.00000E+00
         0.00000E+00
         0.00000E+00
         0.00000E+00
         0.00000E+00
         0.00000E+00
         0.00000E+00
         0.00000E+00
         0.00000E+00
         0.00000E+00
         0.00000E+00
         0.00000E+00
         0.00000E+00
         0.00000E+00
         0.00000E+00
         0.00000E+00
         0.00000E+00
         0.00000E+00
         0.00000E+00
         0.00000E+00
         0.00000E+00
         0.00000E+00
         0.00000E+00
         0.00000E+00
         0.00000E+00
         0.00000E+00
         0.00000E+00
         0.00000E+00
         0.00000E+00
         0.00000E+00
         0.00000E+00
         0.00000E+00
         0.00000E+00
         0.00000E+00
         0.00000E+00
         0.00000E+00
         0.00000E+00
         0.00000E+00
         0.00000E+00
         0.00000E+00
         0.00000E+00
         0.00000E+00
         0.00000E+00
         0.00000E+00
         0.00000E+00
         0.00000E+00
         0.00000E+00
         0.00000E+00
         0.00000E+00
         0.00000E+00
         0.00000E+00
         0.00000E+00
         0.00000E+00
         0.00000E+00
         0.00000E+00
         0.00000E+00
         0.00000E+00
         0.00000E+00
         0.00000E+00
         0.00000E+00
         0.00000E+00
         0.00000E+00
         0.00000E+00
         0.00000E+00
         0.00000E+00
         0.00000E+00
         0.00000E+00
         0.00000E+00
         0.00000E+00
         0.00000E+00
         0.00000E+00
         0.00000E+00
         0.00000E+00
         0.00000E+00
         0.00000E+00
         0.00000E+00
         0.00000E+00
         0.00000E+00
         0.00000E+00
         0.00000E+00
         0.00000E+00
         0.00000E+00
         0.00000E+00
         0.00000E+00
         0.00000E+00
         0.00000E+00
         0.00000E+00
         0.00000E+00
         0.00000E+00
         0.00000E+00
         0.00000E+00
         0.00000E+00
         0.00000E+00
         0.00000E+00
         0.00000E+00
         0.00000E+00
         0.00000E+00
         0.00000E+00
         0.00000E+00
         0.00000E+00
         0.00000E+00
         0.00000E+00
         0.00000E+00
         0.00000E+00
         0.00000E+00
         0.00000E+00
         0.00000E+00
         0.00000E+00
         0.00000E+00
         0.00000E+00
         0.00000E+00
         0.00000E+00
         0.00000E+00
         0.00000E+00
         0.00000E+00
         0.00000E+00
         0.00000E+00
         0.00000E+00
         0.00000E+00
         0.00000E+00
         0.00000E+00
         0.00000E+00
         0.00000E+00
         0.00000E+00
         0.00000E+00
         0.00000E+00
         0.00000E+00
         0.00000E+00
         0.00000E+00
         0.00000E+00
         0.00000E+00
         0.00000E+00
         0.00000E+00
         0.00000E+00
         0.00000E+00
         0.00000E+00
         0.00000E+00
         0.00000E+00
         0.00000E+00
         0.00000E+00
         0.00000E+00
         0.00000E+00
         0.00000E+00
         0.00000E+00
         0.00000E+00
         0.00000E+00
         0.00000E+00
         0.00000E+00
         0.00000E+00
         0.00000E+00
         0.00000E+00
         0.00000E+00
         0.00000E+00
         0.00000E+00
         0.00000E+00
         0.00000E+00
         0.00000E+00
         0.00000E+00
         0.00000E+00
         0.00000E+00
         0.00000E+00
         0.00000E+00
         0.00000E+00
         0.00000E+00
         0.00000E+00
         0.00000E+00
         0.00000E+00
         0.00000E+00
         0.00000E+00
         0.00000E+00
         0.00000E+00
         0.00000E+00
         0.00000E+00
         0.00000E+00
         0.00000E+00
         0.00000E+00
         0.00000E+00
         0.00000E+00
         0.00000E+00
         0.00000E+00
         0.00000E+00
         0.00000E+00
         0.00000E+00
         0.00000E+00
         0.00000E+00
         0.00000E+00
         0.00000E+00
         0.00000E+00
         0.00000E+00
         0.00000E+00
         0.00000E+00
         0.00000E+00
         0.00000E+00
         0.00000E+00
         0.00000E+00
         0.00000E+00
         0.00000E+00
         0.00000E+00
         0.00000E+00
         0.00000E+00
         0.00000E+00
         0.00000E+00
         0.00000E+00
         0.00000E+00
         0.00000E+00
         0.00000E+00
         0.00000E+00
         0.00000E+00
         0.00000E+00
         0.00000E+00
         0.00000E+00
         0.00000E+00
         0.00000E+00
         0.00000E+00
         0.00000E+00
         0.00000E+00
         0.00000E+00
         0.00000E+00
         0.00000E+00
         0.00000E+00
         0.00000E+00
         0.00000E+00
         0.00000E+00
         0.00000E+00
         0.00000E+00
         0.00000E+00
         0.00000E+00
         0.00000E+00
         0.00000E+00
         0.00000E+00
         0.00000E+00
         0.00000E+00
         0.00000E+00
         0.00000E+00
         0.00000E+00
         0.00000E+00
         0.00000E+00
         0.00000E+00
         0.00000E+00
         0.00000E+00
         0.00000E+00
         0.00000E+00
         0.00000E+00
         0.00000E+00
         0.00000E+00
         0.00000E+00
         0.00000E+00
         0.00000E+00
         0.00000E+00
         0.00000E+00
         0.00000E+00
         0.00000E+00
         0.00000E+00
         0.00000E+00
         0.00000E+00
         0.00000E+00
         0.00000E+00
         0.00000E+00
         0.00000E+00
         0.00000E+00
         0.00000E+00
         0.00000E+00
         0.00000E+00
         0.00000E+00
         0.00000E+00
         0.00000E+00
         0.00000E+00
         0.00000E+00
         0.00000E+00
         0.00000E+00
         0.00000E+00
         0.00000E+00
         0.00000E+00
         0.00000E+00
         0.00000E+00
         0.00000E+00
         0.00000E+00
         0.00000E+00
         0.00000E+00
         0.00000E+00
         0.00000E+00
         0.00000E+00
         0.00000E+00
         0.00000E+00
         0.00000E+00
         0.00000E+00
         0.00000E+00
         0.00000E+00
         0.00000E+00
         0.00000E+00
         0.00000E+00
         0.00000E+00
         0.00000E+00
         0.00000E+00
         0.00000E+00
         0.00000E+00
         0.00000E+00
         0.00000E+00
         0.00000E+00
         0.00000E+00
         0.00000E+00
         0.00000E+00
         0.00000E+00
         0.00000E+00
         0.00000E+00
         0.00000E+00
         0.00000E+00
         0.00000E+00
         0.00000E+00
         0.00000E+00
         0.00000E+00
         0.00000E+00
         0.00000E+00
         0.00000E+00
         0.00000E+00
         0.00000E+00
         0.00000E+00
         0.00000E+00
         0.00000E+00
         0.00000E+00
         0.00000E+00
         0.00000E+00
         0.00000E+00
         0.00000E+00
         0.00000E+00
         0.00000E+00
         0.00000E+00
         0.00000E+00
         0.00000E+00
         0.00000E+00
         0.00000E+00
         0.00000E+00
         0.00000E+00
         0.00000E+00
         0.00000E+00
         0.00000E+00
         0.00000E+00
         0.00000E+00
         0.00000E+00
         0.00000E+00
         0.00000E+00
         0.00000E+00
         0.00000E+00
         0.00000E+00
         0.00000E+00
         0.00000E+00
         0.00000E+00
         0.00000E+00
         0.00000E+00
         0.00000E+00
         0.00000E+00
         0.00000E+00
         0.00000E+00
         0.00000E+00
         0.00000E+00
         0.00000E+00
         0.00000E+00
         0.00000E+00
         0.00000E+00
         0.00000E+00
         0.00000E+00
         0.00000E+00
         0.00000E+00
         0.00000E+00
         0.00000E+00
         0.00000E+00
         0.00000E+00
         0.00000E+00
         0.00000E+00
         0.00000E+00
         0.00000E+00
         0.00000E+00
         0.00000E+00
         0.00000E+00
         0.00000E+00
         0.00000E+00
         0.00000E+00
         0.00000E+00
         0.00000E+00
         0.00000E+00
         0.00000E+00
         0.00000E+00
         0.00000E+00
         0.00000E+00
         0.00000E+00
         0.00000E+00
         0.00000E+00
         0.00000E+00
         0.00000E+00
         0.00000E+00
         0.00000E+00
         0.00000E+00
         0.00000E+00
         0.00000E+00
         0.00000E+00
         0.00000E+00
         0.00000E+00
         0.00000E+00
         0.00000E+00
         0.00000E+00
         0.00000E+00
         0.00000E+00
         0.00000E+00
         0.00000E+00
         0.00000E+00
         0.00000E+00
         0.00000E+00
         0.00000E+00
         0.00000E+00
         0.00000E+00
         0.00000E+00
         0.00000E+00
         0.00000E+00
         0.00000E+00
         0.00000E+00
         0.00000E+00
         0.00000E+00
         0.00000E+00
         0.00000E+00
         0.00000E+00
         0.00000E+00
         0.00000E+00
         0.00000E+00
         0.00000E+00
         0.00000E+00
         0.00000E+00
         0.00000E+00
         0.00000E+00
         0.00000E+00
         0.00000E+00
         0.00000E+00
         0.00000E+00
         0.00000E+00
         0.00000E+00
         0.00000E+00
         0.00000E+00
         0.00000E+00
         0.00000E+00
         0.00000E+00
         0.00000E+00
         0.00000E+00
         0.00000E+00
         0.00000E+00
         0.00000E+00
         0.00000E+00
         0.00000E+00
         0.00000E+00
         0.00000E+00
         0.00000E+00
         0.00000E+00
         0.00000E+00
         0.00000E+00
         0.00000E+00
         0.00000E+00
         0.00000E+00
         0.00000E+00
         0.00000E+00
         0.00000E+00
         0.00000E+00
         0.00000E+00
         0.00000E+00
         0.00000E+00
         0.00000E+00
         0.00000E+00
         0.00000E+00
         0.00000E+00
         0.00000E+00
         0.00000E+00
         0.00000E+00
         0.00000E+00
         0.00000E+00
         0.00000E+00
         0.00000E+00
         0.00000E+00
         0.00000E+00
         0.00000E+00
         0.00000E+00
         0.00000E+00
         0.00000E+00
         0.00000E+00
         0.00000E+00
         0.00000E+00
         0.00000E+00
         0.00000E+00
         0.00000E+00
         0.00000E+00
         0.00000E+00
         0.00000E+00
         0.00000E+00
         0.00000E+00
         0.00000E+00
         0.00000E+00
         0.00000E+00
         0.00000E+00
         0.00000E+00
         0.00000E+00
         0.00000E+00
         0.00000E+00
         0.00000E+00
         0.00000E+00
         0.00000E+00
         0.00000E+00
         0.00000E+00
         0.00000E+00
         0.00000E+00
         0.00000E+00
         0.00000E+00
         0.00000E+00
         0.00000E+00
         0.00000E+00
         0.00000E+00
         0.00000E+00
         0.00000E+00
         0.00000E+00
         0.00000E+00
         0.00000E+00
         0.00000E+00
         0.00000E+00
         0.00000E+00
         0.00000E+00
         0.00000E+00
         0.00000E+00
         0.00000E+00
         0.00000E+00
         0.00000E+00
         0.00000E+00
         0.00000E+00
         0.00000E+00
         0.00000E+00
         0.00000E+00
         0.00000E+00
         0.00000E+00
         0.00000E+00
         0.00000E+00
         0.00000E+00
         0.00000E+00
         0.00000E+00
         0.00000E+00
         0.00000E+00
         0.00000E+00
         0.00000E+00
         0.00000E+00
         0.00000E+00
         0.00000E+00
         0.00000E+00
         0.00000E+00
         0.00000E+00
         0.00000E+00
         0.00000E+00
         0.00000E+00
         0.00000E+00
         0.00000E+00
         0.00000E+00
         0.00000E+00
         0.00000E+00
         0.00000E+00
         0.00000E+00
         0.00000E+00
         0.00000E+00
         0.00000E+00
         0.00000E+00
         0.00000E+00
         0.00000E+00
         0.00000E+00
         0.00000E+00
         0.00000E+00
         0.00000E+00
         0.00000E+00
         0.00000E+00
         0.00000E+00
         0.00000E+00
         0.00000E+00
         0.00000E+00
         0.00000E+00
         0.00000E+00
         0.00000E+00
         0.00000E+00
         0.00000E+00
         0.00000E+00
         0.00000E+00
         0.00000E+00
         0.00000E+00
         0.00000E+00
         0.00000E+00
         0.00000E+00
         0.00000E+00
         0.00000E+00
         0.00000E+00
         0.00000E+00
         0.00000E+00
         0.00000E+00
         0.00000E+00
         0.00000E+00
         0.00000E+00
         0.00000E+00
         0.00000E+00
         0.00000E+00
         0.00000E+00
         0.00000E+00
         0.00000E+00
         0.00000E+00
         0.00000E+00
         0.00000E+00
         0.00000E+00
         0.00000E+00
         0.00000E+00
         0.00000E+00
         0.00000E+00
         0.00000E+00
         0.00000E+00
         0.00000E+00
         0.00000E+00
         0.00000E+00
         0.00000E+00
         0.00000E+00
         0.00000E+00
         0.00000E+00
         0.00000E+00
         0.00000E+00
         0.00000E+00
         0.00000E+00
         0.00000E+00
         0.00000E+00
         0.00000E+00
         0.00000E+00
         0.00000E+00
         0.00000E+00
         0.00000E+00
         0.00000E+00
         0.00000E+00
         0.00000E+00
         0.00000E+00
         0.00000E+00
         0.00000E+00
         0.00000E+00
         0.00000E+00
         0.00000E+00
         0.00000E+00
         0.00000E+00
         0.00000E+00
         0.00000E+00
         0.00000E+00
         0.00000E+00
         0.00000E+00
         0.00000E+00
         0.00000E+00
         0.00000E+00
         0.00000E+00
         0.00000E+00
         0.00000E+00
         0.00000E+00
         0.00000E+00
         0.00000E+00
         0.00000E+00
         0.00000E+00
         0.00000E+00
         0.00000E+00
         0.00000E+00
         0.00000E+00
         0.00000E+00
         0.00000E+00
         0.00000E+00
         0.00000E+00
         0.00000E+00
         0.00000E+00
         0.00000E+00
         0.00000E+00
         0.00000E+00
         0.00000E+00
         0.00000E+00
         0.00000E+00
         0.00000E+00
         0.00000E+00
         0.00000E+00
         0.00000E+00
         0.00000E+00
         0.00000E+00
         0.00000E+00
         0.00000E+00
         0.00000E+00
         0.00000E+00
         0.00000E+00
         0.00000E+00
         0.00000E+00
         0.00000E+00
         0.00000E+00
         0.00000E+00
         0.00000E+00
         0.00000E+00
         0.00000E+00
         0.00000E+00
         0.00000E+00
         0.00000E+00
         0.00000E+00
         0.00000E+00
         0.00000E+00
         0.00000E+00
         0.00000E+00
         0.00000E+00
         0.00000E+00
         0.00000E+00
         0.00000E+00
         0.00000E+00
         0.00000E+00
         0.00000E+00
         0.00000E+00
         0.00000E+00
         0.00000E+00
         0.00000E+00
         0.00000E+00
         0.00000E+00
         0.00000E+00
         0.00000E+00
         0.00000E+00
         0.00000E+00
         0.00000E+00
         0.00000E+00
         0.00000E+00
         0.00000E+00
         0.00000E+00
         0.00000E+00
         0.00000E+00
         0.00000E+00
         0.00000E+00
         0.00000E+00
         0.00000E+00
         0.00000E+00
         0.00000E+00
         0.00000E+00
         0.00000E+00
         0.00000E+00
         0.00000E+00
         0.00000E+00
         0.00000E+00
         0.00000E+00
         0.00000E+00
         0.00000E+00
         0.00000E+00
         0.00000E+00
         0.00000E+00
         0.00000E+00
         0.00000E+00
         0.00000E+00
         0.00000E+00
         0.00000E+00
         0.00000E+00
         0.00000E+00
         0.00000E+00
         0.00000E+00
         0.00000E+00
         0.00000E+00
         0.00000E+00
         0.00000E+00
         0.00000E+00
         0.00000E+00
         0.00000E+00
         0.00000E+00
         0.00000E+00
         0.00000E+00
         0.00000E+00
         0.00000E+00
         0.00000E+00
         0.00000E+00
         0.00000E+00
         0.00000E+00
         0.00000E+00
         0.00000E+00
         0.00000E+00
         0.00000E+00
         0.00000E+00
         0.00000E+00
         0.00000E+00
         0.00000E+00
         0.00000E+00
         0.00000E+00
         0.00000E+00
         0.00000E+00
         0.00000E+00
         0.00000E+00
         0.00000E+00
         0.00000E+00
         0.00000E+00
         0.00000E+00
         0.00000E+00
         0.00000E+00
         0.00000E+00
         0.00000E+00
         0.00000E+00
         0.00000E+00
         0.00000E+00
         0.00000E+00
         0.00000E+00
         0.00000E+00
         0.00000E+00
         0.00000E+00
         0.00000E+00
         0.00000E+00
         0.00000E+00
         0.00000E+00
         0.00000E+00
         0.00000E+00
         0.00000E+00
         0.00000E+00
         0.00000E+00
         0.00000E+00
         0.00000E+00
         0.00000E+00
         0.00000E+00
         0.00000E+00
         0.00000E+00
         0.00000E+00
         0.00000E+00
         0.00000E+00
         0.00000E+00
         0.00000E+00
         0.00000E+00
         0.00000E+00
         0.00000E+00
         0.00000E+00
         0.00000E+00
         0.00000E+00
         0.00000E+00
         0.00000E+00
         0.00000E+00
         0.00000E+00
         0.00000E+00
         0.00000E+00
         0.00000E+00
         0.00000E+00
         0.00000E+00
         0.00000E+00
         0.00000E+00
         0.00000E+00
         0.00000E+00
         0.00000E+00
         0.00000E+00
         0.00000E+00
         0.00000E+00
         0.00000E+00
         0.00000E+00
         0.00000E+00
         0.00000E+00
         0.00000E+00
         0.00000E+00
         0.00000E+00
         0.00000E+00
         0.00000E+00
         0.00000E+00
         0.00000E+00
         0.00000E+00
         0.00000E+00
         0.00000E+00
         0.00000E+00
         0.00000E+00
         0.00000E+00
         0.00000E+00
         0.00000E+00
         0.00000E+00
         0.00000E+00
         0.00000E+00
         0.00000E+00
         0.00000E+00
         0.00000E+00
         0.00000E+00
         0.00000E+00
         0.00000E+00
         0.00000E+00
         0.00000E+00
         0.00000E+00
         0.00000E+00
         0.00000E+00
         0.00000E+00
         0.00000E+00
         0.00000E+00
         0.00000E+00
         0.00000E+00
         0.00000E+00
         0.00000E+00
         0.00000E+00
         0.00000E+00
         0.00000E+00
         0.00000E+00
         0.00000E+00
         0.00000E+00
         0.00000E+00
         0.00000E+00
         0.00000E+00
         0.00000E+00
         0.00000E+00
         0.00000E+00
         0.00000E+00
         0.00000E+00
         0.00000E+00
         0.00000E+00
         0.00000E+00
         0.00000E+00
         0.00000E+00
         0.00000E+00
         0.00000E+00
         0.00000E+00
         0.00000E+00
         0.00000E+00
         0.00000E+00
         0.00000E+00
         0.00000E+00
         0.00000E+00
         0.00000E+00
         0.00000E+00
         0.00000E+00
         0.00000E+00
         0.00000E+00
         0.00000E+00
         0.00000E+00
         0.00000E+00
         0.00000E+00
         0.00000E+00
         0.00000E+00
         0.00000E+00
         0.00000E+00
         0.00000E+00
         0.00000E+00
         0.00000E+00
         0.00000E+00
         0.00000E+00
         0.00000E+00
         0.00000E+00
         0.00000E+00
         0.00000E+00
         0.00000E+00
         0.00000E+00
         0.00000E+00
         0.00000E+00
         0.00000E+00
         0.00000E+00
         0.00000E+00
         0.00000E+00
         0.00000E+00
         0.00000E+00
         0.00000E+00
         0.00000E+00
         0.00000E+00
         0.00000E+00
         0.00000E+00
         0.00000E+00
         0.00000E+00
         0.00000E+00
         0.00000E+00
         0.00000E+00
         0.00000E+00
         0.00000E+00
         0.00000E+00
         0.00000E+00
         0.00000E+00
         0.00000E+00
         0.00000E+00
         0.00000E+00
         0.00000E+00
         0.00000E+00
         0.00000E+00
         0.00000E+00
         0.00000E+00
         0.00000E+00
         0.00000E+00
         0.00000E+00
         0.00000E+00
         0.00000E+00
         0.00000E+00
         0.00000E+00
         0.00000E+00
         0.00000E+00
         0.00000E+00
         0.00000E+00
         0.00000E+00
         0.00000E+00
         0.00000E+00
         0.00000E+00
         0.00000E+00
         0.00000E+00
         0.00000E+00
         0.00000E+00
         0.00000E+00
         0.00000E+00
         0.00000E+00
         0.00000E+00
         0.00000E+00
         0.00000E+00
         0.00000E+00
         0.00000E+00
         0.00000E+00
         0.00000E+00
         0.00000E+00
         0.00000E+00
         0.00000E+00
         0.00000E+00
         0.00000E+00
         0.00000E+00
         0.00000E+00
         0.00000E+00
         0.00000E+00
         0.00000E+00
         0.00000E+00
         0.00000E+00
         0.00000E+00
         0.00000E+00
         0.00000E+00
         0.00000E+00
         0.00000E+00
         0.00000E+00
         0.00000E+00
         0.00000E+00
         0.00000E+00
         0.00000E+00
         0.00000E+00
         0.00000E+00
         0.00000E+00
         0.00000E+00
         0.00000E+00
         0.00000E+00
         0.00000E+00
         0.00000E+00
         0.00000E+00
         0.00000E+00
         0.00000E+00
         0.00000E+00
         0.00000E+00
         0.00000E+00
         0.00000E+00
         0.00000E+00
         0.00000E+00
         0.00000E+00
         0.00000E+00
         0.00000E+00
         0.00000E+00
         0.00000E+00
         0.00000E+00
         0.00000E+00
         0.00000E+00
         0.00000E+00
         0.00000E+00
         0.00000E+00
         0.00000E+00
         0.00000E+00
         0.00000E+00
         0.00000E+00
         0.00000E+00
         0.00000E+00
         0.00000E+00
         0.00000E+00
         0.00000E+00
         0.00000E+00
         0.00000E+00
         0.00000E+00
         0.00000E+00
         0.00000E+00
         0.00000E+00
         0.00000E+00
         0.00000E+00
         0.00000E+00
         0.00000E+00
         0.00000E+00
         0.00000E+00
         0.00000E+00
         0.00000E+00
         0.00000E+00
         0.00000E+00
         0.00000E+00
         0.00000E+00
         0.00000E+00
         0.00000E+00
         0.00000E+00
         0.00000E+00
         0.00000E+00
         0.00000E+00
         0.00000E+00
         0.00000E+00
         0.00000E+00
         0.00000E+00
         0.00000E+00
         0.00000E+00
         0.00000E+00
         0.00000E+00
         0.00000E+00
         0.00000E+00
         0.00000E+00
         0.00000E+00
         0.00000E+00
         0.00000E+00
         0.00000E+00
         0.00000E+00
         0.00000E+00
         0.00000E+00
         0.00000E+00
         0.00000E+00
         0.00000E+00
         0.00000E+00
         0.00000E+00
         0.00000E+00
         0.00000E+00
         0.00000E+00
         0.00000E+00
         0.00000E+00
         0.00000E+00
         0.00000E+00
         0.00000E+00
         0.00000E+00
         0.00000E+00
         0.00000E+00
         0.00000E+00
         0.00000E+00
         0.00000E+00
         0.00000E+00
         0.00000E+00
         0.00000E+00
         0.00000E+00
         0.00000E+00
         0.00000E+00
         0.00000E+00
         0.00000E+00
         0.00000E+00
         0.00000E+00
         0.00000E+00
         0.00000E+00
         0.00000E+00
         0.00000E+00
         0.00000E+00
         0.00000E+00
         0.00000E+00
         0.00000E+00
         0.00000E+00
         0.00000E+00
         0.00000E+00
         0.00000E+00
         0.00000E+00
         0.00000E+00
         0.00000E+00
         0.00000E+00
         0.00000E+00
         0.00000E+00
         0.00000E+00
         0.00000E+00
         0.00000E+00
         0.00000E+00
         0.00000E+00
         0.00000E+00
         0.00000E+00
         0.00000E+00
         0.00000E+00
         0.00000E+00
         0.00000E+00
         0.00000E+00
         0.00000E+00
         0.00000E+00
         0.00000E+00
         0.00000E+00
         0.00000E+00
         0.00000E+00
         0.00000E+00
         0.00000E+00
         0.00000E+00
         0.00000E+00
         0.00000E+00
         0.00000E+00
         0.00000E+00
         0.00000E+00
         0.00000E+00
         0.00000E+00
         0.00000E+00
         0.00000E+00
         0.00000E+00
         0.00000E+00
         0.00000E+00
         0.00000E+00
         0.00000E+00
         0.00000E+00
         0.00000E+00
         0.00000E+00
         0.00000E+00
         0.00000E+00
         0.00000E+00
         0.00000E+00
         0.00000E+00
         0.00000E+00
         0.00000E+00
         0.00000E+00
         0.00000E+00
         0.00000E+00
         0.00000E+00
         0.00000E+00
         0.00000E+00
         0.00000E+00
         0.00000E+00
         0.00000E+00
         0.00000E+00
         0.00000E+00
         0.00000E+00
         0.00000E+00
         0.00000E+00
         0.00000E+00
         0.00000E+00
         0.00000E+00
         0.00000E+00
         0.00000E+00
         0.00000E+00
         0.00000E+00
         0.00000E+00
         0.00000E+00
         0.00000E+00
         0.00000E+00
         0.00000E+00
         0.00000E+00
         0.00000E+00
         0.00000E+00
         0.00000E+00
         0.00000E+00
         0.00000E+00
         0.00000E+00
         0.00000E+00
         0.00000E+00
         0.00000E+00
         0.00000E+00
         0.00000E+00
         0.00000E+00
         0.00000E+00
         0.00000E+00
         0.00000E+00
         0.00000E+00
         0.00000E+00
         0.00000E+00
         0.00000E+00
         0.00000E+00
         0.00000E+00
         0.00000E+00
         0.00000E+00
         0.00000E+00
         0.00000E+00
         0.00000E+00
         0.00000E+00
         0.00000E+00
         0.00000E+00
         0.00000E+00
         0.00000E+00
         0.00000E+00
         0.00000E+00
         0.00000E+00
         0.00000E+00
         0.00000E+00
         0.00000E+00
         0.00000E+00
         0.00000E+00
         0.00000E+00
         0.00000E+00
         0.00000E+00
         0.00000E+00
         0.00000E+00
         0.00000E+00
         0.00000E+00
         0.00000E+00
         0.00000E+00
         0.00000E+00
         0.00000E+00
         0.00000E+00
         0.00000E+00
         0.00000E+00
         0.00000E+00
         0.00000E+00
         0.00000E+00
         0.00000E+00
         0.00000E+00
         0.00000E+00
         0.00000E+00
         0.00000E+00
         0.00000E+00
         0.00000E+00
         0.00000E+00
         0.00000E+00
         0.00000E+00
         0.00000E+00
         0.00000E+00
         0.00000E+00
         0.00000E+00
         0.00000E+00
         0.00000E+00
         0.00000E+00
         0.00000E+00
         0.00000E+00
         0.00000E+00
         0.00000E+00
         0.00000E+00
         0.00000E+00
         0.00000E+00
         0.00000E+00
         0.00000E+00
         0.00000E+00
         0.00000E+00
         0.00000E+00
         0.00000E+00
         0.00000E+00
         0.00000E+00
         0.00000E+00
         0.00000E+00
         0.00000E+00
         0.00000E+00
         0.00000E+00
         0.00000E+00
         0.00000E+00
         0.00000E+00
         0.00000E+00
         0.00000E+00
         0.00000E+00
         0.00000E+00
         0.00000E+00
         0.00000E+00
         0.00000E+00
         0.00000E+00
         0.00000E+00
         0.00000E+00
         0.00000E+00
         0.00000E+00
         0.00000E+00
         0.00000E+00
         0.00000E+00
         0.00000E+00
         0.00000E+00
         0.00000E+00
         0.00000E+00
         0.00000E+00
         0.00000E+00
         0.00000E+00
         0.00000E+00
         0.00000E+00
         0.00000E+00
         0.00000E+00
         0.00000E+00
         0.00000E+00
         0.00000E+00
  
SCALARS                init_velocity_y  double 1
LOOKUP_TABLE default
         0.00000E+00
         0.00000E+00
         0.00000E+00
         0.00000E+00
         0.00000E+00
         0.00000E+00
         0.00000E+00
         0.00000E+00
         0.00000E+00
         0.00000E+00
         0.00000E+00
         0.00000E+00
         0.00000E+00
         0.00000E+00
         0.00000E+00
         0.00000E+00
         0.00000E+00
         0.00000E+00
         0.00000E+00
         0.00000E+00
         0.00000E+00
         0.00000E+00
         0.00000E+00
         0.00000E+00
         0.00000E+00
         0.00000E+00
         0.00000E+00
         0.00000E+00
         0.00000E+00
         0.00000E+00
         0.00000E+00
         0.00000E+00
         0.00000E+00
         0.00000E+00
         0.00000E+00
         0.00000E+00
         0.00000E+00
         0.00000E+00
         0.00000E+00
         0.00000E+00
         0.00000E+00
         0.00000E+00
         0.00000E+00
         0.00000E+00
         0.00000E+00
         0.00000E+00
         0.00000E+00
         0.00000E+00
         0.00000E+00
         0.00000E+00
         0.00000E+00
         0.00000E+00
         0.00000E+00
         0.00000E+00
         0.00000E+00
         0.00000E+00
         0.00000E+00
         0.00000E+00
         0.00000E+00
         0.00000E+00
         0.00000E+00
         0.00000E+00
         0.00000E+00
         0.00000E+00
         0.00000E+00
         0.00000E+00
         0.00000E+00
         0.00000E+00
         0.00000E+00
         0.00000E+00
         0.00000E+00
         0.00000E+00
         0.00000E+00
         0.00000E+00
         0.00000E+00
         0.00000E+00
         0.00000E+00
         0.00000E+00
         0.00000E+00
         0.00000E+00
         0.00000E+00
         0.00000E+00
         0.00000E+00
         0.00000E+00
         0.00000E+00
         0.00000E+00
         0.00000E+00
         0.00000E+00
         0.00000E+00
         0.00000E+00
         0.00000E+00
         0.00000E+00
         0.00000E+00
         0.00000E+00
         0.00000E+00
         0.00000E+00
         0.00000E+00
         0.00000E+00
         0.00000E+00
         0.00000E+00
         0.00000E+00
         0.00000E+00
         0.00000E+00
         0.00000E+00
         0.00000E+00
         0.00000E+00
         0.00000E+00
         0.00000E+00
         0.00000E+00
         0.00000E+00
         0.00000E+00
         0.00000E+00
         0.00000E+00
         0.00000E+00
         0.00000E+00
         0.00000E+00
         0.00000E+00
         0.00000E+00
         0.00000E+00
         0.00000E+00
         0.00000E+00
         0.00000E+00
         0.00000E+00
         0.00000E+00
         0.00000E+00
         0.00000E+00
         0.00000E+00
         0.00000E+00
         0.00000E+00
         0.00000E+00
         0.00000E+00
         0.00000E+00
         0.00000E+00
         0.00000E+00
         0.00000E+00
         0.00000E+00
         0.00000E+00
         0.00000E+00
         0.00000E+00
         0.00000E+00
         0.00000E+00
         0.00000E+00
         0.00000E+00
         0.00000E+00
         0.00000E+00
         0.00000E+00
         0.00000E+00
         0.00000E+00
         0.00000E+00
         0.00000E+00
         0.00000E+00
         0.00000E+00
         0.00000E+00
         0.00000E+00
         0.00000E+00
         0.00000E+00
         0.00000E+00
         0.00000E+00
         0.00000E+00
         0.00000E+00
         0.00000E+00
         0.00000E+00
         0.00000E+00
         0.00000E+00
         0.00000E+00
         0.00000E+00
         0.00000E+00
         0.00000E+00
         0.00000E+00
         0.00000E+00
         0.00000E+00
         0.00000E+00
         0.00000E+00
         0.00000E+00
         0.00000E+00
         0.00000E+00
         0.00000E+00
         0.00000E+00
         0.00000E+00
         0.00000E+00
         0.00000E+00
         0.00000E+00
         0.00000E+00
         0.00000E+00
         0.00000E+00
         0.00000E+00
         0.00000E+00
         0.00000E+00
         0.00000E+00
         0.00000E+00
         0.00000E+00
         0.00000E+00
         0.00000E+00
         0.00000E+00
         0.00000E+00
         0.00000E+00
         0.00000E+00
         0.00000E+00
         0.00000E+00
         0.00000E+00
         0.00000E+00
         0.00000E+00
         0.00000E+00
         0.00000E+00
         0.00000E+00
         0.00000E+00
         0.00000E+00
         0.00000E+00
         0.00000E+00
         0.00000E+00
         0.00000E+00
         0.00000E+00
         0.00000E+00
         0.00000E+00
         0.00000E+00
         0.00000E+00
         0.00000E+00
         0.00000E+00
         0.00000E+00
         0.00000E+00
         0.00000E+00
         0.00000E+00
         0.00000E+00
         0.00000E+00
         0.00000E+00
         0.00000E+00
         0.00000E+00
         0.00000E+00
         0.00000E+00
         0.00000E+00
         0.00000E+00
         0.00000E+00
         0.00000E+00
         0.00000E+00
         0.00000E+00
         0.00000E+00
         0.00000E+00
         0.00000E+00
         0.00000E+00
         0.00000E+00
         0.00000E+00
         0.00000E+00
         0.00000E+00
         0.00000E+00
         0.00000E+00
         0.00000E+00
         0.00000E+00
         0.00000E+00
         0.00000E+00
         0.00000E+00
         0.00000E+00
         0.00000E+00
         0.00000E+00
         0.00000E+00
         0.00000E+00
         0.00000E+00
         0.00000E+00
         0.00000E+00
         0.00000E+00
         0.00000E+00
         0.00000E+00
         0.00000E+00
         0.00000E+00
         0.00000E+00
         0.00000E+00
         0.00000E+00
         0.00000E+00
         0.00000E+00
         0.00000E+00
         0.00000E+00
         0.00000E+00
         0.00000E+00
         0.00000E+00
         0.00000E+00
         0.00000E+00
         0.00000E+00
         0.00000E+00
         0.00000E+00
         0.00000E+00
         0.00000E+00
         0.00000E+00
         0.00000E+00
         0.00000E+00
         0.00000E+00
         0.00000E+00
         0.00000E+00
         0.00000E+00
         0.00000E+00
         0.00000E+00
         0.00000E+00
         0.00000E+00
         0.00000E+00
         0.00000E+00
         0.00000E+00
         0.00000E+00
         0.00000E+00
         0.00000E+00
         0.00000E+00
         0.00000E+00
         0.00000E+00
         0.00000E+00
         0.00000E+00
         0.00000E+00
         0.00000E+00
         0.00000E+00
         0.00000E+00
         0.00000E+00
         0.00000E+00
         0.00000E+00
         0.00000E+00
         0.00000E+00
         0.00000E+00
         0.00000E+00
         0.00000E+00
         0.00000E+00
         0.00000E+00
         0.00000E+00
         0.00000E+00
         0.00000E+00
         0.00000E+00
         0.00000E+00
         0.00000E+00
         0.00000E+00
         0.00000E+00
         0.00000E+00
         0.00000E+00
         0.00000E+00
         0.00000E+00
         0.00000E+00
         0.00000E+00
         0.00000E+00
         0.00000E+00
         0.00000E+00
         0.00000E+00
         0.00000E+00
         0.00000E+00
         0.00000E+00
         0.00000E+00
         0.00000E+00
         0.00000E+00
         0.00000E+00
         0.00000E+00
         0.00000E+00
         0.00000E+00
         0.00000E+00
         0.00000E+00
         0.00000E+00
         0.00000E+00
         0.00000E+00
         0.00000E+00
         0.00000E+00
         0.00000E+00
         0.00000E+00
         0.00000E+00
         0.00000E+00
         0.00000E+00
         0.00000E+00
         0.00000E+00
         0.00000E+00
         0.00000E+00
         0.00000E+00
         0.00000E+00
         0.00000E+00
         0.00000E+00
         0.00000E+00
         0.00000E+00
         0.00000E+00
         0.00000E+00
         0.00000E+00
         0.00000E+00
         0.00000E+00
         0.00000E+00
         0.00000E+00
         0.00000E+00
         0.00000E+00
         0.00000E+00
         0.00000E+00
         0.00000E+00
         0.00000E+00
         0.00000E+00
         0.00000E+00
         0.00000E+00
         0.00000E+00
         0.00000E+00
         0.00000E+00
         0.00000E+00
         0.00000E+00
         0.00000E+00
         0.00000E+00
         0.00000E+00
         0.00000E+00
         0.00000E+00
         0.00000E+00
         0.00000E+00
         0.00000E+00
         0.00000E+00
         0.00000E+00
         0.00000E+00
         0.00000E+00
         0.00000E+00
         0.00000E+00
         0.00000E+00
         0.00000E+00
         0.00000E+00
         0.00000E+00
         0.00000E+00
         0.00000E+00
         0.00000E+00
         0.00000E+00
         0.00000E+00
         0.00000E+00
         0.00000E+00
         0.00000E+00
         0.00000E+00
         0.00000E+00
         0.00000E+00
         0.00000E+00
         0.00000E+00
         0.00000E+00
         0.00000E+00
         0.00000E+00
         0.00000E+00
         0.00000E+00
         0.00000E+00
         0.00000E+00
         0.00000E+00
         0.00000E+00
         0.00000E+00
         0.00000E+00
         0.00000E+00
         0.00000E+00
         0.00000E+00
         0.00000E+00
         0.00000E+00
         0.00000E+00
         0.00000E+00
         0.00000E+00
         0.00000E+00
         0.00000E+00
         0.00000E+00
         0.00000E+00
         0.00000E+00
         0.00000E+00
         0.00000E+00
         0.00000E+00
         0.00000E+00
         0.00000E+00
         0.00000E+00
         0.00000E+00
         0.00000E+00
         0.00000E+00
         0.00000E+00
         0.00000E+00
         0.00000E+00
         0.00000E+00
         0.00000E+00
         0.00000E+00
         0.00000E+00
         0.00000E+00
         0.00000E+00
         0.00000E+00
         0.00000E+00
         0.00000E+00
         0.00000E+00
         0.00000E+00
         0.00000E+00
         0.00000E+00
         0.00000E+00
         0.00000E+00
         0.00000E+00
         0.00000E+00
         0.00000E+00
         0.00000E+00
         0.00000E+00
         0.00000E+00
         0.00000E+00
         0.00000E+00
         0.00000E+00
         0.00000E+00
         0.00000E+00
         0.00000E+00
         0.00000E+00
         0.00000E+00
         0.00000E+00
         0.00000E+00
         0.00000E+00
         0.00000E+00
         0.00000E+00
         0.00000E+00
         0.00000E+00
         0.00000E+00
         0.00000E+00
         0.00000E+00
         0.00000E+00
         0.00000E+00
         0.00000E+00
         0.00000E+00
         0.00000E+00
         0.00000E+00
         0.00000E+00
         0.00000E+00
         0.00000E+00
         0.00000E+00
         0.00000E+00
         0.00000E+00
         0.00000E+00
         0.00000E+00
         0.00000E+00
         0.00000E+00
         0.00000E+00
         0.00000E+00
         0.00000E+00
         0.00000E+00
         0.00000E+00
         0.00000E+00
         0.00000E+00
         0.00000E+00
         0.00000E+00
         0.00000E+00
         0.00000E+00
         0.00000E+00
         0.00000E+00
         0.00000E+00
         0.00000E+00
         0.00000E+00
         0.00000E+00
         0.00000E+00
         0.00000E+00
         0.00000E+00
         0.00000E+00
         0.00000E+00
         0.00000E+00
         0.00000E+00
         0.00000E+00
         0.00000E+00
         0.00000E+00
         0.00000E+00
         0.00000E+00
         0.00000E+00
         0.00000E+00
         0.00000E+00
         0.00000E+00
         0.00000E+00
         0.00000E+00
         0.00000E+00
         0.00000E+00
         0.00000E+00
         0.00000E+00
         0.00000E+00
         0.00000E+00
         0.00000E+00
         0.00000E+00
         0.00000E+00
         0.00000E+00
         0.00000E+00
         0.00000E+00
         0.00000E+00
         0.00000E+00
         0.00000E+00
         0.00000E+00
         0.00000E+00
         0.00000E+00
         0.00000E+00
         0.00000E+00
         0.00000E+00
         0.00000E+00
         0.00000E+00
         0.00000E+00
         0.00000E+00
         0.00000E+00
         0.00000E+00
         0.00000E+00
         0.00000E+00
         0.00000E+00
         0.00000E+00
         0.00000E+00
         0.00000E+00
         0.00000E+00
         0.00000E+00
         0.00000E+00
         0.00000E+00
         0.00000E+00
         0.00000E+00
         0.00000E+00
         0.00000E+00
         0.00000E+00
         0.00000E+00
         0.00000E+00
         0.00000E+00
         0.00000E+00
         0.00000E+00
         0.00000E+00
         0.00000E+00
         0.00000E+00
         0.00000E+00
         0.00000E+00
         0.00000E+00
         0.00000E+00
         0.00000E+00
         0.00000E+00
         0.00000E+00
         0.00000E+00
         0.00000E+00
         0.00000E+00
         0.00000E+00
         0.00000E+00
         0.00000E+00
         0.00000E+00
         0.00000E+00
         0.00000E+00
         0.00000E+00
         0.00000E+00
         0.00000E+00
         0.00000E+00
         0.00000E+00
         0.00000E+00
         0.00000E+00
         0.00000E+00
         0.00000E+00
         0.00000E+00
         0.00000E+00
         0.00000E+00
         0.00000E+00
         0.00000E+00
         0.00000E+00
         0.00000E+00
         0.00000E+00
         0.00000E+00
         0.00000E+00
         0.00000E+00
         0.00000E+00
         0.00000E+00
         0.00000E+00
         0.00000E+00
         0.00000E+00
         0.00000E+00
         0.00000E+00
         0.00000E+00
         0.00000E+00
         0.00000E+00
         0.00000E+00
         0.00000E+00
         0.00000E+00
         0.00000E+00
         0.00000E+00
         0.00000E+00
         0.00000E+00
         0.00000E+00
         0.00000E+00
         0.00000E+00
         0.00000E+00
         0.00000E+00
         0.00000E+00
         0.00000E+00
         0.00000E+00
         0.00000E+00
         0.00000E+00
         0.00000E+00
         0.00000E+00
         0.00000E+00
         0.00000E+00
         0.00000E+00
         0.00000E+00
         0.00000E+00
         0.00000E+00
         0.00000E+00
         0.00000E+00
         0.00000E+00
         0.00000E+00
         0.00000E+00
         0.00000E+00
         0.00000E+00
         0.00000E+00
         0.00000E+00
         0.00000E+00
         0.00000E+00
         0.00000E+00
         0.00000E+00
         0.00000E+00
         0.00000E+00
         0.00000E+00
         0.00000E+00
         0.00000E+00
         0.00000E+00
         0.00000E+00
         0.00000E+00
         0.00000E+00
         0.00000E+00
         0.00000E+00
         0.00000E+00
         0.00000E+00
         0.00000E+00
         0.00000E+00
         0.00000E+00
         0.00000E+00
         0.00000E+00
         0.00000E+00
         0.00000E+00
         0.00000E+00
         0.00000E+00
         0.00000E+00
         0.00000E+00
         0.00000E+00
         0.00000E+00
         0.00000E+00
         0.00000E+00
         0.00000E+00
         0.00000E+00
         0.00000E+00
         0.00000E+00
         0.00000E+00
         0.00000E+00
         0.00000E+00
         0.00000E+00
         0.00000E+00
         0.00000E+00
         0.00000E+00
         0.00000E+00
         0.00000E+00
         0.00000E+00
         0.00000E+00
         0.00000E+00
         0.00000E+00
         0.00000E+00
         0.00000E+00
         0.00000E+00
         0.00000E+00
         0.00000E+00
         0.00000E+00
         0.00000E+00
         0.00000E+00
         0.00000E+00
         0.00000E+00
         0.00000E+00
         0.00000E+00
         0.00000E+00
         0.00000E+00
         0.00000E+00
         0.00000E+00
         0.00000E+00
         0.00000E+00
         0.00000E+00
         0.00000E+00
         0.00000E+00
         0.00000E+00
         0.00000E+00
         0.00000E+00
         0.00000E+00
         0.00000E+00
         0.00000E+00
         0.00000E+00
         0.00000E+00
         0.00000E+00
         0.00000E+00
         0.00000E+00
         0.00000E+00
         0.00000E+00
         0.00000E+00
         0.00000E+00
         0.00000E+00
         0.00000E+00
         0.00000E+00
         0.00000E+00
         0.00000E+00
         0.00000E+00
         0.00000E+00
         0.00000E+00
         0.00000E+00
         0.00000E+00
         0.00000E+00
         0.00000E+00
         0.00000E+00
         0.00000E+00
         0.00000E+00
         0.00000E+00
         0.00000E+00
         0.00000E+00
         0.00000E+00
         0.00000E+00
         0.00000E+00
         0.00000E+00
         0.00000E+00
         0.00000E+00
         0.00000E+00
         0.00000E+00
         0.00000E+00
         0.00000E+00
         0.00000E+00
         0.00000E+00
         0.00000E+00
         0.00000E+00
         0.00000E+00
         0.00000E+00
         0.00000E+00
         0.00000E+00
         0.00000E+00
         0.00000E+00
         0.00000E+00
         0.00000E+00
         0.00000E+00
         0.00000E+00
         0.00000E+00
         0.00000E+00
         0.00000E+00
         0.00000E+00
         0.00000E+00
         0.00000E+00
         0.00000E+00
         0.00000E+00
         0.00000E+00
         0.00000E+00
         0.00000E+00
         0.00000E+00
         0.00000E+00
         0.00000E+00
         0.00000E+00
         0.00000E+00
         0.00000E+00
         0.00000E+00
         0.00000E+00
         0.00000E+00
         0.00000E+00
         0.00000E+00
         0.00000E+00
         0.00000E+00
         0.00000E+00
         0.00000E+00
         0.00000E+00
         0.00000E+00
         0.00000E+00
         0.00000E+00
         0.00000E+00
         0.00000E+00
         0.00000E+00
         0.00000E+00
         0.00000E+00
         0.00000E+00
         0.00000E+00
         0.00000E+00
         0.00000E+00
         0.00000E+00
         0.00000E+00
         0.00000E+00
         0.00000E+00
         0.00000E+00
         0.00000E+00
         0.00000E+00
         0.00000E+00
         0.00000E+00
         0.00000E+00
         0.00000E+00
         0.00000E+00
         0.00000E+00
         0.00000E+00
         0.00000E+00
         0.00000E+00
         0.00000E+00
         0.00000E+00
         0.00000E+00
         0.00000E+00
         0.00000E+00
         0.00000E+00
         0.00000E+00
         0.00000E+00
         0.00000E+00
         0.00000E+00
         0.00000E+00
         0.00000E+00
         0.00000E+00
         0.00000E+00
         0.00000E+00
         0.00000E+00
         0.00000E+00
         0.00000E+00
         0.00000E+00
         0.00000E+00
         0.00000E+00
         0.00000E+00
         0.00000E+00
         0.00000E+00
         0.00000E+00
         0.00000E+00
         0.00000E+00
         0.00000E+00
         0.00000E+00
         0.00000E+00
         0.00000E+00
         0.00000E+00
         0.00000E+00
         0.00000E+00
         0.00000E+00
         0.00000E+00
         0.00000E+00
         0.00000E+00
         0.00000E+00
         0.00000E+00
         0.00000E+00
         0.00000E+00
         0.00000E+00
         0.00000E+00
         0.00000E+00
         0.00000E+00
         0.00000E+00
         0.00000E+00
         0.00000E+00
         0.00000E+00
         0.00000E+00
         0.00000E+00
         0.00000E+00
         0.00000E+00
         0.00000E+00
         0.00000E+00
         0.00000E+00
         0.00000E+00
         0.00000E+00
         0.00000E+00
         0.00000E+00
         0.00000E+00
         0.00000E+00
         0.00000E+00
         0.00000E+00
         0.00000E+00
         0.00000E+00
         0.00000E+00
         0.00000E+00
         0.00000E+00
         0.00000E+00
         0.00000E+00
         0.00000E+00
         0.00000E+00
         0.00000E+00
         0.00000E+00
         0.00000E+00
         0.00000E+00
         0.00000E+00
         0.00000E+00
         0.00000E+00
         0.00000E+00
         0.00000E+00
         0.00000E+00
         0.00000E+00
         0.00000E+00
         0.00000E+00
         0.00000E+00
         0.00000E+00
         0.00000E+00
         0.00000E+00
         0.00000E+00
         0.00000E+00
         0.00000E+00
         0.00000E+00
         0.00000E+00
         0.00000E+00
         0.00000E+00
         0.00000E+00
         0.00000E+00
         0.00000E+00
         0.00000E+00
         0.00000E+00
         0.00000E+00
         0.00000E+00
         0.00000E+00
         0.00000E+00
         0.00000E+00
         0.00000E+00
         0.00000E+00
         0.00000E+00
         0.00000E+00
         0.00000E+00
         0.00000E+00
         0.00000E+00
         0.00000E+00
         0.00000E+00
         0.00000E+00
         0.00000E+00
         0.00000E+00
         0.00000E+00
         0.00000E+00
         0.00000E+00
         0.00000E+00
         0.00000E+00
         0.00000E+00
         0.00000E+00
         0.00000E+00
         0.00000E+00
         0.00000E+00
         0.00000E+00
         0.00000E+00
         0.00000E+00
         0.00000E+00
         0.00000E+00
         0.00000E+00
         0.00000E+00
         0.00000E+00
         0.00000E+00
         0.00000E+00
         0.00000E+00
         0.00000E+00
         0.00000E+00
         0.00000E+00
         0.00000E+00
         0.00000E+00
         0.00000E+00
         0.00000E+00
         0.00000E+00
         0.00000E+00
         0.00000E+00
         0.00000E+00
         0.00000E+00
         0.00000E+00
         0.00000E+00
         0.00000E+00
         0.00000E+00
         0.00000E+00
         0.00000E+00
         0.00000E+00
         0.00000E+00
         0.00000E+00
         0.00000E+00
         0.00000E+00
         0.00000E+00
         0.00000E+00
         0.00000E+00
         0.00000E+00
         0.00000E+00
         0.00000E+00
         0.00000E+00
         0.00000E+00
         0.00000E+00
         0.00000E+00
         0.00000E+00
         0.00000E+00
         0.00000E+00
         0.00000E+00
         0.00000E+00
         0.00000E+00
         0.00000E+00
         0.00000E+00
         0.00000E+00
         0.00000E+00
         0.00000E+00
         0.00000E+00
         0.00000E+00
         0.00000E+00
         0.00000E+00
         0.00000E+00
         0.00000E+00
         0.00000E+00
         0.00000E+00
         0.00000E+00
         0.00000E+00
         0.00000E+00
         0.00000E+00
         0.00000E+00
         0.00000E+00
         0.00000E+00
         0.00000E+00
         0.00000E+00
         0.00000E+00
         0.00000E+00
         0.00000E+00
         0.00000E+00
         0.00000E+00
         0.00000E+00
         0.00000E+00
         0.00000E+00
         0.00000E+00
         0.00000E+00
         0.00000E+00
         0.00000E+00
         0.00000E+00
         0.00000E+00
         0.00000E+00
         0.00000E+00
         0.00000E+00
         0.00000E+00
         0.00000E+00
         0.00000E+00
         0.00000E+00
         0.00000E+00
         0.00000E+00
         0.00000E+00
         0.00000E+00
         0.00000E+00
         0.00000E+00
         0.00000E+00
         0.00000E+00
         0.00000E+00
         0.00000E+00
         0.00000E+00
         0.00000E+00
         0.00000E+00
         0.00000E+00
         0.00000E+00
         0.00000E+00
         0.00000E+00
         0.00000E+00
         0.00000E+00
         0.00000E+00
         0.00000E+00
         0.00000E+00
         0.00000E+00
         0.00000E+00
         0.00000E+00
         0.00000E+00
         0.00000E+00
         0.00000E+00
         0.00000E+00
         0.00000E+00
         0.00000E+00
         0.00000E+00
         0.00000E+00
         0.00000E+00
         0.00000E+00
         0.00000E+00
         0.00000E+00
         0.00000E+00
         0.00000E+00
         0.00000E+00
         0.00000E+00
         0.00000E+00
         0.00000E+00
         0.00000E+00
         0.00000E+00
         0.00000E+00
         0.00000E+00
         0.00000E+00
         0.00000E+00
         0.00000E+00
         0.00000E+00
         0.00000E+00
         0.00000E+00
         0.00000E+00
         0.00000E+00
         0.00000E+00
         0.00000E+00
         0.00000E+00
         0.00000E+00
         0.00000E+00
         0.00000E+00
         0.00000E+00
         0.00000E+00
         0.00000E+00
         0.00000E+00
         0.00000E+00
         0.00000E+00
         0.00000E+00
         0.00000E+00
         0.00000E+00
         0.00000E+00
         0.00000E+00
         0.00000E+00
         0.00000E+00
         0.00000E+00
         0.00000E+00
         0.00000E+00
         0.00000E+00
         0.00000E+00
         0.00000E+00
         0.00000E+00
         0.00000E+00
         0.00000E+00
         0.00000E+00
         0.00000E+00
         0.00000E+00
         0.00000E+00
         0.00000E+00
         0.00000E+00
         0.00000E+00
         0.00000E+00
         0.00000E+00
         0.00000E+00
         0.00000E+00
         0.00000E+00
         0.00000E+00
         0.00000E+00
         0.00000E+00
         0.00000E+00
         0.00000E+00
         0.00000E+00
         0.00000E+00
         0.00000E+00
         0.00000E+00
         0.00000E+00
         0.00000E+00
         0.00000E+00
         0.00000E+00
         0.00000E+00
         0.00000E+00
         0.00000E+00
         0.00000E+00
         0.00000E+00
         0.00000E+00
         0.00000E+00
         0.00000E+00
         0.00000E+00
         0.00000E+00
         0.00000E+00
         0.00000E+00
         0.00000E+00
         0.00000E+00
         0.00000E+00
         0.00000E+00
         0.00000E+00
         0.00000E+00
         0.00000E+00
         0.00000E+00
         0.00000E+00
         0.00000E+00
         0.00000E+00
         0.00000E+00
         0.00000E+00
         0.00000E+00
         0.00000E+00
         0.00000E+00
         0.00000E+00
         0.00000E+00
         0.00000E+00
         0.00000E+00
         0.00000E+00
         0.00000E+00
         0.00000E+00
         0.00000E+00
         0.00000E+00
         0.00000E+00
         0.00000E+00
         0.00000E+00
         0.00000E+00
         0.00000E+00
         0.00000E+00
         0.00000E+00
         0.00000E+00
         0.00000E+00
         0.00000E+00
         0.00000E+00
         0.00000E+00
         0.00000E+00
         0.00000E+00
         0.00000E+00
         0.00000E+00
         0.00000E+00
         0.00000E+00
         0.00000E+00
         0.00000E+00
         0.00000E+00
         0.00000E+00
         0.00000E+00
         0.00000E+00
         0.00000E+00
         0.00000E+00
         0.00000E+00
         0.00000E+00
         0.00000E+00
         0.00000E+00
         0.00000E+00
         0.00000E+00
         0.00000E+00
         0.00000E+00
         0.00000E+00
         0.00000E+00
         0.00000E+00
         0.00000E+00
         0.00000E+00
         0.00000E+00
         0.00000E+00
         0.00000E+00
         0.00000E+00
         0.00000E+00
         0.00000E+00
         0.00000E+00
         0.00000E+00
         0.00000E+00
         0.00000E+00
         0.00000E+00
         0.00000E+00
         0.00000E+00
         0.00000E+00
         0.00000E+00
         0.00000E+00
         0.00000E+00
         0.00000E+00
         0.00000E+00
         0.00000E+00
         0.00000E+00
         0.00000E+00
         0.00000E+00
         0.00000E+00
         0.00000E+00
         0.00000E+00
         0.00000E+00
         0.00000E+00
         0.00000E+00
         0.00000E+00
         0.00000E+00
         0.00000E+00
         0.00000E+00
         0.00000E+00
         0.00000E+00
         0.00000E+00
         0.00000E+00
         0.00000E+00
         0.00000E+00
         0.00000E+00
         0.00000E+00
         0.00000E+00
         0.00000E+00
         0.00000E+00
         0.00000E+00
         0.00000E+00
         0.00000E+00
         0.00000E+00
         0.00000E+00
         0.00000E+00
         0.00000E+00
         0.00000E+00
         0.00000E+00
         0.00000E+00
         0.00000E+00
         0.00000E+00
         0.00000E+00
         0.00000E+00
         0.00000E+00
         0.00000E+00
         0.00000E+00
         0.00000E+00
         0.00000E+00
         0.00000E+00
         0.00000E+00
         0.00000E+00
         0.00000E+00
         0.00000E+00
         0.00000E+00
         0.00000E+00
         0.00000E+00
         0.00000E+00
         0.00000E+00
         0.00000E+00
         0.00000E+00
         0.00000E+00
         0.00000E+00
         0.00000E+00
         0.00000E+00
         0.00000E+00
         0.00000E+00
         0.00000E+00
         0.00000E+00
         0.00000E+00
         0.00000E+00
         0.00000E+00
         0.00000E+00
         0.00000E+00
         0.00000E+00
         0.00000E+00
         0.00000E+00
         0.00000E+00
         0.00000E+00
         0.00000E+00
         0.00000E+00
         0.00000E+00
         0.00000E+00
         0.00000E+00
         0.00000E+00
         0.00000E+00
         0.00000E+00
         0.00000E+00
         0.00000E+00
         0.00000E+00
         0.00000E+00
         0.00000E+00
         0.00000E+00
         0.00000E+00
         0.00000E+00
         0.00000E+00
         0.00000E+00
         0.00000E+00
         0.00000E+00
         0.00000E+00
         0.00000E+00
         0.00000E+00
         0.00000E+00
         0.00000E+00
         0.00000E+00
         0.00000E+00
         0.00000E+00
         0.00000E+00
         0.00000E+00
         0.00000E+00
         0.00000E+00
         0.00000E+00
         0.00000E+00
         0.00000E+00
         0.00000E+00
         0.00000E+00
         0.00000E+00
         0.00000E+00
         0.00000E+00
         0.00000E+00
         0.00000E+00
         0.00000E+00
         0.00000E+00
         0.00000E+00
         0.00000E+00
         0.00000E+00
         0.00000E+00
         0.00000E+00
         0.00000E+00
         0.00000E+00
         0.00000E+00
         0.00000E+00
         0.00000E+00
         0.00000E+00
         0.00000E+00
         0.00000E+00
         0.00000E+00
         0.00000E+00
         0.00000E+00
         0.00000E+00
         0.00000E+00
         0.00000E+00
         0.00000E+00
         0.00000E+00
         0.00000E+00
         0.00000E+00
         0.00000E+00
         0.00000E+00
         0.00000E+00
         0.00000E+00
         0.00000E+00
         0.00000E+00
         0.00000E+00
         0.00000E+00
         0.00000E+00
         0.00000E+00
         0.00000E+00
         0.00000E+00
         0.00000E+00
         0.00000E+00
         0.00000E+00
         0.00000E+00
         0.00000E+00
         0.00000E+00
         0.00000E+00
         0.00000E+00
         0.00000E+00
         0.00000E+00
         0.00000E+00
         0.00000E+00
         0.00000E+00
         0.00000E+00
         0.00000E+00
         0.00000E+00
         0.00000E+00
         0.00000E+00
         0.00000E+00
         0.00000E+00
         0.00000E+00
         0.00000E+00
         0.00000E+00
         0.00000E+00
         0.00000E+00
         0.00000E+00
         0.00000E+00
         0.00000E+00
         0.00000E+00
         0.00000E+00
         0.00000E+00
         0.00000E+00
         0.00000E+00
         0.00000E+00
         0.00000E+00
         0.00000E+00
         0.00000E+00
         0.00000E+00
         0.00000E+00
         0.00000E+00
         0.00000E+00
         0.00000E+00
         0.00000E+00
         0.00000E+00
         0.00000E+00
         0.00000E+00
         0.00000E+00
         0.00000E+00
         0.00000E+00
         0.00000E+00
         0.00000E+00
         0.00000E+00
         0.00000E+00
         0.00000E+00
         0.00000E+00
         0.00000E+00
         0.00000E+00
         0.00000E+00
         0.00000E+00
         0.00000E+00
         0.00000E+00
         0.00000E+00
         0.00000E+00
         0.00000E+00
         0.00000E+00
         0.00000E+00
         0.00000E+00
         0.00000E+00
         0.00000E+00
         0.00000E+00
         0.00000E+00
         0.00000E+00
         0.00000E+00
         0.00000E+00
         0.00000E+00
         0.00000E+00
         0.00000E+00
         0.00000E+00
         0.00000E+00
         0.00000E+00
         0.00000E+00
         0.00000E+00
         0.00000E+00
         0.00000E+00
         0.00000E+00
         0.00000E+00
         0.00000E+00
         0.00000E+00
         0.00000E+00
         0.00000E+00
         0.00000E+00
         0.00000E+00
         0.00000E+00
         0.00000E+00
         0.00000E+00
         0.00000E+00
         0.00000E+00
         0.00000E+00
         0.00000E+00
         0.00000E+00
         0.00000E+00
         0.00000E+00
         0.00000E+00
         0.00000E+00
         0.00000E+00
         0.00000E+00
         0.00000E+00
         0.00000E+00
         0.00000E+00
         0.00000E+00
         0.00000E+00
         0.00000E+00
         0.00000E+00
         0.00000E+00
         0.00000E+00
         0.00000E+00
         0.00000E+00
         0.00000E+00
         0.00000E+00
         0.00000E+00
         0.00000E+00
         0.00000E+00
         0.00000E+00
         0.00000E+00
         0.00000E+00
         0.00000E+00
         0.00000E+00
         0.00000E+00
         0.00000E+00
         0.00000E+00
         0.00000E+00
         0.00000E+00
         0.00000E+00
         0.00000E+00
         0.00000E+00
         0.00000E+00
         0.00000E+00
         0.00000E+00
         0.00000E+00
         0.00000E+00
         0.00000E+00
         0.00000E+00
         0.00000E+00
         0.00000E+00
         0.00000E+00
         0.00000E+00
         0.00000E+00
         0.00000E+00
         0.00000E+00
         0.00000E+00
         0.00000E+00
         0.00000E+00
         0.00000E+00
         0.00000E+00
         0.00000E+00
         0.00000E+00
         0.00000E+00
         0.00000E+00
         0.00000E+00
         0.00000E+00
         0.00000E+00
         0.00000E+00
         0.00000E+00
         0.00000E+00
         0.00000E+00
         0.00000E+00
         0.00000E+00
         0.00000E+00
         0.00000E+00
         0.00000E+00
         0.00000E+00
         0.00000E+00
         0.00000E+00
         0.00000E+00
         0.00000E+00
         0.00000E+00
         0.00000E+00
         0.00000E+00
         0.00000E+00
         0.00000E+00
         0.00000E+00
         0.00000E+00
         0.00000E+00
         0.00000E+00
         0.00000E+00
         0.00000E+00
         0.00000E+00
         0.00000E+00
         0.00000E+00
         0.00000E+00
         0.00000E+00
         0.00000E+00
         0.00000E+00
         0.00000E+00
         0.00000E+00
         0.00000E+00
         0.00000E+00
         0.00000E+00
         0.00000E+00
         0.00000E+00
         0.00000E+00
         0.00000E+00
         0.00000E+00
         0.00000E+00
         0.00000E+00
         0.00000E+00
         0.00000E+00
         0.00000E+00
         0.00000E+00
         0.00000E+00
         0.00000E+00
         0.00000E+00
         0.00000E+00
         0.00000E+00
         0.00000E+00
         0.00000E+00
         0.00000E+00
         0.00000E+00
         0.00000E+00
         0.00000E+00
         0.00000E+00
         0.00000E+00
         0.00000E+00
         0.00000E+00
         0.00000E+00
         0.00000E+00
         0.00000E+00
         0.00000E+00
         0.00000E+00
         0.00000E+00
         0.00000E+00
         0.00000E+00
         0.00000E+00
         0.00000E+00
         0.00000E+00
         0.00000E+00
         0.00000E+00
         0.00000E+00
         0.00000E+00
         0.00000E+00
         0.00000E+00
         0.00000E+00
         0.00000E+00
         0.00000E+00
         0.00000E+00
         0.00000E+00
         0.00000E+00
         0.00000E+00
         0.00000E+00
         0.00000E+00
         0.00000E+00
         0.00000E+00
         0.00000E+00
         0.00000E+00
         0.00000E+00
         0.00000E+00
         0.00000E+00
         0.00000E+00
         0.00000E+00
         0.00000E+00
         0.00000E+00
         0.00000E+00
         0.00000E+00
         0.00000E+00
         0.00000E+00
         0.00000E+00
         0.00000E+00
         0.00000E+00
         0.00000E+00
         0.00000E+00
         0.00000E+00
         0.00000E+00
         0.00000E+00
         0.00000E+00
         0.00000E+00
         0.00000E+00
         0.00000E+00
         0.00000E+00
         0.00000E+00
         0.00000E+00
         0.00000E+00
         0.00000E+00
         0.00000E+00
         0.00000E+00
         0.00000E+00
         0.00000E+00
         0.00000E+00
         0.00000E+00
         0.00000E+00
         0.00000E+00
         0.00000E+00
         0.00000E+00
         0.00000E+00
         0.00000E+00
         0.00000E+00
         0.00000E+00
         0.00000E+00
         0.00000E+00
         0.00000E+00
         0.00000E+00
         0.00000E+00
         0.00000E+00
         0.00000E+00
         0.00000E+00
         0.00000E+00
         0.00000E+00
         0.00000E+00
         0.00000E+00
         0.00000E+00
         0.00000E+00
         0.00000E+00
         0.00000E+00
         0.00000E+00
         0.00000E+00
         0.00000E+00
         0.00000E+00
         0.00000E+00
         0.00000E+00
         0.00000E+00
         0.00000E+00
         0.00000E+00
         0.00000E+00
         0.00000E+00
         0.00000E+00
         0.00000E+00
         0.00000E+00
         0.00000E+00
         0.00000E+00
         0.00000E+00
         0.00000E+00
         0.00000E+00
         0.00000E+00
         0.00000E+00
         0.00000E+00
         0.00000E+00
         0.00000E+00
         0.00000E+00
         0.00000E+00
         0.00000E+00
         0.00000E+00
         0.00000E+00
         0.00000E+00
         0.00000E+00
         0.00000E+00
         0.00000E+00
         0.00000E+00
         0.00000E+00
         0.00000E+00
         0.00000E+00
         0.00000E+00
         0.00000E+00
         0.00000E+00
         0.00000E+00
         0.00000E+00
         0.00000E+00
         0.00000E+00
         0.00000E+00
         0.00000E+00
         0.00000E+00
         0.00000E+00
         0.00000E+00
         0.00000E+00
         0.00000E+00
         0.00000E+00
         0.00000E+00
         0.00000E+00
         0.00000E+00
         0.00000E+00
         0.00000E+00
         0.00000E+00
         0.00000E+00
         0.00000E+00
         0.00000E+00
         0.00000E+00
         0.00000E+00
         0.00000E+00
         0.00000E+00
         0.00000E+00
         0.00000E+00
         0.00000E+00
         0.00000E+00
         0.00000E+00
         0.00000E+00
         0.00000E+00
         0.00000E+00
         0.00000E+00
         0.00000E+00
         0.00000E+00
         0.00000E+00
         0.00000E+00
         0.00000E+00
         0.00000E+00
         0.00000E+00
         0.00000E+00
         0.00000E+00
         0.00000E+00
         0.00000E+00
         0.00000E+00
         0.00000E+00
         0.00000E+00
         0.00000E+00
         0.00000E+00
         0.00000E+00
         0.00000E+00
         0.00000E+00
         0.00000E+00
         0.00000E+00
         0.00000E+00
         0.00000E+00
         0.00000E+00
         0.00000E+00
         0.00000E+00
         0.00000E+00
         0.00000E+00
         0.00000E+00
         0.00000E+00
         0.00000E+00
         0.00000E+00
         0.00000E+00
         0.00000E+00
         0.00000E+00
         0.00000E+00
         0.00000E+00
         0.00000E+00
         0.00000E+00
         0.00000E+00
         0.00000E+00
         0.00000E+00
         0.00000E+00
         0.00000E+00
         0.00000E+00
         0.00000E+00
         0.00000E+00
         0.00000E+00
         0.00000E+00
         0.00000E+00
         0.00000E+00
         0.00000E+00
         0.00000E+00
         0.00000E+00
         0.00000E+00
         0.00000E+00
         0.00000E+00
         0.00000E+00
         0.00000E+00
         0.00000E+00
         0.00000E+00
         0.00000E+00
         0.00000E+00
         0.00000E+00
         0.00000E+00
         0.00000E+00
         0.00000E+00
         0.00000E+00
         0.00000E+00
         0.00000E+00
         0.00000E+00
         0.00000E+00
         0.00000E+00
         0.00000E+00
         0.00000E+00
         0.00000E+00
         0.00000E+00
         0.00000E+00
         0.00000E+00
         0.00000E+00
         0.00000E+00
         0.00000E+00
         0.00000E+00
         0.00000E+00
         0.00000E+00
         0.00000E+00
         0.00000E+00
         0.00000E+00
         0.00000E+00
         0.00000E+00
         0.00000E+00
         0.00000E+00
         0.00000E+00
         0.00000E+00
         0.00000E+00
         0.00000E+00
         0.00000E+00
         0.00000E+00
         0.00000E+00
         0.00000E+00
         0.00000E+00
         0.00000E+00
         0.00000E+00
         0.00000E+00
         0.00000E+00
         0.00000E+00
         0.00000E+00
         0.00000E+00
         0.00000E+00
         0.00000E+00
         0.00000E+00
         0.00000E+00
         0.00000E+00
         0.00000E+00
         0.00000E+00
         0.00000E+00
         0.00000E+00
         0.00000E+00
         0.00000E+00
         0.00000E+00
         0.00000E+00
         0.00000E+00
         0.00000E+00
         0.00000E+00
         0.00000E+00
         0.00000E+00
         0.00000E+00
         0.00000E+00
         0.00000E+00
  
SCALARS                init_velocity_z  double 1
LOOKUP_TABLE default
        -0.37300E+03
        -0.37300E+03
        -0.37300E+03
        -0.37300E+03
        -0.37300E+03
        -0.37300E+03
        -0.37300E+03
        -0.37300E+03
        -0.37300E+03
        -0.37300E+03
        -0.37300E+03
        -0.37300E+03
        -0.37300E+03
        -0.37300E+03
        -0.37300E+03
        -0.37300E+03
        -0.37300E+03
        -0.37300E+03
        -0.37300E+03
        -0.37300E+03
        -0.37300E+03
        -0.37300E+03
        -0.37300E+03
        -0.37300E+03
        -0.37300E+03
        -0.37300E+03
        -0.37300E+03
        -0.37300E+03
        -0.37300E+03
        -0.37300E+03
        -0.37300E+03
        -0.37300E+03
        -0.37300E+03
        -0.37300E+03
        -0.37300E+03
        -0.37300E+03
        -0.37300E+03
        -0.37300E+03
        -0.37300E+03
        -0.37300E+03
        -0.37300E+03
        -0.37300E+03
        -0.37300E+03
        -0.37300E+03
        -0.37300E+03
        -0.37300E+03
        -0.37300E+03
        -0.37300E+03
        -0.37300E+03
        -0.37300E+03
        -0.37300E+03
        -0.37300E+03
        -0.37300E+03
        -0.37300E+03
        -0.37300E+03
        -0.37300E+03
        -0.37300E+03
        -0.37300E+03
        -0.37300E+03
        -0.37300E+03
        -0.37300E+03
        -0.37300E+03
        -0.37300E+03
        -0.37300E+03
        -0.37300E+03
        -0.37300E+03
        -0.37300E+03
        -0.37300E+03
        -0.37300E+03
        -0.37300E+03
        -0.37300E+03
        -0.37300E+03
        -0.37300E+03
        -0.37300E+03
        -0.37300E+03
        -0.37300E+03
        -0.37300E+03
        -0.37300E+03
        -0.37300E+03
        -0.37300E+03
        -0.37300E+03
        -0.37300E+03
        -0.37300E+03
        -0.37300E+03
        -0.37300E+03
        -0.37300E+03
        -0.37300E+03
        -0.37300E+03
        -0.37300E+03
        -0.37300E+03
        -0.37300E+03
        -0.37300E+03
        -0.37300E+03
        -0.37300E+03
        -0.37300E+03
        -0.37300E+03
        -0.37300E+03
        -0.37300E+03
        -0.37300E+03
        -0.37300E+03
        -0.37300E+03
        -0.37300E+03
        -0.37300E+03
        -0.37300E+03
        -0.37300E+03
        -0.37300E+03
        -0.37300E+03
        -0.37300E+03
        -0.37300E+03
        -0.37300E+03
        -0.37300E+03
        -0.37300E+03
        -0.37300E+03
        -0.37300E+03
        -0.37300E+03
        -0.37300E+03
        -0.37300E+03
        -0.37300E+03
        -0.37300E+03
        -0.37300E+03
        -0.37300E+03
        -0.37300E+03
        -0.37300E+03
        -0.37300E+03
        -0.37300E+03
        -0.37300E+03
        -0.37300E+03
        -0.37300E+03
        -0.37300E+03
        -0.37300E+03
        -0.37300E+03
        -0.37300E+03
        -0.37300E+03
        -0.37300E+03
        -0.37300E+03
        -0.37300E+03
        -0.37300E+03
        -0.37300E+03
        -0.37300E+03
        -0.37300E+03
        -0.37300E+03
        -0.37300E+03
        -0.37300E+03
        -0.37300E+03
        -0.37300E+03
        -0.37300E+03
        -0.37300E+03
        -0.37300E+03
        -0.37300E+03
        -0.37300E+03
        -0.37300E+03
        -0.37300E+03
        -0.37300E+03
        -0.37300E+03
        -0.37300E+03
        -0.37300E+03
        -0.37300E+03
        -0.37300E+03
        -0.37300E+03
        -0.37300E+03
        -0.37300E+03
        -0.37300E+03
        -0.37300E+03
        -0.37300E+03
        -0.37300E+03
        -0.37300E+03
        -0.37300E+03
        -0.37300E+03
        -0.37300E+03
        -0.37300E+03
        -0.37300E+03
        -0.37300E+03
        -0.37300E+03
        -0.37300E+03
        -0.37300E+03
        -0.37300E+03
        -0.37300E+03
        -0.37300E+03
        -0.37300E+03
        -0.37300E+03
        -0.37300E+03
        -0.37300E+03
        -0.37300E+03
        -0.37300E+03
        -0.37300E+03
        -0.37300E+03
        -0.37300E+03
        -0.37300E+03
        -0.37300E+03
        -0.37300E+03
        -0.37300E+03
        -0.37300E+03
        -0.37300E+03
        -0.37300E+03
        -0.37300E+03
        -0.37300E+03
        -0.37300E+03
        -0.37300E+03
        -0.37300E+03
        -0.37300E+03
        -0.37300E+03
        -0.37300E+03
        -0.37300E+03
        -0.37300E+03
        -0.37300E+03
        -0.37300E+03
        -0.37300E+03
        -0.37300E+03
        -0.37300E+03
        -0.37300E+03
        -0.37300E+03
        -0.37300E+03
        -0.37300E+03
        -0.37300E+03
        -0.37300E+03
        -0.37300E+03
        -0.37300E+03
        -0.37300E+03
        -0.37300E+03
        -0.37300E+03
        -0.37300E+03
        -0.37300E+03
        -0.37300E+03
        -0.37300E+03
        -0.37300E+03
        -0.37300E+03
        -0.37300E+03
        -0.37300E+03
        -0.37300E+03
        -0.37300E+03
        -0.37300E+03
        -0.37300E+03
        -0.37300E+03
        -0.37300E+03
        -0.37300E+03
        -0.37300E+03
        -0.37300E+03
        -0.37300E+03
        -0.37300E+03
        -0.37300E+03
        -0.37300E+03
        -0.37300E+03
        -0.37300E+03
        -0.37300E+03
        -0.37300E+03
        -0.37300E+03
        -0.37300E+03
        -0.37300E+03
        -0.37300E+03
        -0.37300E+03
        -0.37300E+03
        -0.37300E+03
        -0.37300E+03
        -0.37300E+03
        -0.37300E+03
        -0.37300E+03
        -0.37300E+03
        -0.37300E+03
        -0.37300E+03
        -0.37300E+03
        -0.37300E+03
        -0.37300E+03
        -0.37300E+03
        -0.37300E+03
        -0.37300E+03
        -0.37300E+03
        -0.37300E+03
        -0.37300E+03
        -0.37300E+03
        -0.37300E+03
        -0.37300E+03
        -0.37300E+03
        -0.37300E+03
        -0.37300E+03
        -0.37300E+03
        -0.37300E+03
        -0.37300E+03
        -0.37300E+03
        -0.37300E+03
        -0.37300E+03
        -0.37300E+03
        -0.37300E+03
        -0.37300E+03
        -0.37300E+03
        -0.37300E+03
        -0.37300E+03
        -0.37300E+03
        -0.37300E+03
        -0.37300E+03
        -0.37300E+03
        -0.37300E+03
        -0.37300E+03
        -0.37300E+03
        -0.37300E+03
        -0.37300E+03
        -0.37300E+03
        -0.37300E+03
        -0.37300E+03
        -0.37300E+03
        -0.37300E+03
        -0.37300E+03
        -0.37300E+03
        -0.37300E+03
        -0.37300E+03
        -0.37300E+03
        -0.37300E+03
        -0.37300E+03
        -0.37300E+03
        -0.37300E+03
        -0.37300E+03
        -0.37300E+03
        -0.37300E+03
        -0.37300E+03
        -0.37300E+03
        -0.37300E+03
        -0.37300E+03
        -0.37300E+03
        -0.37300E+03
        -0.37300E+03
        -0.37300E+03
        -0.37300E+03
        -0.37300E+03
        -0.37300E+03
        -0.37300E+03
        -0.37300E+03
        -0.37300E+03
        -0.37300E+03
        -0.37300E+03
        -0.37300E+03
        -0.37300E+03
        -0.37300E+03
        -0.37300E+03
        -0.37300E+03
        -0.37300E+03
        -0.37300E+03
        -0.37300E+03
        -0.37300E+03
        -0.37300E+03
        -0.37300E+03
        -0.37300E+03
        -0.37300E+03
        -0.37300E+03
        -0.37300E+03
        -0.37300E+03
        -0.37300E+03
        -0.37300E+03
        -0.37300E+03
        -0.37300E+03
        -0.37300E+03
        -0.37300E+03
        -0.37300E+03
        -0.37300E+03
        -0.37300E+03
        -0.37300E+03
        -0.37300E+03
        -0.37300E+03
        -0.37300E+03
        -0.37300E+03
        -0.37300E+03
        -0.37300E+03
        -0.37300E+03
        -0.37300E+03
        -0.37300E+03
        -0.37300E+03
        -0.37300E+03
        -0.37300E+03
        -0.37300E+03
        -0.37300E+03
        -0.37300E+03
        -0.37300E+03
        -0.37300E+03
        -0.37300E+03
        -0.37300E+03
        -0.37300E+03
        -0.37300E+03
        -0.37300E+03
        -0.37300E+03
        -0.37300E+03
        -0.37300E+03
        -0.37300E+03
        -0.37300E+03
        -0.37300E+03
        -0.37300E+03
        -0.37300E+03
        -0.37300E+03
        -0.37300E+03
        -0.37300E+03
        -0.37300E+03
        -0.37300E+03
        -0.37300E+03
        -0.37300E+03
        -0.37300E+03
        -0.37300E+03
        -0.37300E+03
        -0.37300E+03
        -0.37300E+03
        -0.37300E+03
        -0.37300E+03
        -0.37300E+03
        -0.37300E+03
        -0.37300E+03
        -0.37300E+03
        -0.37300E+03
        -0.37300E+03
        -0.37300E+03
        -0.37300E+03
        -0.37300E+03
        -0.37300E+03
        -0.37300E+03
        -0.37300E+03
        -0.37300E+03
        -0.37300E+03
        -0.37300E+03
        -0.37300E+03
        -0.37300E+03
        -0.37300E+03
        -0.37300E+03
        -0.37300E+03
        -0.37300E+03
        -0.37300E+03
        -0.37300E+03
        -0.37300E+03
        -0.37300E+03
        -0.37300E+03
        -0.37300E+03
        -0.37300E+03
        -0.37300E+03
        -0.37300E+03
        -0.37300E+03
        -0.37300E+03
        -0.37300E+03
        -0.37300E+03
        -0.37300E+03
        -0.37300E+03
        -0.37300E+03
        -0.37300E+03
        -0.37300E+03
        -0.37300E+03
        -0.37300E+03
        -0.37300E+03
        -0.37300E+03
        -0.37300E+03
        -0.37300E+03
        -0.37300E+03
        -0.37300E+03
        -0.37300E+03
        -0.37300E+03
        -0.37300E+03
        -0.37300E+03
        -0.37300E+03
        -0.37300E+03
        -0.37300E+03
        -0.37300E+03
        -0.37300E+03
        -0.37300E+03
        -0.37300E+03
        -0.37300E+03
        -0.37300E+03
        -0.37300E+03
        -0.37300E+03
        -0.37300E+03
        -0.37300E+03
        -0.37300E+03
        -0.37300E+03
        -0.37300E+03
        -0.37300E+03
        -0.37300E+03
        -0.37300E+03
        -0.37300E+03
        -0.37300E+03
        -0.37300E+03
        -0.37300E+03
        -0.37300E+03
        -0.37300E+03
        -0.37300E+03
        -0.37300E+03
        -0.37300E+03
        -0.37300E+03
        -0.37300E+03
        -0.37300E+03
        -0.37300E+03
        -0.37300E+03
        -0.37300E+03
        -0.37300E+03
        -0.37300E+03
        -0.37300E+03
        -0.37300E+03
        -0.37300E+03
        -0.37300E+03
        -0.37300E+03
        -0.37300E+03
        -0.37300E+03
        -0.37300E+03
        -0.37300E+03
        -0.37300E+03
        -0.37300E+03
        -0.37300E+03
        -0.37300E+03
        -0.37300E+03
        -0.37300E+03
        -0.37300E+03
        -0.37300E+03
        -0.37300E+03
        -0.37300E+03
        -0.37300E+03
        -0.37300E+03
        -0.37300E+03
        -0.37300E+03
        -0.37300E+03
        -0.37300E+03
        -0.37300E+03
        -0.37300E+03
        -0.37300E+03
        -0.37300E+03
        -0.37300E+03
        -0.37300E+03
        -0.37300E+03
        -0.37300E+03
        -0.37300E+03
        -0.37300E+03
        -0.37300E+03
        -0.37300E+03
        -0.37300E+03
        -0.37300E+03
        -0.37300E+03
        -0.37300E+03
        -0.37300E+03
        -0.37300E+03
        -0.37300E+03
        -0.37300E+03
        -0.37300E+03
        -0.37300E+03
        -0.37300E+03
        -0.37300E+03
        -0.37300E+03
        -0.37300E+03
        -0.37300E+03
        -0.37300E+03
        -0.37300E+03
        -0.37300E+03
        -0.37300E+03
        -0.37300E+03
        -0.37300E+03
        -0.37300E+03
        -0.37300E+03
        -0.37300E+03
        -0.37300E+03
        -0.37300E+03
        -0.37300E+03
        -0.37300E+03
        -0.37300E+03
        -0.37300E+03
        -0.37300E+03
        -0.37300E+03
        -0.37300E+03
        -0.37300E+03
        -0.37300E+03
        -0.37300E+03
        -0.37300E+03
        -0.37300E+03
        -0.37300E+03
        -0.37300E+03
        -0.37300E+03
        -0.37300E+03
        -0.37300E+03
        -0.37300E+03
        -0.37300E+03
        -0.37300E+03
        -0.37300E+03
        -0.37300E+03
        -0.37300E+03
        -0.37300E+03
        -0.37300E+03
        -0.37300E+03
        -0.37300E+03
        -0.37300E+03
        -0.37300E+03
        -0.37300E+03
        -0.37300E+03
        -0.37300E+03
        -0.37300E+03
        -0.37300E+03
        -0.37300E+03
        -0.37300E+03
        -0.37300E+03
        -0.37300E+03
        -0.37300E+03
        -0.37300E+03
        -0.37300E+03
        -0.37300E+03
        -0.37300E+03
        -0.37300E+03
        -0.37300E+03
        -0.37300E+03
        -0.37300E+03
        -0.37300E+03
        -0.37300E+03
        -0.37300E+03
        -0.37300E+03
        -0.37300E+03
        -0.37300E+03
        -0.37300E+03
        -0.37300E+03
        -0.37300E+03
        -0.37300E+03
        -0.37300E+03
        -0.37300E+03
        -0.37300E+03
        -0.37300E+03
        -0.37300E+03
        -0.37300E+03
        -0.37300E+03
        -0.37300E+03
        -0.37300E+03
        -0.37300E+03
        -0.37300E+03
        -0.37300E+03
        -0.37300E+03
        -0.37300E+03
        -0.37300E+03
        -0.37300E+03
        -0.37300E+03
        -0.37300E+03
        -0.37300E+03
        -0.37300E+03
        -0.37300E+03
        -0.37300E+03
        -0.37300E+03
        -0.37300E+03
        -0.37300E+03
        -0.37300E+03
        -0.37300E+03
        -0.37300E+03
        -0.37300E+03
        -0.37300E+03
        -0.37300E+03
        -0.37300E+03
        -0.37300E+03
        -0.37300E+03
        -0.37300E+03
        -0.37300E+03
        -0.37300E+03
        -0.37300E+03
        -0.37300E+03
        -0.37300E+03
        -0.37300E+03
        -0.37300E+03
        -0.37300E+03
        -0.37300E+03
        -0.37300E+03
        -0.37300E+03
        -0.37300E+03
        -0.37300E+03
        -0.37300E+03
        -0.37300E+03
        -0.37300E+03
        -0.37300E+03
        -0.37300E+03
        -0.37300E+03
        -0.37300E+03
        -0.37300E+03
        -0.37300E+03
        -0.37300E+03
        -0.37300E+03
        -0.37300E+03
        -0.37300E+03
        -0.37300E+03
        -0.37300E+03
        -0.37300E+03
        -0.37300E+03
        -0.37300E+03
        -0.37300E+03
        -0.37300E+03
        -0.37300E+03
        -0.37300E+03
        -0.37300E+03
        -0.37300E+03
        -0.37300E+03
        -0.37300E+03
        -0.37300E+03
        -0.37300E+03
        -0.37300E+03
        -0.37300E+03
        -0.37300E+03
        -0.37300E+03
        -0.37300E+03
        -0.37300E+03
        -0.37300E+03
        -0.37300E+03
        -0.37300E+03
        -0.37300E+03
        -0.37300E+03
        -0.37300E+03
        -0.37300E+03
        -0.37300E+03
        -0.37300E+03
        -0.37300E+03
        -0.37300E+03
        -0.37300E+03
        -0.37300E+03
        -0.37300E+03
        -0.37300E+03
        -0.37300E+03
        -0.37300E+03
        -0.37300E+03
        -0.37300E+03
        -0.37300E+03
        -0.37300E+03
        -0.37300E+03
        -0.37300E+03
        -0.37300E+03
        -0.37300E+03
        -0.37300E+03
        -0.37300E+03
        -0.37300E+03
        -0.37300E+03
        -0.37300E+03
        -0.37300E+03
        -0.37300E+03
        -0.37300E+03
        -0.37300E+03
        -0.37300E+03
        -0.37300E+03
        -0.37300E+03
        -0.37300E+03
        -0.37300E+03
        -0.37300E+03
        -0.37300E+03
        -0.37300E+03
        -0.37300E+03
        -0.37300E+03
        -0.37300E+03
        -0.37300E+03
        -0.37300E+03
        -0.37300E+03
        -0.37300E+03
        -0.37300E+03
        -0.37300E+03
        -0.37300E+03
        -0.37300E+03
        -0.37300E+03
        -0.37300E+03
        -0.37300E+03
        -0.37300E+03
        -0.37300E+03
        -0.37300E+03
        -0.37300E+03
        -0.37300E+03
        -0.37300E+03
        -0.37300E+03
        -0.37300E+03
        -0.37300E+03
        -0.37300E+03
        -0.37300E+03
        -0.37300E+03
        -0.37300E+03
        -0.37300E+03
        -0.37300E+03
        -0.37300E+03
        -0.37300E+03
        -0.37300E+03
        -0.37300E+03
        -0.37300E+03
        -0.37300E+03
        -0.37300E+03
        -0.37300E+03
        -0.37300E+03
        -0.37300E+03
        -0.37300E+03
        -0.37300E+03
        -0.37300E+03
        -0.37300E+03
        -0.37300E+03
        -0.37300E+03
        -0.37300E+03
        -0.37300E+03
        -0.37300E+03
        -0.37300E+03
        -0.37300E+03
        -0.37300E+03
        -0.37300E+03
        -0.37300E+03
        -0.37300E+03
        -0.37300E+03
        -0.37300E+03
        -0.37300E+03
        -0.37300E+03
        -0.37300E+03
        -0.37300E+03
        -0.37300E+03
        -0.37300E+03
        -0.37300E+03
        -0.37300E+03
        -0.37300E+03
        -0.37300E+03
        -0.37300E+03
        -0.37300E+03
        -0.37300E+03
        -0.37300E+03
        -0.37300E+03
        -0.37300E+03
        -0.37300E+03
        -0.37300E+03
        -0.37300E+03
        -0.37300E+03
        -0.37300E+03
        -0.37300E+03
        -0.37300E+03
        -0.37300E+03
        -0.37300E+03
        -0.37300E+03
        -0.37300E+03
        -0.37300E+03
        -0.37300E+03
        -0.37300E+03
        -0.37300E+03
        -0.37300E+03
        -0.37300E+03
        -0.37300E+03
        -0.37300E+03
        -0.37300E+03
        -0.37300E+03
        -0.37300E+03
        -0.37300E+03
        -0.37300E+03
        -0.37300E+03
        -0.37300E+03
        -0.37300E+03
        -0.37300E+03
        -0.37300E+03
        -0.37300E+03
        -0.37300E+03
        -0.37300E+03
        -0.37300E+03
        -0.37300E+03
        -0.37300E+03
        -0.37300E+03
        -0.37300E+03
        -0.37300E+03
        -0.37300E+03
        -0.37300E+03
        -0.37300E+03
        -0.37300E+03
        -0.37300E+03
        -0.37300E+03
        -0.37300E+03
        -0.37300E+03
        -0.37300E+03
        -0.37300E+03
        -0.37300E+03
        -0.37300E+03
        -0.37300E+03
        -0.37300E+03
        -0.37300E+03
        -0.37300E+03
        -0.37300E+03
        -0.37300E+03
        -0.37300E+03
        -0.37300E+03
        -0.37300E+03
        -0.37300E+03
        -0.37300E+03
        -0.37300E+03
        -0.37300E+03
        -0.37300E+03
        -0.37300E+03
        -0.37300E+03
        -0.37300E+03
        -0.37300E+03
        -0.37300E+03
        -0.37300E+03
        -0.37300E+03
        -0.37300E+03
        -0.37300E+03
        -0.37300E+03
        -0.37300E+03
        -0.37300E+03
        -0.37300E+03
        -0.37300E+03
        -0.37300E+03
        -0.37300E+03
        -0.37300E+03
        -0.37300E+03
        -0.37300E+03
        -0.37300E+03
        -0.37300E+03
        -0.37300E+03
        -0.37300E+03
        -0.37300E+03
        -0.37300E+03
        -0.37300E+03
        -0.37300E+03
        -0.37300E+03
        -0.37300E+03
        -0.37300E+03
        -0.37300E+03
        -0.37300E+03
        -0.37300E+03
        -0.37300E+03
        -0.37300E+03
        -0.37300E+03
        -0.37300E+03
        -0.37300E+03
        -0.37300E+03
        -0.37300E+03
        -0.37300E+03
        -0.37300E+03
        -0.37300E+03
        -0.37300E+03
        -0.37300E+03
        -0.37300E+03
        -0.37300E+03
        -0.37300E+03
        -0.37300E+03
        -0.37300E+03
        -0.37300E+03
        -0.37300E+03
        -0.37300E+03
        -0.37300E+03
        -0.37300E+03
        -0.37300E+03
        -0.37300E+03
        -0.37300E+03
        -0.37300E+03
        -0.37300E+03
        -0.37300E+03
        -0.37300E+03
        -0.37300E+03
        -0.37300E+03
        -0.37300E+03
        -0.37300E+03
        -0.37300E+03
        -0.37300E+03
        -0.37300E+03
        -0.37300E+03
        -0.37300E+03
        -0.37300E+03
        -0.37300E+03
        -0.37300E+03
        -0.37300E+03
        -0.37300E+03
        -0.37300E+03
        -0.37300E+03
        -0.37300E+03
        -0.37300E+03
        -0.37300E+03
        -0.37300E+03
        -0.37300E+03
        -0.37300E+03
        -0.37300E+03
        -0.37300E+03
        -0.37300E+03
        -0.37300E+03
        -0.37300E+03
        -0.37300E+03
        -0.37300E+03
        -0.37300E+03
        -0.37300E+03
        -0.37300E+03
        -0.37300E+03
        -0.37300E+03
        -0.37300E+03
        -0.37300E+03
        -0.37300E+03
        -0.37300E+03
        -0.37300E+03
        -0.37300E+03
        -0.37300E+03
        -0.37300E+03
        -0.37300E+03
        -0.37300E+03
        -0.37300E+03
        -0.37300E+03
        -0.37300E+03
        -0.37300E+03
        -0.37300E+03
        -0.37300E+03
        -0.37300E+03
        -0.37300E+03
        -0.37300E+03
        -0.37300E+03
        -0.37300E+03
        -0.37300E+03
        -0.37300E+03
        -0.37300E+03
        -0.37300E+03
        -0.37300E+03
        -0.37300E+03
        -0.37300E+03
        -0.37300E+03
        -0.37300E+03
        -0.37300E+03
        -0.37300E+03
        -0.37300E+03
        -0.37300E+03
        -0.37300E+03
        -0.37300E+03
        -0.37300E+03
        -0.37300E+03
        -0.37300E+03
        -0.37300E+03
        -0.37300E+03
        -0.37300E+03
        -0.37300E+03
        -0.37300E+03
        -0.37300E+03
        -0.37300E+03
        -0.37300E+03
        -0.37300E+03
        -0.37300E+03
        -0.37300E+03
        -0.37300E+03
        -0.37300E+03
        -0.37300E+03
        -0.37300E+03
        -0.37300E+03
        -0.37300E+03
        -0.37300E+03
        -0.37300E+03
        -0.37300E+03
        -0.37300E+03
        -0.37300E+03
        -0.37300E+03
        -0.37300E+03
        -0.37300E+03
        -0.37300E+03
        -0.37300E+03
        -0.37300E+03
        -0.37300E+03
        -0.37300E+03
        -0.37300E+03
        -0.37300E+03
        -0.37300E+03
        -0.37300E+03
        -0.37300E+03
        -0.37300E+03
        -0.37300E+03
        -0.37300E+03
        -0.37300E+03
        -0.37300E+03
        -0.37300E+03
        -0.37300E+03
        -0.37300E+03
        -0.37300E+03
        -0.37300E+03
        -0.37300E+03
        -0.37300E+03
        -0.37300E+03
        -0.37300E+03
        -0.37300E+03
        -0.37300E+03
        -0.37300E+03
        -0.37300E+03
        -0.37300E+03
        -0.37300E+03
        -0.37300E+03
        -0.37300E+03
        -0.37300E+03
        -0.37300E+03
        -0.37300E+03
        -0.37300E+03
        -0.37300E+03
        -0.37300E+03
        -0.37300E+03
        -0.37300E+03
        -0.37300E+03
        -0.37300E+03
        -0.37300E+03
        -0.37300E+03
        -0.37300E+03
        -0.37300E+03
        -0.37300E+03
        -0.37300E+03
        -0.37300E+03
        -0.37300E+03
        -0.37300E+03
        -0.37300E+03
        -0.37300E+03
        -0.37300E+03
        -0.37300E+03
        -0.37300E+03
        -0.37300E+03
        -0.37300E+03
        -0.37300E+03
        -0.37300E+03
        -0.37300E+03
        -0.37300E+03
        -0.37300E+03
        -0.37300E+03
        -0.37300E+03
        -0.37300E+03
        -0.37300E+03
        -0.37300E+03
        -0.37300E+03
        -0.37300E+03
        -0.37300E+03
        -0.37300E+03
        -0.37300E+03
        -0.37300E+03
        -0.37300E+03
        -0.37300E+03
        -0.37300E+03
        -0.37300E+03
        -0.37300E+03
        -0.37300E+03
        -0.37300E+03
        -0.37300E+03
        -0.37300E+03
        -0.37300E+03
        -0.37300E+03
        -0.37300E+03
        -0.37300E+03
        -0.37300E+03
        -0.37300E+03
        -0.37300E+03
        -0.37300E+03
        -0.37300E+03
        -0.37300E+03
        -0.37300E+03
        -0.37300E+03
        -0.37300E+03
        -0.37300E+03
        -0.37300E+03
        -0.37300E+03
        -0.37300E+03
        -0.37300E+03
        -0.37300E+03
        -0.37300E+03
        -0.37300E+03
        -0.37300E+03
        -0.37300E+03
        -0.37300E+03
        -0.37300E+03
        -0.37300E+03
        -0.37300E+03
        -0.37300E+03
        -0.37300E+03
        -0.37300E+03
        -0.37300E+03
        -0.37300E+03
        -0.37300E+03
        -0.37300E+03
        -0.37300E+03
        -0.37300E+03
        -0.37300E+03
        -0.37300E+03
        -0.37300E+03
        -0.37300E+03
        -0.37300E+03
        -0.37300E+03
        -0.37300E+03
        -0.37300E+03
        -0.37300E+03
        -0.37300E+03
        -0.37300E+03
        -0.37300E+03
        -0.37300E+03
        -0.37300E+03
        -0.37300E+03
        -0.37300E+03
        -0.37300E+03
        -0.37300E+03
        -0.37300E+03
        -0.37300E+03
        -0.37300E+03
        -0.37300E+03
        -0.37300E+03
        -0.37300E+03
        -0.37300E+03
        -0.37300E+03
        -0.37300E+03
        -0.37300E+03
        -0.37300E+03
        -0.37300E+03
        -0.37300E+03
        -0.37300E+03
        -0.37300E+03
        -0.37300E+03
        -0.37300E+03
        -0.37300E+03
        -0.37300E+03
        -0.37300E+03
        -0.37300E+03
        -0.37300E+03
        -0.37300E+03
        -0.37300E+03
        -0.37300E+03
        -0.37300E+03
        -0.37300E+03
        -0.37300E+03
        -0.37300E+03
        -0.37300E+03
        -0.37300E+03
        -0.37300E+03
        -0.37300E+03
        -0.37300E+03
        -0.37300E+03
        -0.37300E+03
        -0.37300E+03
        -0.37300E+03
        -0.37300E+03
        -0.37300E+03
        -0.37300E+03
        -0.37300E+03
        -0.37300E+03
        -0.37300E+03
        -0.37300E+03
        -0.37300E+03
        -0.37300E+03
        -0.37300E+03
        -0.37300E+03
        -0.37300E+03
        -0.37300E+03
        -0.37300E+03
        -0.37300E+03
        -0.37300E+03
        -0.37300E+03
        -0.37300E+03
        -0.37300E+03
        -0.37300E+03
        -0.37300E+03
        -0.37300E+03
        -0.37300E+03
        -0.37300E+03
        -0.37300E+03
        -0.37300E+03
        -0.37300E+03
        -0.37300E+03
        -0.37300E+03
        -0.37300E+03
        -0.37300E+03
        -0.37300E+03
        -0.37300E+03
        -0.37300E+03
        -0.37300E+03
        -0.37300E+03
        -0.37300E+03
        -0.37300E+03
        -0.37300E+03
        -0.37300E+03
        -0.37300E+03
        -0.37300E+03
        -0.37300E+03
        -0.37300E+03
        -0.37300E+03
        -0.37300E+03
        -0.37300E+03
        -0.37300E+03
        -0.37300E+03
        -0.37300E+03
        -0.37300E+03
        -0.37300E+03
        -0.37300E+03
        -0.37300E+03
        -0.37300E+03
        -0.37300E+03
        -0.37300E+03
        -0.37300E+03
        -0.37300E+03
        -0.37300E+03
        -0.37300E+03
        -0.37300E+03
        -0.37300E+03
        -0.37300E+03
        -0.37300E+03
        -0.37300E+03
        -0.37300E+03
        -0.37300E+03
        -0.37300E+03
        -0.37300E+03
        -0.37300E+03
        -0.37300E+03
        -0.37300E+03
        -0.37300E+03
        -0.37300E+03
        -0.37300E+03
        -0.37300E+03
        -0.37300E+03
        -0.37300E+03
        -0.37300E+03
        -0.37300E+03
        -0.37300E+03
        -0.37300E+03
        -0.37300E+03
        -0.37300E+03
        -0.37300E+03
        -0.37300E+03
        -0.37300E+03
        -0.37300E+03
        -0.37300E+03
        -0.37300E+03
        -0.37300E+03
        -0.37300E+03
        -0.37300E+03
        -0.37300E+03
        -0.37300E+03
        -0.37300E+03
        -0.37300E+03
        -0.37300E+03
        -0.37300E+03
        -0.37300E+03
        -0.37300E+03
        -0.37300E+03
        -0.37300E+03
        -0.37300E+03
        -0.37300E+03
        -0.37300E+03
        -0.37300E+03
        -0.37300E+03
        -0.37300E+03
        -0.37300E+03
        -0.37300E+03
        -0.37300E+03
        -0.37300E+03
        -0.37300E+03
        -0.37300E+03
        -0.37300E+03
        -0.37300E+03
        -0.37300E+03
        -0.37300E+03
        -0.37300E+03
        -0.37300E+03
        -0.37300E+03
        -0.37300E+03
        -0.37300E+03
        -0.37300E+03
        -0.37300E+03
        -0.37300E+03
        -0.37300E+03
        -0.37300E+03
        -0.37300E+03
        -0.37300E+03
        -0.37300E+03
        -0.37300E+03
        -0.37300E+03
        -0.37300E+03
        -0.37300E+03
        -0.37300E+03
        -0.37300E+03
        -0.37300E+03
        -0.37300E+03
        -0.37300E+03
        -0.37300E+03
        -0.37300E+03
        -0.37300E+03
        -0.37300E+03
        -0.37300E+03
        -0.37300E+03
        -0.37300E+03
        -0.37300E+03
        -0.37300E+03
        -0.37300E+03
        -0.37300E+03
        -0.37300E+03
        -0.37300E+03
        -0.37300E+03
        -0.37300E+03
        -0.37300E+03
        -0.37300E+03
        -0.37300E+03
        -0.37300E+03
        -0.37300E+03
        -0.37300E+03
        -0.37300E+03
        -0.37300E+03
        -0.37300E+03
        -0.37300E+03
        -0.37300E+03
        -0.37300E+03
        -0.37300E+03
        -0.37300E+03
        -0.37300E+03
        -0.37300E+03
        -0.37300E+03
        -0.37300E+03
        -0.37300E+03
        -0.37300E+03
        -0.37300E+03
        -0.37300E+03
        -0.37300E+03
        -0.37300E+03
        -0.37300E+03
        -0.37300E+03
        -0.37300E+03
        -0.37300E+03
        -0.37300E+03
        -0.37300E+03
        -0.37300E+03
        -0.37300E+03
        -0.37300E+03
        -0.37300E+03
        -0.37300E+03
        -0.37300E+03
        -0.37300E+03
        -0.37300E+03
        -0.37300E+03
        -0.37300E+03
        -0.37300E+03
        -0.37300E+03
        -0.37300E+03
        -0.37300E+03
        -0.37300E+03
        -0.37300E+03
        -0.37300E+03
        -0.37300E+03
        -0.37300E+03
        -0.37300E+03
        -0.37300E+03
        -0.37300E+03
        -0.37300E+03
        -0.37300E+03
        -0.37300E+03
        -0.37300E+03
        -0.37300E+03
        -0.37300E+03
        -0.37300E+03
        -0.37300E+03
        -0.37300E+03
        -0.37300E+03
        -0.37300E+03
        -0.37300E+03
        -0.37300E+03
        -0.37300E+03
        -0.37300E+03
        -0.37300E+03
        -0.37300E+03
        -0.37300E+03
        -0.37300E+03
        -0.37300E+03
        -0.37300E+03
        -0.37300E+03
        -0.37300E+03
        -0.37300E+03
        -0.37300E+03
        -0.37300E+03
        -0.37300E+03
        -0.37300E+03
        -0.37300E+03
        -0.37300E+03
        -0.37300E+03
        -0.37300E+03
        -0.37300E+03
        -0.37300E+03
        -0.37300E+03
        -0.37300E+03
        -0.37300E+03
        -0.37300E+03
        -0.37300E+03
        -0.37300E+03
        -0.37300E+03
        -0.37300E+03
        -0.37300E+03
        -0.37300E+03
        -0.37300E+03
        -0.37300E+03
        -0.37300E+03
        -0.37300E+03
        -0.37300E+03
        -0.37300E+03
        -0.37300E+03
        -0.37300E+03
        -0.37300E+03
        -0.37300E+03
        -0.37300E+03
        -0.37300E+03
        -0.37300E+03
        -0.37300E+03
        -0.37300E+03
        -0.37300E+03
        -0.37300E+03
        -0.37300E+03
        -0.37300E+03
        -0.37300E+03
        -0.37300E+03
        -0.37300E+03
        -0.37300E+03
        -0.37300E+03
        -0.37300E+03
        -0.37300E+03
        -0.37300E+03
        -0.37300E+03
        -0.37300E+03
        -0.37300E+03
        -0.37300E+03
        -0.37300E+03
        -0.37300E+03
        -0.37300E+03
        -0.37300E+03
        -0.37300E+03
        -0.37300E+03
        -0.37300E+03
        -0.37300E+03
        -0.37300E+03
        -0.37300E+03
        -0.37300E+03
        -0.37300E+03
        -0.37300E+03
        -0.37300E+03
        -0.37300E+03
        -0.37300E+03
        -0.37300E+03
        -0.37300E+03
        -0.37300E+03
        -0.37300E+03
        -0.37300E+03
        -0.37300E+03
        -0.37300E+03
        -0.37300E+03
        -0.37300E+03
        -0.37300E+03
        -0.37300E+03
        -0.37300E+03
        -0.37300E+03
        -0.37300E+03
        -0.37300E+03
        -0.37300E+03
        -0.37300E+03
        -0.37300E+03
        -0.37300E+03
        -0.37300E+03
        -0.37300E+03
        -0.37300E+03
        -0.37300E+03
        -0.37300E+03
        -0.37300E+03
        -0.37300E+03
        -0.37300E+03
        -0.37300E+03
        -0.37300E+03
        -0.37300E+03
        -0.37300E+03
        -0.37300E+03
        -0.37300E+03
        -0.37300E+03
        -0.37300E+03
        -0.37300E+03
        -0.37300E+03
        -0.37300E+03
        -0.37300E+03
        -0.37300E+03
        -0.37300E+03
        -0.37300E+03
        -0.37300E+03
        -0.37300E+03
        -0.37300E+03
        -0.37300E+03
        -0.37300E+03
        -0.37300E+03
        -0.37300E+03
        -0.37300E+03
        -0.37300E+03
        -0.37300E+03
        -0.37300E+03
        -0.37300E+03
        -0.37300E+03
        -0.37300E+03
        -0.37300E+03
        -0.37300E+03
        -0.37300E+03
        -0.37300E+03
        -0.37300E+03
        -0.37300E+03
        -0.37300E+03
        -0.37300E+03
        -0.37300E+03
        -0.37300E+03
        -0.37300E+03
        -0.37300E+03
        -0.37300E+03
        -0.37300E+03
        -0.37300E+03
        -0.37300E+03
        -0.37300E+03
        -0.37300E+03
        -0.37300E+03
        -0.37300E+03
        -0.37300E+03
        -0.37300E+03
        -0.37300E+03
        -0.37300E+03
        -0.37300E+03
        -0.37300E+03
        -0.37300E+03
        -0.37300E+03
        -0.37300E+03
        -0.37300E+03
        -0.37300E+03
        -0.37300E+03
        -0.37300E+03
        -0.37300E+03
        -0.37300E+03
        -0.37300E+03
        -0.37300E+03
        -0.37300E+03
        -0.37300E+03
        -0.37300E+03
        -0.37300E+03
        -0.37300E+03
        -0.37300E+03
        -0.37300E+03
        -0.37300E+03
        -0.37300E+03
        -0.37300E+03
        -0.37300E+03
        -0.37300E+03
        -0.37300E+03
        -0.37300E+03
        -0.37300E+03
        -0.37300E+03
        -0.37300E+03
        -0.37300E+03
        -0.37300E+03
        -0.37300E+03
        -0.37300E+03
        -0.37300E+03
        -0.37300E+03
        -0.37300E+03
        -0.37300E+03
        -0.37300E+03
        -0.37300E+03
        -0.37300E+03
        -0.37300E+03
        -0.37300E+03
        -0.37300E+03
        -0.37300E+03
        -0.37300E+03
        -0.37300E+03
        -0.37300E+03
        -0.37300E+03
        -0.37300E+03
        -0.37300E+03
        -0.37300E+03
        -0.37300E+03
        -0.37300E+03
        -0.37300E+03
        -0.37300E+03
        -0.37300E+03
        -0.37300E+03
        -0.37300E+03
        -0.37300E+03
        -0.37300E+03
        -0.37300E+03
        -0.37300E+03
        -0.37300E+03
        -0.37300E+03
        -0.37300E+03
        -0.37300E+03
        -0.37300E+03
        -0.37300E+03
        -0.37300E+03
        -0.37300E+03
        -0.37300E+03
        -0.37300E+03
        -0.37300E+03
        -0.37300E+03
        -0.37300E+03
        -0.37300E+03
        -0.37300E+03
        -0.37300E+03
        -0.37300E+03
        -0.37300E+03
        -0.37300E+03
        -0.37300E+03
        -0.37300E+03
        -0.37300E+03
        -0.37300E+03
        -0.37300E+03
        -0.37300E+03
        -0.37300E+03
        -0.37300E+03
        -0.37300E+03
        -0.37300E+03
        -0.37300E+03
        -0.37300E+03
        -0.37300E+03
        -0.37300E+03
        -0.37300E+03
        -0.37300E+03
        -0.37300E+03
        -0.37300E+03
        -0.37300E+03
        -0.37300E+03
        -0.37300E+03
        -0.37300E+03
        -0.37300E+03
        -0.37300E+03
        -0.37300E+03
        -0.37300E+03
        -0.37300E+03
        -0.37300E+03
        -0.37300E+03
        -0.37300E+03
        -0.37300E+03
        -0.37300E+03
        -0.37300E+03
        -0.37300E+03
        -0.37300E+03
        -0.37300E+03
        -0.37300E+03
        -0.37300E+03
        -0.37300E+03
        -0.37300E+03
        -0.37300E+03
        -0.37300E+03
        -0.37300E+03
        -0.37300E+03
        -0.37300E+03
        -0.37300E+03
        -0.37300E+03
        -0.37300E+03
        -0.37300E+03
        -0.37300E+03
        -0.37300E+03
        -0.37300E+03
        -0.37300E+03
        -0.37300E+03
        -0.37300E+03
        -0.37300E+03
        -0.37300E+03
        -0.37300E+03
        -0.37300E+03
        -0.37300E+03
        -0.37300E+03
        -0.37300E+03
        -0.37300E+03
        -0.37300E+03
        -0.37300E+03
        -0.37300E+03
        -0.37300E+03
        -0.37300E+03
        -0.37300E+03
        -0.37300E+03
        -0.37300E+03
        -0.37300E+03
        -0.37300E+03
        -0.37300E+03
        -0.37300E+03
        -0.37300E+03
        -0.37300E+03
        -0.37300E+03
        -0.37300E+03
        -0.37300E+03
        -0.37300E+03
        -0.37300E+03
        -0.37300E+03
        -0.37300E+03
        -0.37300E+03
        -0.37300E+03
        -0.37300E+03
        -0.37300E+03
        -0.37300E+03
        -0.37300E+03
        -0.37300E+03
        -0.37300E+03
        -0.37300E+03
        -0.37300E+03
        -0.37300E+03
        -0.37300E+03
        -0.37300E+03
        -0.37300E+03
        -0.37300E+03
        -0.37300E+03
        -0.37300E+03
        -0.37300E+03
        -0.37300E+03
        -0.37300E+03
        -0.37300E+03
        -0.37300E+03
        -0.37300E+03
        -0.37300E+03
        -0.37300E+03
        -0.37300E+03
        -0.37300E+03
        -0.37300E+03
        -0.37300E+03
        -0.37300E+03
        -0.37300E+03
        -0.37300E+03
        -0.37300E+03
        -0.37300E+03
        -0.37300E+03
        -0.37300E+03
        -0.37300E+03
        -0.37300E+03
        -0.37300E+03
        -0.37300E+03
        -0.37300E+03
        -0.37300E+03
        -0.37300E+03
        -0.37300E+03
        -0.37300E+03
        -0.37300E+03
        -0.37300E+03
        -0.37300E+03
        -0.37300E+03
        -0.37300E+03
        -0.37300E+03
        -0.37300E+03
        -0.37300E+03
        -0.37300E+03
        -0.37300E+03
        -0.37300E+03
        -0.37300E+03
        -0.37300E+03
        -0.37300E+03
        -0.37300E+03
        -0.37300E+03
        -0.37300E+03
        -0.37300E+03
        -0.37300E+03
        -0.37300E+03
        -0.37300E+03
        -0.37300E+03
        -0.37300E+03
        -0.37300E+03
        -0.37300E+03
        -0.37300E+03
        -0.37300E+03
        -0.37300E+03
        -0.37300E+03
        -0.37300E+03
        -0.37300E+03
        -0.37300E+03
        -0.37300E+03
        -0.37300E+03
        -0.37300E+03
        -0.37300E+03
        -0.37300E+03
        -0.37300E+03
        -0.37300E+03
        -0.37300E+03
        -0.37300E+03
        -0.37300E+03
        -0.37300E+03
        -0.37300E+03
        -0.37300E+03
        -0.37300E+03
        -0.37300E+03
        -0.37300E+03
        -0.37300E+03
        -0.37300E+03
        -0.37300E+03
        -0.37300E+03
        -0.37300E+03
        -0.37300E+03
        -0.37300E+03
        -0.37300E+03
        -0.37300E+03
        -0.37300E+03
        -0.37300E+03
        -0.37300E+03
        -0.37300E+03
        -0.37300E+03
        -0.37300E+03
        -0.37300E+03
        -0.37300E+03
        -0.37300E+03
        -0.37300E+03
        -0.37300E+03
        -0.37300E+03
        -0.37300E+03
        -0.37300E+03
        -0.37300E+03
        -0.37300E+03
        -0.37300E+03
        -0.37300E+03
        -0.37300E+03
        -0.37300E+03
        -0.37300E+03
        -0.37300E+03
        -0.37300E+03
        -0.37300E+03
        -0.37300E+03
        -0.37300E+03
        -0.37300E+03
        -0.37300E+03
        -0.37300E+03
        -0.37300E+03
        -0.37300E+03
        -0.37300E+03
        -0.37300E+03
        -0.37300E+03
        -0.37300E+03
        -0.37300E+03
        -0.37300E+03
        -0.37300E+03
        -0.37300E+03
        -0.37300E+03
        -0.37300E+03
        -0.37300E+03
        -0.37300E+03
        -0.37300E+03
        -0.37300E+03
        -0.37300E+03
        -0.37300E+03
        -0.37300E+03
        -0.37300E+03
        -0.37300E+03
        -0.37300E+03
        -0.37300E+03
        -0.37300E+03
        -0.37300E+03
        -0.37300E+03
        -0.37300E+03
        -0.37300E+03
        -0.37300E+03
        -0.37300E+03
        -0.37300E+03
        -0.37300E+03
        -0.37300E+03
        -0.37300E+03
        -0.37300E+03
        -0.37300E+03
        -0.37300E+03
        -0.37300E+03
        -0.37300E+03
        -0.37300E+03
        -0.37300E+03
        -0.37300E+03
        -0.37300E+03
        -0.37300E+03
        -0.37300E+03
        -0.37300E+03
        -0.37300E+03
        -0.37300E+03
        -0.37300E+03
        -0.37300E+03
        -0.37300E+03
        -0.37300E+03
        -0.37300E+03
        -0.37300E+03
        -0.37300E+03
        -0.37300E+03
        -0.37300E+03
        -0.37300E+03
        -0.37300E+03
        -0.37300E+03
        -0.37300E+03
        -0.37300E+03
        -0.37300E+03
        -0.37300E+03
        -0.37300E+03
        -0.37300E+03
        -0.37300E+03
        -0.37300E+03
        -0.37300E+03
        -0.37300E+03
        -0.37300E+03
        -0.37300E+03
        -0.37300E+03
  
SCALARS              normalized_window  double 1
LOOKUP_TABLE default
         0.27500E+01
         0.27500E+01
         0.27500E+01
         0.27500E+01
         0.27500E+01
         0.27500E+01
         0.27500E+01
         0.27500E+01
         0.27500E+01
         0.27500E+01
         0.27500E+01
         0.27500E+01
         0.27500E+01
         0.27500E+01
         0.27500E+01
         0.27500E+01
         0.27500E+01
         0.27500E+01
         0.27500E+01
         0.27500E+01
         0.27500E+01
         0.27500E+01
         0.27500E+01
         0.27500E+01
         0.27500E+01
         0.27500E+01
         0.27500E+01
         0.27500E+01
         0.27500E+01
         0.27500E+01
         0.27500E+01
         0.27500E+01
         0.27500E+01
         0.27500E+01
         0.27500E+01
         0.27500E+01
         0.27500E+01
         0.27500E+01
         0.27500E+01
         0.27500E+01
         0.27500E+01
         0.27500E+01
         0.27500E+01
         0.27500E+01
         0.27500E+01
         0.27500E+01
         0.27500E+01
         0.27500E+01
         0.27500E+01
         0.27500E+01
         0.27500E+01
         0.27500E+01
         0.27500E+01
         0.27500E+01
         0.27500E+01
         0.27500E+01
         0.27500E+01
         0.27500E+01
         0.27500E+01
         0.27500E+01
         0.27500E+01
         0.27500E+01
         0.27500E+01
         0.27500E+01
         0.27500E+01
         0.27500E+01
         0.27500E+01
         0.27500E+01
         0.27500E+01
         0.27500E+01
         0.27500E+01
         0.27500E+01
         0.27500E+01
         0.27500E+01
         0.27500E+01
         0.27500E+01
         0.27500E+01
         0.27500E+01
         0.27500E+01
         0.27500E+01
         0.27500E+01
         0.27500E+01
         0.27500E+01
         0.27500E+01
         0.27500E+01
         0.27500E+01
         0.27500E+01
         0.27500E+01
         0.27500E+01
         0.27500E+01
         0.27500E+01
         0.27500E+01
         0.27500E+01
         0.27500E+01
         0.27500E+01
         0.27500E+01
         0.27500E+01
         0.27500E+01
         0.27500E+01
         0.27500E+01
         0.27500E+01
         0.27500E+01
         0.27500E+01
         0.27500E+01
         0.27500E+01
         0.27500E+01
         0.27500E+01
         0.27500E+01
         0.27500E+01
         0.27500E+01
         0.27500E+01
         0.27500E+01
         0.27500E+01
         0.27500E+01
         0.27500E+01
         0.27500E+01
         0.27500E+01
         0.27500E+01
         0.27500E+01
         0.27500E+01
         0.27500E+01
         0.27500E+01
         0.27500E+01
         0.27500E+01
         0.27500E+01
         0.27500E+01
         0.27500E+01
         0.27500E+01
         0.27500E+01
         0.27500E+01
         0.27500E+01
         0.27500E+01
         0.27500E+01
         0.27500E+01
         0.27500E+01
         0.27500E+01
         0.27500E+01
         0.27500E+01
         0.27500E+01
         0.27500E+01
         0.27500E+01
         0.27500E+01
         0.27500E+01
         0.27500E+01
         0.27500E+01
         0.27500E+01
         0.27500E+01
         0.27500E+01
         0.27500E+01
         0.27500E+01
         0.27500E+01
         0.27500E+01
         0.27500E+01
         0.27500E+01
         0.27500E+01
         0.27500E+01
         0.27500E+01
         0.27500E+01
         0.27500E+01
         0.27500E+01
         0.27500E+01
         0.27500E+01
         0.27500E+01
         0.27500E+01
         0.27500E+01
         0.27500E+01
         0.27500E+01
         0.27500E+01
         0.27500E+01
         0.27500E+01
         0.27500E+01
         0.27500E+01
         0.27500E+01
         0.27500E+01
         0.27500E+01
         0.27500E+01
         0.27500E+01
         0.27500E+01
         0.27500E+01
         0.27500E+01
         0.27500E+01
         0.27500E+01
         0.27500E+01
         0.27500E+01
         0.27500E+01
         0.27500E+01
         0.27500E+01
         0.27500E+01
         0.27500E+01
         0.27500E+01
         0.27500E+01
         0.27500E+01
         0.27500E+01
         0.27500E+01
         0.27500E+01
         0.27500E+01
         0.27500E+01
         0.27500E+01
         0.27500E+01
         0.27500E+01
         0.27500E+01
         0.27500E+01
         0.27500E+01
         0.27500E+01
         0.27500E+01
         0.27500E+01
         0.27500E+01
         0.27500E+01
         0.27500E+01
         0.27500E+01
         0.27500E+01
         0.27500E+01
         0.27500E+01
         0.27500E+01
         0.27500E+01
         0.27500E+01
         0.27500E+01
         0.27500E+01
         0.27500E+01
         0.27500E+01
         0.27500E+01
         0.27500E+01
         0.27500E+01
         0.27500E+01
         0.27500E+01
         0.27500E+01
         0.27500E+01
         0.27500E+01
         0.27500E+01
         0.27500E+01
         0.27500E+01
         0.27500E+01
         0.27500E+01
         0.27500E+01
         0.27500E+01
         0.27500E+01
         0.27500E+01
         0.27500E+01
         0.27500E+01
         0.27500E+01
         0.27500E+01
         0.27500E+01
         0.27500E+01
         0.27500E+01
         0.27500E+01
         0.27500E+01
         0.27500E+01
         0.27500E+01
         0.27500E+01
         0.27500E+01
         0.27500E+01
         0.27500E+01
         0.27500E+01
         0.27500E+01
         0.27500E+01
         0.27500E+01
         0.27500E+01
         0.27500E+01
         0.27500E+01
         0.27500E+01
         0.27500E+01
         0.27500E+01
         0.27500E+01
         0.27500E+01
         0.27500E+01
         0.27500E+01
         0.27500E+01
         0.27500E+01
         0.27500E+01
         0.27500E+01
         0.27500E+01
         0.27500E+01
         0.27500E+01
         0.27500E+01
         0.27500E+01
         0.27500E+01
         0.27500E+01
         0.27500E+01
         0.27500E+01
         0.27500E+01
         0.27500E+01
         0.27500E+01
         0.27500E+01
         0.27500E+01
         0.27500E+01
         0.27500E+01
         0.27500E+01
         0.27500E+01
         0.27500E+01
         0.27500E+01
         0.27500E+01
         0.27500E+01
         0.27500E+01
         0.27500E+01
         0.27500E+01
         0.27500E+01
         0.27500E+01
         0.27500E+01
         0.27500E+01
         0.27500E+01
         0.27500E+01
         0.27500E+01
         0.27500E+01
         0.27500E+01
         0.27500E+01
         0.27500E+01
         0.27500E+01
         0.27500E+01
         0.27500E+01
         0.27500E+01
         0.27500E+01
         0.27500E+01
         0.27500E+01
         0.27500E+01
         0.27500E+01
         0.27500E+01
         0.27500E+01
         0.27500E+01
         0.27500E+01
         0.27500E+01
         0.27500E+01
         0.27500E+01
         0.27500E+01
         0.27500E+01
         0.27500E+01
         0.27500E+01
         0.27500E+01
         0.27500E+01
         0.27500E+01
         0.27500E+01
         0.27500E+01
         0.27500E+01
         0.27500E+01
         0.27500E+01
         0.27500E+01
         0.27500E+01
         0.27500E+01
         0.27500E+01
         0.27500E+01
         0.27500E+01
         0.27500E+01
         0.27500E+01
         0.27500E+01
         0.27500E+01
         0.27500E+01
         0.27500E+01
         0.27500E+01
         0.27500E+01
         0.27500E+01
         0.27500E+01
         0.27500E+01
         0.27500E+01
         0.27500E+01
         0.27500E+01
         0.27500E+01
         0.27500E+01
         0.27500E+01
         0.27500E+01
         0.27500E+01
         0.27500E+01
         0.27500E+01
         0.27500E+01
         0.27500E+01
         0.27500E+01
         0.27500E+01
         0.27500E+01
         0.27500E+01
         0.27500E+01
         0.27500E+01
         0.27500E+01
         0.27500E+01
         0.27500E+01
         0.27500E+01
         0.27500E+01
         0.27500E+01
         0.27500E+01
         0.27500E+01
         0.27500E+01
         0.27500E+01
         0.27500E+01
         0.27500E+01
         0.27500E+01
         0.27500E+01
         0.27500E+01
         0.27500E+01
         0.27500E+01
         0.27500E+01
         0.27500E+01
         0.27500E+01
         0.27500E+01
         0.27500E+01
         0.27500E+01
         0.27500E+01
         0.27500E+01
         0.27500E+01
         0.27500E+01
         0.27500E+01
         0.27500E+01
         0.27500E+01
         0.27500E+01
         0.27500E+01
         0.27500E+01
         0.27500E+01
         0.27500E+01
         0.27500E+01
         0.27500E+01
         0.27500E+01
         0.27500E+01
         0.27500E+01
         0.27500E+01
         0.27500E+01
         0.27500E+01
         0.27500E+01
         0.27500E+01
         0.27500E+01
         0.27500E+01
         0.27500E+01
         0.27500E+01
         0.27500E+01
         0.27500E+01
         0.27500E+01
         0.27500E+01
         0.27500E+01
         0.27500E+01
         0.27500E+01
         0.27500E+01
         0.27500E+01
         0.27500E+01
         0.27500E+01
         0.27500E+01
         0.27500E+01
         0.27500E+01
         0.27500E+01
         0.27500E+01
         0.27500E+01
         0.27500E+01
         0.27500E+01
         0.27500E+01
         0.27500E+01
         0.27500E+01
         0.27500E+01
         0.27500E+01
         0.27500E+01
         0.27500E+01
         0.27500E+01
         0.27500E+01
         0.27500E+01
         0.27500E+01
         0.27500E+01
         0.27500E+01
         0.27500E+01
         0.27500E+01
         0.27500E+01
         0.27500E+01
         0.27500E+01
         0.27500E+01
         0.27500E+01
         0.27500E+01
         0.27500E+01
         0.27500E+01
         0.27500E+01
         0.27500E+01
         0.27500E+01
         0.27500E+01
         0.27500E+01
         0.27500E+01
         0.27500E+01
         0.27500E+01
         0.27500E+01
         0.27500E+01
         0.27500E+01
         0.27500E+01
         0.27500E+01
         0.27500E+01
         0.27500E+01
         0.27500E+01
         0.27500E+01
         0.27500E+01
         0.27500E+01
         0.27500E+01
         0.27500E+01
         0.27500E+01
         0.27500E+01
         0.27500E+01
         0.27500E+01
         0.27500E+01
         0.27500E+01
         0.27500E+01
         0.27500E+01
         0.27500E+01
         0.27500E+01
         0.27500E+01
         0.27500E+01
         0.27500E+01
         0.27500E+01
         0.27500E+01
         0.27500E+01
         0.27500E+01
         0.27500E+01
         0.27500E+01
         0.27500E+01
         0.27500E+01
         0.27500E+01
         0.27500E+01
         0.27500E+01
         0.27500E+01
         0.27500E+01
         0.27500E+01
         0.27500E+01
         0.27500E+01
         0.27500E+01
         0.27500E+01
         0.27500E+01
         0.27500E+01
         0.27500E+01
         0.27500E+01
         0.27500E+01
         0.27500E+01
         0.27500E+01
         0.27500E+01
         0.27500E+01
         0.27500E+01
         0.27500E+01
         0.27500E+01
         0.27500E+01
         0.27500E+01
         0.27500E+01
         0.27500E+01
         0.27500E+01
         0.27500E+01
         0.27500E+01
         0.27500E+01
         0.27500E+01
         0.27500E+01
         0.27500E+01
         0.27500E+01
         0.27500E+01
         0.27500E+01
         0.27500E+01
         0.27500E+01
         0.27500E+01
         0.27500E+01
         0.27500E+01
         0.27500E+01
         0.27500E+01
         0.27500E+01
         0.27500E+01
         0.27500E+01
         0.27500E+01
         0.27500E+01
         0.27500E+01
         0.27500E+01
         0.27500E+01
         0.27500E+01
         0.27500E+01
         0.27500E+01
         0.27500E+01
         0.27500E+01
         0.27500E+01
         0.27500E+01
         0.27500E+01
         0.27500E+01
         0.27500E+01
         0.27500E+01
         0.27500E+01
         0.27500E+01
         0.27500E+01
         0.27500E+01
         0.27500E+01
         0.27500E+01
         0.27500E+01
         0.27500E+01
         0.27500E+01
         0.27500E+01
         0.27500E+01
         0.27500E+01
         0.27500E+01
         0.27500E+01
         0.27500E+01
         0.27500E+01
         0.27500E+01
         0.27500E+01
         0.27500E+01
         0.27500E+01
         0.27500E+01
         0.27500E+01
         0.27500E+01
         0.27500E+01
         0.27500E+01
         0.27500E+01
         0.27500E+01
         0.27500E+01
         0.27500E+01
         0.27500E+01
         0.27500E+01
         0.27500E+01
         0.27500E+01
         0.27500E+01
         0.27500E+01
         0.27500E+01
         0.27500E+01
         0.27500E+01
         0.27500E+01
         0.27500E+01
         0.27500E+01
         0.27500E+01
         0.27500E+01
         0.27500E+01
         0.27500E+01
         0.27500E+01
         0.27500E+01
         0.27500E+01
         0.27500E+01
         0.27500E+01
         0.27500E+01
         0.27500E+01
         0.27500E+01
         0.27500E+01
         0.27500E+01
         0.27500E+01
         0.27500E+01
         0.27500E+01
         0.27500E+01
         0.27500E+01
         0.27500E+01
         0.27500E+01
         0.27500E+01
         0.27500E+01
         0.27500E+01
         0.27500E+01
         0.27500E+01
         0.27500E+01
         0.27500E+01
         0.27500E+01
         0.27500E+01
         0.27500E+01
         0.27500E+01
         0.27500E+01
         0.27500E+01
         0.27500E+01
         0.27500E+01
         0.27500E+01
         0.27500E+01
         0.27500E+01
         0.27500E+01
         0.27500E+01
         0.27500E+01
         0.27500E+01
         0.27500E+01
         0.27500E+01
         0.27500E+01
         0.27500E+01
         0.27500E+01
         0.27500E+01
         0.27500E+01
         0.27500E+01
         0.27500E+01
         0.27500E+01
         0.27500E+01
         0.27500E+01
         0.27500E+01
         0.27500E+01
         0.27500E+01
         0.27500E+01
         0.27500E+01
         0.27500E+01
         0.27500E+01
         0.27500E+01
         0.27500E+01
         0.27500E+01
         0.27500E+01
         0.27500E+01
         0.27500E+01
         0.27500E+01
         0.27500E+01
         0.27500E+01
         0.27500E+01
         0.27500E+01
         0.27500E+01
         0.27500E+01
         0.27500E+01
         0.27500E+01
         0.27500E+01
         0.27500E+01
         0.27500E+01
         0.27500E+01
         0.27500E+01
         0.27500E+01
         0.27500E+01
         0.27500E+01
         0.27500E+01
         0.27500E+01
         0.27500E+01
         0.27500E+01
         0.27500E+01
         0.27500E+01
         0.27500E+01
         0.27500E+01
         0.27500E+01
         0.27500E+01
         0.27500E+01
         0.27500E+01
         0.27500E+01
         0.27500E+01
         0.27500E+01
         0.27500E+01
         0.27500E+01
         0.27500E+01
         0.27500E+01
         0.27500E+01
         0.27500E+01
         0.27500E+01
         0.27500E+01
         0.27500E+01
         0.27500E+01
         0.27500E+01
         0.27500E+01
         0.27500E+01
         0.27500E+01
         0.27500E+01
         0.27500E+01
         0.27500E+01
         0.27500E+01
         0.27500E+01
         0.27500E+01
         0.27500E+01
         0.27500E+01
         0.27500E+01
         0.27500E+01
         0.27500E+01
         0.27500E+01
         0.27500E+01
         0.27500E+01
         0.27500E+01
         0.27500E+01
         0.27500E+01
         0.27500E+01
         0.27500E+01
         0.27500E+01
         0.27500E+01
         0.27500E+01
         0.27500E+01
         0.27500E+01
         0.27500E+01
         0.27500E+01
         0.27500E+01
         0.27500E+01
         0.27500E+01
         0.27500E+01
         0.27500E+01
         0.27500E+01
         0.27500E+01
         0.27500E+01
         0.27500E+01
         0.27500E+01
         0.27500E+01
         0.27500E+01
         0.27500E+01
         0.27500E+01
         0.27500E+01
         0.27500E+01
         0.27500E+01
         0.27500E+01
         0.27500E+01
         0.27500E+01
         0.27500E+01
         0.27500E+01
         0.27500E+01
         0.27500E+01
         0.27500E+01
         0.27500E+01
         0.27500E+01
         0.27500E+01
         0.27500E+01
         0.27500E+01
         0.27500E+01
         0.27500E+01
         0.27500E+01
         0.27500E+01
         0.27500E+01
         0.27500E+01
         0.27500E+01
         0.27500E+01
         0.27500E+01
         0.27500E+01
         0.27500E+01
         0.27500E+01
         0.27500E+01
         0.27500E+01
         0.27500E+01
         0.27500E+01
         0.27500E+01
         0.27500E+01
         0.27500E+01
         0.27500E+01
         0.27500E+01
         0.27500E+01
         0.27500E+01
         0.27500E+01
         0.27500E+01
         0.27500E+01
         0.27500E+01
         0.27500E+01
         0.27500E+01
         0.27500E+01
         0.27500E+01
         0.27500E+01
         0.27500E+01
         0.27500E+01
         0.27500E+01
         0.27500E+01
         0.27500E+01
         0.27500E+01
         0.27500E+01
         0.27500E+01
         0.27500E+01
         0.27500E+01
         0.27500E+01
         0.27500E+01
         0.27500E+01
         0.27500E+01
         0.27500E+01
         0.27500E+01
         0.27500E+01
         0.27500E+01
         0.27500E+01
         0.27500E+01
         0.27500E+01
         0.27500E+01
         0.27500E+01
         0.27500E+01
         0.27500E+01
         0.27500E+01
         0.27500E+01
         0.27500E+01
         0.27500E+01
         0.27500E+01
         0.27500E+01
         0.27500E+01
         0.27500E+01
         0.27500E+01
         0.27500E+01
         0.27500E+01
         0.27500E+01
         0.27500E+01
         0.27500E+01
         0.27500E+01
         0.27500E+01
         0.27500E+01
         0.27500E+01
         0.27500E+01
         0.27500E+01
         0.27500E+01
         0.27500E+01
         0.27500E+01
         0.27500E+01
         0.27500E+01
         0.27500E+01
         0.27500E+01
         0.27500E+01
         0.27500E+01
         0.27500E+01
         0.27500E+01
         0.27500E+01
         0.27500E+01
         0.27500E+01
         0.27500E+01
         0.27500E+01
         0.27500E+01
         0.27500E+01
         0.27500E+01
         0.27500E+01
         0.27500E+01
         0.27500E+01
         0.27500E+01
         0.27500E+01
         0.27500E+01
         0.27500E+01
         0.27500E+01
         0.27500E+01
         0.27500E+01
         0.27500E+01
         0.27500E+01
         0.27500E+01
         0.27500E+01
         0.27500E+01
         0.27500E+01
         0.27500E+01
         0.27500E+01
         0.27500E+01
         0.27500E+01
         0.27500E+01
         0.27500E+01
         0.27500E+01
         0.27500E+01
         0.27500E+01
         0.27500E+01
         0.27500E+01
         0.27500E+01
         0.27500E+01
         0.27500E+01
         0.27500E+01
         0.27500E+01
         0.27500E+01
         0.27500E+01
         0.27500E+01
         0.27500E+01
         0.27500E+01
         0.27500E+01
         0.27500E+01
         0.27500E+01
         0.27500E+01
         0.27500E+01
         0.27500E+01
         0.27500E+01
         0.27500E+01
         0.27500E+01
         0.27500E+01
         0.27500E+01
         0.27500E+01
         0.27500E+01
         0.27500E+01
         0.27500E+01
         0.27500E+01
         0.27500E+01
         0.27500E+01
         0.27500E+01
         0.27500E+01
         0.27500E+01
         0.27500E+01
         0.27500E+01
         0.27500E+01
         0.27500E+01
         0.27500E+01
         0.27500E+01
         0.27500E+01
         0.27500E+01
         0.27500E+01
         0.27500E+01
         0.27500E+01
         0.27500E+01
         0.27500E+01
         0.27500E+01
         0.27500E+01
         0.27500E+01
         0.27500E+01
         0.27500E+01
         0.27500E+01
         0.27500E+01
         0.27500E+01
         0.27500E+01
         0.27500E+01
         0.27500E+01
         0.27500E+01
         0.27500E+01
         0.27500E+01
         0.27500E+01
         0.27500E+01
         0.27500E+01
         0.27500E+01
         0.27500E+01
         0.27500E+01
         0.27500E+01
         0.27500E+01
         0.27500E+01
         0.27500E+01
         0.27500E+01
         0.27500E+01
         0.27500E+01
         0.27500E+01
         0.27500E+01
         0.27500E+01
         0.27500E+01
         0.27500E+01
         0.27500E+01
         0.27500E+01
         0.27500E+01
         0.27500E+01
         0.27500E+01
         0.27500E+01
         0.27500E+01
         0.27500E+01
         0.27500E+01
         0.27500E+01
         0.27500E+01
         0.27500E+01
         0.27500E+01
         0.27500E+01
         0.27500E+01
         0.27500E+01
         0.27500E+01
         0.27500E+01
         0.27500E+01
         0.27500E+01
         0.27500E+01
         0.27500E+01
         0.27500E+01
         0.27500E+01
         0.27500E+01
         0.27500E+01
         0.27500E+01
         0.27500E+01
         0.27500E+01
         0.27500E+01
         0.27500E+01
         0.27500E+01
         0.27500E+01
         0.27500E+01
         0.27500E+01
         0.27500E+01
         0.27500E+01
         0.27500E+01
         0.27500E+01
         0.27500E+01
         0.27500E+01
         0.27500E+01
         0.27500E+01
         0.27500E+01
         0.27500E+01
         0.27500E+01
         0.27500E+01
         0.27500E+01
         0.27500E+01
         0.27500E+01
         0.27500E+01
         0.27500E+01
         0.27500E+01
         0.27500E+01
         0.27500E+01
         0.27500E+01
         0.27500E+01
         0.27500E+01
         0.27500E+01
         0.27500E+01
         0.27500E+01
         0.27500E+01
         0.27500E+01
         0.27500E+01
         0.27500E+01
         0.27500E+01
         0.27500E+01
         0.27500E+01
         0.27500E+01
         0.27500E+01
         0.27500E+01
         0.27500E+01
         0.27500E+01
         0.27500E+01
         0.27500E+01
         0.27500E+01
         0.27500E+01
         0.27500E+01
         0.27500E+01
         0.27500E+01
         0.27500E+01
         0.27500E+01
         0.27500E+01
         0.27500E+01
         0.27500E+01
         0.27500E+01
         0.27500E+01
         0.27500E+01
         0.27500E+01
         0.27500E+01
         0.27500E+01
         0.27500E+01
         0.27500E+01
         0.27500E+01
         0.27500E+01
         0.27500E+01
         0.27500E+01
         0.27500E+01
         0.27500E+01
         0.27500E+01
         0.27500E+01
         0.27500E+01
         0.27500E+01
         0.27500E+01
         0.27500E+01
         0.27500E+01
         0.27500E+01
         0.27500E+01
         0.27500E+01
         0.27500E+01
         0.27500E+01
         0.27500E+01
         0.27500E+01
         0.27500E+01
         0.27500E+01
         0.27500E+01
         0.27500E+01
         0.27500E+01
         0.27500E+01
         0.27500E+01
         0.27500E+01
         0.27500E+01
         0.27500E+01
         0.27500E+01
         0.27500E+01
         0.27500E+01
         0.27500E+01
         0.27500E+01
         0.27500E+01
         0.27500E+01
         0.27500E+01
         0.27500E+01
         0.27500E+01
         0.27500E+01
         0.27500E+01
         0.27500E+01
         0.27500E+01
         0.27500E+01
         0.27500E+01
         0.27500E+01
         0.27500E+01
         0.27500E+01
         0.27500E+01
         0.27500E+01
         0.27500E+01
         0.27500E+01
         0.27500E+01
         0.27500E+01
         0.27500E+01
         0.27500E+01
         0.27500E+01
         0.27500E+01
         0.27500E+01
         0.27500E+01
         0.27500E+01
         0.27500E+01
         0.27500E+01
         0.27500E+01
         0.27500E+01
         0.27500E+01
         0.27500E+01
         0.27500E+01
         0.27500E+01
         0.27500E+01
         0.27500E+01
         0.27500E+01
         0.27500E+01
         0.27500E+01
         0.27500E+01
         0.27500E+01
         0.27500E+01
         0.27500E+01
         0.27500E+01
         0.27500E+01
         0.27500E+01
         0.27500E+01
         0.27500E+01
         0.27500E+01
         0.27500E+01
         0.27500E+01
         0.27500E+01
         0.27500E+01
         0.27500E+01
         0.27500E+01
         0.27500E+01
         0.27500E+01
         0.27500E+01
         0.27500E+01
         0.27500E+01
         0.27500E+01
         0.27500E+01
         0.27500E+01
         0.27500E+01
         0.27500E+01
         0.27500E+01
         0.27500E+01
         0.27500E+01
         0.27500E+01
         0.27500E+01
         0.27500E+01
         0.27500E+01
         0.27500E+01
         0.27500E+01
         0.27500E+01
         0.27500E+01
         0.27500E+01
         0.27500E+01
         0.27500E+01
         0.27500E+01
         0.27500E+01
         0.27500E+01
         0.27500E+01
         0.27500E+01
         0.27500E+01
         0.27500E+01
         0.27500E+01
         0.27500E+01
         0.27500E+01
         0.27500E+01
         0.27500E+01
         0.27500E+01
         0.27500E+01
         0.27500E+01
         0.27500E+01
         0.27500E+01
         0.27500E+01
         0.27500E+01
         0.27500E+01
         0.27500E+01
         0.27500E+01
         0.27500E+01
         0.27500E+01
         0.27500E+01
         0.27500E+01
         0.27500E+01
         0.27500E+01
         0.27500E+01
         0.27500E+01
         0.27500E+01
         0.27500E+01
         0.27500E+01
         0.27500E+01
         0.27500E+01
         0.27500E+01
         0.27500E+01
         0.27500E+01
         0.27500E+01
         0.27500E+01
         0.27500E+01
         0.27500E+01
         0.27500E+01
         0.27500E+01
         0.27500E+01
         0.27500E+01
         0.27500E+01
         0.27500E+01
         0.27500E+01
         0.27500E+01
         0.27500E+01
         0.27500E+01
         0.27500E+01
         0.27500E+01
         0.27500E+01
         0.27500E+01
         0.27500E+01
         0.27500E+01
         0.27500E+01
         0.27500E+01
         0.27500E+01
         0.27500E+01
         0.27500E+01
         0.27500E+01
         0.27500E+01
         0.27500E+01
         0.27500E+01
         0.27500E+01
         0.27500E+01
         0.27500E+01
         0.27500E+01
         0.27500E+01
         0.27500E+01
         0.27500E+01
         0.27500E+01
         0.27500E+01
         0.27500E+01
         0.27500E+01
         0.27500E+01
         0.27500E+01
         0.27500E+01
         0.27500E+01
         0.27500E+01
         0.27500E+01
         0.27500E+01
         0.27500E+01
         0.27500E+01
         0.27500E+01
         0.27500E+01
         0.27500E+01
         0.27500E+01
         0.27500E+01
         0.27500E+01
         0.27500E+01
         0.27500E+01
         0.27500E+01
         0.27500E+01
         0.27500E+01
         0.27500E+01
         0.27500E+01
         0.27500E+01
         0.27500E+01
         0.27500E+01
         0.27500E+01
         0.27500E+01
         0.27500E+01
         0.27500E+01
         0.27500E+01
         0.27500E+01
         0.27500E+01
         0.27500E+01
         0.27500E+01
         0.27500E+01
         0.27500E+01
         0.27500E+01
         0.27500E+01
         0.27500E+01
         0.27500E+01
         0.27500E+01
         0.27500E+01
         0.27500E+01
         0.27500E+01
         0.27500E+01
         0.27500E+01
         0.27500E+01
         0.27500E+01
         0.27500E+01
         0.27500E+01
         0.27500E+01
         0.27500E+01
         0.27500E+01
         0.27500E+01
         0.27500E+01
         0.27500E+01
         0.27500E+01
         0.27500E+01
         0.27500E+01
         0.27500E+01
         0.27500E+01
         0.27500E+01
         0.27500E+01
         0.27500E+01
         0.27500E+01
         0.27500E+01
         0.27500E+01
         0.27500E+01
         0.27500E+01
         0.27500E+01
         0.27500E+01
         0.27500E+01
         0.27500E+01
         0.27500E+01
         0.27500E+01
         0.27500E+01
         0.27500E+01
         0.27500E+01
         0.27500E+01
         0.27500E+01
         0.27500E+01
         0.27500E+01
         0.27500E+01
         0.27500E+01
         0.27500E+01
         0.27500E+01
         0.27500E+01
         0.27500E+01
         0.27500E+01
         0.27500E+01
         0.27500E+01
         0.27500E+01
         0.27500E+01
         0.27500E+01
         0.27500E+01
         0.27500E+01
         0.27500E+01
         0.27500E+01
         0.27500E+01
         0.27500E+01
         0.27500E+01
         0.27500E+01
         0.27500E+01
         0.27500E+01
         0.27500E+01
         0.27500E+01
         0.27500E+01
         0.27500E+01
         0.27500E+01
         0.27500E+01
         0.27500E+01
         0.27500E+01
         0.27500E+01
         0.27500E+01
         0.27500E+01
         0.27500E+01
         0.27500E+01
         0.27500E+01
         0.27500E+01
         0.27500E+01
         0.27500E+01
         0.27500E+01
         0.27500E+01
         0.27500E+01
         0.27500E+01
         0.27500E+01
         0.27500E+01
         0.27500E+01
         0.27500E+01
         0.27500E+01
         0.27500E+01
         0.27500E+01
         0.27500E+01
         0.27500E+01
         0.27500E+01
         0.27500E+01
         0.27500E+01
         0.27500E+01
         0.27500E+01
         0.27500E+01
         0.27500E+01
         0.27500E+01
         0.27500E+01
         0.27500E+01
         0.27500E+01
         0.27500E+01
         0.27500E+01
         0.27500E+01
         0.27500E+01
         0.27500E+01
         0.27500E+01
         0.27500E+01
         0.27500E+01
         0.27500E+01
         0.27500E+01
         0.27500E+01
         0.27500E+01
         0.27500E+01
         0.27500E+01
         0.27500E+01
         0.27500E+01
         0.27500E+01
         0.27500E+01
         0.27500E+01
         0.27500E+01
         0.27500E+01
         0.27500E+01
         0.27500E+01
         0.27500E+01
         0.27500E+01
         0.27500E+01
         0.27500E+01
         0.27500E+01
         0.27500E+01
         0.27500E+01
         0.27500E+01
         0.27500E+01
         0.27500E+01
         0.27500E+01
         0.27500E+01
         0.27500E+01
         0.27500E+01
         0.27500E+01
         0.27500E+01
         0.27500E+01
         0.27500E+01
         0.27500E+01
         0.27500E+01
         0.27500E+01
         0.27500E+01
         0.27500E+01
         0.27500E+01
         0.27500E+01
         0.27500E+01
         0.27500E+01
         0.27500E+01
         0.27500E+01
         0.27500E+01
         0.27500E+01
         0.27500E+01
         0.27500E+01
         0.27500E+01
         0.27500E+01
         0.27500E+01
         0.27500E+01
         0.27500E+01
         0.27500E+01
         0.27500E+01
         0.27500E+01
         0.27500E+01
         0.27500E+01
         0.27500E+01
         0.27500E+01
         0.27500E+01
         0.27500E+01
         0.27500E+01
         0.27500E+01
         0.27500E+01
         0.27500E+01
         0.27500E+01
         0.27500E+01
         0.27500E+01
         0.27500E+01
         0.27500E+01
         0.27500E+01
         0.27500E+01
         0.27500E+01
         0.27500E+01
         0.27500E+01
         0.27500E+01
         0.27500E+01
         0.27500E+01
         0.27500E+01
         0.27500E+01
         0.27500E+01
         0.27500E+01
         0.27500E+01
         0.27500E+01
         0.27500E+01
         0.27500E+01
         0.27500E+01
         0.27500E+01
         0.27500E+01
         0.27500E+01
         0.27500E+01
         0.27500E+01
         0.27500E+01
         0.27500E+01
         0.27500E+01
         0.27500E+01
         0.27500E+01
         0.27500E+01
         0.27500E+01
         0.27500E+01
         0.27500E+01
         0.27500E+01
         0.27500E+01
         0.27500E+01
         0.27500E+01
         0.27500E+01
         0.27500E+01
         0.27500E+01
         0.27500E+01
         0.27500E+01
         0.27500E+01
         0.27500E+01
         0.27500E+01
         0.27500E+01
         0.27500E+01
         0.27500E+01
         0.27500E+01
         0.27500E+01
         0.27500E+01
         0.27500E+01
         0.27500E+01
         0.27500E+01
         0.27500E+01
         0.27500E+01
         0.27500E+01
         0.27500E+01
         0.27500E+01
         0.27500E+01
         0.27500E+01
         0.27500E+01
         0.27500E+01
         0.27500E+01
         0.27500E+01
         0.27500E+01
         0.27500E+01
         0.27500E+01
         0.27500E+01
         0.27500E+01
         0.27500E+01
         0.27500E+01
         0.27500E+01
         0.27500E+01
         0.27500E+01
         0.27500E+01
         0.27500E+01
         0.27500E+01
         0.27500E+01
         0.27500E+01
         0.27500E+01
         0.27500E+01
         0.27500E+01
         0.27500E+01
         0.27500E+01
         0.27500E+01
         0.27500E+01
         0.27500E+01
         0.27500E+01
         0.27500E+01
         0.27500E+01
         0.27500E+01
         0.27500E+01
         0.27500E+01
         0.27500E+01
         0.27500E+01
         0.27500E+01
         0.27500E+01
         0.27500E+01
         0.27500E+01
         0.27500E+01
         0.27500E+01
         0.27500E+01
         0.27500E+01
         0.27500E+01
         0.27500E+01
         0.27500E+01
         0.27500E+01
         0.27500E+01
         0.27500E+01
         0.27500E+01
         0.27500E+01
         0.27500E+01
         0.27500E+01
         0.27500E+01
         0.27500E+01
         0.27500E+01
         0.27500E+01
         0.27500E+01
         0.27500E+01
         0.27500E+01
         0.27500E+01
         0.27500E+01
         0.27500E+01
         0.27500E+01
         0.27500E+01
         0.27500E+01
         0.27500E+01
         0.27500E+01
         0.27500E+01
         0.27500E+01
         0.27500E+01
         0.27500E+01
         0.27500E+01
         0.27500E+01
         0.27500E+01
         0.27500E+01
         0.27500E+01
         0.27500E+01
         0.27500E+01
         0.27500E+01
         0.27500E+01
         0.27500E+01
         0.27500E+01
         0.27500E+01
         0.27500E+01
         0.27500E+01
         0.27500E+01
         0.27500E+01
         0.27500E+01
         0.27500E+01
         0.27500E+01
         0.27500E+01
         0.27500E+01
         0.27500E+01
         0.27500E+01
         0.27500E+01
         0.27500E+01
         0.27500E+01
         0.27500E+01
         0.27500E+01
         0.27500E+01
         0.27500E+01
         0.27500E+01
         0.27500E+01
         0.27500E+01
         0.27500E+01
         0.27500E+01
         0.27500E+01
         0.27500E+01
         0.27500E+01
         0.27500E+01
         0.27500E+01
         0.27500E+01
         0.27500E+01
         0.27500E+01
         0.27500E+01
         0.27500E+01
         0.27500E+01
         0.27500E+01
         0.27500E+01
         0.27500E+01
         0.27500E+01
         0.27500E+01
         0.27500E+01
         0.27500E+01
         0.27500E+01
         0.27500E+01
         0.27500E+01
         0.27500E+01
         0.27500E+01
         0.27500E+01
         0.27500E+01
         0.27500E+01
         0.27500E+01
         0.27500E+01
         0.27500E+01
         0.27500E+01
         0.27500E+01
         0.27500E+01
         0.27500E+01
         0.27500E+01
         0.27500E+01
         0.27500E+01
         0.27500E+01
         0.27500E+01
         0.27500E+01
         0.27500E+01
         0.27500E+01
         0.27500E+01
         0.27500E+01
         0.27500E+01
         0.27500E+01
         0.27500E+01
         0.27500E+01
         0.27500E+01
         0.27500E+01
         0.27500E+01
         0.27500E+01
         0.27500E+01
         0.27500E+01
         0.27500E+01
         0.27500E+01
         0.27500E+01
         0.27500E+01
         0.27500E+01
         0.27500E+01
         0.27500E+01
         0.27500E+01
         0.27500E+01
         0.27500E+01
         0.27500E+01
         0.27500E+01
         0.27500E+01
         0.27500E+01
         0.27500E+01
         0.27500E+01
         0.27500E+01
         0.27500E+01
         0.27500E+01
         0.27500E+01
         0.27500E+01
         0.27500E+01
         0.27500E+01
         0.27500E+01
         0.27500E+01
         0.27500E+01
         0.27500E+01
         0.27500E+01
         0.27500E+01
         0.27500E+01
         0.27500E+01
         0.27500E+01
         0.27500E+01
         0.27500E+01
         0.27500E+01
         0.27500E+01
         0.27500E+01
         0.27500E+01
         0.27500E+01
         0.27500E+01
         0.27500E+01
         0.27500E+01
         0.27500E+01
         0.27500E+01
         0.27500E+01
         0.27500E+01
         0.27500E+01
         0.27500E+01
         0.27500E+01
         0.27500E+01
         0.27500E+01
         0.27500E+01
         0.27500E+01
         0.27500E+01
         0.27500E+01
         0.27500E+01
         0.27500E+01
         0.27500E+01
         0.27500E+01
         0.27500E+01
         0.27500E+01
         0.27500E+01
         0.27500E+01
         0.27500E+01
         0.27500E+01
         0.27500E+01
         0.27500E+01
         0.27500E+01
         0.27500E+01
         0.27500E+01
         0.27500E+01
         0.27500E+01
         0.27500E+01
         0.27500E+01
         0.27500E+01
         0.27500E+01
         0.27500E+01
         0.27500E+01
         0.27500E+01
         0.27500E+01
         0.27500E+01
         0.27500E+01
         0.27500E+01
         0.27500E+01
         0.27500E+01
         0.27500E+01
         0.27500E+01
         0.27500E+01
         0.27500E+01
         0.27500E+01
         0.27500E+01
         0.27500E+01
         0.27500E+01
         0.27500E+01
         0.27500E+01
         0.27500E+01
         0.27500E+01
         0.27500E+01
         0.27500E+01
         0.27500E+01
         0.27500E+01
         0.27500E+01
         0.27500E+01
         0.27500E+01
         0.27500E+01
         0.27500E+01
         0.27500E+01
         0.27500E+01
         0.27500E+01
         0.27500E+01
         0.27500E+01
         0.27500E+01
         0.27500E+01
         0.27500E+01
         0.27500E+01
         0.27500E+01
         0.27500E+01
         0.27500E+01
         0.27500E+01
         0.27500E+01
         0.27500E+01
         0.27500E+01
         0.27500E+01
         0.27500E+01
         0.27500E+01
         0.27500E+01
         0.27500E+01
         0.27500E+01
         0.27500E+01
         0.27500E+01
         0.27500E+01
         0.27500E+01
         0.27500E+01
         0.27500E+01
         0.27500E+01
         0.27500E+01
         0.27500E+01
         0.27500E+01
         0.27500E+01
         0.27500E+01
         0.27500E+01
         0.27500E+01
         0.27500E+01
         0.27500E+01
         0.27500E+01
         0.27500E+01
         0.27500E+01
         0.27500E+01
         0.27500E+01
         0.27500E+01
         0.27500E+01
         0.27500E+01
         0.27500E+01
         0.27500E+01
         0.27500E+01
         0.27500E+01
         0.27500E+01
         0.27500E+01
         0.27500E+01
         0.27500E+01
         0.27500E+01
         0.27500E+01
         0.27500E+01
         0.27500E+01
         0.27500E+01
         0.27500E+01
         0.27500E+01
         0.27500E+01
         0.27500E+01
         0.27500E+01
         0.27500E+01
         0.27500E+01
         0.27500E+01
         0.27500E+01
         0.27500E+01
         0.27500E+01
         0.27500E+01
         0.27500E+01
         0.27500E+01
         0.27500E+01
         0.27500E+01
         0.27500E+01
         0.27500E+01
         0.27500E+01
         0.27500E+01
         0.27500E+01
         0.27500E+01
         0.27500E+01
         0.27500E+01
         0.27500E+01
         0.27500E+01
         0.27500E+01
         0.27500E+01
         0.27500E+01
         0.27500E+01
         0.27500E+01
         0.27500E+01
         0.27500E+01
         0.27500E+01
         0.27500E+01
         0.27500E+01
         0.27500E+01
         0.27500E+01
         0.27500E+01
         0.27500E+01
         0.27500E+01
         0.27500E+01
         0.27500E+01
         0.27500E+01
         0.27500E+01
         0.27500E+01
         0.27500E+01
         0.27500E+01
         0.27500E+01
         0.27500E+01
         0.27500E+01
         0.27500E+01
         0.27500E+01
         0.27500E+01
         0.27500E+01
         0.27500E+01
         0.27500E+01
         0.27500E+01
         0.27500E+01
         0.27500E+01
         0.27500E+01
         0.27500E+01
         0.27500E+01
         0.27500E+01
         0.27500E+01
         0.27500E+01
         0.27500E+01
         0.27500E+01
         0.27500E+01
         0.27500E+01
         0.27500E+01
         0.27500E+01
         0.27500E+01
         0.27500E+01
         0.27500E+01
         0.27500E+01
         0.27500E+01
         0.27500E+01
         0.27500E+01
         0.27500E+01
         0.27500E+01
         0.27500E+01
  
SCALARS              physical_window_x  double 1
LOOKUP_TABLE default
         0.42419E-02
         0.35201E-02
         0.37624E-02
         0.42419E-02
         0.42417E-02
         0.35201E-02
         0.37618E-02
         0.42417E-02
         0.37624E-02
         0.37624E-02
         0.37618E-02
         0.37618E-02
         0.30086E-02
         0.32069E-02
         0.30084E-02
         0.32067E-02
         0.42419E-02
         0.32069E-02
         0.42417E-02
         0.32067E-02
         0.24180E-02
         0.29942E-02
         0.32396E-02
         0.24180E-02
         0.29933E-02
         0.32385E-02
         0.26608E-02
         0.27190E-02
         0.26608E-02
         0.27190E-02
         0.42687E-02
         0.36511E-02
         0.42687E-02
         0.42687E-02
         0.36511E-02
         0.42687E-02
         0.32069E-02
         0.29739E-02
         0.32066E-02
         0.29739E-02
         0.34652E-02
         0.32621E-02
         0.34652E-02
         0.32621E-02
         0.37123E-02
         0.32069E-02
         0.37123E-02
         0.32066E-02
         0.30844E-02
         0.30844E-02
         0.35191E-02
         0.35189E-02
         0.26925E-02
         0.26925E-02
         0.26925E-02
         0.26925E-02
         0.24643E-02
         0.27651E-02
         0.24643E-02
         0.27651E-02
         0.42687E-02
         0.35191E-02
         0.42687E-02
         0.35189E-02
         0.42687E-02
         0.42687E-02
         0.34658E-02
         0.34648E-02
         0.27274E-02
         0.31799E-02
         0.27273E-02
         0.31796E-02
         0.32396E-02
         0.32385E-02
         0.26964E-02
         0.26960E-02
         0.27828E-02
         0.27828E-02
         0.27828E-02
         0.27828E-02
         0.27004E-02
         0.31883E-02
         0.27003E-02
         0.31880E-02
         0.31883E-02
         0.31880E-02
         0.37123E-02
         0.37123E-02
         0.36245E-02
         0.36245E-02
         0.28253E-02
         0.31642E-02
         0.28253E-02
         0.31636E-02
         0.33485E-02
         0.33485E-02
         0.33485E-02
         0.33485E-02
         0.31978E-02
         0.31969E-02
         0.29849E-02
         0.32843E-02
         0.29849E-02
         0.32843E-02
         0.27274E-02
         0.31109E-02
         0.27273E-02
         0.31109E-02
         0.31799E-02
         0.31796E-02
         0.32396E-02
         0.32385E-02
         0.32396E-02
         0.32385E-02
         0.29942E-02
         0.29933E-02
         0.27190E-02
         0.27190E-02
         0.26964E-02
         0.26960E-02
         0.27828E-02
         0.27828E-02
         0.27828E-02
         0.27828E-02
         0.27004E-02
         0.27003E-02
         0.31883E-02
         0.31880E-02
         0.31883E-02
         0.31880E-02
         0.32621E-02
         0.32621E-02
         0.34652E-02
         0.34652E-02
         0.37123E-02
         0.37123E-02
         0.37123E-02
         0.37123E-02
         0.36245E-02
         0.36245E-02
         0.28253E-02
         0.28253E-02
         0.29097E-02
         0.29087E-02
         0.32389E-02
         0.32378E-02
         0.32389E-02
         0.32378E-02
         0.31978E-02
         0.31969E-02
         0.29849E-02
         0.29849E-02
         0.32843E-02
         0.32843E-02
         0.32843E-02
         0.32843E-02
         0.42420E-02
         0.35201E-02
         0.37629E-02
         0.42420E-02
         0.37629E-02
         0.37629E-02
         0.30087E-02
         0.32071E-02
         0.42420E-02
         0.32071E-02
         0.24178E-02
         0.29952E-02
         0.32407E-02
         0.26596E-02
         0.27191E-02
         0.42679E-02
         0.36502E-02
         0.42679E-02
         0.32071E-02
         0.29727E-02
         0.34648E-02
         0.32622E-02
         0.37119E-02
         0.32071E-02
         0.30833E-02
         0.35193E-02
         0.26910E-02
         0.26910E-02
         0.24638E-02
         0.27644E-02
         0.42679E-02
         0.35193E-02
         0.42679E-02
         0.34670E-02
         0.27274E-02
         0.31802E-02
         0.32407E-02
         0.26968E-02
         0.27828E-02
         0.27828E-02
         0.27005E-02
         0.31885E-02
         0.31885E-02
         0.37119E-02
         0.36244E-02
         0.28250E-02
         0.31647E-02
         0.33484E-02
         0.33484E-02
         0.31986E-02
         0.29848E-02
         0.32841E-02
         0.27274E-02
         0.31099E-02
         0.31802E-02
         0.32407E-02
         0.32407E-02
         0.29952E-02
         0.27191E-02
         0.26968E-02
         0.27828E-02
         0.27828E-02
         0.27005E-02
         0.31885E-02
         0.31885E-02
         0.32622E-02
         0.34648E-02
         0.37119E-02
         0.37119E-02
         0.36244E-02
         0.28250E-02
         0.29106E-02
         0.32401E-02
         0.32401E-02
         0.31986E-02
         0.29848E-02
         0.32841E-02
         0.32841E-02
         0.42421E-02
         0.35201E-02
         0.37634E-02
         0.42421E-02
         0.37634E-02
         0.37634E-02
         0.30089E-02
         0.32073E-02
         0.42421E-02
         0.32073E-02
         0.24177E-02
         0.29961E-02
         0.32418E-02
         0.26584E-02
         0.27191E-02
         0.42670E-02
         0.36493E-02
         0.42670E-02
         0.32073E-02
         0.29714E-02
         0.34644E-02
         0.32623E-02
         0.37115E-02
         0.32073E-02
         0.30822E-02
         0.35195E-02
         0.26896E-02
         0.26896E-02
         0.24633E-02
         0.27638E-02
         0.42670E-02
         0.35195E-02
         0.42670E-02
         0.34681E-02
         0.27275E-02
         0.31805E-02
         0.32418E-02
         0.26972E-02
         0.27828E-02
         0.27828E-02
         0.27006E-02
         0.31888E-02
         0.31888E-02
         0.37115E-02
         0.36243E-02
         0.28247E-02
         0.31652E-02
         0.33483E-02
         0.33483E-02
         0.31995E-02
         0.29847E-02
         0.32839E-02
         0.27275E-02
         0.31090E-02
         0.31805E-02
         0.32418E-02
         0.32418E-02
         0.29961E-02
         0.27191E-02
         0.26972E-02
         0.27828E-02
         0.27828E-02
         0.27006E-02
         0.31888E-02
         0.31888E-02
         0.32623E-02
         0.34644E-02
         0.37115E-02
         0.37115E-02
         0.36243E-02
         0.28247E-02
         0.29116E-02
         0.32412E-02
         0.32412E-02
         0.31995E-02
         0.29847E-02
         0.32839E-02
         0.32839E-02
         0.42423E-02
         0.35200E-02
         0.37639E-02
         0.42423E-02
         0.37639E-02
         0.37639E-02
         0.30091E-02
         0.32075E-02
         0.42423E-02
         0.32075E-02
         0.24176E-02
         0.29970E-02
         0.32428E-02
         0.26572E-02
         0.27192E-02
         0.42662E-02
         0.36483E-02
         0.42662E-02
         0.32075E-02
         0.29702E-02
         0.34639E-02
         0.32624E-02
         0.37111E-02
         0.32075E-02
         0.30811E-02
         0.35197E-02
         0.26881E-02
         0.26881E-02
         0.24628E-02
         0.27631E-02
         0.42662E-02
         0.35197E-02
         0.42662E-02
         0.34692E-02
         0.27276E-02
         0.31808E-02
         0.32428E-02
         0.26975E-02
         0.27828E-02
         0.27828E-02
         0.27007E-02
         0.31890E-02
         0.31890E-02
         0.37111E-02
         0.36242E-02
         0.28243E-02
         0.31658E-02
         0.33482E-02
         0.33482E-02
         0.32003E-02
         0.29846E-02
         0.32837E-02
         0.27276E-02
         0.31081E-02
         0.31808E-02
         0.32428E-02
         0.32428E-02
         0.29970E-02
         0.27192E-02
         0.26975E-02
         0.27828E-02
         0.27828E-02
         0.27007E-02
         0.31890E-02
         0.31890E-02
         0.32624E-02
         0.34639E-02
         0.37111E-02
         0.37111E-02
         0.36242E-02
         0.28243E-02
         0.29125E-02
         0.32423E-02
         0.32423E-02
         0.32003E-02
         0.29846E-02
         0.32837E-02
         0.32837E-02
         0.42424E-02
         0.35200E-02
         0.37644E-02
         0.42424E-02
         0.37644E-02
         0.37644E-02
         0.30093E-02
         0.32077E-02
         0.42424E-02
         0.32077E-02
         0.24174E-02
         0.29979E-02
         0.32439E-02
         0.26559E-02
         0.27192E-02
         0.42653E-02
         0.36474E-02
         0.42653E-02
         0.32077E-02
         0.29690E-02
         0.34635E-02
         0.32624E-02
         0.37108E-02
         0.32077E-02
         0.30799E-02
         0.35199E-02
         0.26867E-02
         0.26867E-02
         0.24623E-02
         0.27625E-02
         0.42653E-02
         0.35199E-02
         0.42653E-02
         0.34703E-02
         0.27276E-02
         0.31812E-02
         0.32439E-02
         0.26979E-02
         0.27828E-02
         0.27828E-02
         0.27008E-02
         0.31893E-02
         0.31893E-02
         0.37108E-02
         0.36241E-02
         0.28240E-02
         0.31663E-02
         0.33481E-02
         0.33481E-02
         0.32012E-02
         0.29844E-02
         0.32835E-02
         0.27276E-02
         0.31071E-02
         0.31812E-02
         0.32439E-02
         0.32439E-02
         0.29979E-02
         0.27192E-02
         0.26979E-02
         0.27828E-02
         0.27828E-02
         0.27008E-02
         0.31893E-02
         0.31893E-02
         0.32624E-02
         0.34635E-02
         0.37108E-02
         0.37108E-02
         0.36241E-02
         0.28240E-02
         0.29135E-02
         0.32434E-02
         0.32434E-02
         0.32012E-02
         0.29844E-02
         0.32835E-02
         0.32835E-02
         0.42425E-02
         0.35200E-02
         0.37649E-02
         0.42425E-02
         0.37649E-02
         0.37649E-02
         0.30095E-02
         0.32079E-02
         0.42425E-02
         0.32079E-02
         0.24173E-02
         0.29989E-02
         0.32450E-02
         0.26547E-02
         0.27193E-02
         0.42645E-02
         0.36465E-02
         0.42645E-02
         0.32079E-02
         0.29677E-02
         0.34631E-02
         0.32625E-02
         0.37104E-02
         0.32079E-02
         0.30788E-02
         0.35201E-02
         0.26852E-02
         0.26852E-02
         0.24618E-02
         0.27618E-02
         0.42645E-02
         0.35201E-02
         0.42645E-02
         0.34715E-02
         0.27277E-02
         0.31815E-02
         0.32450E-02
         0.26983E-02
         0.27828E-02
         0.27828E-02
         0.27009E-02
         0.31895E-02
         0.31895E-02
         0.37104E-02
         0.36239E-02
         0.28237E-02
         0.31668E-02
         0.33480E-02
         0.33480E-02
         0.32020E-02
         0.29843E-02
         0.32833E-02
         0.27277E-02
         0.31062E-02
         0.31815E-02
         0.32450E-02
         0.32450E-02
         0.29989E-02
         0.27193E-02
         0.26983E-02
         0.27828E-02
         0.27828E-02
         0.27009E-02
         0.31895E-02
         0.31895E-02
         0.32625E-02
         0.34631E-02
         0.37104E-02
         0.37104E-02
         0.36239E-02
         0.28237E-02
         0.29145E-02
         0.32445E-02
         0.32445E-02
         0.32020E-02
         0.29843E-02
         0.32833E-02
         0.32833E-02
         0.42427E-02
         0.35200E-02
         0.37654E-02
         0.42427E-02
         0.37654E-02
         0.37654E-02
         0.30097E-02
         0.32081E-02
         0.42427E-02
         0.32081E-02
         0.24171E-02
         0.29998E-02
         0.32461E-02
         0.26535E-02
         0.27193E-02
         0.42636E-02
         0.36455E-02
         0.42636E-02
         0.32081E-02
         0.29665E-02
         0.34626E-02
         0.32626E-02
         0.37100E-02
         0.32081E-02
         0.30777E-02
         0.35203E-02
         0.26838E-02
         0.26838E-02
         0.24613E-02
         0.27611E-02
         0.42636E-02
         0.35203E-02
         0.42636E-02
         0.34726E-02
         0.27278E-02
         0.31818E-02
         0.32461E-02
         0.26987E-02
         0.27827E-02
         0.27827E-02
         0.27010E-02
         0.31898E-02
         0.31898E-02
         0.37100E-02
         0.36238E-02
         0.28234E-02
         0.31673E-02
         0.33479E-02
         0.33479E-02
         0.32029E-02
         0.29842E-02
         0.32831E-02
         0.27278E-02
         0.31052E-02
         0.31818E-02
         0.32461E-02
         0.32461E-02
         0.29998E-02
         0.27193E-02
         0.26987E-02
         0.27827E-02
         0.27827E-02
         0.27010E-02
         0.31898E-02
         0.31898E-02
         0.32626E-02
         0.34626E-02
         0.37100E-02
         0.37100E-02
         0.36238E-02
         0.28234E-02
         0.29154E-02
         0.32457E-02
         0.32457E-02
         0.32029E-02
         0.29842E-02
         0.32831E-02
         0.32831E-02
         0.42428E-02
         0.35199E-02
         0.37660E-02
         0.42428E-02
         0.37660E-02
         0.37660E-02
         0.30099E-02
         0.32083E-02
         0.42428E-02
         0.32083E-02
         0.24170E-02
         0.30007E-02
         0.32471E-02
         0.26523E-02
         0.27194E-02
         0.42628E-02
         0.36446E-02
         0.42628E-02
         0.32083E-02
         0.29652E-02
         0.34622E-02
         0.32627E-02
         0.37096E-02
         0.32083E-02
         0.30766E-02
         0.35205E-02
         0.26823E-02
         0.26823E-02
         0.24608E-02
         0.27605E-02
         0.42628E-02
         0.35205E-02
         0.42628E-02
         0.34737E-02
         0.27279E-02
         0.31821E-02
         0.32471E-02
         0.26991E-02
         0.27827E-02
         0.27827E-02
         0.27011E-02
         0.31900E-02
         0.31900E-02
         0.37096E-02
         0.36237E-02
         0.28231E-02
         0.31679E-02
         0.33478E-02
         0.33478E-02
         0.32038E-02
         0.29841E-02
         0.32829E-02
         0.27279E-02
         0.31043E-02
         0.31821E-02
         0.32471E-02
         0.32471E-02
         0.30007E-02
         0.27194E-02
         0.26991E-02
         0.27827E-02
         0.27827E-02
         0.27011E-02
         0.31900E-02
         0.31900E-02
         0.32627E-02
         0.34622E-02
         0.37096E-02
         0.37096E-02
         0.36237E-02
         0.28231E-02
         0.29164E-02
         0.32468E-02
         0.32468E-02
         0.32038E-02
         0.29841E-02
         0.32829E-02
         0.32829E-02
         0.42429E-02
         0.35199E-02
         0.37665E-02
         0.42429E-02
         0.37665E-02
         0.37665E-02
         0.30101E-02
         0.32085E-02
         0.42429E-02
         0.32085E-02
         0.24168E-02
         0.30017E-02
         0.32482E-02
         0.26510E-02
         0.27194E-02
         0.42619E-02
         0.36437E-02
         0.42619E-02
         0.32085E-02
         0.29640E-02
         0.34618E-02
         0.32627E-02
         0.37092E-02
         0.32085E-02
         0.30755E-02
         0.35207E-02
         0.26808E-02
         0.26808E-02
         0.24603E-02
         0.27599E-02
         0.42619E-02
         0.35207E-02
         0.42619E-02
         0.34748E-02
         0.27279E-02
         0.31824E-02
         0.32482E-02
         0.26994E-02
         0.27827E-02
         0.27827E-02
         0.27012E-02
         0.31902E-02
         0.31902E-02
         0.37092E-02
         0.36236E-02
         0.28227E-02
         0.31684E-02
         0.33477E-02
         0.33477E-02
         0.32046E-02
         0.29840E-02
         0.32827E-02
         0.27279E-02
         0.31034E-02
         0.31824E-02
         0.32482E-02
         0.32482E-02
         0.30017E-02
         0.27194E-02
         0.26994E-02
         0.27827E-02
         0.27827E-02
         0.27012E-02
         0.31902E-02
         0.31902E-02
         0.32627E-02
         0.34618E-02
         0.37092E-02
         0.37092E-02
         0.36236E-02
         0.28227E-02
         0.29173E-02
         0.32479E-02
         0.32479E-02
         0.32046E-02
         0.29840E-02
         0.32827E-02
         0.32827E-02
         0.42431E-02
         0.35199E-02
         0.37670E-02
         0.42431E-02
         0.37670E-02
         0.37670E-02
         0.30102E-02
         0.32087E-02
         0.42431E-02
         0.32087E-02
         0.24167E-02
         0.30026E-02
         0.32493E-02
         0.26498E-02
         0.27194E-02
         0.42611E-02
         0.36427E-02
         0.42611E-02
         0.32087E-02
         0.29628E-02
         0.34613E-02
         0.32628E-02
         0.37089E-02
         0.32087E-02
         0.30744E-02
         0.35209E-02
         0.26794E-02
         0.26794E-02
         0.24598E-02
         0.27592E-02
         0.42611E-02
         0.35209E-02
         0.42611E-02
         0.34759E-02
         0.27280E-02
         0.31827E-02
         0.32493E-02
         0.26998E-02
         0.27827E-02
         0.27827E-02
         0.27013E-02
         0.31905E-02
         0.31905E-02
         0.37089E-02
         0.36235E-02
         0.28224E-02
         0.31689E-02
         0.33476E-02
         0.33476E-02
         0.32055E-02
         0.29839E-02
         0.32825E-02
         0.27280E-02
         0.31024E-02
         0.31827E-02
         0.32493E-02
         0.32493E-02
         0.30026E-02
         0.27194E-02
         0.26998E-02
         0.27827E-02
         0.27827E-02
         0.27013E-02
         0.31905E-02
         0.31905E-02
         0.32628E-02
         0.34613E-02
         0.37089E-02
         0.37089E-02
         0.36235E-02
         0.28224E-02
         0.29183E-02
         0.32490E-02
         0.32490E-02
         0.32055E-02
         0.29839E-02
         0.32825E-02
         0.32825E-02
         0.42432E-02
         0.35199E-02
         0.37675E-02
         0.42432E-02
         0.37675E-02
         0.37675E-02
         0.30104E-02
         0.32089E-02
         0.42432E-02
         0.32089E-02
         0.24166E-02
         0.30035E-02
         0.32504E-02
         0.26486E-02
         0.27195E-02
         0.42603E-02
         0.36418E-02
         0.42603E-02
         0.32089E-02
         0.29615E-02
         0.34609E-02
         0.32629E-02
         0.37085E-02
         0.32089E-02
         0.30732E-02
         0.35211E-02
         0.26779E-02
         0.26779E-02
         0.24593E-02
         0.27585E-02
         0.42603E-02
         0.35211E-02
         0.42603E-02
         0.34771E-02
         0.27281E-02
         0.31830E-02
         0.32504E-02
         0.27002E-02
         0.27827E-02
         0.27827E-02
         0.27014E-02
         0.31907E-02
         0.31907E-02
         0.37085E-02
         0.36233E-02
         0.28221E-02
         0.31694E-02
         0.33475E-02
         0.33475E-02
         0.32063E-02
         0.29838E-02
         0.32823E-02
         0.27281E-02
         0.31015E-02
         0.31830E-02
         0.32504E-02
         0.32504E-02
         0.30035E-02
         0.27195E-02
         0.27002E-02
         0.27827E-02
         0.27827E-02
         0.27014E-02
         0.31907E-02
         0.31907E-02
         0.32629E-02
         0.34609E-02
         0.37085E-02
         0.37085E-02
         0.36233E-02
         0.28221E-02
         0.29193E-02
         0.32501E-02
         0.32501E-02
         0.32063E-02
         0.29838E-02
         0.32823E-02
         0.32823E-02
         0.42433E-02
         0.35199E-02
         0.37680E-02
         0.42433E-02
         0.37680E-02
         0.37680E-02
         0.30106E-02
         0.32091E-02
         0.42433E-02
         0.32091E-02
         0.24164E-02
         0.30045E-02
         0.32514E-02
         0.26474E-02
         0.27195E-02
         0.42594E-02
         0.36409E-02
         0.42594E-02
         0.32091E-02
         0.29603E-02
         0.34605E-02
         0.32630E-02
         0.37081E-02
         0.32091E-02
         0.30721E-02
         0.35213E-02
         0.26765E-02
         0.26765E-02
         0.24588E-02
         0.27579E-02
         0.42594E-02
         0.35213E-02
         0.42594E-02
         0.34782E-02
         0.27281E-02
         0.31833E-02
         0.32514E-02
         0.27006E-02
         0.27826E-02
         0.27826E-02
         0.27015E-02
         0.31910E-02
         0.31910E-02
         0.37081E-02
         0.36232E-02
         0.28218E-02
         0.31700E-02
         0.33474E-02
         0.33474E-02
         0.32072E-02
         0.29836E-02
         0.32821E-02
         0.27281E-02
         0.31005E-02
         0.31833E-02
         0.32514E-02
         0.32514E-02
         0.30045E-02
         0.27195E-02
         0.27006E-02
         0.27826E-02
         0.27826E-02
         0.27015E-02
         0.31910E-02
         0.31910E-02
         0.32630E-02
         0.34605E-02
         0.37081E-02
         0.37081E-02
         0.36232E-02
         0.28218E-02
         0.29202E-02
         0.32512E-02
         0.32512E-02
         0.32072E-02
         0.29836E-02
         0.32821E-02
         0.32821E-02
         0.42435E-02
         0.35199E-02
         0.37685E-02
         0.42435E-02
         0.37685E-02
         0.37685E-02
         0.30108E-02
         0.32093E-02
         0.42435E-02
         0.32093E-02
         0.24163E-02
         0.30054E-02
         0.32525E-02
         0.26461E-02
         0.27196E-02
         0.42586E-02
         0.36399E-02
         0.42586E-02
         0.32093E-02
         0.29591E-02
         0.34601E-02
         0.32630E-02
         0.37077E-02
         0.32093E-02
         0.30710E-02
         0.35215E-02
         0.26750E-02
         0.26750E-02
         0.24583E-02
         0.27572E-02
         0.42586E-02
         0.35215E-02
         0.42586E-02
         0.34793E-02
         0.27282E-02
         0.31836E-02
         0.32525E-02
         0.27010E-02
         0.27826E-02
         0.27826E-02
         0.27016E-02
         0.31912E-02
         0.31912E-02
         0.37077E-02
         0.36231E-02
         0.28215E-02
         0.31705E-02
         0.33473E-02
         0.33473E-02
         0.32080E-02
         0.29835E-02
         0.32819E-02
         0.27282E-02
         0.30996E-02
         0.31836E-02
         0.32525E-02
         0.32525E-02
         0.30054E-02
         0.27196E-02
         0.27010E-02
         0.27826E-02
         0.27826E-02
         0.27016E-02
         0.31912E-02
         0.31912E-02
         0.32630E-02
         0.34601E-02
         0.37077E-02
         0.37077E-02
         0.36231E-02
         0.28215E-02
         0.29212E-02
         0.32524E-02
         0.32524E-02
         0.32080E-02
         0.29835E-02
         0.32819E-02
         0.32819E-02
         0.42436E-02
         0.35198E-02
         0.37690E-02
         0.42436E-02
         0.37690E-02
         0.37690E-02
         0.30110E-02
         0.32095E-02
         0.42436E-02
         0.32095E-02
         0.24162E-02
         0.30064E-02
         0.32536E-02
         0.26449E-02
         0.27196E-02
         0.42577E-02
         0.36390E-02
         0.42577E-02
         0.32096E-02
         0.29578E-02
         0.34596E-02
         0.32631E-02
         0.37074E-02
         0.32096E-02
         0.30699E-02
         0.35217E-02
         0.26735E-02
         0.26735E-02
         0.24578E-02
         0.27566E-02
         0.42577E-02
         0.35217E-02
         0.42577E-02
         0.34804E-02
         0.27283E-02
         0.31839E-02
         0.32536E-02
         0.27013E-02
         0.27826E-02
         0.27826E-02
         0.27017E-02
         0.31915E-02
         0.31915E-02
         0.37074E-02
         0.36230E-02
         0.28211E-02
         0.31710E-02
         0.33472E-02
         0.33472E-02
         0.32089E-02
         0.29834E-02
         0.32817E-02
         0.27283E-02
         0.30986E-02
         0.31839E-02
         0.32536E-02
         0.32536E-02
         0.30064E-02
         0.27196E-02
         0.27013E-02
         0.27826E-02
         0.27826E-02
         0.27017E-02
         0.31915E-02
         0.31915E-02
         0.32631E-02
         0.34596E-02
         0.37074E-02
         0.37074E-02
         0.36230E-02
         0.28211E-02
         0.29221E-02
         0.32535E-02
         0.32535E-02
         0.32089E-02
         0.29834E-02
         0.32817E-02
         0.32817E-02
         0.42437E-02
         0.35198E-02
         0.37695E-02
         0.42437E-02
         0.37695E-02
         0.37695E-02
         0.30112E-02
         0.32097E-02
         0.42437E-02
         0.32097E-02
         0.24160E-02
         0.30073E-02
         0.32547E-02
         0.26437E-02
         0.27197E-02
         0.42569E-02
         0.36381E-02
         0.42569E-02
         0.32098E-02
         0.29566E-02
         0.34592E-02
         0.32632E-02
         0.37070E-02
         0.32098E-02
         0.30688E-02
         0.35219E-02
         0.26721E-02
         0.26721E-02
         0.24573E-02
         0.27560E-02
         0.42569E-02
         0.35219E-02
         0.42569E-02
         0.34815E-02
         0.27284E-02
         0.31843E-02
         0.32547E-02
         0.27017E-02
         0.27826E-02
         0.27826E-02
         0.27018E-02
         0.31917E-02
         0.31917E-02
         0.37070E-02
         0.36229E-02
         0.28208E-02
         0.31716E-02
         0.33471E-02
         0.33471E-02
         0.32097E-02
         0.29833E-02
         0.32815E-02
         0.27284E-02
         0.30977E-02
         0.31843E-02
         0.32547E-02
         0.32547E-02
         0.30073E-02
         0.27197E-02
         0.27017E-02
         0.27826E-02
         0.27826E-02
         0.27018E-02
         0.31917E-02
         0.31917E-02
         0.32632E-02
         0.34592E-02
         0.37070E-02
         0.37070E-02
         0.36229E-02
         0.28208E-02
         0.29231E-02
         0.32546E-02
         0.32546E-02
         0.32097E-02
         0.29833E-02
         0.32815E-02
         0.32815E-02
         0.42439E-02
         0.35198E-02
         0.37701E-02
         0.42439E-02
         0.37701E-02
         0.37701E-02
         0.30113E-02
         0.32099E-02
         0.42439E-02
         0.32099E-02
         0.24159E-02
         0.30082E-02
         0.32558E-02
         0.26425E-02
         0.27197E-02
         0.42560E-02
         0.36371E-02
         0.42560E-02
         0.32100E-02
         0.29554E-02
         0.34588E-02
         0.32633E-02
         0.37066E-02
         0.32100E-02
         0.30677E-02
         0.35221E-02
         0.26706E-02
         0.26706E-02
         0.24568E-02
         0.27553E-02
         0.42560E-02
         0.35221E-02
         0.42560E-02
         0.34827E-02
         0.27284E-02
         0.31846E-02
         0.32558E-02
         0.27021E-02
         0.27826E-02
         0.27826E-02
         0.27019E-02
         0.31920E-02
         0.31920E-02
         0.37066E-02
         0.36227E-02
         0.28205E-02
         0.31721E-02
         0.33470E-02
         0.33470E-02
         0.32106E-02
         0.29831E-02
         0.32813E-02
         0.27284E-02
         0.30968E-02
         0.31846E-02
         0.32558E-02
         0.32558E-02
         0.30082E-02
         0.27197E-02
         0.27021E-02
         0.27826E-02
         0.27826E-02
         0.27019E-02
         0.31920E-02
         0.31920E-02
         0.32633E-02
         0.34588E-02
         0.37066E-02
         0.37066E-02
         0.36227E-02
         0.28205E-02
         0.29241E-02
         0.32557E-02
         0.32557E-02
         0.32106E-02
         0.29831E-02
         0.32813E-02
         0.32813E-02
         0.42440E-02
         0.35198E-02
         0.37706E-02
         0.42440E-02
         0.37706E-02
         0.37706E-02
         0.30115E-02
         0.32101E-02
         0.42440E-02
         0.32101E-02
         0.24158E-02
         0.30091E-02
         0.32568E-02
         0.26412E-02
         0.27198E-02
         0.42552E-02
         0.36362E-02
         0.42552E-02
         0.32102E-02
         0.29541E-02
         0.34583E-02
         0.32633E-02
         0.37062E-02
         0.32102E-02
         0.30665E-02
         0.35223E-02
         0.26692E-02
         0.26692E-02
         0.24563E-02
         0.27546E-02
         0.42552E-02
         0.35223E-02
         0.42552E-02
         0.34838E-02
         0.27285E-02
         0.31849E-02
         0.32568E-02
         0.27025E-02
         0.27826E-02
         0.27826E-02
         0.27020E-02
         0.31922E-02
         0.31922E-02
         0.37062E-02
         0.36226E-02
         0.28202E-02
         0.31726E-02
         0.33469E-02
         0.33469E-02
         0.32114E-02
         0.29830E-02
         0.32811E-02
         0.27285E-02
         0.30958E-02
         0.31849E-02
         0.32568E-02
         0.32568E-02
         0.30091E-02
         0.27198E-02
         0.27025E-02
         0.27826E-02
         0.27826E-02
         0.27020E-02
         0.31922E-02
         0.31922E-02
         0.32633E-02
         0.34583E-02
         0.37062E-02
         0.37062E-02
         0.36226E-02
         0.28202E-02
         0.29250E-02
         0.32568E-02
         0.32568E-02
         0.32114E-02
         0.29830E-02
         0.32811E-02
         0.32811E-02
         0.42441E-02
         0.35198E-02
         0.37711E-02
         0.42441E-02
         0.37711E-02
         0.37711E-02
         0.30117E-02
         0.32103E-02
         0.42441E-02
         0.32103E-02
         0.24156E-02
         0.30101E-02
         0.32579E-02
         0.26400E-02
         0.27198E-02
         0.42543E-02
         0.36353E-02
         0.42543E-02
         0.32104E-02
         0.29529E-02
         0.34579E-02
         0.32634E-02
         0.37058E-02
         0.32104E-02
         0.30654E-02
         0.35225E-02
         0.26677E-02
         0.26677E-02
         0.24558E-02
         0.27540E-02
         0.42543E-02
         0.35225E-02
         0.42543E-02
         0.34849E-02
         0.27286E-02
         0.31852E-02
         0.32579E-02
         0.27029E-02
         0.27826E-02
         0.27826E-02
         0.27021E-02
         0.31924E-02
         0.31924E-02
         0.37058E-02
         0.36225E-02
         0.28198E-02
         0.31731E-02
         0.33468E-02
         0.33468E-02
         0.32123E-02
         0.29829E-02
         0.32809E-02
         0.27286E-02
         0.30949E-02
         0.31852E-02
         0.32579E-02
         0.32579E-02
         0.30101E-02
         0.27198E-02
         0.27029E-02
         0.27826E-02
         0.27826E-02
         0.27021E-02
         0.31924E-02
         0.31924E-02
         0.32634E-02
         0.34579E-02
         0.37058E-02
         0.37058E-02
         0.36225E-02
         0.28198E-02
         0.29260E-02
         0.32579E-02
         0.32579E-02
         0.32123E-02
         0.29829E-02
         0.32809E-02
         0.32809E-02
         0.42443E-02
         0.35197E-02
         0.37716E-02
         0.42443E-02
         0.37716E-02
         0.37716E-02
         0.30119E-02
         0.32105E-02
         0.42443E-02
         0.32105E-02
         0.24155E-02
         0.30110E-02
         0.32590E-02
         0.26388E-02
         0.27199E-02
         0.42535E-02
         0.36343E-02
         0.42535E-02
         0.32106E-02
         0.29517E-02
         0.34575E-02
         0.32635E-02
         0.37055E-02
         0.32106E-02
         0.30643E-02
         0.35227E-02
         0.26663E-02
         0.26663E-02
         0.24553E-02
         0.27533E-02
         0.42535E-02
         0.35227E-02
         0.42535E-02
         0.34860E-02
         0.27286E-02
         0.31855E-02
         0.32590E-02
         0.27032E-02
         0.27826E-02
         0.27826E-02
         0.27022E-02
         0.31927E-02
         0.31927E-02
         0.37055E-02
         0.36224E-02
         0.28195E-02
         0.31737E-02
         0.33467E-02
         0.33467E-02
         0.32132E-02
         0.29828E-02
         0.32807E-02
         0.27286E-02
         0.30939E-02
         0.31855E-02
         0.32590E-02
         0.32590E-02
         0.30110E-02
         0.27199E-02
         0.27032E-02
         0.27826E-02
         0.27826E-02
         0.27022E-02
         0.31927E-02
         0.31927E-02
         0.32635E-02
         0.34575E-02
         0.37055E-02
         0.37055E-02
         0.36224E-02
         0.28195E-02
         0.29269E-02
         0.32591E-02
         0.32591E-02
         0.32132E-02
         0.29828E-02
         0.32807E-02
         0.32807E-02
         0.42444E-02
         0.35197E-02
         0.37721E-02
         0.42444E-02
         0.37721E-02
         0.37721E-02
         0.30121E-02
         0.32107E-02
         0.42444E-02
         0.32107E-02
         0.24154E-02
         0.30119E-02
         0.32601E-02
         0.26376E-02
         0.27199E-02
         0.42527E-02
         0.36334E-02
         0.42527E-02
         0.32108E-02
         0.29504E-02
         0.34571E-02
         0.32636E-02
         0.37051E-02
         0.32108E-02
         0.30632E-02
         0.35229E-02
         0.26648E-02
         0.26648E-02
         0.24552E-02
         0.27527E-02
         0.42527E-02
         0.35229E-02
         0.42527E-02
         0.34871E-02
         0.27287E-02
         0.31858E-02
         0.32601E-02
         0.27036E-02
         0.27825E-02
         0.27825E-02
         0.27023E-02
         0.31929E-02
         0.31929E-02
         0.37051E-02
         0.36223E-02
         0.28192E-02
         0.31742E-02
         0.33466E-02
         0.33466E-02
         0.32140E-02
         0.29827E-02
         0.32805E-02
         0.27287E-02
         0.30930E-02
         0.31858E-02
         0.32601E-02
         0.32601E-02
         0.30119E-02
         0.27199E-02
         0.27036E-02
         0.27825E-02
         0.27825E-02
         0.27023E-02
         0.31929E-02
         0.31929E-02
         0.32636E-02
         0.34571E-02
         0.37051E-02
         0.37051E-02
         0.36223E-02
         0.28192E-02
         0.29279E-02
         0.32602E-02
         0.32602E-02
         0.32140E-02
         0.29827E-02
         0.32805E-02
         0.32805E-02
         0.42445E-02
         0.35197E-02
         0.37726E-02
         0.42445E-02
         0.37726E-02
         0.37726E-02
         0.30123E-02
         0.32108E-02
         0.42445E-02
         0.32108E-02
         0.24152E-02
         0.30129E-02
         0.32611E-02
         0.26363E-02
         0.27200E-02
         0.42518E-02
         0.36325E-02
         0.42518E-02
         0.32110E-02
         0.29492E-02
         0.34566E-02
         0.32636E-02
         0.37047E-02
         0.32110E-02
         0.30621E-02
         0.35231E-02
         0.26633E-02
         0.26633E-02
         0.24554E-02
         0.27520E-02
         0.42518E-02
         0.35231E-02
         0.42518E-02
         0.34882E-02
         0.27288E-02
         0.31861E-02
         0.32611E-02
         0.27040E-02
         0.27825E-02
         0.27825E-02
         0.27024E-02
         0.31932E-02
         0.31932E-02
         0.37047E-02
         0.36222E-02
         0.28189E-02
         0.31747E-02
         0.33465E-02
         0.33465E-02
         0.32149E-02
         0.29826E-02
         0.32803E-02
         0.27288E-02
         0.30921E-02
         0.31861E-02
         0.32611E-02
         0.32611E-02
         0.30129E-02
         0.27200E-02
         0.27040E-02
         0.27825E-02
         0.27825E-02
         0.27024E-02
         0.31932E-02
         0.31932E-02
         0.32636E-02
         0.34566E-02
         0.37047E-02
         0.37047E-02
         0.36222E-02
         0.28189E-02
         0.29289E-02
         0.32613E-02
         0.32613E-02
         0.32149E-02
         0.29826E-02
         0.32803E-02
         0.32803E-02
         0.42447E-02
         0.35196E-02
         0.37732E-02
         0.42447E-02
         0.37732E-02
         0.37732E-02
         0.30125E-02
         0.32111E-02
         0.42447E-02
         0.32111E-02
         0.24151E-02
         0.30138E-02
         0.32622E-02
         0.26351E-02
         0.27200E-02
         0.42510E-02
         0.36315E-02
         0.42510E-02
         0.32112E-02
         0.29480E-02
         0.34562E-02
         0.32637E-02
         0.37043E-02
         0.32112E-02
         0.30610E-02
         0.35233E-02
         0.26619E-02
         0.26619E-02
         0.24557E-02
         0.27514E-02
         0.42510E-02
         0.35233E-02
         0.42510E-02
         0.34894E-02
         0.27289E-02
         0.31864E-02
         0.32622E-02
         0.27044E-02
         0.27825E-02
         0.27825E-02
         0.27025E-02
         0.31934E-02
         0.31934E-02
         0.37043E-02
         0.36220E-02
         0.28186E-02
         0.31753E-02
         0.33464E-02
         0.33464E-02
         0.32157E-02
         0.29824E-02
         0.32801E-02
         0.27289E-02
         0.30911E-02
         0.31864E-02
         0.32622E-02
         0.32622E-02
         0.30138E-02
         0.27200E-02
         0.27044E-02
         0.27825E-02
         0.27825E-02
         0.27025E-02
         0.31934E-02
         0.31934E-02
         0.32637E-02
         0.34562E-02
         0.37043E-02
         0.37043E-02
         0.36220E-02
         0.28186E-02
         0.29298E-02
         0.32624E-02
         0.32624E-02
         0.32157E-02
         0.29824E-02
         0.32801E-02
         0.32801E-02
         0.42448E-02
         0.35196E-02
         0.37737E-02
         0.42448E-02
         0.37737E-02
         0.37737E-02
         0.30126E-02
         0.32112E-02
         0.42448E-02
         0.32112E-02
         0.24150E-02
         0.30147E-02
         0.32633E-02
         0.26339E-02
         0.27200E-02
         0.42501E-02
         0.36306E-02
         0.42501E-02
         0.32114E-02
         0.29467E-02
         0.34558E-02
         0.32638E-02
         0.37039E-02
         0.32114E-02
         0.30598E-02
         0.35235E-02
         0.26604E-02
         0.26604E-02
         0.24559E-02
         0.27507E-02
         0.42501E-02
         0.35235E-02
         0.42501E-02
         0.34905E-02
         0.27289E-02
         0.31867E-02
         0.32633E-02
         0.27048E-02
         0.27825E-02
         0.27825E-02
         0.27026E-02
         0.31937E-02
         0.31937E-02
         0.37039E-02
         0.36219E-02
         0.28183E-02
         0.31758E-02
         0.33463E-02
         0.33463E-02
         0.32166E-02
         0.29823E-02
         0.32799E-02
         0.27289E-02
         0.30902E-02
         0.31867E-02
         0.32633E-02
         0.32633E-02
         0.30147E-02
         0.27200E-02
         0.27048E-02
         0.27825E-02
         0.27825E-02
         0.27026E-02
         0.31937E-02
         0.31937E-02
         0.32638E-02
         0.34558E-02
         0.37039E-02
         0.37039E-02
         0.36219E-02
         0.28183E-02
         0.29308E-02
         0.32635E-02
         0.32635E-02
         0.32166E-02
         0.29823E-02
         0.32799E-02
         0.32799E-02
         0.42448E-02
         0.35196E-02
         0.37737E-02
         0.42448E-02
         0.37737E-02
         0.37737E-02
         0.30126E-02
         0.32112E-02
         0.42448E-02
         0.32112E-02
         0.24148E-02
         0.30147E-02
         0.32633E-02
         0.26327E-02
         0.27200E-02
         0.42493E-02
         0.36297E-02
         0.42493E-02
         0.32114E-02
         0.29455E-02
         0.34553E-02
         0.32638E-02
         0.37036E-02
         0.32114E-02
         0.30587E-02
         0.35235E-02
         0.26590E-02
         0.26590E-02
         0.24559E-02
         0.27501E-02
         0.42493E-02
         0.35235E-02
         0.42493E-02
         0.34905E-02
         0.27289E-02
         0.31867E-02
         0.32633E-02
         0.27048E-02
         0.27825E-02
         0.27825E-02
         0.27026E-02
         0.31937E-02
         0.31937E-02
         0.37036E-02
         0.36218E-02
         0.28180E-02
         0.31758E-02
         0.33462E-02
         0.33462E-02
         0.32166E-02
         0.29822E-02
         0.32797E-02
         0.27289E-02
         0.30892E-02
         0.31867E-02
         0.32633E-02
         0.32633E-02
         0.30147E-02
         0.27200E-02
         0.27048E-02
         0.27825E-02
         0.27825E-02
         0.27026E-02
         0.31937E-02
         0.31937E-02
         0.32638E-02
         0.34553E-02
         0.37036E-02
         0.37036E-02
         0.36218E-02
         0.28180E-02
         0.29308E-02
         0.32635E-02
         0.32635E-02
         0.32166E-02
         0.29822E-02
         0.32797E-02
         0.32797E-02
  
SCALARS              physical_window_y  double 1
LOOKUP_TABLE default
         0.43155E-02
         0.43155E-02
         0.43155E-02
         0.43155E-02
         0.43155E-02
         0.43155E-02
         0.43155E-02
         0.43155E-02
         0.34883E-02
         0.34883E-02
         0.34882E-02
         0.34882E-02
         0.32826E-02
         0.32142E-02
         0.32826E-02
         0.32142E-02
         0.37863E-02
         0.31884E-02
         0.37863E-02
         0.31884E-02
         0.27172E-02
         0.33887E-02
         0.37164E-02
         0.27172E-02
         0.33887E-02
         0.37164E-02
         0.27582E-02
         0.28966E-02
         0.27582E-02
         0.28954E-02
         0.37007E-02
         0.35859E-02
         0.37863E-02
         0.37007E-02
         0.35824E-02
         0.37863E-02
         0.29875E-02
         0.29875E-02
         0.29867E-02
         0.29867E-02
         0.28561E-02
         0.26860E-02
         0.28556E-02
         0.26852E-02
         0.29518E-02
         0.28068E-02
         0.29517E-02
         0.28066E-02
         0.29975E-02
         0.29949E-02
         0.37007E-02
         0.37007E-02
         0.28693E-02
         0.28693E-02
         0.28693E-02
         0.28693E-02
         0.27602E-02
         0.26193E-02
         0.27602E-02
         0.26193E-02
         0.37007E-02
         0.37007E-02
         0.37007E-02
         0.37007E-02
         0.37685E-02
         0.37665E-02
         0.37685E-02
         0.37665E-02
         0.30230E-02
         0.37003E-02
         0.30229E-02
         0.37003E-02
         0.37164E-02
         0.37164E-02
         0.31934E-02
         0.31921E-02
         0.32777E-02
         0.32771E-02
         0.32777E-02
         0.32771E-02
         0.27006E-02
         0.25920E-02
         0.27006E-02
         0.25920E-02
         0.25916E-02
         0.25916E-02
         0.29715E-02
         0.29715E-02
         0.29715E-02
         0.29715E-02
         0.26477E-02
         0.29102E-02
         0.26477E-02
         0.29102E-02
         0.34085E-02
         0.34085E-02
         0.35350E-02
         0.35350E-02
         0.35350E-02
         0.35350E-02
         0.29766E-02
         0.32272E-02
         0.29763E-02
         0.32254E-02
         0.29087E-02
         0.29835E-02
         0.29087E-02
         0.29825E-02
         0.37003E-02
         0.37003E-02
         0.37164E-02
         0.37164E-02
         0.37164E-02
         0.37164E-02
         0.33887E-02
         0.33887E-02
         0.28966E-02
         0.28954E-02
         0.31934E-02
         0.31921E-02
         0.32777E-02
         0.32771E-02
         0.32777E-02
         0.32771E-02
         0.27006E-02
         0.27006E-02
         0.25920E-02
         0.25920E-02
         0.25916E-02
         0.25916E-02
         0.26860E-02
         0.26852E-02
         0.28561E-02
         0.28556E-02
         0.29518E-02
         0.29517E-02
         0.29715E-02
         0.29715E-02
         0.29715E-02
         0.29715E-02
         0.26477E-02
         0.26477E-02
         0.27685E-02
         0.27685E-02
         0.34085E-02
         0.34085E-02
         0.35350E-02
         0.35350E-02
         0.35350E-02
         0.35350E-02
         0.29766E-02
         0.29763E-02
         0.31381E-02
         0.31368E-02
         0.31381E-02
         0.31368E-02
         0.43153E-02
         0.43153E-02
         0.43153E-02
         0.43153E-02
         0.34883E-02
         0.34883E-02
         0.32812E-02
         0.32132E-02
         0.37858E-02
         0.31880E-02
         0.27155E-02
         0.33883E-02
         0.37163E-02
         0.27535E-02
         0.28978E-02
         0.37004E-02
         0.35894E-02
         0.37858E-02
         0.29882E-02
         0.29882E-02
         0.28566E-02
         0.26867E-02
         0.29519E-02
         0.28071E-02
         0.30001E-02
         0.37004E-02
         0.28667E-02
         0.28667E-02
         0.27589E-02
         0.26183E-02
         0.37004E-02
         0.37004E-02
         0.37706E-02
         0.37706E-02
         0.30232E-02
         0.36991E-02
         0.37163E-02
         0.31947E-02
         0.32784E-02
         0.32784E-02
         0.27006E-02
         0.25920E-02
         0.25909E-02
         0.29715E-02
         0.29715E-02
         0.26476E-02
         0.29101E-02
         0.34078E-02
         0.35344E-02
         0.35344E-02
         0.29769E-02
         0.32290E-02
         0.29059E-02
         0.29845E-02
         0.36991E-02
         0.37163E-02
         0.37163E-02
         0.33883E-02
         0.28978E-02
         0.31947E-02
         0.32784E-02
         0.32784E-02
         0.27006E-02
         0.25920E-02
         0.25909E-02
         0.26867E-02
         0.28566E-02
         0.29519E-02
         0.29715E-02
         0.29715E-02
         0.26476E-02
         0.27685E-02
         0.34078E-02
         0.35344E-02
         0.35344E-02
         0.29769E-02
         0.31395E-02
         0.31395E-02
         0.43150E-02
         0.43150E-02
         0.43150E-02
         0.43150E-02
         0.34884E-02
         0.34884E-02
         0.32798E-02
         0.32122E-02
         0.37853E-02
         0.31876E-02
         0.27137E-02
         0.33879E-02
         0.37162E-02
         0.27488E-02
         0.28990E-02
         0.37001E-02
         0.35930E-02
         0.37853E-02
         0.29889E-02
         0.29889E-02
         0.28571E-02
         0.26875E-02
         0.29521E-02
         0.28074E-02
         0.30027E-02
         0.37001E-02
         0.28641E-02
         0.28641E-02
         0.27576E-02
         0.26173E-02
         0.37001E-02
         0.37001E-02
         0.37727E-02
         0.37727E-02
         0.30234E-02
         0.36979E-02
         0.37162E-02
         0.31960E-02
         0.32790E-02
         0.32790E-02
         0.27006E-02
         0.25920E-02
         0.25902E-02
         0.29715E-02
         0.29715E-02
         0.26476E-02
         0.29100E-02
         0.34071E-02
         0.35339E-02
         0.35339E-02
         0.29772E-02
         0.32307E-02
         0.29032E-02
         0.29855E-02
         0.36979E-02
         0.37162E-02
         0.37162E-02
         0.33879E-02
         0.28990E-02
         0.31960E-02
         0.32790E-02
         0.32790E-02
         0.27006E-02
         0.25920E-02
         0.25902E-02
         0.26875E-02
         0.28571E-02
         0.29521E-02
         0.29715E-02
         0.29715E-02
         0.26476E-02
         0.27684E-02
         0.34071E-02
         0.35339E-02
         0.35339E-02
         0.29772E-02
         0.31408E-02
         0.31408E-02
         0.43148E-02
         0.43148E-02
         0.43148E-02
         0.43148E-02
         0.34885E-02
         0.34885E-02
         0.32783E-02
         0.32112E-02
         0.37849E-02
         0.31872E-02
         0.27120E-02
         0.33875E-02
         0.37161E-02
         0.27441E-02
         0.29003E-02
         0.36998E-02
         0.35965E-02
         0.37849E-02
         0.29896E-02
         0.29896E-02
         0.28575E-02
         0.26882E-02
         0.29522E-02
         0.28077E-02
         0.30053E-02
         0.36998E-02
         0.28615E-02
         0.28615E-02
         0.27563E-02
         0.26163E-02
         0.36998E-02
         0.36998E-02
         0.37747E-02
         0.37747E-02
         0.30236E-02
         0.36967E-02
         0.37161E-02
         0.31973E-02
         0.32796E-02
         0.32796E-02
         0.27006E-02
         0.25920E-02
         0.25895E-02
         0.29714E-02
         0.29714E-02
         0.26475E-02
         0.29099E-02
         0.34063E-02
         0.35333E-02
         0.35333E-02
         0.29775E-02
         0.32325E-02
         0.29004E-02
         0.29865E-02
         0.36967E-02
         0.37161E-02
         0.37161E-02
         0.33875E-02
         0.29003E-02
         0.31973E-02
         0.32796E-02
         0.32796E-02
         0.27006E-02
         0.25920E-02
         0.25895E-02
         0.26882E-02
         0.28575E-02
         0.29522E-02
         0.29714E-02
         0.29714E-02
         0.26475E-02
         0.27684E-02
         0.34063E-02
         0.35333E-02
         0.35333E-02
         0.29775E-02
         0.31422E-02
         0.31422E-02
         0.43145E-02
         0.43145E-02
         0.43145E-02
         0.43145E-02
         0.34886E-02
         0.34886E-02
         0.32769E-02
         0.32102E-02
         0.37844E-02
         0.31868E-02
         0.27103E-02
         0.33871E-02
         0.37160E-02
         0.27394E-02
         0.29015E-02
         0.36995E-02
         0.36000E-02
         0.37844E-02
         0.29903E-02
         0.29903E-02
         0.28580E-02
         0.26890E-02
         0.29523E-02
         0.28079E-02
         0.30079E-02
         0.36995E-02
         0.28589E-02
         0.28589E-02
         0.27550E-02
         0.26152E-02
         0.36995E-02
         0.36995E-02
         0.37768E-02
         0.37768E-02
         0.30238E-02
         0.36956E-02
         0.37160E-02
         0.31986E-02
         0.32802E-02
         0.32802E-02
         0.27006E-02
         0.25920E-02
         0.25887E-02
         0.29714E-02
         0.29714E-02
         0.26475E-02
         0.29098E-02
         0.34056E-02
         0.35327E-02
         0.35327E-02
         0.29778E-02
         0.32342E-02
         0.28977E-02
         0.29875E-02
         0.36956E-02
         0.37160E-02
         0.37160E-02
         0.33871E-02
         0.29015E-02
         0.31986E-02
         0.32802E-02
         0.32802E-02
         0.27006E-02
         0.25920E-02
         0.25887E-02
         0.26890E-02
         0.28580E-02
         0.29523E-02
         0.29714E-02
         0.29714E-02
         0.26475E-02
         0.27683E-02
         0.34056E-02
         0.35327E-02
         0.35327E-02
         0.29778E-02
         0.31435E-02
         0.31435E-02
         0.43143E-02
         0.43143E-02
         0.43143E-02
         0.43143E-02
         0.34887E-02
         0.34887E-02
         0.32755E-02
         0.32091E-02
         0.37839E-02
         0.31864E-02
         0.27086E-02
         0.33867E-02
         0.37159E-02
         0.27347E-02
         0.29027E-02
         0.36991E-02
         0.36036E-02
         0.37839E-02
         0.29920E-02
         0.29920E-02
         0.28585E-02
         0.26897E-02
         0.29525E-02
         0.28082E-02
         0.30105E-02
         0.36991E-02
         0.28563E-02
         0.28563E-02
         0.27537E-02
         0.26142E-02
         0.36991E-02
         0.36991E-02
         0.37789E-02
         0.37789E-02
         0.30240E-02
         0.36944E-02
         0.37159E-02
         0.31999E-02
         0.32808E-02
         0.32808E-02
         0.27006E-02
         0.25920E-02
         0.25880E-02
         0.29714E-02
         0.29714E-02
         0.26474E-02
         0.29097E-02
         0.34049E-02
         0.35322E-02
         0.35322E-02
         0.29781E-02
         0.32360E-02
         0.28949E-02
         0.29885E-02
         0.36944E-02
         0.37159E-02
         0.37159E-02
         0.33867E-02
         0.29027E-02
         0.31999E-02
         0.32808E-02
         0.32808E-02
         0.27006E-02
         0.25920E-02
         0.25880E-02
         0.26897E-02
         0.28585E-02
         0.29525E-02
         0.29714E-02
         0.29714E-02
         0.26474E-02
         0.27683E-02
         0.34049E-02
         0.35322E-02
         0.35322E-02
         0.29781E-02
         0.31449E-02
         0.31449E-02
         0.43140E-02
         0.43140E-02
         0.43140E-02
         0.43140E-02
         0.34888E-02
         0.34888E-02
         0.32740E-02
         0.32081E-02
         0.37834E-02
         0.31860E-02
         0.27069E-02
         0.33863E-02
         0.37158E-02
         0.27299E-02
         0.29039E-02
         0.36988E-02
         0.36071E-02
         0.37834E-02
         0.29946E-02
         0.29946E-02
         0.28589E-02
         0.26905E-02
         0.29526E-02
         0.28085E-02
         0.30131E-02
         0.36988E-02
         0.28538E-02
         0.28538E-02
         0.27524E-02
         0.26132E-02
         0.36988E-02
         0.36988E-02
         0.37809E-02
         0.37809E-02
         0.30241E-02
         0.36932E-02
         0.37158E-02
         0.32012E-02
         0.32814E-02
         0.32814E-02
         0.27006E-02
         0.25920E-02
         0.25873E-02
         0.29714E-02
         0.29714E-02
         0.26473E-02
         0.29097E-02
         0.34041E-02
         0.35316E-02
         0.35316E-02
         0.29784E-02
         0.32378E-02
         0.28921E-02
         0.29895E-02
         0.36932E-02
         0.37158E-02
         0.37158E-02
         0.33863E-02
         0.29039E-02
         0.32012E-02
         0.32814E-02
         0.32814E-02
         0.27006E-02
         0.25920E-02
         0.25873E-02
         0.26905E-02
         0.28589E-02
         0.29526E-02
         0.29714E-02
         0.29714E-02
         0.26473E-02
         0.27683E-02
         0.34041E-02
         0.35316E-02
         0.35316E-02
         0.29784E-02
         0.31463E-02
         0.31463E-02
         0.43138E-02
         0.43138E-02
         0.43138E-02
         0.43138E-02
         0.34888E-02
         0.34888E-02
         0.32726E-02
         0.32071E-02
         0.37830E-02
         0.31856E-02
         0.27051E-02
         0.33859E-02
         0.37157E-02
         0.27252E-02
         0.29051E-02
         0.36985E-02
         0.36106E-02
         0.37830E-02
         0.29972E-02
         0.29972E-02
         0.28594E-02
         0.26912E-02
         0.29528E-02
         0.28087E-02
         0.30156E-02
         0.36985E-02
         0.28512E-02
         0.28512E-02
         0.27512E-02
         0.26122E-02
         0.36985E-02
         0.36985E-02
         0.37830E-02
         0.37830E-02
         0.30243E-02
         0.36920E-02
         0.37157E-02
         0.32025E-02
         0.32821E-02
         0.32821E-02
         0.27006E-02
         0.25920E-02
         0.25866E-02
         0.29714E-02
         0.29714E-02
         0.26473E-02
         0.29096E-02
         0.34034E-02
         0.35310E-02
         0.35310E-02
         0.29787E-02
         0.32396E-02
         0.28894E-02
         0.29905E-02
         0.36920E-02
         0.37157E-02
         0.37157E-02
         0.33859E-02
         0.29051E-02
         0.32025E-02
         0.32821E-02
         0.32821E-02
         0.27006E-02
         0.25920E-02
         0.25866E-02
         0.26912E-02
         0.28594E-02
         0.29528E-02
         0.29714E-02
         0.29714E-02
         0.26473E-02
         0.27682E-02
         0.34034E-02
         0.35310E-02
         0.35310E-02
         0.29787E-02
         0.31476E-02
         0.31476E-02
         0.43135E-02
         0.43135E-02
         0.43135E-02
         0.43135E-02
         0.34889E-02
         0.34889E-02
         0.32712E-02
         0.32061E-02
         0.37825E-02
         0.31852E-02
         0.27034E-02
         0.33856E-02
         0.37156E-02
         0.27205E-02
         0.29063E-02
         0.36982E-02
         0.36142E-02
         0.37851E-02
         0.29998E-02
         0.29998E-02
         0.28599E-02
         0.26920E-02
         0.29529E-02
         0.28090E-02
         0.30182E-02
         0.36982E-02
         0.28486E-02
         0.28486E-02
         0.27499E-02
         0.26112E-02
         0.36982E-02
         0.36982E-02
         0.37851E-02
         0.37851E-02
         0.30245E-02
         0.36908E-02
         0.37156E-02
         0.32038E-02
         0.32827E-02
         0.32827E-02
         0.27006E-02
         0.25920E-02
         0.25859E-02
         0.29714E-02
         0.29714E-02
         0.26472E-02
         0.29095E-02
         0.34027E-02
         0.35304E-02
         0.35304E-02
         0.29790E-02
         0.32413E-02
         0.28866E-02
         0.29915E-02
         0.36908E-02
         0.37156E-02
         0.37156E-02
         0.33856E-02
         0.29063E-02
         0.32038E-02
         0.32827E-02
         0.32827E-02
         0.27006E-02
         0.25920E-02
         0.25859E-02
         0.26920E-02
         0.28599E-02
         0.29529E-02
         0.29714E-02
         0.29714E-02
         0.26472E-02
         0.27682E-02
         0.34027E-02
         0.35304E-02
         0.35304E-02
         0.29790E-02
         0.31490E-02
         0.31490E-02
         0.43133E-02
         0.43133E-02
         0.43133E-02
         0.43133E-02
         0.34890E-02
         0.34890E-02
         0.32698E-02
         0.32051E-02
         0.37820E-02
         0.31848E-02
         0.27017E-02
         0.33851E-02
         0.37155E-02
         0.27158E-02
         0.29075E-02
         0.36979E-02
         0.36177E-02
         0.37871E-02
         0.30024E-02
         0.30024E-02
         0.28603E-02
         0.26927E-02
         0.29530E-02
         0.28093E-02
         0.30208E-02
         0.36979E-02
         0.28460E-02
         0.28460E-02
         0.27486E-02
         0.26101E-02
         0.36979E-02
         0.36979E-02
         0.37871E-02
         0.37871E-02
         0.30247E-02
         0.36896E-02
         0.37155E-02
         0.32051E-02
         0.32833E-02
         0.32833E-02
         0.27006E-02
         0.25920E-02
         0.25851E-02
         0.29714E-02
         0.29714E-02
         0.26472E-02
         0.29094E-02
         0.34019E-02
         0.35299E-02
         0.35299E-02
         0.29793E-02
         0.32431E-02
         0.28838E-02
         0.29925E-02
         0.36896E-02
         0.37155E-02
         0.37155E-02
         0.33851E-02
         0.29075E-02
         0.32051E-02
         0.32833E-02
         0.32833E-02
         0.27006E-02
         0.25920E-02
         0.25851E-02
         0.26927E-02
         0.28603E-02
         0.29530E-02
         0.29714E-02
         0.29714E-02
         0.26472E-02
         0.27681E-02
         0.34019E-02
         0.35299E-02
         0.35299E-02
         0.29793E-02
         0.31503E-02
         0.31503E-02
         0.43130E-02
         0.43130E-02
         0.43130E-02
         0.43130E-02
         0.34891E-02
         0.34891E-02
         0.32683E-02
         0.32041E-02
         0.37816E-02
         0.31844E-02
         0.27000E-02
         0.33848E-02
         0.37154E-02
         0.27111E-02
         0.29087E-02
         0.36976E-02
         0.36213E-02
         0.37892E-02
         0.30050E-02
         0.30050E-02
         0.28608E-02
         0.26935E-02
         0.29532E-02
         0.28096E-02
         0.30234E-02
         0.36976E-02
         0.28434E-02
         0.28434E-02
         0.27472E-02
         0.26091E-02
         0.36976E-02
         0.36976E-02
         0.37892E-02
         0.37892E-02
         0.30249E-02
         0.36885E-02
         0.37154E-02
         0.32064E-02
         0.32839E-02
         0.32839E-02
         0.27006E-02
         0.25920E-02
         0.25844E-02
         0.29714E-02
         0.29714E-02
         0.26471E-02
         0.29094E-02
         0.34012E-02
         0.35293E-02
         0.35293E-02
         0.29797E-02
         0.32449E-02
         0.28811E-02
         0.29935E-02
         0.36885E-02
         0.37154E-02
         0.37154E-02
         0.33848E-02
         0.29087E-02
         0.32064E-02
         0.32839E-02
         0.32839E-02
         0.27006E-02
         0.25920E-02
         0.25844E-02
         0.26935E-02
         0.28608E-02
         0.29532E-02
         0.29714E-02
         0.29714E-02
         0.26471E-02
         0.27681E-02
         0.34012E-02
         0.35293E-02
         0.35293E-02
         0.29797E-02
         0.31517E-02
         0.31517E-02
         0.43128E-02
         0.43128E-02
         0.43128E-02
         0.43128E-02
         0.34892E-02
         0.34892E-02
         0.32669E-02
         0.32031E-02
         0.37811E-02
         0.31840E-02
         0.26982E-02
         0.33844E-02
         0.37152E-02
         0.27063E-02
         0.29099E-02
         0.36973E-02
         0.36248E-02
         0.37913E-02
         0.30076E-02
         0.30076E-02
         0.28613E-02
         0.26942E-02
         0.29533E-02
         0.28099E-02
         0.30260E-02
         0.36973E-02
         0.28408E-02
         0.28408E-02
         0.27460E-02
         0.26081E-02
         0.36973E-02
         0.36973E-02
         0.37913E-02
         0.37913E-02
         0.30250E-02
         0.36873E-02
         0.37152E-02
         0.32077E-02
         0.32845E-02
         0.32845E-02
         0.27006E-02
         0.25920E-02
         0.25837E-02
         0.29714E-02
         0.29714E-02
         0.26471E-02
         0.29093E-02
         0.34005E-02
         0.35287E-02
         0.35287E-02
         0.29800E-02
         0.32467E-02
         0.28783E-02
         0.29945E-02
         0.36873E-02
         0.37152E-02
         0.37152E-02
         0.33844E-02
         0.29099E-02
         0.32077E-02
         0.32845E-02
         0.32845E-02
         0.27006E-02
         0.25920E-02
         0.25837E-02
         0.26942E-02
         0.28613E-02
         0.29533E-02
         0.29714E-02
         0.29714E-02
         0.26471E-02
         0.27681E-02
         0.34005E-02
         0.35287E-02
         0.35287E-02
         0.29800E-02
         0.31530E-02
         0.31530E-02
         0.43125E-02
         0.43125E-02
         0.43125E-02
         0.43125E-02
         0.34893E-02
         0.34893E-02
         0.32655E-02
         0.32021E-02
         0.37806E-02
         0.31836E-02
         0.26965E-02
         0.33840E-02
         0.37151E-02
         0.27016E-02
         0.29111E-02
         0.36969E-02
         0.36283E-02
         0.37933E-02
         0.30102E-02
         0.30102E-02
         0.28617E-02
         0.26950E-02
         0.29535E-02
         0.28101E-02
         0.30286E-02
         0.36969E-02
         0.28382E-02
         0.28382E-02
         0.27447E-02
         0.26071E-02
         0.36969E-02
         0.36969E-02
         0.37933E-02
         0.37933E-02
         0.30252E-02
         0.36861E-02
         0.37151E-02
         0.32090E-02
         0.32852E-02
         0.32852E-02
         0.27006E-02
         0.25920E-02
         0.25830E-02
         0.29714E-02
         0.29714E-02
         0.26470E-02
         0.29092E-02
         0.33997E-02
         0.35282E-02
         0.35282E-02
         0.29803E-02
         0.32484E-02
         0.28755E-02
         0.29955E-02
         0.36861E-02
         0.37151E-02
         0.37151E-02
         0.33840E-02
         0.29111E-02
         0.32090E-02
         0.32852E-02
         0.32852E-02
         0.27006E-02
         0.25920E-02
         0.25830E-02
         0.26950E-02
         0.28617E-02
         0.29535E-02
         0.29714E-02
         0.29714E-02
         0.26470E-02
         0.27680E-02
         0.33997E-02
         0.35282E-02
         0.35282E-02
         0.29803E-02
         0.31544E-02
         0.31544E-02
         0.43123E-02
         0.43123E-02
         0.43123E-02
         0.43123E-02
         0.34893E-02
         0.34893E-02
         0.32640E-02
         0.32011E-02
         0.37801E-02
         0.31832E-02
         0.26948E-02
         0.33836E-02
         0.37150E-02
         0.26969E-02
         0.29123E-02
         0.36966E-02
         0.36319E-02
         0.37954E-02
         0.30128E-02
         0.30128E-02
         0.28622E-02
         0.26957E-02
         0.29536E-02
         0.28104E-02
         0.30312E-02
         0.36966E-02
         0.28357E-02
         0.28357E-02
         0.27434E-02
         0.26061E-02
         0.36966E-02
         0.36966E-02
         0.37954E-02
         0.37954E-02
         0.30254E-02
         0.36849E-02
         0.37150E-02
         0.32103E-02
         0.32858E-02
         0.32858E-02
         0.27006E-02
         0.25920E-02
         0.25823E-02
         0.29714E-02
         0.29714E-02
         0.26470E-02
         0.29091E-02
         0.33990E-02
         0.35276E-02
         0.35276E-02
         0.29806E-02
         0.32502E-02
         0.28728E-02
         0.29965E-02
         0.36849E-02
         0.37150E-02
         0.37150E-02
         0.33836E-02
         0.29123E-02
         0.32103E-02
         0.32858E-02
         0.32858E-02
         0.27006E-02
         0.25920E-02
         0.25823E-02
         0.26957E-02
         0.28622E-02
         0.29536E-02
         0.29714E-02
         0.29714E-02
         0.26470E-02
         0.27680E-02
         0.33990E-02
         0.35276E-02
         0.35276E-02
         0.29806E-02
         0.31557E-02
         0.31557E-02
         0.43120E-02
         0.43120E-02
         0.43120E-02
         0.43120E-02
         0.34894E-02
         0.34894E-02
         0.32626E-02
         0.32001E-02
         0.37797E-02
         0.31828E-02
         0.26931E-02
         0.33832E-02
         0.37149E-02
         0.26922E-02
         0.29135E-02
         0.36963E-02
         0.36354E-02
         0.37975E-02
         0.30154E-02
         0.30154E-02
         0.28627E-02
         0.26965E-02
         0.29537E-02
         0.28107E-02
         0.30338E-02
         0.36963E-02
         0.28331E-02
         0.28331E-02
         0.27421E-02
         0.26051E-02
         0.36963E-02
         0.36963E-02
         0.37975E-02
         0.37975E-02
         0.30256E-02
         0.36838E-02
         0.37149E-02
         0.32116E-02
         0.32864E-02
         0.32864E-02
         0.27006E-02
         0.25920E-02
         0.25815E-02
         0.29714E-02
         0.29714E-02
         0.26469E-02
         0.29090E-02
         0.33983E-02
         0.35270E-02
         0.35270E-02
         0.29809E-02
         0.32519E-02
         0.28700E-02
         0.29975E-02
         0.36838E-02
         0.37149E-02
         0.37149E-02
         0.33832E-02
         0.29135E-02
         0.32116E-02
         0.32864E-02
         0.32864E-02
         0.27006E-02
         0.25920E-02
         0.25815E-02
         0.26965E-02
         0.28627E-02
         0.29537E-02
         0.29714E-02
         0.29714E-02
         0.26469E-02
         0.27680E-02
         0.33983E-02
         0.35270E-02
         0.35270E-02
         0.29809E-02
         0.31571E-02
         0.31571E-02
         0.43118E-02
         0.43118E-02
         0.43118E-02
         0.43118E-02
         0.34895E-02
         0.34895E-02
         0.32612E-02
         0.31990E-02
         0.37792E-02
         0.31824E-02
         0.26913E-02
         0.33828E-02
         0.37148E-02
         0.26875E-02
         0.29148E-02
         0.36960E-02
         0.36390E-02
         0.37995E-02
         0.30180E-02
         0.30180E-02
         0.28631E-02
         0.26972E-02
         0.29539E-02
         0.28110E-02
         0.30364E-02
         0.36960E-02
         0.28305E-02
         0.28305E-02
         0.27408E-02
         0.26040E-02
         0.36960E-02
         0.36960E-02
         0.37995E-02
         0.37995E-02
         0.30258E-02
         0.36826E-02
         0.37148E-02
         0.32129E-02
         0.32870E-02
         0.32870E-02
         0.27006E-02
         0.25920E-02
         0.25808E-02
         0.29713E-02
         0.29713E-02
         0.26468E-02
         0.29089E-02
         0.33975E-02
         0.35264E-02
         0.35264E-02
         0.29812E-02
         0.32537E-02
         0.28672E-02
         0.29985E-02
         0.36826E-02
         0.37148E-02
         0.37148E-02
         0.33828E-02
         0.29148E-02
         0.32129E-02
         0.32870E-02
         0.32870E-02
         0.27006E-02
         0.25920E-02
         0.25808E-02
         0.26972E-02
         0.28631E-02
         0.29539E-02
         0.29713E-02
         0.29713E-02
         0.26468E-02
         0.27679E-02
         0.33975E-02
         0.35264E-02
         0.35264E-02
         0.29812E-02
         0.31585E-02
         0.31585E-02
         0.43115E-02
         0.43115E-02
         0.43115E-02
         0.43115E-02
         0.34896E-02
         0.34896E-02
         0.32597E-02
         0.31980E-02
         0.37787E-02
         0.31820E-02
         0.26896E-02
         0.33824E-02
         0.37147E-02
         0.26827E-02
         0.29160E-02
         0.36957E-02
         0.36425E-02
         0.38016E-02
         0.30206E-02
         0.30206E-02
         0.28636E-02
         0.26980E-02
         0.29540E-02
         0.28112E-02
         0.30390E-02
         0.36957E-02
         0.28279E-02
         0.28279E-02
         0.27395E-02
         0.26030E-02
         0.36957E-02
         0.36957E-02
         0.38016E-02
         0.38016E-02
         0.30260E-02
         0.36814E-02
         0.37147E-02
         0.32141E-02
         0.32876E-02
         0.32876E-02
         0.27006E-02
         0.25920E-02
         0.25801E-02
         0.29713E-02
         0.29713E-02
         0.26468E-02
         0.29089E-02
         0.33968E-02
         0.35259E-02
         0.35259E-02
         0.29815E-02
         0.32555E-02
         0.28645E-02
         0.29995E-02
         0.36814E-02
         0.37147E-02
         0.37147E-02
         0.33824E-02
         0.29160E-02
         0.32141E-02
         0.32876E-02
         0.32876E-02
         0.27006E-02
         0.25920E-02
         0.25801E-02
         0.26980E-02
         0.28636E-02
         0.29540E-02
         0.29713E-02
         0.29713E-02
         0.26468E-02
         0.27679E-02
         0.33968E-02
         0.35259E-02
         0.35259E-02
         0.29815E-02
         0.31598E-02
         0.31598E-02
         0.43113E-02
         0.43113E-02
         0.43113E-02
         0.43113E-02
         0.34897E-02
         0.34897E-02
         0.32583E-02
         0.31970E-02
         0.37783E-02
         0.31816E-02
         0.26879E-02
         0.33820E-02
         0.37146E-02
         0.26780E-02
         0.29172E-02
         0.36954E-02
         0.36460E-02
         0.38037E-02
         0.30232E-02
         0.30232E-02
         0.28641E-02
         0.26987E-02
         0.29542E-02
         0.28115E-02
         0.30416E-02
         0.36954E-02
         0.28253E-02
         0.28253E-02
         0.27382E-02
         0.26020E-02
         0.36954E-02
         0.36954E-02
         0.38037E-02
         0.38037E-02
         0.30261E-02
         0.36802E-02
         0.37146E-02
         0.32154E-02
         0.32882E-02
         0.32882E-02
         0.27006E-02
         0.25921E-02
         0.25794E-02
         0.29713E-02
         0.29713E-02
         0.26467E-02
         0.29088E-02
         0.33961E-02
         0.35253E-02
         0.35253E-02
         0.29818E-02
         0.32573E-02
         0.28617E-02
         0.30005E-02
         0.36802E-02
         0.37146E-02
         0.37146E-02
         0.33820E-02
         0.29172E-02
         0.32154E-02
         0.32882E-02
         0.32882E-02
         0.27006E-02
         0.25921E-02
         0.25794E-02
         0.26987E-02
         0.28641E-02
         0.29542E-02
         0.29713E-02
         0.29713E-02
         0.26467E-02
         0.27678E-02
         0.33961E-02
         0.35253E-02
         0.35253E-02
         0.29818E-02
         0.31612E-02
         0.31612E-02
         0.43110E-02
         0.43110E-02
         0.43110E-02
         0.43110E-02
         0.34898E-02
         0.34898E-02
         0.32569E-02
         0.31960E-02
         0.37778E-02
         0.31812E-02
         0.26862E-02
         0.33816E-02
         0.37145E-02
         0.26733E-02
         0.29184E-02
         0.36950E-02
         0.36495E-02
         0.38057E-02
         0.30258E-02
         0.30258E-02
         0.28645E-02
         0.26995E-02
         0.29543E-02
         0.28118E-02
         0.30442E-02
         0.36950E-02
         0.28227E-02
         0.28227E-02
         0.27369E-02
         0.26010E-02
         0.36950E-02
         0.36950E-02
         0.38057E-02
         0.38057E-02
         0.30263E-02
         0.36790E-02
         0.37145E-02
         0.32167E-02
         0.32889E-02
         0.32889E-02
         0.27006E-02
         0.25921E-02
         0.25787E-02
         0.29713E-02
         0.29713E-02
         0.26467E-02
         0.29087E-02
         0.33953E-02
         0.35247E-02
         0.35247E-02
         0.29821E-02
         0.32590E-02
         0.28589E-02
         0.30015E-02
         0.36790E-02
         0.37145E-02
         0.37145E-02
         0.33816E-02
         0.29184E-02
         0.32167E-02
         0.32889E-02
         0.32889E-02
         0.27006E-02
         0.25921E-02
         0.25787E-02
         0.26995E-02
         0.28645E-02
         0.29543E-02
         0.29713E-02
         0.29713E-02
         0.26467E-02
         0.27678E-02
         0.33953E-02
         0.35247E-02
         0.35247E-02
         0.29821E-02
         0.31625E-02
         0.31625E-02
         0.43108E-02
         0.43108E-02
         0.43108E-02
         0.43108E-02
         0.34898E-02
         0.34898E-02
         0.32555E-02
         0.31950E-02
         0.37773E-02
         0.31808E-02
         0.26845E-02
         0.33812E-02
         0.37144E-02
         0.26686E-02
         0.29196E-02
         0.36948E-02
         0.36531E-02
         0.38078E-02
         0.30285E-02
         0.30285E-02
         0.28650E-02
         0.27002E-02
         0.29544E-02
         0.28120E-02
         0.30467E-02
         0.36948E-02
         0.28201E-02
         0.28201E-02
         0.27356E-02
         0.26000E-02
         0.36948E-02
         0.36948E-02
         0.38078E-02
         0.38078E-02
         0.30265E-02
         0.36779E-02
         0.37144E-02
         0.32181E-02
         0.32895E-02
         0.32895E-02
         0.27006E-02
         0.25921E-02
         0.25779E-02
         0.29713E-02
         0.29713E-02
         0.26466E-02
         0.29086E-02
         0.33946E-02
         0.35242E-02
         0.35242E-02
         0.29824E-02
         0.32608E-02
         0.28562E-02
         0.30025E-02
         0.36779E-02
         0.37144E-02
         0.37144E-02
         0.33812E-02
         0.29196E-02
         0.32181E-02
         0.32895E-02
         0.32895E-02
         0.27006E-02
         0.25921E-02
         0.25779E-02
         0.27002E-02
         0.28650E-02
         0.29544E-02
         0.29713E-02
         0.29713E-02
         0.26466E-02
         0.27678E-02
         0.33946E-02
         0.35242E-02
         0.35242E-02
         0.29824E-02
         0.31639E-02
         0.31639E-02
         0.43105E-02
         0.43105E-02
         0.43105E-02
         0.43105E-02
         0.34899E-02
         0.34899E-02
         0.32540E-02
         0.31940E-02
         0.37768E-02
         0.31804E-02
         0.26827E-02
         0.33808E-02
         0.37143E-02
         0.26639E-02
         0.29208E-02
         0.36944E-02
         0.36566E-02
         0.38099E-02
         0.30311E-02
         0.30311E-02
         0.28655E-02
         0.27010E-02
         0.29546E-02
         0.28123E-02
         0.30493E-02
         0.36944E-02
         0.28175E-02
         0.28175E-02
         0.27343E-02
         0.25990E-02
         0.36944E-02
         0.36944E-02
         0.38099E-02
         0.38099E-02
         0.30267E-02
         0.36767E-02
         0.37143E-02
         0.32193E-02
         0.32901E-02
         0.32901E-02
         0.27006E-02
         0.25921E-02
         0.25772E-02
         0.29713E-02
         0.29713E-02
         0.26466E-02
         0.29085E-02
         0.33939E-02
         0.35236E-02
         0.35236E-02
         0.29827E-02
         0.32626E-02
         0.28534E-02
         0.30035E-02
         0.36767E-02
         0.37143E-02
         0.37143E-02
         0.33808E-02
         0.29208E-02
         0.32193E-02
         0.32901E-02
         0.32901E-02
         0.27006E-02
         0.25921E-02
         0.25772E-02
         0.27010E-02
         0.28655E-02
         0.29546E-02
         0.29713E-02
         0.29713E-02
         0.26466E-02
         0.27677E-02
         0.33939E-02
         0.35236E-02
         0.35236E-02
         0.29827E-02
         0.31652E-02
         0.31652E-02
         0.43103E-02
         0.43103E-02
         0.43103E-02
         0.43103E-02
         0.34900E-02
         0.34900E-02
         0.32526E-02
         0.31930E-02
         0.37764E-02
         0.31800E-02
         0.26810E-02
         0.33804E-02
         0.37142E-02
         0.26591E-02
         0.29220E-02
         0.36941E-02
         0.36602E-02
         0.38119E-02
         0.30337E-02
         0.30337E-02
         0.28660E-02
         0.27017E-02
         0.29547E-02
         0.28126E-02
         0.30519E-02
         0.36941E-02
         0.28150E-02
         0.28150E-02
         0.27330E-02
         0.25979E-02
         0.36941E-02
         0.36941E-02
         0.38119E-02
         0.38119E-02
         0.30269E-02
         0.36755E-02
         0.37142E-02
         0.32206E-02
         0.32907E-02
         0.32907E-02
         0.27006E-02
         0.25921E-02
         0.25765E-02
         0.29713E-02
         0.29713E-02
         0.26465E-02
         0.29085E-02
         0.33931E-02
         0.35230E-02
         0.35230E-02
         0.29830E-02
         0.32643E-02
         0.28507E-02
         0.30045E-02
         0.36755E-02
         0.37142E-02
         0.37142E-02
         0.33804E-02
         0.29220E-02
         0.32206E-02
         0.32907E-02
         0.32907E-02
         0.27006E-02
         0.25921E-02
         0.25765E-02
         0.27017E-02
         0.28660E-02
         0.29547E-02
         0.29713E-02
         0.29713E-02
         0.26465E-02
         0.27677E-02
         0.33931E-02
         0.35230E-02
         0.35230E-02
         0.29830E-02
         0.31666E-02
         0.31666E-02
         0.43100E-02
         0.43100E-02
         0.43100E-02
         0.43100E-02
         0.34901E-02
         0.34901E-02
         0.32512E-02
         0.31920E-02
         0.37759E-02
         0.31796E-02
         0.26793E-02
         0.33800E-02
         0.37141E-02
         0.26544E-02
         0.29232E-02
         0.36938E-02
         0.36637E-02
         0.38140E-02
         0.30363E-02
         0.30363E-02
         0.28664E-02
         0.27025E-02
         0.29548E-02
         0.28129E-02
         0.30545E-02
         0.36938E-02
         0.28124E-02
         0.28124E-02
         0.27317E-02
         0.25969E-02
         0.36938E-02
         0.36938E-02
         0.38140E-02
         0.38140E-02
         0.30271E-02
         0.36743E-02
         0.37141E-02
         0.32219E-02
         0.32913E-02
         0.32913E-02
         0.27006E-02
         0.25921E-02
         0.25758E-02
         0.29713E-02
         0.29713E-02
         0.26465E-02
         0.29084E-02
         0.33924E-02
         0.35224E-02
         0.35224E-02
         0.29833E-02
         0.32661E-02
         0.28479E-02
         0.30055E-02
         0.36743E-02
         0.37141E-02
         0.37141E-02
         0.33800E-02
         0.29232E-02
         0.32219E-02
         0.32913E-02
         0.32913E-02
         0.27006E-02
         0.25921E-02
         0.25758E-02
         0.27025E-02
         0.28664E-02
         0.29548E-02
         0.29713E-02
         0.29713E-02
         0.26465E-02
         0.27677E-02
         0.33924E-02
         0.35224E-02
         0.35224E-02
         0.29833E-02
         0.31680E-02
         0.31680E-02
         0.43098E-02
         0.43098E-02
         0.43098E-02
         0.43098E-02
         0.34901E-02
         0.34901E-02
         0.32498E-02
         0.31910E-02
         0.37754E-02
         0.31792E-02
         0.26776E-02
         0.33796E-02
         0.37140E-02
         0.26497E-02
         0.29232E-02
         0.36935E-02
         0.36637E-02
         0.38140E-02
         0.30363E-02
         0.30363E-02
         0.28664E-02
         0.27025E-02
         0.29548E-02
         0.28129E-02
         0.30545E-02
         0.36935E-02
         0.28098E-02
         0.28098E-02
         0.27304E-02
         0.25959E-02
         0.36935E-02
         0.36935E-02
         0.38140E-02
         0.38140E-02
         0.30271E-02
         0.36731E-02
         0.37140E-02
         0.32219E-02
         0.32913E-02
         0.32913E-02
         0.27006E-02
         0.25921E-02
         0.25751E-02
         0.29713E-02
         0.29713E-02
         0.26464E-02
         0.29083E-02
         0.33916E-02
         0.35219E-02
         0.35219E-02
         0.29833E-02
         0.32661E-02
         0.28451E-02
         0.30055E-02
         0.36731E-02
         0.37140E-02
         0.37140E-02
         0.33796E-02
         0.29232E-02
         0.32219E-02
         0.32913E-02
         0.32913E-02
         0.27006E-02
         0.25921E-02
         0.25751E-02
         0.27025E-02
         0.28664E-02
         0.29548E-02
         0.29713E-02
         0.29713E-02
         0.26464E-02
         0.27676E-02
         0.33916E-02
         0.35219E-02
         0.35219E-02
         0.29833E-02
         0.31680E-02
         0.31680E-02
  
SCALARS              physical_window_z  double 1
LOOKUP_TABLE default
         0.26928E-02
         0.26928E-02
         0.26928E-02
         0.26928E-02
         0.26928E-02
         0.26928E-02
         0.26928E-02
         0.26928E-02
         0.26928E-02
         0.26928E-02
         0.26928E-02
         0.26928E-02
         0.26928E-02
         0.26928E-02
         0.26928E-02
         0.26928E-02
         0.26928E-02
         0.26928E-02
         0.26928E-02
         0.26928E-02
         0.26928E-02
         0.26928E-02
         0.26928E-02
         0.26928E-02
         0.26928E-02
         0.26928E-02
         0.26928E-02
         0.26928E-02
         0.26928E-02
         0.26928E-02
         0.26928E-02
         0.26928E-02
         0.26928E-02
         0.26928E-02
         0.26928E-02
         0.26928E-02
         0.26928E-02
         0.26928E-02
         0.26928E-02
         0.26928E-02
         0.26928E-02
         0.26928E-02
         0.26928E-02
         0.26928E-02
         0.26928E-02
         0.26928E-02
         0.26928E-02
         0.26928E-02
         0.26928E-02
         0.26928E-02
         0.26928E-02
         0.26928E-02
         0.26928E-02
         0.26928E-02
         0.26928E-02
         0.26928E-02
         0.26928E-02
         0.26928E-02
         0.26928E-02
         0.26928E-02
         0.26928E-02
         0.26928E-02
         0.26928E-02
         0.26928E-02
         0.26928E-02
         0.26928E-02
         0.26928E-02
         0.26928E-02
         0.26928E-02
         0.26928E-02
         0.26928E-02
         0.26928E-02
         0.26928E-02
         0.26928E-02
         0.26928E-02
         0.26928E-02
         0.26928E-02
         0.26928E-02
         0.26928E-02
         0.26928E-02
         0.26928E-02
         0.26928E-02
         0.26928E-02
         0.26928E-02
         0.26928E-02
         0.26928E-02
         0.26928E-02
         0.26928E-02
         0.26928E-02
         0.26928E-02
         0.26928E-02
         0.26928E-02
         0.26928E-02
         0.26928E-02
         0.26928E-02
         0.26928E-02
         0.26928E-02
         0.26928E-02
         0.26928E-02
         0.26928E-02
         0.26928E-02
         0.26928E-02
         0.26928E-02
         0.26928E-02
         0.26928E-02
         0.26928E-02
         0.26928E-02
         0.26928E-02
         0.26928E-02
         0.26928E-02
         0.26928E-02
         0.26928E-02
         0.26928E-02
         0.26928E-02
         0.26928E-02
         0.26928E-02
         0.26928E-02
         0.26928E-02
         0.26928E-02
         0.26928E-02
         0.26928E-02
         0.26928E-02
         0.26928E-02
         0.26928E-02
         0.26928E-02
         0.26928E-02
         0.26928E-02
         0.26928E-02
         0.26928E-02
         0.26928E-02
         0.26928E-02
         0.26928E-02
         0.26928E-02
         0.26928E-02
         0.26928E-02
         0.26928E-02
         0.26928E-02
         0.26928E-02
         0.26928E-02
         0.26928E-02
         0.26928E-02
         0.26928E-02
         0.26928E-02
         0.26928E-02
         0.26928E-02
         0.26928E-02
         0.26928E-02
         0.26928E-02
         0.26928E-02
         0.26928E-02
         0.26928E-02
         0.26928E-02
         0.26928E-02
         0.26928E-02
         0.26928E-02
         0.26928E-02
         0.26927E-02
         0.26927E-02
         0.26927E-02
         0.26927E-02
         0.26927E-02
         0.26927E-02
         0.26927E-02
         0.26927E-02
         0.26927E-02
         0.26927E-02
         0.26927E-02
         0.26927E-02
         0.26927E-02
         0.26927E-02
         0.26927E-02
         0.26927E-02
         0.26927E-02
         0.26927E-02
         0.26927E-02
         0.26927E-02
         0.26927E-02
         0.26927E-02
         0.26927E-02
         0.26927E-02
         0.26927E-02
         0.26927E-02
         0.26927E-02
         0.26927E-02
         0.26927E-02
         0.26927E-02
         0.26927E-02
         0.26927E-02
         0.26927E-02
         0.26927E-02
         0.26927E-02
         0.26927E-02
         0.26927E-02
         0.26927E-02
         0.26927E-02
         0.26927E-02
         0.26927E-02
         0.26927E-02
         0.26927E-02
         0.26927E-02
         0.26927E-02
         0.26927E-02
         0.26927E-02
         0.26927E-02
         0.26927E-02
         0.26927E-02
         0.26927E-02
         0.26927E-02
         0.26927E-02
         0.26927E-02
         0.26927E-02
         0.26927E-02
         0.26927E-02
         0.26927E-02
         0.26927E-02
         0.26927E-02
         0.26927E-02
         0.26927E-02
         0.26927E-02
         0.26927E-02
         0.26927E-02
         0.26927E-02
         0.26927E-02
         0.26927E-02
         0.26927E-02
         0.26927E-02
         0.26927E-02
         0.26927E-02
         0.26927E-02
         0.26927E-02
         0.26927E-02
         0.26927E-02
         0.26927E-02
         0.26927E-02
         0.26927E-02
         0.26927E-02
         0.26927E-02
         0.26927E-02
         0.26927E-02
         0.26927E-02
         0.26927E-02
         0.26927E-02
         0.26927E-02
         0.26927E-02
         0.26927E-02
         0.26927E-02
         0.26927E-02
         0.26927E-02
         0.26927E-02
         0.26927E-02
         0.26927E-02
         0.26927E-02
         0.26927E-02
         0.26927E-02
         0.26927E-02
         0.26927E-02
         0.26927E-02
         0.26927E-02
         0.26927E-02
         0.26927E-02
         0.26927E-02
         0.26927E-02
         0.26927E-02
         0.26927E-02
         0.26927E-02
         0.26927E-02
         0.26927E-02
         0.26927E-02
         0.26927E-02
         0.26927E-02
         0.26927E-02
         0.26927E-02
         0.26927E-02
         0.26927E-02
         0.26927E-02
         0.26927E-02
         0.26927E-02
         0.26927E-02
         0.26927E-02
         0.26927E-02
         0.26927E-02
         0.26927E-02
         0.26927E-02
         0.26927E-02
         0.26927E-02
         0.26927E-02
         0.26927E-02
         0.26927E-02
         0.26927E-02
         0.26927E-02
         0.26927E-02
         0.26927E-02
         0.26927E-02
         0.26927E-02
         0.26927E-02
         0.26927E-02
         0.26927E-02
         0.26927E-02
         0.26927E-02
         0.26927E-02
         0.26927E-02
         0.26927E-02
         0.26927E-02
         0.26927E-02
         0.26927E-02
         0.26927E-02
         0.26927E-02
         0.26927E-02
         0.26927E-02
         0.26927E-02
         0.26927E-02
         0.26927E-02
         0.26927E-02
         0.26927E-02
         0.26927E-02
         0.26927E-02
         0.26927E-02
         0.26927E-02
         0.26927E-02
         0.26927E-02
         0.26927E-02
         0.26927E-02
         0.26927E-02
         0.26927E-02
         0.26927E-02
         0.26927E-02
         0.26927E-02
         0.26927E-02
         0.26927E-02
         0.26927E-02
         0.26927E-02
         0.26927E-02
         0.26927E-02
         0.26927E-02
         0.26927E-02
         0.26927E-02
         0.26927E-02
         0.26927E-02
         0.26927E-02
         0.26927E-02
         0.26927E-02
         0.26927E-02
         0.26927E-02
         0.26927E-02
         0.26927E-02
         0.26927E-02
         0.26927E-02
         0.26927E-02
         0.26927E-02
         0.26927E-02
         0.26927E-02
         0.26927E-02
         0.26927E-02
         0.26927E-02
         0.26927E-02
         0.26927E-02
         0.26927E-02
         0.26927E-02
         0.26927E-02
         0.26927E-02
         0.26927E-02
         0.26927E-02
         0.26927E-02
         0.26927E-02
         0.26927E-02
         0.26927E-02
         0.26927E-02
         0.26927E-02
         0.26927E-02
         0.26927E-02
         0.26927E-02
         0.26927E-02
         0.26927E-02
         0.26927E-02
         0.26927E-02
         0.26927E-02
         0.26927E-02
         0.26927E-02
         0.26927E-02
         0.26927E-02
         0.26927E-02
         0.26927E-02
         0.26927E-02
         0.26927E-02
         0.26927E-02
         0.26927E-02
         0.26927E-02
         0.26927E-02
         0.26927E-02
         0.26927E-02
         0.26927E-02
         0.26927E-02
         0.26927E-02
         0.26927E-02
         0.26927E-02
         0.26927E-02
         0.26927E-02
         0.26927E-02
         0.26927E-02
         0.26927E-02
         0.26927E-02
         0.26927E-02
         0.26927E-02
         0.26927E-02
         0.26927E-02
         0.26927E-02
         0.26927E-02
         0.26927E-02
         0.26927E-02
         0.26927E-02
         0.26927E-02
         0.26927E-02
         0.26927E-02
         0.26927E-02
         0.26927E-02
         0.26927E-02
         0.26927E-02
         0.26927E-02
         0.26927E-02
         0.26927E-02
         0.26927E-02
         0.26927E-02
         0.26927E-02
         0.26927E-02
         0.26927E-02
         0.26927E-02
         0.26927E-02
         0.26927E-02
         0.26927E-02
         0.26927E-02
         0.26927E-02
         0.26927E-02
         0.26927E-02
         0.26927E-02
         0.26927E-02
         0.26927E-02
         0.26927E-02
         0.26927E-02
         0.26927E-02
         0.26927E-02
         0.26927E-02
         0.26927E-02
         0.26927E-02
         0.26927E-02
         0.26927E-02
         0.26927E-02
         0.26927E-02
         0.26927E-02
         0.26927E-02
         0.26927E-02
         0.26927E-02
         0.26927E-02
         0.26927E-02
         0.26927E-02
         0.26927E-02
         0.26927E-02
         0.26927E-02
         0.26927E-02
         0.26927E-02
         0.26927E-02
         0.26927E-02
         0.26927E-02
         0.26927E-02
         0.26927E-02
         0.26927E-02
         0.26927E-02
         0.26927E-02
         0.26927E-02
         0.26927E-02
         0.26927E-02
         0.26927E-02
         0.26927E-02
         0.26927E-02
         0.26927E-02
         0.26927E-02
         0.26927E-02
         0.26927E-02
         0.26927E-02
         0.26927E-02
         0.26927E-02
         0.26927E-02
         0.26927E-02
         0.26927E-02
         0.26927E-02
         0.26927E-02
         0.26927E-02
         0.26927E-02
         0.26927E-02
         0.26927E-02
         0.26927E-02
         0.26927E-02
         0.26927E-02
         0.26927E-02
         0.26927E-02
         0.26927E-02
         0.26927E-02
         0.26927E-02
         0.26927E-02
         0.26927E-02
         0.26927E-02
         0.26927E-02
         0.26927E-02
         0.26927E-02
         0.26927E-02
         0.26927E-02
         0.26927E-02
         0.26927E-02
         0.26927E-02
         0.26927E-02
         0.26927E-02
         0.26927E-02
         0.26927E-02
         0.26927E-02
         0.26927E-02
         0.26927E-02
         0.26927E-02
         0.26927E-02
         0.26927E-02
         0.26927E-02
         0.26927E-02
         0.26927E-02
         0.26927E-02
         0.26927E-02
         0.26927E-02
         0.26927E-02
         0.26927E-02
         0.26927E-02
         0.26927E-02
         0.26927E-02
         0.26927E-02
         0.26927E-02
         0.26927E-02
         0.26927E-02
         0.26927E-02
         0.26927E-02
         0.26927E-02
         0.26927E-02
         0.26927E-02
         0.26927E-02
         0.26927E-02
         0.26927E-02
         0.26927E-02
         0.26927E-02
         0.26927E-02
         0.26927E-02
         0.26927E-02
         0.26927E-02
         0.26927E-02
         0.26927E-02
         0.26927E-02
         0.26927E-02
         0.26927E-02
         0.26927E-02
         0.26927E-02
         0.26927E-02
         0.26927E-02
         0.26927E-02
         0.26927E-02
         0.26927E-02
         0.26927E-02
         0.26927E-02
         0.26927E-02
         0.26927E-02
         0.26927E-02
         0.26927E-02
         0.26927E-02
         0.26927E-02
         0.26927E-02
         0.26927E-02
         0.26927E-02
         0.26927E-02
         0.26927E-02
         0.26927E-02
         0.26927E-02
         0.26927E-02
         0.26927E-02
         0.26927E-02
         0.26927E-02
         0.26927E-02
         0.26927E-02
         0.26927E-02
         0.26927E-02
         0.26927E-02
         0.26927E-02
         0.26927E-02
         0.26927E-02
         0.26927E-02
         0.26927E-02
         0.26927E-02
         0.26927E-02
         0.26927E-02
         0.26927E-02
         0.26927E-02
         0.26927E-02
         0.26927E-02
         0.26927E-02
         0.26927E-02
         0.26927E-02
         0.26927E-02
         0.26927E-02
         0.26927E-02
         0.26927E-02
         0.26927E-02
         0.26927E-02
         0.26927E-02
         0.26927E-02
         0.26927E-02
         0.26927E-02
         0.26927E-02
         0.26927E-02
         0.26927E-02
         0.26927E-02
         0.26927E-02
         0.26927E-02
         0.26927E-02
         0.26927E-02
         0.26927E-02
         0.26927E-02
         0.26927E-02
         0.26927E-02
         0.26927E-02
         0.26927E-02
         0.26927E-02
         0.26927E-02
         0.26927E-02
         0.26927E-02
         0.26927E-02
         0.26927E-02
         0.26927E-02
         0.26927E-02
         0.26927E-02
         0.26927E-02
         0.26927E-02
         0.26927E-02
         0.26927E-02
         0.26927E-02
         0.26927E-02
         0.26927E-02
         0.26927E-02
         0.26927E-02
         0.26927E-02
         0.26927E-02
         0.26927E-02
         0.26927E-02
         0.26927E-02
         0.26927E-02
         0.26927E-02
         0.26927E-02
         0.26927E-02
         0.26927E-02
         0.26927E-02
         0.26927E-02
         0.26927E-02
         0.26927E-02
         0.26927E-02
         0.26927E-02
         0.26927E-02
         0.26927E-02
         0.26927E-02
         0.26927E-02
         0.26927E-02
         0.26927E-02
         0.26927E-02
         0.26927E-02
         0.26927E-02
         0.26927E-02
         0.26927E-02
         0.26927E-02
         0.26927E-02
         0.26927E-02
         0.26927E-02
         0.26927E-02
         0.26927E-02
         0.26927E-02
         0.26927E-02
         0.26927E-02
         0.26927E-02
         0.26927E-02
         0.26927E-02
         0.26927E-02
         0.26927E-02
         0.26927E-02
         0.26927E-02
         0.26927E-02
         0.26927E-02
         0.26927E-02
         0.26927E-02
         0.26927E-02
         0.26927E-02
         0.26927E-02
         0.26927E-02
         0.26927E-02
         0.26927E-02
         0.26927E-02
         0.26927E-02
         0.26927E-02
         0.26927E-02
         0.26927E-02
         0.26927E-02
         0.26927E-02
         0.26927E-02
         0.26927E-02
         0.26927E-02
         0.26927E-02
         0.26927E-02
         0.26927E-02
         0.26927E-02
         0.26927E-02
         0.26927E-02
         0.26927E-02
         0.26927E-02
         0.26927E-02
         0.26927E-02
         0.26927E-02
         0.26927E-02
         0.26927E-02
         0.26927E-02
         0.26927E-02
         0.26927E-02
         0.26927E-02
         0.26927E-02
         0.26927E-02
         0.26927E-02
         0.26927E-02
         0.26927E-02
         0.26927E-02
         0.26927E-02
         0.26927E-02
         0.26927E-02
         0.26927E-02
         0.26927E-02
         0.26927E-02
         0.26927E-02
         0.26927E-02
         0.26927E-02
         0.26927E-02
         0.26927E-02
         0.26927E-02
         0.26927E-02
         0.26927E-02
         0.26927E-02
         0.26927E-02
         0.26927E-02
         0.26927E-02
         0.26927E-02
         0.26927E-02
         0.26927E-02
         0.26927E-02
         0.26927E-02
         0.26927E-02
         0.26927E-02
         0.26927E-02
         0.26927E-02
         0.26927E-02
         0.26927E-02
         0.26927E-02
         0.26927E-02
         0.26927E-02
         0.26927E-02
         0.26927E-02
         0.26927E-02
         0.26927E-02
         0.26927E-02
         0.26927E-02
         0.26927E-02
         0.26927E-02
         0.26927E-02
         0.26927E-02
         0.26927E-02
         0.26927E-02
         0.26927E-02
         0.26927E-02
         0.26927E-02
         0.26927E-02
         0.26927E-02
         0.26927E-02
         0.26927E-02
         0.26927E-02
         0.26927E-02
         0.26927E-02
         0.26927E-02
         0.26927E-02
         0.26927E-02
         0.26927E-02
         0.26927E-02
         0.26927E-02
         0.26927E-02
         0.26927E-02
         0.26927E-02
         0.26927E-02
         0.26927E-02
         0.26927E-02
         0.26927E-02
         0.26927E-02
         0.26927E-02
         0.26927E-02
         0.26927E-02
         0.26927E-02
         0.26927E-02
         0.26927E-02
         0.26927E-02
         0.26927E-02
         0.26927E-02
         0.26927E-02
         0.26927E-02
         0.26927E-02
         0.26927E-02
         0.26927E-02
         0.26927E-02
         0.26927E-02
         0.26927E-02
         0.26927E-02
         0.26927E-02
         0.26927E-02
         0.26927E-02
         0.26927E-02
         0.26927E-02
         0.26927E-02
         0.26927E-02
         0.26927E-02
         0.26927E-02
         0.26927E-02
         0.26927E-02
         0.26927E-02
         0.26927E-02
         0.26927E-02
         0.26927E-02
         0.26927E-02
         0.26927E-02
         0.26927E-02
         0.26927E-02
         0.26927E-02
         0.26927E-02
         0.26927E-02
         0.26927E-02
         0.26927E-02
         0.26927E-02
         0.26927E-02
         0.26927E-02
         0.26927E-02
         0.26927E-02
         0.26927E-02
         0.26927E-02
         0.26927E-02
         0.26927E-02
         0.26927E-02
         0.26927E-02
         0.26927E-02
         0.26927E-02
         0.26927E-02
         0.26927E-02
         0.26927E-02
         0.26927E-02
         0.26927E-02
         0.26927E-02
         0.26927E-02
         0.26927E-02
         0.26927E-02
         0.26927E-02
         0.26927E-02
         0.26927E-02
         0.26927E-02
         0.26927E-02
         0.26927E-02
         0.26927E-02
         0.26927E-02
         0.26927E-02
         0.26927E-02
         0.26927E-02
         0.26927E-02
         0.26927E-02
         0.26927E-02
         0.26927E-02
         0.26927E-02
         0.26927E-02
         0.26927E-02
         0.26927E-02
         0.26927E-02
         0.26927E-02
         0.26927E-02
         0.26927E-02
         0.26927E-02
         0.26927E-02
         0.26927E-02
         0.26927E-02
         0.26927E-02
         0.26927E-02
         0.26927E-02
         0.26927E-02
         0.26927E-02
         0.26927E-02
         0.26927E-02
         0.26927E-02
         0.26927E-02
         0.26927E-02
         0.26927E-02
         0.26927E-02
         0.26927E-02
         0.26927E-02
         0.26927E-02
         0.26927E-02
         0.26927E-02
         0.26927E-02
         0.26927E-02
         0.26927E-02
         0.26927E-02
         0.26927E-02
         0.26927E-02
         0.26927E-02
         0.26927E-02
         0.26927E-02
         0.26927E-02
         0.26927E-02
         0.26927E-02
         0.26927E-02
         0.26927E-02
         0.26927E-02
         0.26927E-02
         0.26927E-02
         0.26927E-02
         0.26927E-02
         0.26927E-02
         0.26927E-02
         0.26927E-02
         0.26927E-02
         0.26927E-02
         0.26927E-02
         0.26927E-02
         0.26927E-02
         0.26927E-02
         0.26927E-02
         0.26927E-02
         0.26927E-02
         0.26927E-02
         0.26927E-02
         0.26927E-02
         0.26927E-02
         0.26927E-02
         0.26927E-02
         0.26927E-02
         0.26927E-02
         0.26927E-02
         0.26927E-02
         0.26927E-02
         0.26927E-02
         0.26927E-02
         0.26927E-02
         0.26927E-02
         0.26927E-02
         0.26927E-02
         0.26927E-02
         0.26927E-02
         0.26927E-02
         0.26927E-02
         0.26927E-02
         0.26927E-02
         0.26927E-02
         0.26927E-02
         0.26927E-02
         0.26927E-02
         0.26927E-02
         0.26927E-02
         0.26927E-02
         0.26927E-02
         0.26927E-02
         0.26927E-02
         0.26927E-02
         0.26927E-02
         0.26927E-02
         0.26927E-02
         0.26927E-02
         0.26927E-02
         0.26927E-02
         0.26927E-02
         0.26927E-02
         0.26927E-02
         0.26927E-02
         0.26927E-02
         0.26927E-02
         0.26927E-02
         0.26927E-02
         0.26927E-02
         0.26927E-02
         0.26927E-02
         0.26927E-02
         0.26927E-02
         0.26927E-02
         0.26927E-02
         0.26927E-02
         0.26927E-02
         0.26927E-02
         0.26927E-02
         0.26927E-02
         0.26927E-02
         0.26927E-02
         0.26927E-02
         0.26927E-02
         0.26927E-02
         0.26927E-02
         0.26927E-02
         0.26927E-02
         0.26927E-02
         0.26927E-02
         0.26927E-02
         0.26927E-02
         0.26927E-02
         0.26927E-02
         0.26927E-02
         0.26927E-02
         0.26927E-02
         0.26927E-02
         0.26927E-02
         0.26927E-02
         0.26927E-02
         0.26927E-02
         0.26927E-02
         0.26927E-02
         0.26927E-02
         0.26927E-02
         0.26927E-02
         0.26927E-02
         0.26927E-02
         0.26927E-02
         0.26927E-02
         0.26927E-02
         0.26927E-02
         0.26927E-02
         0.26927E-02
         0.26927E-02
         0.26927E-02
         0.26927E-02
         0.26927E-02
         0.26927E-02
         0.26927E-02
         0.26927E-02
         0.26927E-02
         0.26927E-02
         0.26927E-02
         0.26927E-02
         0.26927E-02
         0.26927E-02
         0.26927E-02
         0.26927E-02
         0.26927E-02
         0.26927E-02
         0.26927E-02
         0.26927E-02
         0.26927E-02
         0.26927E-02
         0.26927E-02
         0.26927E-02
         0.26927E-02
         0.26927E-02
         0.26927E-02
         0.26927E-02
         0.26927E-02
         0.26927E-02
         0.26927E-02
         0.26927E-02
         0.26927E-02
         0.26927E-02
         0.26927E-02
         0.26927E-02
         0.26927E-02
         0.26927E-02
         0.26927E-02
         0.26927E-02
         0.26927E-02
         0.26927E-02
         0.26927E-02
         0.26927E-02
         0.26927E-02
         0.26927E-02
         0.26927E-02
         0.26927E-02
         0.26927E-02
         0.26927E-02
         0.26927E-02
         0.26927E-02
         0.26927E-02
         0.26927E-02
         0.26927E-02
         0.26927E-02
         0.26927E-02
         0.26927E-02
         0.26927E-02
         0.26927E-02
         0.26927E-02
         0.26927E-02
         0.26927E-02
         0.26927E-02
         0.26927E-02
         0.26927E-02
         0.26927E-02
         0.26927E-02
         0.26927E-02
         0.26927E-02
         0.26927E-02
         0.26927E-02
         0.26927E-02
         0.26927E-02
         0.26927E-02
         0.26927E-02
         0.26927E-02
         0.26927E-02
         0.26927E-02
         0.26927E-02
         0.26927E-02
         0.26927E-02
         0.26927E-02
         0.26927E-02
         0.26927E-02
         0.26927E-02
         0.26927E-02
         0.26927E-02
         0.26927E-02
         0.26927E-02
         0.26927E-02
         0.26927E-02
         0.26927E-02
         0.26927E-02
         0.26927E-02
         0.26927E-02
         0.26927E-02
         0.26927E-02
         0.26927E-02
         0.26927E-02
         0.26927E-02
         0.26927E-02
         0.26927E-02
         0.26927E-02
         0.26927E-02
         0.26927E-02
         0.26927E-02
         0.26927E-02
         0.26927E-02
         0.26927E-02
         0.26927E-02
         0.26927E-02
         0.26927E-02
         0.26927E-02
         0.26927E-02
         0.26927E-02
         0.26927E-02
         0.26927E-02
         0.26927E-02
         0.26927E-02
         0.26927E-02
         0.26927E-02
         0.26927E-02
         0.26927E-02
         0.26927E-02
         0.26927E-02
         0.26927E-02
         0.26927E-02
         0.26927E-02
         0.26927E-02
         0.26927E-02
         0.26927E-02
         0.26927E-02
         0.26927E-02
         0.26927E-02
         0.26927E-02
         0.26927E-02
         0.26927E-02
         0.26927E-02
         0.26927E-02
         0.26927E-02
         0.26927E-02
         0.26927E-02
         0.26927E-02
         0.26927E-02
         0.26927E-02
         0.26927E-02
         0.26927E-02
         0.26927E-02
         0.26927E-02
         0.26927E-02
         0.26927E-02
         0.26927E-02
         0.26927E-02
         0.26927E-02
         0.26927E-02
         0.26927E-02
         0.26927E-02
         0.26927E-02
         0.26927E-02
         0.26927E-02
         0.26927E-02
         0.26927E-02
         0.26927E-02
         0.26927E-02
         0.26927E-02
         0.26927E-02
         0.26927E-02
         0.26927E-02
         0.26927E-02
         0.26927E-02
         0.26927E-02
         0.26927E-02
         0.26927E-02
         0.26927E-02
         0.26927E-02
         0.26927E-02
         0.26927E-02
         0.26927E-02
         0.26927E-02
         0.26927E-02
         0.26927E-02
         0.26927E-02
         0.26927E-02
         0.26927E-02
         0.26927E-02
         0.26927E-02
         0.26927E-02
         0.26927E-02
         0.26927E-02
         0.26927E-02
         0.26927E-02
         0.26927E-02
         0.26927E-02
         0.26927E-02
         0.26927E-02
         0.26927E-02
         0.26927E-02
         0.26927E-02
         0.26927E-02
         0.26927E-02
         0.26927E-02
         0.26927E-02
         0.26927E-02
         0.26927E-02
         0.26927E-02
         0.26927E-02
         0.26927E-02
         0.26927E-02
         0.26927E-02
         0.26927E-02
         0.26927E-02
         0.26927E-02
         0.26927E-02
         0.26927E-02
         0.26927E-02
         0.26927E-02
         0.26927E-02
         0.26927E-02
         0.26927E-02
         0.26927E-02
         0.26927E-02
         0.26927E-02
         0.26927E-02
         0.26927E-02
         0.26927E-02
         0.26927E-02
         0.26927E-02
         0.26927E-02
         0.26927E-02
         0.26927E-02
         0.26927E-02
         0.26927E-02
         0.26927E-02
         0.26927E-02
         0.26927E-02
         0.26927E-02
         0.26927E-02
         0.26927E-02
         0.26927E-02
         0.26927E-02
         0.26927E-02
         0.26927E-02
         0.26927E-02
         0.26927E-02
         0.26927E-02
         0.26927E-02
         0.26927E-02
         0.26927E-02
         0.26927E-02
         0.26927E-02
         0.26927E-02
         0.26927E-02
         0.26927E-02
         0.26927E-02
         0.26927E-02
         0.26927E-02
         0.26927E-02
         0.26927E-02
         0.26927E-02
         0.26927E-02
         0.26927E-02
         0.26927E-02
         0.26927E-02
         0.26927E-02
         0.26927E-02
         0.26927E-02
         0.26927E-02
         0.26927E-02
         0.26927E-02
         0.26927E-02
         0.26927E-02
         0.26927E-02
         0.26927E-02
         0.26927E-02
         0.26927E-02
         0.26927E-02
         0.26927E-02
         0.26927E-02
         0.26927E-02
         0.26927E-02
         0.26927E-02
         0.26927E-02
         0.26927E-02
         0.26927E-02
         0.26927E-02
         0.26927E-02
         0.26927E-02
         0.26927E-02
         0.26927E-02
         0.26927E-02
         0.26927E-02
         0.26927E-02
         0.26927E-02
         0.26927E-02
         0.26927E-02
         0.26927E-02
         0.26927E-02
         0.26927E-02
         0.26927E-02
         0.26927E-02
         0.26927E-02
         0.26927E-02
         0.26927E-02
         0.26927E-02
         0.26927E-02
         0.26927E-02
         0.26927E-02
         0.26927E-02
         0.26927E-02
         0.26927E-02
         0.26927E-02
         0.26927E-02
         0.26927E-02
         0.26927E-02
         0.26927E-02
         0.26927E-02
         0.26927E-02
         0.26927E-02
         0.26927E-02
         0.26927E-02
         0.26927E-02
         0.26927E-02
         0.26927E-02
         0.26927E-02
         0.26927E-02
         0.26927E-02
         0.26927E-02
         0.26927E-02
         0.26927E-02
         0.26927E-02
         0.26927E-02
         0.26927E-02
         0.26927E-02
         0.26927E-02
         0.26927E-02
         0.26927E-02
         0.26927E-02
         0.26927E-02
         0.26927E-02
         0.26927E-02
         0.26927E-02
         0.26927E-02
         0.26927E-02
         0.26927E-02
         0.26927E-02
         0.26927E-02
         0.26927E-02
         0.26927E-02
         0.26927E-02
         0.26927E-02
         0.26927E-02
         0.26927E-02
         0.26927E-02
         0.26927E-02
         0.26927E-02
         0.26927E-02
         0.26927E-02
         0.26927E-02
         0.26927E-02
         0.26927E-02
         0.26927E-02
         0.26927E-02
         0.26927E-02
         0.26927E-02
         0.26927E-02
         0.26927E-02
         0.26927E-02
         0.26927E-02
         0.26927E-02
         0.26927E-02
         0.26927E-02
         0.26927E-02
         0.26927E-02
         0.26927E-02
         0.26927E-02
         0.26927E-02
         0.26927E-02
         0.26927E-02
         0.26927E-02
         0.26927E-02
         0.26927E-02
         0.26927E-02
         0.26927E-02
         0.26927E-02
         0.26927E-02
         0.26927E-02
         0.26927E-02
         0.26927E-02
         0.26927E-02
         0.26927E-02
         0.26927E-02
         0.26927E-02
         0.26927E-02
         0.26927E-02
         0.26927E-02
         0.26927E-02
         0.26927E-02
         0.26927E-02
         0.26927E-02
         0.26927E-02
         0.26927E-02
         0.26927E-02
         0.26927E-02
         0.26927E-02
         0.26927E-02
         0.26927E-02
         0.26927E-02
         0.26927E-02
         0.26927E-02
         0.26927E-02
         0.26927E-02
         0.26927E-02
         0.26927E-02
         0.26927E-02
         0.26927E-02
         0.26927E-02
         0.26927E-02
         0.26927E-02
         0.26927E-02
         0.26927E-02
         0.26927E-02
         0.26927E-02
         0.26927E-02
         0.26927E-02
         0.26927E-02
         0.26927E-02
         0.26927E-02
         0.26927E-02
         0.26927E-02
         0.26927E-02
         0.26927E-02
         0.26927E-02
         0.26927E-02
         0.26927E-02
         0.26927E-02
         0.26927E-02
         0.26927E-02
         0.26927E-02
         0.26927E-02
         0.26927E-02
         0.26927E-02
         0.26927E-02
         0.26927E-02
         0.26927E-02
         0.26927E-02
         0.26927E-02
         0.26927E-02
         0.26927E-02
         0.26927E-02
         0.26927E-02
         0.26927E-02
         0.26927E-02
         0.26927E-02
         0.26927E-02
         0.26927E-02
         0.26927E-02
         0.26927E-02
         0.26927E-02
         0.26927E-02
         0.26927E-02
         0.26927E-02
         0.26927E-02
         0.26927E-02
         0.26927E-02
         0.26927E-02
         0.26927E-02
         0.26927E-02
         0.26927E-02
         0.26927E-02
         0.26927E-02
         0.26927E-02
         0.26927E-02
         0.26927E-02
         0.26927E-02
         0.26927E-02
         0.26927E-02
         0.26927E-02
         0.26927E-02
         0.26927E-02
         0.26927E-02
         0.26927E-02
         0.26927E-02
         0.26927E-02
         0.26927E-02
         0.26927E-02
         0.26927E-02
         0.26927E-02
         0.26927E-02
         0.26927E-02
         0.26927E-02
         0.26927E-02
         0.26927E-02
         0.26927E-02
         0.26927E-02
         0.26927E-02
         0.26927E-02
         0.26927E-02
         0.26927E-02
         0.26927E-02
         0.26927E-02
         0.26927E-02
         0.26927E-02
         0.26927E-02
         0.26927E-02
         0.26927E-02
         0.26927E-02
         0.26927E-02
         0.26927E-02
         0.26927E-02
         0.26927E-02
         0.26927E-02
         0.26927E-02
         0.26927E-02
         0.26927E-02
         0.26927E-02
         0.26927E-02
         0.26927E-02
         0.26927E-02
         0.26927E-02
         0.26927E-02
         0.26927E-02
         0.26927E-02
         0.26927E-02
         0.26927E-02
         0.26927E-02
         0.26927E-02
         0.26927E-02
         0.26927E-02
         0.26927E-02
         0.26927E-02
         0.26927E-02
         0.26927E-02
         0.26927E-02
         0.26927E-02
         0.26927E-02
         0.26927E-02
         0.26927E-02
         0.26927E-02
         0.26927E-02
         0.26927E-02
         0.26927E-02
         0.26927E-02
         0.26927E-02
         0.26927E-02
         0.26927E-02
         0.26927E-02
         0.26927E-02
         0.26927E-02
         0.26927E-02
         0.26927E-02
         0.26927E-02
         0.26927E-02
         0.26927E-02
         0.26927E-02
         0.26927E-02
         0.26927E-02
         0.26927E-02
         0.26927E-02
         0.26927E-02
         0.26927E-02
         0.26927E-02
         0.26927E-02
         0.26927E-02
         0.26927E-02
         0.26927E-02
         0.26927E-02
         0.26927E-02
         0.26927E-02
         0.26927E-02
         0.26927E-02
         0.26927E-02
         0.26927E-02
         0.26927E-02
         0.26927E-02
         0.26927E-02
         0.26927E-02
         0.26927E-02
         0.26927E-02
         0.26927E-02
         0.26927E-02
         0.26927E-02
         0.26927E-02
         0.26927E-02
         0.26927E-02
         0.26927E-02
         0.26927E-02
         0.26927E-02
         0.26927E-02
         0.26927E-02
         0.26927E-02
         0.26927E-02
         0.26927E-02
         0.26927E-02
         0.26927E-02
         0.26927E-02
         0.26927E-02
         0.26927E-02
         0.26927E-02
         0.26927E-02
         0.26927E-02
         0.26927E-02
         0.26927E-02
         0.26927E-02
         0.26927E-02
         0.26927E-02
         0.26927E-02
         0.26927E-02
         0.26927E-02
         0.26927E-02
         0.26927E-02
         0.26927E-02
         0.26927E-02
         0.26927E-02
         0.26927E-02
         0.26927E-02
         0.26927E-02
         0.26927E-02
         0.26927E-02
         0.26927E-02
         0.26927E-02
         0.26927E-02
         0.26927E-02
         0.26927E-02
         0.26927E-02
         0.26927E-02
         0.26927E-02
         0.26927E-02
         0.26927E-02
         0.26927E-02
         0.26927E-02
         0.26927E-02
         0.26927E-02
         0.26927E-02
         0.26927E-02
         0.26927E-02
         0.26927E-02
         0.26927E-02
         0.26927E-02
         0.26927E-02
         0.26927E-02
         0.26927E-02
         0.26927E-02
         0.26927E-02
         0.26927E-02
         0.26927E-02
         0.26927E-02
         0.26927E-02
         0.26927E-02
         0.26927E-02
         0.26927E-02
         0.26927E-02
         0.26927E-02
         0.26927E-02
         0.26927E-02
         0.26927E-02
         0.26927E-02
         0.26927E-02
         0.26927E-02
         0.26927E-02
         0.26927E-02
         0.26927E-02
         0.26927E-02
         0.26927E-02
         0.26927E-02
         0.26927E-02
         0.26927E-02
         0.26927E-02
         0.26927E-02
         0.26927E-02
         0.26927E-02
         0.26927E-02
         0.26927E-02
         0.26927E-02
         0.26927E-02
         0.26927E-02
         0.26927E-02
         0.26927E-02
         0.26927E-02
         0.26927E-02
         0.26927E-02
         0.26927E-02
         0.26927E-02
         0.26927E-02
         0.26927E-02
         0.26927E-02
         0.26927E-02
         0.26927E-02
         0.26927E-02
         0.26927E-02
         0.26927E-02
         0.26927E-02
         0.26927E-02
         0.26927E-02
         0.26927E-02
         0.26927E-02
         0.26927E-02
         0.26927E-02
         0.26927E-02
         0.26927E-02
         0.26927E-02
         0.26927E-02
         0.26927E-02
         0.26927E-02
         0.26927E-02
         0.26927E-02
         0.26927E-02
         0.26927E-02
         0.26927E-02
         0.26927E-02
         0.26927E-02
         0.26927E-02
         0.26927E-02
         0.26927E-02
         0.26927E-02
         0.26927E-02
         0.26927E-02
         0.26927E-02
         0.26927E-02
         0.26927E-02
         0.26927E-02
         0.26927E-02
         0.26927E-02
         0.26927E-02
         0.26927E-02
         0.26927E-02
         0.26927E-02
         0.26927E-02
         0.26927E-02
         0.26927E-02
         0.26927E-02
         0.26927E-02
         0.26927E-02
         0.26927E-02
         0.26927E-02
         0.26927E-02
         0.26927E-02
         0.26927E-02
         0.26927E-02
         0.26927E-02
         0.26927E-02
         0.26927E-02
         0.26927E-02
         0.26927E-02
         0.26927E-02
         0.26927E-02
         0.26927E-02
         0.26927E-02
         0.26927E-02
         0.26927E-02
         0.26927E-02
         0.26927E-02
         0.26927E-02
         0.26927E-02
         0.26927E-02
         0.26927E-02
         0.26927E-02
         0.26927E-02
         0.26927E-02
         0.26927E-02
         0.26927E-02
         0.26927E-02
         0.26927E-02
         0.26927E-02
         0.26927E-02
         0.26927E-02
         0.26927E-02
         0.26928E-02
         0.26928E-02
         0.26928E-02
         0.26928E-02
         0.26928E-02
         0.26928E-02
         0.26928E-02
         0.26928E-02
         0.26928E-02
         0.26928E-02
         0.26928E-02
         0.26928E-02
         0.26928E-02
         0.26928E-02
         0.26928E-02
         0.26928E-02
         0.26928E-02
         0.26928E-02
         0.26928E-02
         0.26928E-02
         0.26928E-02
         0.26928E-02
         0.26928E-02
         0.26928E-02
         0.26928E-02
         0.26928E-02
         0.26928E-02
         0.26928E-02
         0.26928E-02
         0.26928E-02
         0.26928E-02
         0.26928E-02
         0.26928E-02
         0.26928E-02
         0.26928E-02
         0.26928E-02
         0.26928E-02
         0.26928E-02
         0.26928E-02
         0.26928E-02
         0.26928E-02
         0.26928E-02
         0.26928E-02
         0.26928E-02
         0.26928E-02
         0.26928E-02
         0.26928E-02
         0.26928E-02
         0.26928E-02
         0.26928E-02
         0.26928E-02
         0.26928E-02
         0.26928E-02
         0.26928E-02
         0.26928E-02
         0.26928E-02
         0.26928E-02
         0.26928E-02
         0.26928E-02
         0.26928E-02
         0.26928E-02
         0.26928E-02
         0.26928E-02
         0.26928E-02
         0.26928E-02
         0.26928E-02
         0.26928E-02
         0.26928E-02
         0.26928E-02
         0.26928E-02
         0.26928E-02
         0.26928E-02
         0.26928E-02
         0.26928E-02
         0.26928E-02
         0.26928E-02
         0.26928E-02
         0.26928E-02
         0.26928E-02
         0.26928E-02
         0.26928E-02
         0.26928E-02
         0.26928E-02
         0.26928E-02
         0.26928E-02
         0.26928E-02
         0.26928E-02
         0.26928E-02
         0.26928E-02
         0.26928E-02
         0.26928E-02
         0.26928E-02
         0.26928E-02
         0.26928E-02
         0.26928E-02
         0.26928E-02
         0.26928E-02
         0.26928E-02
         0.26928E-02
         0.26928E-02
         0.26928E-02
         0.26928E-02
         0.26928E-02
         0.26928E-02
         0.26928E-02
         0.26928E-02
         0.26928E-02
         0.26928E-02
         0.26928E-02
         0.26928E-02
         0.26928E-02
         0.26928E-02
         0.26928E-02
         0.26928E-02
         0.26928E-02
         0.26928E-02
         0.26928E-02
         0.26928E-02
         0.26928E-02
         0.26928E-02
         0.26928E-02
         0.26928E-02
         0.26928E-02
         0.26928E-02
         0.26928E-02
         0.26928E-02
         0.26928E-02
         0.26928E-02
         0.26928E-02
         0.26928E-02
         0.26928E-02
         0.26928E-02
         0.26928E-02
         0.26928E-02
         0.26928E-02
         0.26928E-02
         0.26928E-02
         0.26928E-02
         0.26928E-02
         0.26928E-02
         0.26928E-02
         0.26928E-02
         0.26928E-02
         0.26928E-02
         0.26928E-02
         0.26928E-02
         0.26928E-02
         0.26928E-02
         0.26928E-02
         0.26928E-02
         0.26928E-02
         0.26928E-02
         0.26928E-02
         0.26928E-02
         0.26928E-02
         0.26928E-02
  
SCALARS                   nodal_volume  double 1
LOOKUP_TABLE default
         0.91140E-09
         0.72412E-09
         0.77574E-09
         0.13316E-08
         0.45570E-09
         0.36211E-09
         0.38787E-09
         0.66566E-09
         0.71537E-09
         0.91211E-09
         0.35767E-09
         0.45600E-09
         0.51195E-09
         0.61532E-09
         0.25605E-09
         0.30776E-09
         0.10101E-08
         0.74536E-09
         0.50500E-09
         0.37281E-09
         0.30273E-09
         0.57012E-09
         0.62699E-09
         0.15144E-09
         0.28509E-09
         0.31352E-09
         0.51329E-09
         0.64933E-09
         0.25683E-09
         0.32471E-09
         0.12026E-08
         0.93909E-09
         0.11935E-08
         0.60122E-09
         0.46945E-09
         0.59663E-09
         0.70296E-09
         0.80270E-09
         0.35149E-09
         0.40134E-09
         0.75859E-09
         0.84013E-09
         0.37932E-09
         0.42007E-09
         0.64542E-09
         0.40086E-09
         0.32274E-09
         0.20045E-09
         0.76288E-09
         0.38153E-09
         0.63346E-09
         0.31675E-09
         0.66583E-09
         0.33318E-09
         0.68008E-09
         0.34022E-09
         0.58930E-09
         0.71738E-09
         0.29472E-09
         0.35874E-09
         0.90938E-09
         0.64302E-09
         0.45469E-09
         0.32154E-09
         0.10152E-08
         0.50747E-09
         0.88120E-09
         0.44042E-09
         0.40077E-09
         0.61872E-09
         0.20039E-09
         0.30940E-09
         0.70206E-09
         0.35106E-09
         0.74172E-09
         0.37089E-09
         0.71539E-09
         0.35770E-09
         0.56226E-09
         0.28113E-09
         0.35349E-09
         0.58452E-09
         0.17675E-09
         0.29229E-09
         0.77354E-09
         0.38679E-09
         0.62469E-09
         0.31238E-09
         0.54957E-09
         0.27483E-09
         0.36009E-09
         0.61365E-09
         0.18007E-09
         0.30685E-09
         0.83268E-09
         0.41635E-09
         0.87287E-09
         0.43642E-09
         0.70438E-09
         0.35217E-09
         0.43365E-09
         0.74413E-09
         0.21683E-09
         0.37198E-09
         0.27660E-09
         0.35144E-09
         0.13833E-09
         0.17573E-09
         0.32921E-09
         0.16465E-09
         0.38764E-09
         0.19382E-09
         0.37797E-09
         0.18897E-09
         0.36707E-09
         0.18352E-09
         0.39112E-09
         0.19552E-09
         0.41268E-09
         0.20627E-09
         0.38876E-09
         0.19433E-09
         0.30402E-09
         0.15200E-09
         0.24796E-09
         0.12398E-09
         0.31999E-09
         0.16000E-09
         0.42608E-09
         0.21303E-09
         0.46805E-09
         0.23401E-09
         0.44933E-09
         0.22466E-09
         0.40550E-09
         0.20276E-09
         0.36826E-09
         0.18414E-09
         0.29911E-09
         0.14956E-09
         0.25178E-09
         0.12591E-09
         0.32888E-09
         0.16445E-09
         0.43529E-09
         0.21765E-09
         0.44963E-09
         0.22482E-09
         0.36384E-09
         0.18194E-09
         0.29543E-09
         0.14774E-09
         0.36126E-09
         0.18063E-09
         0.42771E-09
         0.21386E-09
         0.91143E-09
         0.72396E-09
         0.77579E-09
         0.13322E-08
         0.71547E-09
         0.91237E-09
         0.51167E-09
         0.61494E-09
         0.10105E-08
         0.74486E-09
         0.30244E-09
         0.57001E-09
         0.62694E-09
         0.51257E-09
         0.64918E-09
         0.12029E-08
         0.93950E-09
         0.11941E-08
         0.70298E-09
         0.80279E-09
         0.75855E-09
         0.84015E-09
         0.64535E-09
         0.40081E-09
         0.76254E-09
         0.63339E-09
         0.66483E-09
         0.67941E-09
         0.58904E-09
         0.71721E-09
         0.90946E-09
         0.64293E-09
         0.10157E-08
         0.88199E-09
         0.40076E-09
         0.61859E-09
         0.70195E-09
         0.74166E-09
         0.71543E-09
         0.56228E-09
         0.35349E-09
         0.58443E-09
         0.77349E-09
         0.62459E-09
         0.54943E-09
         0.35999E-09
         0.61359E-09
         0.83268E-09
         0.87299E-09
         0.70451E-09
         0.43366E-09
         0.74449E-09
         0.27651E-09
         0.35143E-09
         0.32904E-09
         0.38765E-09
         0.37805E-09
         0.36714E-09
         0.39129E-09
         0.41297E-09
         0.38899E-09
         0.30408E-09
         0.24798E-09
         0.31999E-09
         0.42613E-09
         0.46815E-09
         0.44938E-09
         0.40548E-09
         0.36823E-09
         0.29908E-09
         0.25174E-09
         0.32885E-09
         0.43527E-09
         0.44962E-09
         0.36376E-09
         0.29536E-09
         0.36130E-09
         0.42769E-09
         0.91151E-09
         0.72383E-09
         0.77587E-09
         0.13329E-08
         0.71560E-09
         0.91267E-09
         0.51142E-09
         0.61459E-09
         0.10109E-08
         0.74439E-09
         0.30216E-09
         0.56992E-09
         0.62691E-09
         0.51187E-09
         0.64906E-09
         0.12033E-08
         0.93995E-09
         0.11947E-08
         0.70302E-09
         0.80291E-09
         0.75853E-09
         0.84020E-09
         0.64530E-09
         0.40078E-09
         0.76223E-09
         0.63335E-09
         0.66385E-09
         0.67875E-09
         0.58880E-09
         0.71706E-09
         0.90957E-09
         0.64286E-09
         0.10162E-08
         0.88281E-09
         0.40076E-09
         0.61849E-09
         0.70188E-09
         0.74162E-09
         0.71550E-09
         0.56232E-09
         0.35350E-09
         0.58436E-09
         0.77347E-09
         0.62452E-09
         0.54931E-09
         0.35990E-09
         0.61355E-09
         0.83270E-09
         0.87315E-09
         0.70467E-09
         0.43368E-09
         0.74487E-09
         0.27643E-09
         0.35143E-09
         0.32889E-09
         0.38767E-09
         0.37814E-09
         0.36723E-09
         0.39147E-09
         0.41328E-09
         0.38923E-09
         0.30416E-09
         0.24800E-09
         0.32001E-09
         0.42620E-09
         0.46826E-09
         0.44944E-09
         0.40548E-09
         0.36821E-09
         0.29906E-09
         0.25171E-09
         0.32883E-09
         0.43527E-09
         0.44963E-09
         0.36369E-09
         0.29530E-09
         0.36135E-09
         0.42769E-09
         0.91156E-09
         0.72368E-09
         0.77594E-09
         0.13335E-08
         0.71571E-09
         0.91295E-09
         0.51115E-09
         0.61422E-09
         0.10112E-08
         0.74389E-09
         0.30187E-09
         0.56982E-09
         0.62686E-09
         0.51116E-09
         0.64892E-09
         0.12036E-08
         0.94038E-09
         0.11953E-08
         0.70304E-09
         0.80300E-09
         0.75850E-09
         0.84023E-09
         0.64523E-09
         0.40073E-09
         0.76190E-09
         0.63330E-09
         0.66285E-09
         0.67809E-09
         0.58855E-09
         0.71689E-09
         0.90966E-09
         0.64278E-09
         0.10168E-08
         0.88361E-09
         0.40076E-09
         0.61837E-09
         0.70178E-09
         0.74156E-09
         0.71554E-09
         0.56234E-09
         0.35350E-09
         0.58428E-09
         0.77343E-09
         0.62442E-09
         0.54918E-09
         0.35981E-09
         0.61349E-09
         0.83271E-09
         0.87328E-09
         0.70481E-09
         0.43369E-09
         0.74524E-09
         0.27634E-09
         0.35142E-09
         0.32873E-09
         0.38768E-09
         0.37823E-09
         0.36731E-09
         0.39163E-09
         0.41358E-09
         0.38945E-09
         0.30422E-09
         0.24802E-09
         0.32001E-09
         0.42625E-09
         0.46837E-09
         0.44949E-09
         0.40546E-09
         0.36819E-09
         0.29904E-09
         0.25167E-09
         0.32881E-09
         0.43526E-09
         0.44963E-09
         0.36362E-09
         0.29523E-09
         0.36139E-09
         0.42768E-09
         0.91161E-09
         0.72353E-09
         0.77600E-09
         0.13341E-08
         0.71583E-09
         0.91323E-09
         0.51088E-09
         0.61386E-09
         0.10116E-08
         0.74341E-09
         0.30158E-09
         0.56972E-09
         0.62682E-09
         0.51045E-09
         0.64879E-09
         0.12040E-08
         0.94081E-09
         0.11959E-08
         0.70307E-09
         0.80310E-09
         0.75847E-09
         0.84027E-09
         0.64517E-09
         0.40069E-09
         0.76158E-09
         0.63325E-09
         0.66186E-09
         0.67742E-09
         0.58831E-09
         0.71673E-09
         0.90975E-09
         0.64270E-09
         0.10173E-08
         0.88441E-09
         0.40075E-09
         0.61825E-09
         0.70169E-09
         0.74151E-09
         0.71559E-09
         0.56237E-09
         0.35350E-09
         0.58420E-09
         0.77339E-09
         0.62433E-09
         0.54905E-09
         0.35972E-09
         0.61344E-09
         0.83272E-09
         0.87341E-09
         0.70496E-09
         0.43370E-09
         0.74562E-09
         0.27626E-09
         0.35142E-09
         0.32857E-09
         0.38770E-09
         0.37832E-09
         0.36739E-09
         0.39181E-09
         0.41387E-09
         0.38968E-09
         0.30429E-09
         0.24804E-09
         0.32002E-09
         0.42631E-09
         0.46847E-09
         0.44954E-09
         0.40545E-09
         0.36816E-09
         0.29901E-09
         0.25163E-09
         0.32878E-09
         0.43525E-09
         0.44963E-09
         0.36354E-09
         0.29517E-09
         0.36144E-09
         0.42766E-09
         0.91167E-09
         0.72338E-09
         0.77607E-09
         0.13348E-08
         0.71594E-09
         0.91351E-09
         0.51062E-09
         0.61349E-09
         0.10119E-08
         0.74292E-09
         0.30129E-09
         0.56962E-09
         0.62678E-09
         0.50974E-09
         0.64865E-09
         0.12044E-08
         0.94125E-09
         0.11965E-08
         0.70310E-09
         0.80321E-09
         0.75844E-09
         0.84031E-09
         0.64511E-09
         0.40065E-09
         0.76125E-09
         0.63320E-09
         0.66087E-09
         0.67676E-09
         0.58806E-09
         0.71657E-09
         0.90984E-09
         0.64263E-09
         0.10179E-08
         0.88522E-09
         0.40075E-09
         0.61813E-09
         0.70160E-09
         0.74146E-09
         0.71564E-09
         0.56240E-09
         0.35350E-09
         0.58412E-09
         0.77336E-09
         0.62425E-09
         0.54892E-09
         0.35963E-09
         0.61339E-09
         0.83274E-09
         0.87355E-09
         0.70511E-09
         0.43371E-09
         0.74599E-09
         0.27618E-09
         0.35141E-09
         0.32841E-09
         0.38771E-09
         0.37841E-09
         0.36747E-09
         0.39198E-09
         0.41417E-09
         0.38992E-09
         0.30436E-09
         0.24806E-09
         0.32003E-09
         0.42637E-09
         0.46858E-09
         0.44960E-09
         0.40544E-09
         0.36814E-09
         0.29899E-09
         0.25159E-09
         0.32876E-09
         0.43525E-09
         0.44963E-09
         0.36347E-09
         0.29511E-09
         0.36148E-09
         0.42766E-09
         0.91171E-09
         0.72323E-09
         0.77613E-09
         0.13354E-08
         0.71606E-09
         0.91379E-09
         0.51035E-09
         0.61313E-09
         0.10123E-08
         0.74243E-09
         0.30101E-09
         0.56952E-09
         0.62674E-09
         0.50903E-09
         0.64851E-09
         0.12047E-08
         0.94167E-09
         0.11971E-08
         0.70312E-09
         0.80331E-09
         0.75840E-09
         0.84034E-09
         0.64504E-09
         0.40061E-09
         0.76092E-09
         0.63314E-09
         0.65988E-09
         0.67609E-09
         0.58781E-09
         0.71641E-09
         0.90993E-09
         0.64255E-09
         0.10184E-08
         0.88601E-09
         0.40075E-09
         0.61801E-09
         0.70151E-09
         0.74140E-09
         0.71569E-09
         0.56243E-09
         0.35350E-09
         0.58404E-09
         0.77332E-09
         0.62416E-09
         0.54879E-09
         0.35953E-09
         0.61334E-09
         0.83274E-09
         0.87368E-09
         0.70525E-09
         0.43372E-09
         0.74636E-09
         0.27609E-09
         0.35141E-09
         0.32825E-09
         0.38772E-09
         0.37849E-09
         0.36754E-09
         0.39215E-09
         0.41447E-09
         0.39014E-09
         0.30443E-09
         0.24808E-09
         0.32004E-09
         0.42642E-09
         0.46868E-09
         0.44965E-09
         0.40543E-09
         0.36812E-09
         0.29897E-09
         0.25155E-09
         0.32874E-09
         0.43524E-09
         0.44963E-09
         0.36340E-09
         0.29504E-09
         0.36153E-09
         0.42764E-09
         0.91176E-09
         0.72308E-09
         0.77620E-09
         0.13360E-08
         0.71617E-09
         0.91407E-09
         0.51008E-09
         0.61276E-09
         0.10126E-08
         0.74195E-09
         0.30072E-09
         0.56942E-09
         0.62670E-09
         0.50832E-09
         0.64838E-09
         0.12051E-08
         0.94210E-09
         0.11977E-08
         0.70314E-09
         0.80341E-09
         0.75837E-09
         0.84038E-09
         0.64498E-09
         0.40056E-09
         0.76060E-09
         0.63309E-09
         0.65888E-09
         0.67542E-09
         0.58756E-09
         0.71624E-09
         0.91002E-09
         0.64247E-09
         0.10189E-08
         0.88682E-09
         0.40074E-09
         0.61790E-09
         0.70142E-09
         0.74135E-09
         0.71574E-09
         0.56245E-09
         0.35351E-09
         0.58396E-09
         0.77328E-09
         0.62407E-09
         0.54866E-09
         0.35944E-09
         0.61329E-09
         0.83275E-09
         0.87382E-09
         0.70539E-09
         0.43373E-09
         0.74673E-09
         0.27601E-09
         0.35140E-09
         0.32809E-09
         0.38774E-09
         0.37858E-09
         0.36762E-09
         0.39232E-09
         0.41477E-09
         0.39037E-09
         0.30450E-09
         0.24810E-09
         0.32005E-09
         0.42648E-09
         0.46879E-09
         0.44970E-09
         0.40541E-09
         0.36809E-09
         0.29894E-09
         0.25151E-09
         0.32871E-09
         0.43523E-09
         0.44963E-09
         0.36333E-09
         0.29497E-09
         0.36157E-09
         0.42763E-09
         0.91182E-09
         0.72293E-09
         0.77627E-09
         0.13367E-08
         0.71629E-09
         0.91436E-09
         0.50982E-09
         0.61240E-09
         0.10130E-08
         0.74146E-09
         0.30043E-09
         0.56932E-09
         0.62666E-09
         0.50762E-09
         0.64825E-09
         0.12054E-08
         0.94253E-09
         0.11983E-08
         0.70317E-09
         0.80351E-09
         0.75834E-09
         0.84041E-09
         0.64491E-09
         0.40053E-09
         0.76028E-09
         0.63304E-09
         0.65790E-09
         0.67476E-09
         0.58731E-09
         0.71609E-09
         0.91012E-09
         0.64239E-09
         0.10195E-08
         0.88762E-09
         0.40074E-09
         0.61778E-09
         0.70133E-09
         0.74130E-09
         0.71579E-09
         0.56249E-09
         0.35351E-09
         0.58388E-09
         0.77324E-09
         0.62398E-09
         0.54853E-09
         0.35935E-09
         0.61324E-09
         0.83277E-09
         0.87396E-09
         0.70554E-09
         0.43375E-09
         0.74711E-09
         0.27592E-09
         0.35140E-09
         0.32793E-09
         0.38775E-09
         0.37867E-09
         0.36770E-09
         0.39249E-09
         0.41507E-09
         0.39061E-09
         0.30457E-09
         0.24812E-09
         0.32006E-09
         0.42654E-09
         0.46890E-09
         0.44975E-09
         0.40540E-09
         0.36807E-09
         0.29892E-09
         0.25148E-09
         0.32869E-09
         0.43522E-09
         0.44963E-09
         0.36325E-09
         0.29491E-09
         0.36162E-09
         0.42762E-09
         0.91187E-09
         0.72278E-09
         0.77633E-09
         0.13373E-08
         0.71640E-09
         0.91463E-09
         0.50955E-09
         0.61204E-09
         0.10134E-08
         0.74098E-09
         0.30015E-09
         0.56922E-09
         0.62662E-09
         0.50691E-09
         0.64811E-09
         0.12058E-08
         0.94296E-09
         0.11989E-08
         0.70320E-09
         0.80361E-09
         0.75831E-09
         0.84045E-09
         0.64485E-09
         0.40048E-09
         0.75995E-09
         0.63298E-09
         0.65690E-09
         0.67409E-09
         0.58706E-09
         0.71592E-09
         0.91020E-09
         0.64231E-09
         0.10200E-08
         0.88843E-09
         0.40074E-09
         0.61766E-09
         0.70124E-09
         0.74124E-09
         0.71584E-09
         0.56251E-09
         0.35351E-09
         0.58380E-09
         0.77320E-09
         0.62389E-09
         0.54840E-09
         0.35926E-09
         0.61318E-09
         0.83277E-09
         0.87409E-09
         0.70568E-09
         0.43376E-09
         0.74748E-09
         0.27584E-09
         0.35139E-09
         0.32777E-09
         0.38777E-09
         0.37876E-09
         0.36778E-09
         0.39266E-09
         0.41536E-09
         0.39084E-09
         0.30464E-09
         0.24814E-09
         0.32006E-09
         0.42659E-09
         0.46900E-09
         0.44980E-09
         0.40539E-09
         0.36805E-09
         0.29890E-09
         0.25144E-09
         0.32867E-09
         0.43521E-09
         0.44963E-09
         0.36318E-09
         0.29485E-09
         0.36166E-09
         0.42761E-09
         0.91192E-09
         0.72263E-09
         0.77640E-09
         0.13380E-08
         0.71652E-09
         0.91491E-09
         0.50928E-09
         0.61167E-09
         0.10137E-08
         0.74049E-09
         0.29986E-09
         0.56912E-09
         0.62657E-09
         0.50620E-09
         0.64797E-09
         0.12061E-08
         0.94339E-09
         0.11995E-08
         0.70322E-09
         0.80371E-09
         0.75827E-09
         0.84048E-09
         0.64478E-09
         0.40044E-09
         0.75962E-09
         0.63293E-09
         0.65591E-09
         0.67343E-09
         0.58681E-09
         0.71576E-09
         0.91029E-09
         0.64223E-09
         0.10205E-08
         0.88923E-09
         0.40073E-09
         0.61754E-09
         0.70114E-09
         0.74119E-09
         0.71588E-09
         0.56254E-09
         0.35351E-09
         0.58372E-09
         0.77316E-09
         0.62380E-09
         0.54827E-09
         0.35917E-09
         0.61313E-09
         0.83278E-09
         0.87422E-09
         0.70582E-09
         0.43377E-09
         0.74785E-09
         0.27575E-09
         0.35138E-09
         0.32761E-09
         0.38778E-09
         0.37885E-09
         0.36786E-09
         0.39283E-09
         0.41566E-09
         0.39107E-09
         0.30470E-09
         0.24816E-09
         0.32007E-09
         0.42665E-09
         0.46911E-09
         0.44985E-09
         0.40538E-09
         0.36802E-09
         0.29887E-09
         0.25140E-09
         0.32864E-09
         0.43520E-09
         0.44963E-09
         0.36310E-09
         0.29478E-09
         0.36170E-09
         0.42760E-09
         0.91198E-09
         0.72248E-09
         0.77646E-09
         0.13386E-08
         0.71663E-09
         0.91520E-09
         0.50901E-09
         0.61131E-09
         0.10141E-08
         0.74000E-09
         0.29957E-09
         0.56902E-09
         0.62653E-09
         0.50549E-09
         0.64784E-09
         0.12065E-08
         0.94382E-09
         0.12002E-08
         0.70325E-09
         0.80381E-09
         0.75824E-09
         0.84052E-09
         0.64472E-09
         0.40040E-09
         0.75929E-09
         0.63288E-09
         0.65492E-09
         0.67276E-09
         0.58657E-09
         0.71560E-09
         0.91038E-09
         0.64216E-09
         0.10211E-08
         0.89003E-09
         0.40073E-09
         0.61742E-09
         0.70105E-09
         0.74114E-09
         0.71593E-09
         0.56257E-09
         0.35351E-09
         0.58364E-09
         0.77313E-09
         0.62371E-09
         0.54814E-09
         0.35908E-09
         0.61308E-09
         0.83280E-09
         0.87436E-09
         0.70597E-09
         0.43378E-09
         0.74823E-09
         0.27567E-09
         0.35138E-09
         0.32745E-09
         0.38779E-09
         0.37893E-09
         0.36794E-09
         0.39300E-09
         0.41596E-09
         0.39130E-09
         0.30477E-09
         0.24818E-09
         0.32008E-09
         0.42671E-09
         0.46921E-09
         0.44991E-09
         0.40537E-09
         0.36800E-09
         0.29885E-09
         0.25136E-09
         0.32862E-09
         0.43520E-09
         0.44963E-09
         0.36303E-09
         0.29472E-09
         0.36175E-09
         0.42759E-09
         0.91203E-09
         0.72233E-09
         0.77653E-09
         0.13392E-08
         0.71675E-09
         0.91547E-09
         0.50875E-09
         0.61094E-09
         0.10144E-08
         0.73952E-09
         0.29928E-09
         0.56892E-09
         0.62649E-09
         0.50478E-09
         0.64770E-09
         0.12068E-08
         0.94424E-09
         0.12008E-08
         0.70327E-09
         0.80391E-09
         0.75821E-09
         0.84055E-09
         0.64465E-09
         0.40035E-09
         0.75896E-09
         0.63282E-09
         0.65393E-09
         0.67210E-09
         0.58632E-09
         0.71543E-09
         0.91047E-09
         0.64208E-09
         0.10216E-08
         0.89084E-09
         0.40073E-09
         0.61730E-09
         0.70096E-09
         0.74108E-09
         0.71598E-09
         0.56259E-09
         0.35351E-09
         0.58356E-09
         0.77309E-09
         0.62362E-09
         0.54801E-09
         0.35898E-09
         0.61303E-09
         0.83281E-09
         0.87449E-09
         0.70611E-09
         0.43379E-09
         0.74860E-09
         0.27558E-09
         0.35137E-09
         0.32729E-09
         0.38781E-09
         0.37902E-09
         0.36802E-09
         0.39317E-09
         0.41625E-09
         0.39153E-09
         0.30484E-09
         0.24820E-09
         0.32009E-09
         0.42677E-09
         0.46932E-09
         0.44996E-09
         0.40536E-09
         0.36798E-09
         0.29883E-09
         0.25132E-09
         0.32859E-09
         0.43519E-09
         0.44963E-09
         0.36296E-09
         0.29465E-09
         0.36179E-09
         0.42758E-09
         0.91208E-09
         0.72218E-09
         0.77659E-09
         0.13399E-08
         0.71686E-09
         0.91576E-09
         0.50848E-09
         0.61058E-09
         0.10148E-08
         0.73903E-09
         0.29900E-09
         0.56882E-09
         0.62645E-09
         0.50408E-09
         0.64757E-09
         0.12072E-08
         0.94467E-09
         0.12014E-08
         0.70330E-09
         0.80401E-09
         0.75818E-09
         0.84059E-09
         0.64459E-09
         0.40031E-09
         0.75864E-09
         0.63277E-09
         0.65294E-09
         0.67143E-09
         0.58607E-09
         0.71527E-09
         0.91057E-09
         0.64200E-09
         0.10221E-08
         0.89164E-09
         0.40072E-09
         0.61719E-09
         0.70087E-09
         0.74103E-09
         0.71603E-09
         0.56262E-09
         0.35352E-09
         0.58348E-09
         0.77305E-09
         0.62354E-09
         0.54788E-09
         0.35889E-09
         0.61298E-09
         0.83282E-09
         0.87463E-09
         0.70626E-09
         0.43380E-09
         0.74897E-09
         0.27550E-09
         0.35137E-09
         0.32713E-09
         0.38782E-09
         0.37911E-09
         0.36810E-09
         0.39334E-09
         0.41655E-09
         0.39176E-09
         0.30491E-09
         0.24822E-09
         0.32010E-09
         0.42682E-09
         0.46942E-09
         0.45001E-09
         0.40534E-09
         0.36796E-09
         0.29881E-09
         0.25128E-09
         0.32857E-09
         0.43518E-09
         0.44963E-09
         0.36288E-09
         0.29459E-09
         0.36184E-09
         0.42757E-09
         0.91214E-09
         0.72204E-09
         0.77666E-09
         0.13405E-08
         0.71698E-09
         0.91604E-09
         0.50822E-09
         0.61022E-09
         0.10151E-08
         0.73855E-09
         0.29871E-09
         0.56872E-09
         0.62641E-09
         0.50337E-09
         0.64743E-09
         0.12075E-08
         0.94510E-09
         0.12020E-08
         0.70333E-09
         0.80411E-09
         0.75815E-09
         0.84063E-09
         0.64453E-09
         0.40027E-09
         0.75831E-09
         0.63272E-09
         0.65196E-09
         0.67077E-09
         0.58582E-09
         0.71511E-09
         0.91066E-09
         0.64192E-09
         0.10227E-08
         0.89245E-09
         0.40072E-09
         0.61707E-09
         0.70078E-09
         0.74098E-09
         0.71608E-09
         0.56265E-09
         0.35352E-09
         0.58340E-09
         0.77301E-09
         0.62345E-09
         0.54775E-09
         0.35880E-09
         0.61293E-09
         0.83283E-09
         0.87476E-09
         0.70641E-09
         0.43382E-09
         0.74935E-09
         0.27541E-09
         0.35136E-09
         0.32697E-09
         0.38784E-09
         0.37920E-09
         0.36818E-09
         0.39352E-09
         0.41685E-09
         0.39199E-09
         0.30498E-09
         0.24824E-09
         0.32011E-09
         0.42688E-09
         0.46953E-09
         0.45007E-09
         0.40533E-09
         0.36793E-09
         0.29878E-09
         0.25124E-09
         0.32855E-09
         0.43517E-09
         0.44963E-09
         0.36281E-09
         0.29452E-09
         0.36188E-09
         0.42756E-09
         0.91219E-09
         0.72188E-09
         0.77672E-09
         0.13412E-08
         0.71709E-09
         0.91632E-09
         0.50795E-09
         0.60986E-09
         0.10155E-08
         0.73806E-09
         0.29842E-09
         0.56862E-09
         0.62636E-09
         0.50266E-09
         0.64730E-09
         0.12079E-08
         0.94552E-09
         0.12026E-08
         0.70335E-09
         0.80421E-09
         0.75811E-09
         0.84066E-09
         0.64446E-09
         0.40023E-09
         0.75798E-09
         0.63267E-09
         0.65096E-09
         0.67010E-09
         0.58557E-09
         0.71494E-09
         0.91074E-09
         0.64184E-09
         0.10232E-08
         0.89325E-09
         0.40072E-09
         0.61695E-09
         0.70069E-09
         0.74092E-09
         0.71612E-09
         0.56268E-09
         0.35352E-09
         0.58332E-09
         0.77297E-09
         0.62336E-09
         0.54762E-09
         0.35871E-09
         0.61287E-09
         0.83284E-09
         0.87489E-09
         0.70655E-09
         0.43383E-09
         0.74972E-09
         0.27533E-09
         0.35136E-09
         0.32681E-09
         0.38785E-09
         0.37929E-09
         0.36825E-09
         0.39369E-09
         0.41715E-09
         0.39222E-09
         0.30505E-09
         0.24826E-09
         0.32011E-09
         0.42694E-09
         0.46963E-09
         0.45011E-09
         0.40532E-09
         0.36791E-09
         0.29876E-09
         0.25120E-09
         0.32853E-09
         0.43516E-09
         0.44962E-09
         0.36274E-09
         0.29445E-09
         0.36192E-09
         0.42755E-09
         0.91224E-09
         0.72173E-09
         0.77679E-09
         0.13418E-08
         0.71720E-09
         0.91660E-09
         0.50768E-09
         0.60949E-09
         0.10158E-08
         0.73758E-09
         0.29814E-09
         0.56852E-09
         0.62632E-09
         0.50195E-09
         0.64716E-09
         0.12082E-08
         0.94595E-09
         0.12032E-08
         0.70337E-09
         0.80431E-09
         0.75808E-09
         0.84069E-09
         0.64440E-09
         0.40018E-09
         0.75766E-09
         0.63262E-09
         0.64998E-09
         0.66943E-09
         0.58532E-09
         0.71478E-09
         0.91083E-09
         0.64176E-09
         0.10238E-08
         0.89406E-09
         0.40071E-09
         0.61683E-09
         0.70059E-09
         0.74087E-09
         0.71617E-09
         0.56270E-09
         0.35352E-09
         0.58324E-09
         0.77294E-09
         0.62327E-09
         0.54749E-09
         0.35861E-09
         0.61282E-09
         0.83284E-09
         0.87503E-09
         0.70669E-09
         0.43384E-09
         0.75009E-09
         0.27524E-09
         0.35135E-09
         0.32665E-09
         0.38786E-09
         0.37937E-09
         0.36833E-09
         0.39386E-09
         0.41745E-09
         0.39245E-09
         0.30512E-09
         0.24828E-09
         0.32012E-09
         0.42699E-09
         0.46974E-09
         0.45017E-09
         0.40531E-09
         0.36788E-09
         0.29873E-09
         0.25117E-09
         0.32850E-09
         0.43515E-09
         0.44962E-09
         0.36266E-09
         0.29439E-09
         0.36197E-09
         0.42754E-09
         0.91230E-09
         0.72159E-09
         0.77686E-09
         0.13425E-08
         0.71732E-09
         0.91688E-09
         0.50742E-09
         0.60913E-09
         0.10162E-08
         0.73710E-09
         0.29785E-09
         0.56842E-09
         0.62628E-09
         0.50125E-09
         0.64703E-09
         0.12086E-08
         0.94638E-09
         0.12038E-08
         0.70340E-09
         0.80441E-09
         0.75805E-09
         0.84073E-09
         0.64433E-09
         0.40014E-09
         0.75733E-09
         0.63257E-09
         0.64899E-09
         0.66877E-09
         0.58508E-09
         0.71462E-09
         0.91093E-09
         0.64169E-09
         0.10243E-08
         0.89487E-09
         0.40071E-09
         0.61671E-09
         0.70051E-09
         0.74082E-09
         0.71622E-09
         0.56273E-09
         0.35352E-09
         0.58316E-09
         0.77290E-09
         0.62318E-09
         0.54737E-09
         0.35852E-09
         0.61277E-09
         0.83286E-09
         0.87517E-09
         0.70684E-09
         0.43385E-09
         0.75047E-09
         0.27516E-09
         0.35135E-09
         0.32649E-09
         0.38788E-09
         0.37946E-09
         0.36841E-09
         0.39403E-09
         0.41775E-09
         0.39268E-09
         0.30519E-09
         0.24830E-09
         0.32013E-09
         0.42705E-09
         0.46985E-09
         0.45022E-09
         0.40530E-09
         0.36786E-09
         0.29871E-09
         0.25113E-09
         0.32848E-09
         0.43515E-09
         0.44962E-09
         0.36259E-09
         0.29433E-09
         0.36201E-09
         0.42753E-09
         0.91235E-09
         0.72143E-09
         0.77692E-09
         0.13431E-08
         0.71743E-09
         0.91716E-09
         0.50715E-09
         0.60877E-09
         0.10165E-08
         0.73661E-09
         0.29757E-09
         0.56832E-09
         0.62624E-09
         0.50054E-09
         0.64689E-09
         0.12089E-08
         0.94680E-09
         0.12044E-08
         0.70342E-09
         0.80450E-09
         0.75802E-09
         0.84076E-09
         0.64427E-09
         0.40010E-09
         0.75700E-09
         0.63251E-09
         0.64800E-09
         0.66810E-09
         0.58482E-09
         0.71445E-09
         0.91101E-09
         0.64161E-09
         0.10248E-08
         0.89567E-09
         0.40071E-09
         0.61659E-09
         0.70041E-09
         0.74077E-09
         0.71627E-09
         0.56276E-09
         0.35352E-09
         0.58308E-09
         0.77286E-09
         0.62309E-09
         0.54723E-09
         0.35843E-09
         0.61272E-09
         0.83287E-09
         0.87530E-09
         0.70698E-09
         0.43386E-09
         0.75084E-09
         0.27507E-09
         0.35134E-09
         0.32633E-09
         0.38789E-09
         0.37955E-09
         0.36849E-09
         0.39420E-09
         0.41804E-09
         0.39291E-09
         0.30525E-09
         0.24832E-09
         0.32014E-09
         0.42711E-09
         0.46995E-09
         0.45027E-09
         0.40528E-09
         0.36784E-09
         0.29869E-09
         0.25109E-09
         0.32845E-09
         0.43514E-09
         0.44962E-09
         0.36252E-09
         0.29426E-09
         0.36206E-09
         0.42751E-09
         0.91240E-09
         0.72128E-09
         0.77698E-09
         0.13437E-08
         0.71755E-09
         0.91744E-09
         0.50688E-09
         0.60841E-09
         0.10169E-08
         0.73612E-09
         0.29728E-09
         0.56822E-09
         0.62619E-09
         0.49984E-09
         0.64676E-09
         0.12093E-08
         0.94723E-09
         0.12050E-08
         0.70345E-09
         0.80460E-09
         0.75798E-09
         0.84080E-09
         0.64420E-09
         0.40006E-09
         0.75667E-09
         0.63246E-09
         0.64701E-09
         0.66744E-09
         0.58457E-09
         0.71429E-09
         0.91110E-09
         0.64153E-09
         0.10254E-08
         0.89648E-09
         0.40070E-09
         0.61647E-09
         0.70032E-09
         0.74071E-09
         0.71632E-09
         0.56279E-09
         0.35353E-09
         0.58300E-09
         0.77282E-09
         0.62300E-09
         0.54710E-09
         0.35834E-09
         0.61266E-09
         0.83288E-09
         0.87543E-09
         0.70713E-09
         0.43387E-09
         0.75122E-09
         0.27499E-09
         0.35133E-09
         0.32617E-09
         0.38790E-09
         0.37964E-09
         0.36857E-09
         0.39437E-09
         0.41834E-09
         0.39314E-09
         0.30532E-09
         0.24834E-09
         0.32014E-09
         0.42716E-09
         0.47005E-09
         0.45032E-09
         0.40527E-09
         0.36781E-09
         0.29866E-09
         0.25105E-09
         0.32843E-09
         0.43513E-09
         0.44962E-09
         0.36244E-09
         0.29419E-09
         0.36210E-09
         0.42750E-09
         0.91246E-09
         0.72114E-09
         0.77705E-09
         0.13444E-08
         0.71767E-09
         0.91773E-09
         0.50662E-09
         0.60805E-09
         0.10173E-08
         0.73564E-09
         0.29700E-09
         0.56812E-09
         0.62616E-09
         0.49914E-09
         0.64663E-09
         0.12097E-08
         0.94766E-09
         0.12056E-08
         0.70348E-09
         0.80471E-09
         0.75796E-09
         0.84084E-09
         0.64414E-09
         0.40002E-09
         0.75635E-09
         0.63241E-09
         0.64603E-09
         0.66678E-09
         0.58433E-09
         0.71413E-09
         0.91120E-09
         0.64146E-09
         0.10259E-08
         0.89729E-09
         0.40070E-09
         0.61636E-09
         0.70023E-09
         0.74067E-09
         0.71637E-09
         0.56282E-09
         0.35353E-09
         0.58293E-09
         0.77279E-09
         0.62291E-09
         0.54698E-09
         0.35825E-09
         0.61261E-09
         0.83289E-09
         0.87557E-09
         0.70728E-09
         0.43389E-09
         0.75160E-09
         0.27491E-09
         0.35133E-09
         0.32601E-09
         0.38792E-09
         0.37972E-09
         0.36865E-09
         0.39454E-09
         0.41864E-09
         0.39337E-09
         0.30539E-09
         0.24836E-09
         0.32015E-09
         0.42722E-09
         0.47016E-09
         0.45038E-09
         0.40526E-09
         0.36779E-09
         0.29864E-09
         0.25101E-09
         0.32841E-09
         0.43512E-09
         0.44962E-09
         0.36237E-09
         0.29413E-09
         0.36215E-09
         0.42750E-09
         0.91249E-09
         0.72097E-09
         0.77710E-09
         0.13450E-08
         0.71777E-09
         0.91799E-09
         0.50634E-09
         0.60767E-09
         0.10176E-08
         0.73514E-09
         0.29670E-09
         0.56801E-09
         0.62610E-09
         0.49842E-09
         0.64648E-09
         0.12100E-08
         0.94806E-09
         0.12062E-08
         0.70349E-09
         0.80479E-09
         0.75791E-09
         0.84086E-09
         0.64406E-09
         0.39997E-09
         0.75600E-09
         0.63234E-09
         0.64503E-09
         0.66610E-09
         0.58407E-09
         0.71395E-09
         0.91127E-09
         0.64136E-09
         0.10264E-08
         0.89808E-09
         0.40069E-09
         0.61622E-09
         0.70012E-09
         0.74060E-09
         0.71641E-09
         0.56283E-09
         0.35352E-09
         0.58283E-09
         0.77273E-09
         0.62281E-09
         0.54684E-09
         0.35815E-09
         0.61255E-09
         0.83288E-09
         0.87569E-09
         0.70741E-09
         0.43389E-09
         0.75195E-09
         0.27482E-09
         0.35132E-09
         0.32584E-09
         0.38793E-09
         0.37980E-09
         0.36872E-09
         0.39470E-09
         0.41893E-09
         0.39360E-09
         0.30545E-09
         0.24837E-09
         0.32016E-09
         0.42727E-09
         0.47026E-09
         0.45042E-09
         0.40524E-09
         0.36776E-09
         0.29861E-09
         0.25097E-09
         0.32838E-09
         0.43510E-09
         0.44961E-09
         0.36229E-09
         0.29406E-09
         0.36218E-09
         0.42748E-09
         0.91256E-09
         0.72083E-09
         0.77718E-09
         0.13457E-08
         0.71789E-09
         0.91829E-09
         0.50608E-09
         0.60732E-09
         0.10180E-08
         0.73467E-09
         0.29642E-09
         0.56792E-09
         0.62607E-09
         0.49772E-09
         0.64636E-09
         0.12103E-08
         0.94850E-09
         0.12068E-08
         0.70352E-09
         0.80490E-09
         0.75789E-09
         0.84091E-09
         0.64401E-09
         0.39993E-09
         0.75569E-09
         0.63230E-09
         0.64405E-09
         0.66544E-09
         0.58382E-09
         0.71379E-09
         0.91137E-09
         0.64129E-09
         0.10270E-08
         0.89890E-09
         0.40069E-09
         0.61611E-09
         0.70004E-09
         0.74056E-09
         0.71646E-09
         0.56287E-09
         0.35353E-09
         0.58276E-09
         0.77271E-09
         0.62273E-09
         0.54672E-09
         0.35806E-09
         0.61251E-09
         0.83291E-09
         0.87583E-09
         0.70756E-09
         0.43391E-09
         0.75234E-09
         0.27474E-09
         0.35132E-09
         0.32569E-09
         0.38794E-09
         0.37990E-09
         0.36881E-09
         0.39488E-09
         0.41923E-09
         0.39383E-09
         0.30553E-09
         0.24840E-09
         0.32017E-09
         0.42734E-09
         0.47037E-09
         0.45048E-09
         0.40524E-09
         0.36774E-09
         0.29859E-09
         0.25093E-09
         0.32836E-09
         0.43510E-09
         0.44962E-09
         0.36222E-09
         0.29400E-09
         0.36223E-09
         0.42747E-09
         0.45631E-09
         0.36039E-09
         0.38862E-09
         0.67302E-09
         0.35899E-09
         0.45923E-09
         0.25298E-09
         0.30358E-09
         0.50909E-09
         0.36723E-09
         0.14815E-09
         0.28394E-09
         0.31303E-09
         0.24869E-09
         0.32316E-09
         0.60528E-09
         0.47437E-09
         0.60357E-09
         0.35178E-09
         0.40249E-09
         0.37895E-09
         0.42048E-09
         0.32200E-09
         0.19996E-09
         0.37777E-09
         0.31615E-09
         0.32179E-09
         0.33257E-09
         0.29186E-09
         0.35687E-09
         0.45572E-09
         0.32064E-09
         0.51365E-09
         0.44967E-09
         0.20035E-09
         0.30804E-09
         0.35001E-09
         0.37028E-09
         0.35826E-09
         0.28145E-09
         0.17677E-09
         0.29137E-09
         0.38636E-09
         0.31135E-09
         0.27333E-09
         0.17901E-09
         0.30625E-09
         0.41647E-09
         0.43797E-09
         0.35383E-09
         0.21697E-09
         0.37628E-09
         0.13735E-09
         0.17566E-09
         0.16281E-09
         0.19398E-09
         0.18998E-09
         0.18443E-09
         0.19749E-09
         0.20970E-09
         0.19698E-09
         0.15279E-09
         0.12421E-09
         0.16009E-09
         0.21369E-09
         0.23522E-09
         0.22526E-09
         0.20262E-09
         0.18387E-09
         0.14930E-09
         0.12546E-09
         0.16418E-09
         0.21756E-09
         0.22482E-09
         0.18110E-09
         0.14699E-09
         0.18113E-09
         0.21374E-09
  
SCALARS               pre_disp_force_x  double 1
LOOKUP_TABLE default
         0.00000E+00
         0.00000E+00
         0.00000E+00
         0.00000E+00
         0.00000E+00
         0.00000E+00
         0.00000E+00
         0.00000E+00
         0.00000E+00
         0.00000E+00
         0.00000E+00
         0.00000E+00
         0.00000E+00
         0.00000E+00
         0.00000E+00
         0.00000E+00
         0.00000E+00
         0.00000E+00
         0.00000E+00
         0.00000E+00
         0.00000E+00
         0.00000E+00
         0.00000E+00
         0.00000E+00
         0.00000E+00
         0.00000E+00
         0.00000E+00
         0.00000E+00
         0.00000E+00
         0.00000E+00
         0.00000E+00
         0.00000E+00
         0.00000E+00
         0.00000E+00
         0.00000E+00
         0.00000E+00
         0.00000E+00
         0.00000E+00
         0.00000E+00
         0.00000E+00
         0.00000E+00
         0.00000E+00
         0.00000E+00
         0.00000E+00
         0.00000E+00
         0.00000E+00
         0.00000E+00
         0.00000E+00
         0.00000E+00
         0.00000E+00
         0.00000E+00
         0.00000E+00
         0.00000E+00
         0.00000E+00
         0.00000E+00
         0.00000E+00
         0.00000E+00
         0.00000E+00
         0.00000E+00
         0.00000E+00
         0.00000E+00
         0.00000E+00
         0.00000E+00
         0.00000E+00
         0.00000E+00
         0.00000E+00
         0.00000E+00
         0.00000E+00
         0.00000E+00
         0.00000E+00
         0.00000E+00
         0.00000E+00
         0.00000E+00
         0.00000E+00
         0.00000E+00
         0.00000E+00
         0.00000E+00
         0.00000E+00
         0.00000E+00
         0.00000E+00
         0.00000E+00
         0.00000E+00
         0.00000E+00
         0.00000E+00
         0.00000E+00
         0.00000E+00
         0.00000E+00
         0.00000E+00
         0.00000E+00
         0.00000E+00
         0.00000E+00
         0.00000E+00
         0.00000E+00
         0.00000E+00
         0.00000E+00
         0.00000E+00
         0.00000E+00
         0.00000E+00
         0.00000E+00
         0.00000E+00
         0.00000E+00
         0.00000E+00
         0.00000E+00
         0.00000E+00
         0.00000E+00
         0.00000E+00
         0.00000E+00
         0.00000E+00
         0.00000E+00
         0.00000E+00
         0.00000E+00
         0.00000E+00
         0.00000E+00
         0.00000E+00
         0.00000E+00
         0.00000E+00
         0.00000E+00
         0.00000E+00
         0.00000E+00
         0.00000E+00
         0.00000E+00
         0.00000E+00
         0.00000E+00
         0.00000E+00
         0.00000E+00
         0.00000E+00
         0.00000E+00
         0.00000E+00
         0.00000E+00
         0.00000E+00
         0.00000E+00
         0.00000E+00
         0.00000E+00
         0.00000E+00
         0.00000E+00
         0.00000E+00
         0.00000E+00
         0.00000E+00
         0.00000E+00
         0.00000E+00
         0.00000E+00
         0.00000E+00
         0.00000E+00
         0.00000E+00
         0.00000E+00
         0.00000E+00
         0.00000E+00
         0.00000E+00
         0.00000E+00
         0.00000E+00
         0.00000E+00
         0.00000E+00
         0.00000E+00
         0.00000E+00
         0.00000E+00
         0.00000E+00
         0.00000E+00
         0.00000E+00
         0.00000E+00
         0.00000E+00
         0.00000E+00
         0.00000E+00
         0.00000E+00
         0.00000E+00
         0.00000E+00
         0.00000E+00
         0.00000E+00
         0.00000E+00
         0.00000E+00
         0.00000E+00
         0.00000E+00
         0.00000E+00
         0.00000E+00
         0.00000E+00
         0.00000E+00
         0.00000E+00
         0.00000E+00
         0.00000E+00
         0.00000E+00
         0.00000E+00
         0.00000E+00
         0.00000E+00
         0.00000E+00
         0.00000E+00
         0.00000E+00
         0.00000E+00
         0.00000E+00
         0.00000E+00
         0.00000E+00
         0.00000E+00
         0.00000E+00
         0.00000E+00
         0.00000E+00
         0.00000E+00
         0.00000E+00
         0.00000E+00
         0.00000E+00
         0.00000E+00
         0.00000E+00
         0.00000E+00
         0.00000E+00
         0.00000E+00
         0.00000E+00
         0.00000E+00
         0.00000E+00
         0.00000E+00
         0.00000E+00
         0.00000E+00
         0.00000E+00
         0.00000E+00
         0.00000E+00
         0.00000E+00
         0.00000E+00
         0.00000E+00
         0.00000E+00
         0.00000E+00
         0.00000E+00
         0.00000E+00
         0.00000E+00
         0.00000E+00
         0.00000E+00
         0.00000E+00
         0.00000E+00
         0.00000E+00
         0.00000E+00
         0.00000E+00
         0.00000E+00
         0.00000E+00
         0.00000E+00
         0.00000E+00
         0.00000E+00
         0.00000E+00
         0.00000E+00
         0.00000E+00
         0.00000E+00
         0.00000E+00
         0.00000E+00
         0.00000E+00
         0.00000E+00
         0.00000E+00
         0.00000E+00
         0.00000E+00
         0.00000E+00
         0.00000E+00
         0.00000E+00
         0.00000E+00
         0.00000E+00
         0.00000E+00
         0.00000E+00
         0.00000E+00
         0.00000E+00
         0.00000E+00
         0.00000E+00
         0.00000E+00
         0.00000E+00
         0.00000E+00
         0.00000E+00
         0.00000E+00
         0.00000E+00
         0.00000E+00
         0.00000E+00
         0.00000E+00
         0.00000E+00
         0.00000E+00
         0.00000E+00
         0.00000E+00
         0.00000E+00
         0.00000E+00
         0.00000E+00
         0.00000E+00
         0.00000E+00
         0.00000E+00
         0.00000E+00
         0.00000E+00
         0.00000E+00
         0.00000E+00
         0.00000E+00
         0.00000E+00
         0.00000E+00
         0.00000E+00
         0.00000E+00
         0.00000E+00
         0.00000E+00
         0.00000E+00
         0.00000E+00
         0.00000E+00
         0.00000E+00
         0.00000E+00
         0.00000E+00
         0.00000E+00
         0.00000E+00
         0.00000E+00
         0.00000E+00
         0.00000E+00
         0.00000E+00
         0.00000E+00
         0.00000E+00
         0.00000E+00
         0.00000E+00
         0.00000E+00
         0.00000E+00
         0.00000E+00
         0.00000E+00
         0.00000E+00
         0.00000E+00
         0.00000E+00
         0.00000E+00
         0.00000E+00
         0.00000E+00
         0.00000E+00
         0.00000E+00
         0.00000E+00
         0.00000E+00
         0.00000E+00
         0.00000E+00
         0.00000E+00
         0.00000E+00
         0.00000E+00
         0.00000E+00
         0.00000E+00
         0.00000E+00
         0.00000E+00
         0.00000E+00
         0.00000E+00
         0.00000E+00
         0.00000E+00
         0.00000E+00
         0.00000E+00
         0.00000E+00
         0.00000E+00
         0.00000E+00
         0.00000E+00
         0.00000E+00
         0.00000E+00
         0.00000E+00
         0.00000E+00
         0.00000E+00
         0.00000E+00
         0.00000E+00
         0.00000E+00
         0.00000E+00
         0.00000E+00
         0.00000E+00
         0.00000E+00
         0.00000E+00
         0.00000E+00
         0.00000E+00
         0.00000E+00
         0.00000E+00
         0.00000E+00
         0.00000E+00
         0.00000E+00
         0.00000E+00
         0.00000E+00
         0.00000E+00
         0.00000E+00
         0.00000E+00
         0.00000E+00
         0.00000E+00
         0.00000E+00
         0.00000E+00
         0.00000E+00
         0.00000E+00
         0.00000E+00
         0.00000E+00
         0.00000E+00
         0.00000E+00
         0.00000E+00
         0.00000E+00
         0.00000E+00
         0.00000E+00
         0.00000E+00
         0.00000E+00
         0.00000E+00
         0.00000E+00
         0.00000E+00
         0.00000E+00
         0.00000E+00
         0.00000E+00
         0.00000E+00
         0.00000E+00
         0.00000E+00
         0.00000E+00
         0.00000E+00
         0.00000E+00
         0.00000E+00
         0.00000E+00
         0.00000E+00
         0.00000E+00
         0.00000E+00
         0.00000E+00
         0.00000E+00
         0.00000E+00
         0.00000E+00
         0.00000E+00
         0.00000E+00
         0.00000E+00
         0.00000E+00
         0.00000E+00
         0.00000E+00
         0.00000E+00
         0.00000E+00
         0.00000E+00
         0.00000E+00
         0.00000E+00
         0.00000E+00
         0.00000E+00
         0.00000E+00
         0.00000E+00
         0.00000E+00
         0.00000E+00
         0.00000E+00
         0.00000E+00
         0.00000E+00
         0.00000E+00
         0.00000E+00
         0.00000E+00
         0.00000E+00
         0.00000E+00
         0.00000E+00
         0.00000E+00
         0.00000E+00
         0.00000E+00
         0.00000E+00
         0.00000E+00
         0.00000E+00
         0.00000E+00
         0.00000E+00
         0.00000E+00
         0.00000E+00
         0.00000E+00
         0.00000E+00
         0.00000E+00
         0.00000E+00
         0.00000E+00
         0.00000E+00
         0.00000E+00
         0.00000E+00
         0.00000E+00
         0.00000E+00
         0.00000E+00
         0.00000E+00
         0.00000E+00
         0.00000E+00
         0.00000E+00
         0.00000E+00
         0.00000E+00
         0.00000E+00
         0.00000E+00
         0.00000E+00
         0.00000E+00
         0.00000E+00
         0.00000E+00
         0.00000E+00
         0.00000E+00
         0.00000E+00
         0.00000E+00
         0.00000E+00
         0.00000E+00
         0.00000E+00
         0.00000E+00
         0.00000E+00
         0.00000E+00
         0.00000E+00
         0.00000E+00
         0.00000E+00
         0.00000E+00
         0.00000E+00
         0.00000E+00
         0.00000E+00
         0.00000E+00
         0.00000E+00
         0.00000E+00
         0.00000E+00
         0.00000E+00
         0.00000E+00
         0.00000E+00
         0.00000E+00
         0.00000E+00
         0.00000E+00
         0.00000E+00
         0.00000E+00
         0.00000E+00
         0.00000E+00
         0.00000E+00
         0.00000E+00
         0.00000E+00
         0.00000E+00
         0.00000E+00
         0.00000E+00
         0.00000E+00
         0.00000E+00
         0.00000E+00
         0.00000E+00
         0.00000E+00
         0.00000E+00
         0.00000E+00
         0.00000E+00
         0.00000E+00
         0.00000E+00
         0.00000E+00
         0.00000E+00
         0.00000E+00
         0.00000E+00
         0.00000E+00
         0.00000E+00
         0.00000E+00
         0.00000E+00
         0.00000E+00
         0.00000E+00
         0.00000E+00
         0.00000E+00
         0.00000E+00
         0.00000E+00
         0.00000E+00
         0.00000E+00
         0.00000E+00
         0.00000E+00
         0.00000E+00
         0.00000E+00
         0.00000E+00
         0.00000E+00
         0.00000E+00
         0.00000E+00
         0.00000E+00
         0.00000E+00
         0.00000E+00
         0.00000E+00
         0.00000E+00
         0.00000E+00
         0.00000E+00
         0.00000E+00
         0.00000E+00
         0.00000E+00
         0.00000E+00
         0.00000E+00
         0.00000E+00
         0.00000E+00
         0.00000E+00
         0.00000E+00
         0.00000E+00
         0.00000E+00
         0.00000E+00
         0.00000E+00
         0.00000E+00
         0.00000E+00
         0.00000E+00
         0.00000E+00
         0.00000E+00
         0.00000E+00
         0.00000E+00
         0.00000E+00
         0.00000E+00
         0.00000E+00
         0.00000E+00
         0.00000E+00
         0.00000E+00
         0.00000E+00
         0.00000E+00
         0.00000E+00
         0.00000E+00
         0.00000E+00
         0.00000E+00
         0.00000E+00
         0.00000E+00
         0.00000E+00
         0.00000E+00
         0.00000E+00
         0.00000E+00
         0.00000E+00
         0.00000E+00
         0.00000E+00
         0.00000E+00
         0.00000E+00
         0.00000E+00
         0.00000E+00
         0.00000E+00
         0.00000E+00
         0.00000E+00
         0.00000E+00
         0.00000E+00
         0.00000E+00
         0.00000E+00
         0.00000E+00
         0.00000E+00
         0.00000E+00
         0.00000E+00
         0.00000E+00
         0.00000E+00
         0.00000E+00
         0.00000E+00
         0.00000E+00
         0.00000E+00
         0.00000E+00
         0.00000E+00
         0.00000E+00
         0.00000E+00
         0.00000E+00
         0.00000E+00
         0.00000E+00
         0.00000E+00
         0.00000E+00
         0.00000E+00
         0.00000E+00
         0.00000E+00
         0.00000E+00
         0.00000E+00
         0.00000E+00
         0.00000E+00
         0.00000E+00
         0.00000E+00
         0.00000E+00
         0.00000E+00
         0.00000E+00
         0.00000E+00
         0.00000E+00
         0.00000E+00
         0.00000E+00
         0.00000E+00
         0.00000E+00
         0.00000E+00
         0.00000E+00
         0.00000E+00
         0.00000E+00
         0.00000E+00
         0.00000E+00
         0.00000E+00
         0.00000E+00
         0.00000E+00
         0.00000E+00
         0.00000E+00
         0.00000E+00
         0.00000E+00
         0.00000E+00
         0.00000E+00
         0.00000E+00
         0.00000E+00
         0.00000E+00
         0.00000E+00
         0.00000E+00
         0.00000E+00
         0.00000E+00
         0.00000E+00
         0.00000E+00
         0.00000E+00
         0.00000E+00
         0.00000E+00
         0.00000E+00
         0.00000E+00
         0.00000E+00
         0.00000E+00
         0.00000E+00
         0.00000E+00
         0.00000E+00
         0.00000E+00
         0.00000E+00
         0.00000E+00
         0.00000E+00
         0.00000E+00
         0.00000E+00
         0.00000E+00
         0.00000E+00
         0.00000E+00
         0.00000E+00
         0.00000E+00
         0.00000E+00
         0.00000E+00
         0.00000E+00
         0.00000E+00
         0.00000E+00
         0.00000E+00
         0.00000E+00
         0.00000E+00
         0.00000E+00
         0.00000E+00
         0.00000E+00
         0.00000E+00
         0.00000E+00
         0.00000E+00
         0.00000E+00
         0.00000E+00
         0.00000E+00
         0.00000E+00
         0.00000E+00
         0.00000E+00
         0.00000E+00
         0.00000E+00
         0.00000E+00
         0.00000E+00
         0.00000E+00
         0.00000E+00
         0.00000E+00
         0.00000E+00
         0.00000E+00
         0.00000E+00
         0.00000E+00
         0.00000E+00
         0.00000E+00
         0.00000E+00
         0.00000E+00
         0.00000E+00
         0.00000E+00
         0.00000E+00
         0.00000E+00
         0.00000E+00
         0.00000E+00
         0.00000E+00
         0.00000E+00
         0.00000E+00
         0.00000E+00
         0.00000E+00
         0.00000E+00
         0.00000E+00
         0.00000E+00
         0.00000E+00
         0.00000E+00
         0.00000E+00
         0.00000E+00
         0.00000E+00
         0.00000E+00
         0.00000E+00
         0.00000E+00
         0.00000E+00
         0.00000E+00
         0.00000E+00
         0.00000E+00
         0.00000E+00
         0.00000E+00
         0.00000E+00
         0.00000E+00
         0.00000E+00
         0.00000E+00
         0.00000E+00
         0.00000E+00
         0.00000E+00
         0.00000E+00
         0.00000E+00
         0.00000E+00
         0.00000E+00
         0.00000E+00
         0.00000E+00
         0.00000E+00
         0.00000E+00
         0.00000E+00
         0.00000E+00
         0.00000E+00
         0.00000E+00
         0.00000E+00
         0.00000E+00
         0.00000E+00
         0.00000E+00
         0.00000E+00
         0.00000E+00
         0.00000E+00
         0.00000E+00
         0.00000E+00
         0.00000E+00
         0.00000E+00
         0.00000E+00
         0.00000E+00
         0.00000E+00
         0.00000E+00
         0.00000E+00
         0.00000E+00
         0.00000E+00
         0.00000E+00
         0.00000E+00
         0.00000E+00
         0.00000E+00
         0.00000E+00
         0.00000E+00
         0.00000E+00
         0.00000E+00
         0.00000E+00
         0.00000E+00
         0.00000E+00
         0.00000E+00
         0.00000E+00
         0.00000E+00
         0.00000E+00
         0.00000E+00
         0.00000E+00
         0.00000E+00
         0.00000E+00
         0.00000E+00
         0.00000E+00
         0.00000E+00
         0.00000E+00
         0.00000E+00
         0.00000E+00
         0.00000E+00
         0.00000E+00
         0.00000E+00
         0.00000E+00
         0.00000E+00
         0.00000E+00
         0.00000E+00
         0.00000E+00
         0.00000E+00
         0.00000E+00
         0.00000E+00
         0.00000E+00
         0.00000E+00
         0.00000E+00
         0.00000E+00
         0.00000E+00
         0.00000E+00
         0.00000E+00
         0.00000E+00
         0.00000E+00
         0.00000E+00
         0.00000E+00
         0.00000E+00
         0.00000E+00
         0.00000E+00
         0.00000E+00
         0.00000E+00
         0.00000E+00
         0.00000E+00
         0.00000E+00
         0.00000E+00
         0.00000E+00
         0.00000E+00
         0.00000E+00
         0.00000E+00
         0.00000E+00
         0.00000E+00
         0.00000E+00
         0.00000E+00
         0.00000E+00
         0.00000E+00
         0.00000E+00
         0.00000E+00
         0.00000E+00
         0.00000E+00
         0.00000E+00
         0.00000E+00
         0.00000E+00
         0.00000E+00
         0.00000E+00
         0.00000E+00
         0.00000E+00
         0.00000E+00
         0.00000E+00
         0.00000E+00
         0.00000E+00
         0.00000E+00
         0.00000E+00
         0.00000E+00
         0.00000E+00
         0.00000E+00
         0.00000E+00
         0.00000E+00
         0.00000E+00
         0.00000E+00
         0.00000E+00
         0.00000E+00
         0.00000E+00
         0.00000E+00
         0.00000E+00
         0.00000E+00
         0.00000E+00
         0.00000E+00
         0.00000E+00
         0.00000E+00
         0.00000E+00
         0.00000E+00
         0.00000E+00
         0.00000E+00
         0.00000E+00
         0.00000E+00
         0.00000E+00
         0.00000E+00
         0.00000E+00
         0.00000E+00
         0.00000E+00
         0.00000E+00
         0.00000E+00
         0.00000E+00
         0.00000E+00
         0.00000E+00
         0.00000E+00
         0.00000E+00
         0.00000E+00
         0.00000E+00
         0.00000E+00
         0.00000E+00
         0.00000E+00
         0.00000E+00
         0.00000E+00
         0.00000E+00
         0.00000E+00
         0.00000E+00
         0.00000E+00
         0.00000E+00
         0.00000E+00
         0.00000E+00
         0.00000E+00
         0.00000E+00
         0.00000E+00
         0.00000E+00
         0.00000E+00
         0.00000E+00
         0.00000E+00
         0.00000E+00
         0.00000E+00
         0.00000E+00
         0.00000E+00
         0.00000E+00
         0.00000E+00
         0.00000E+00
         0.00000E+00
         0.00000E+00
         0.00000E+00
         0.00000E+00
         0.00000E+00
         0.00000E+00
         0.00000E+00
         0.00000E+00
         0.00000E+00
         0.00000E+00
         0.00000E+00
         0.00000E+00
         0.00000E+00
         0.00000E+00
         0.00000E+00
         0.00000E+00
         0.00000E+00
         0.00000E+00
         0.00000E+00
         0.00000E+00
         0.00000E+00
         0.00000E+00
         0.00000E+00
         0.00000E+00
         0.00000E+00
         0.00000E+00
         0.00000E+00
         0.00000E+00
         0.00000E+00
         0.00000E+00
         0.00000E+00
         0.00000E+00
         0.00000E+00
         0.00000E+00
         0.00000E+00
         0.00000E+00
         0.00000E+00
         0.00000E+00
         0.00000E+00
         0.00000E+00
         0.00000E+00
         0.00000E+00
         0.00000E+00
         0.00000E+00
         0.00000E+00
         0.00000E+00
         0.00000E+00
         0.00000E+00
         0.00000E+00
         0.00000E+00
         0.00000E+00
         0.00000E+00
         0.00000E+00
         0.00000E+00
         0.00000E+00
         0.00000E+00
         0.00000E+00
         0.00000E+00
         0.00000E+00
         0.00000E+00
         0.00000E+00
         0.00000E+00
         0.00000E+00
         0.00000E+00
         0.00000E+00
         0.00000E+00
         0.00000E+00
         0.00000E+00
         0.00000E+00
         0.00000E+00
         0.00000E+00
         0.00000E+00
         0.00000E+00
         0.00000E+00
         0.00000E+00
         0.00000E+00
         0.00000E+00
         0.00000E+00
         0.00000E+00
         0.00000E+00
         0.00000E+00
         0.00000E+00
         0.00000E+00
         0.00000E+00
         0.00000E+00
         0.00000E+00
         0.00000E+00
         0.00000E+00
         0.00000E+00
         0.00000E+00
         0.00000E+00
         0.00000E+00
         0.00000E+00
         0.00000E+00
         0.00000E+00
         0.00000E+00
         0.00000E+00
         0.00000E+00
         0.00000E+00
         0.00000E+00
         0.00000E+00
         0.00000E+00
         0.00000E+00
         0.00000E+00
         0.00000E+00
         0.00000E+00
         0.00000E+00
         0.00000E+00
         0.00000E+00
         0.00000E+00
         0.00000E+00
         0.00000E+00
         0.00000E+00
         0.00000E+00
         0.00000E+00
         0.00000E+00
         0.00000E+00
         0.00000E+00
         0.00000E+00
         0.00000E+00
         0.00000E+00
         0.00000E+00
         0.00000E+00
         0.00000E+00
         0.00000E+00
         0.00000E+00
         0.00000E+00
         0.00000E+00
         0.00000E+00
         0.00000E+00
         0.00000E+00
         0.00000E+00
         0.00000E+00
         0.00000E+00
         0.00000E+00
         0.00000E+00
         0.00000E+00
         0.00000E+00
         0.00000E+00
         0.00000E+00
         0.00000E+00
         0.00000E+00
         0.00000E+00
         0.00000E+00
         0.00000E+00
         0.00000E+00
         0.00000E+00
         0.00000E+00
         0.00000E+00
         0.00000E+00
         0.00000E+00
         0.00000E+00
         0.00000E+00
         0.00000E+00
         0.00000E+00
         0.00000E+00
         0.00000E+00
         0.00000E+00
         0.00000E+00
         0.00000E+00
         0.00000E+00
         0.00000E+00
         0.00000E+00
         0.00000E+00
         0.00000E+00
         0.00000E+00
         0.00000E+00
         0.00000E+00
         0.00000E+00
         0.00000E+00
         0.00000E+00
         0.00000E+00
         0.00000E+00
         0.00000E+00
         0.00000E+00
         0.00000E+00
         0.00000E+00
         0.00000E+00
         0.00000E+00
         0.00000E+00
         0.00000E+00
         0.00000E+00
         0.00000E+00
         0.00000E+00
         0.00000E+00
         0.00000E+00
         0.00000E+00
         0.00000E+00
         0.00000E+00
         0.00000E+00
         0.00000E+00
         0.00000E+00
         0.00000E+00
         0.00000E+00
         0.00000E+00
         0.00000E+00
         0.00000E+00
         0.00000E+00
         0.00000E+00
         0.00000E+00
         0.00000E+00
         0.00000E+00
         0.00000E+00
         0.00000E+00
         0.00000E+00
         0.00000E+00
         0.00000E+00
         0.00000E+00
         0.00000E+00
         0.00000E+00
         0.00000E+00
         0.00000E+00
         0.00000E+00
         0.00000E+00
         0.00000E+00
         0.00000E+00
         0.00000E+00
         0.00000E+00
         0.00000E+00
         0.00000E+00
         0.00000E+00
         0.00000E+00
         0.00000E+00
         0.00000E+00
         0.00000E+00
         0.00000E+00
         0.00000E+00
         0.00000E+00
         0.00000E+00
         0.00000E+00
         0.00000E+00
         0.00000E+00
         0.00000E+00
         0.00000E+00
         0.00000E+00
         0.00000E+00
         0.00000E+00
         0.00000E+00
         0.00000E+00
         0.00000E+00
         0.00000E+00
         0.00000E+00
         0.00000E+00
         0.00000E+00
         0.00000E+00
         0.00000E+00
         0.00000E+00
         0.00000E+00
         0.00000E+00
         0.00000E+00
         0.00000E+00
         0.00000E+00
         0.00000E+00
         0.00000E+00
         0.00000E+00
         0.00000E+00
         0.00000E+00
         0.00000E+00
         0.00000E+00
         0.00000E+00
         0.00000E+00
         0.00000E+00
         0.00000E+00
         0.00000E+00
         0.00000E+00
         0.00000E+00
         0.00000E+00
         0.00000E+00
         0.00000E+00
         0.00000E+00
         0.00000E+00
         0.00000E+00
         0.00000E+00
         0.00000E+00
         0.00000E+00
         0.00000E+00
         0.00000E+00
         0.00000E+00
         0.00000E+00
         0.00000E+00
         0.00000E+00
         0.00000E+00
         0.00000E+00
         0.00000E+00
         0.00000E+00
         0.00000E+00
         0.00000E+00
         0.00000E+00
         0.00000E+00
         0.00000E+00
         0.00000E+00
         0.00000E+00
         0.00000E+00
         0.00000E+00
         0.00000E+00
         0.00000E+00
         0.00000E+00
         0.00000E+00
         0.00000E+00
         0.00000E+00
         0.00000E+00
         0.00000E+00
         0.00000E+00
         0.00000E+00
         0.00000E+00
         0.00000E+00
         0.00000E+00
         0.00000E+00
         0.00000E+00
         0.00000E+00
         0.00000E+00
         0.00000E+00
         0.00000E+00
         0.00000E+00
         0.00000E+00
         0.00000E+00
         0.00000E+00
         0.00000E+00
         0.00000E+00
         0.00000E+00
         0.00000E+00
         0.00000E+00
         0.00000E+00
         0.00000E+00
         0.00000E+00
         0.00000E+00
         0.00000E+00
         0.00000E+00
         0.00000E+00
         0.00000E+00
         0.00000E+00
         0.00000E+00
         0.00000E+00
         0.00000E+00
         0.00000E+00
         0.00000E+00
         0.00000E+00
         0.00000E+00
         0.00000E+00
         0.00000E+00
         0.00000E+00
         0.00000E+00
         0.00000E+00
         0.00000E+00
         0.00000E+00
         0.00000E+00
         0.00000E+00
         0.00000E+00
         0.00000E+00
         0.00000E+00
         0.00000E+00
         0.00000E+00
         0.00000E+00
         0.00000E+00
         0.00000E+00
         0.00000E+00
         0.00000E+00
         0.00000E+00
         0.00000E+00
         0.00000E+00
         0.00000E+00
         0.00000E+00
         0.00000E+00
         0.00000E+00
         0.00000E+00
         0.00000E+00
         0.00000E+00
         0.00000E+00
         0.00000E+00
         0.00000E+00
         0.00000E+00
         0.00000E+00
         0.00000E+00
         0.00000E+00
         0.00000E+00
         0.00000E+00
         0.00000E+00
         0.00000E+00
         0.00000E+00
         0.00000E+00
         0.00000E+00
         0.00000E+00
         0.00000E+00
         0.00000E+00
         0.00000E+00
         0.00000E+00
         0.00000E+00
         0.00000E+00
         0.00000E+00
         0.00000E+00
         0.00000E+00
         0.00000E+00
         0.00000E+00
         0.00000E+00
         0.00000E+00
         0.00000E+00
         0.00000E+00
         0.00000E+00
         0.00000E+00
         0.00000E+00
         0.00000E+00
         0.00000E+00
         0.00000E+00
         0.00000E+00
         0.00000E+00
         0.00000E+00
         0.00000E+00
         0.00000E+00
         0.00000E+00
         0.00000E+00
         0.00000E+00
         0.00000E+00
         0.00000E+00
         0.00000E+00
         0.00000E+00
         0.00000E+00
         0.00000E+00
         0.00000E+00
         0.00000E+00
         0.00000E+00
         0.00000E+00
         0.00000E+00
         0.00000E+00
         0.00000E+00
         0.00000E+00
         0.00000E+00
         0.00000E+00
         0.00000E+00
         0.00000E+00
         0.00000E+00
         0.00000E+00
         0.00000E+00
         0.00000E+00
         0.00000E+00
         0.00000E+00
         0.00000E+00
         0.00000E+00
         0.00000E+00
         0.00000E+00
         0.00000E+00
         0.00000E+00
         0.00000E+00
         0.00000E+00
         0.00000E+00
         0.00000E+00
         0.00000E+00
         0.00000E+00
         0.00000E+00
         0.00000E+00
         0.00000E+00
         0.00000E+00
         0.00000E+00
         0.00000E+00
         0.00000E+00
         0.00000E+00
         0.00000E+00
         0.00000E+00
         0.00000E+00
         0.00000E+00
         0.00000E+00
         0.00000E+00
         0.00000E+00
         0.00000E+00
         0.00000E+00
         0.00000E+00
         0.00000E+00
         0.00000E+00
         0.00000E+00
         0.00000E+00
         0.00000E+00
         0.00000E+00
         0.00000E+00
         0.00000E+00
         0.00000E+00
         0.00000E+00
         0.00000E+00
         0.00000E+00
         0.00000E+00
         0.00000E+00
         0.00000E+00
         0.00000E+00
         0.00000E+00
         0.00000E+00
         0.00000E+00
         0.00000E+00
         0.00000E+00
         0.00000E+00
         0.00000E+00
         0.00000E+00
         0.00000E+00
         0.00000E+00
         0.00000E+00
         0.00000E+00
         0.00000E+00
         0.00000E+00
         0.00000E+00
         0.00000E+00
         0.00000E+00
         0.00000E+00
         0.00000E+00
         0.00000E+00
         0.00000E+00
         0.00000E+00
         0.00000E+00
         0.00000E+00
         0.00000E+00
         0.00000E+00
         0.00000E+00
         0.00000E+00
         0.00000E+00
         0.00000E+00
         0.00000E+00
         0.00000E+00
         0.00000E+00
         0.00000E+00
         0.00000E+00
         0.00000E+00
         0.00000E+00
         0.00000E+00
         0.00000E+00
         0.00000E+00
         0.00000E+00
         0.00000E+00
         0.00000E+00
         0.00000E+00
         0.00000E+00
         0.00000E+00
         0.00000E+00
         0.00000E+00
         0.00000E+00
         0.00000E+00
         0.00000E+00
         0.00000E+00
         0.00000E+00
         0.00000E+00
         0.00000E+00
         0.00000E+00
         0.00000E+00
         0.00000E+00
         0.00000E+00
         0.00000E+00
         0.00000E+00
         0.00000E+00
         0.00000E+00
         0.00000E+00
         0.00000E+00
         0.00000E+00
         0.00000E+00
         0.00000E+00
         0.00000E+00
         0.00000E+00
         0.00000E+00
         0.00000E+00
         0.00000E+00
         0.00000E+00
         0.00000E+00
         0.00000E+00
         0.00000E+00
         0.00000E+00
         0.00000E+00
         0.00000E+00
         0.00000E+00
         0.00000E+00
         0.00000E+00
         0.00000E+00
         0.00000E+00
         0.00000E+00
         0.00000E+00
         0.00000E+00
         0.00000E+00
         0.00000E+00
         0.00000E+00
         0.00000E+00
         0.00000E+00
         0.00000E+00
         0.00000E+00
         0.00000E+00
         0.00000E+00
         0.00000E+00
         0.00000E+00
         0.00000E+00
         0.00000E+00
         0.00000E+00
         0.00000E+00
         0.00000E+00
         0.00000E+00
         0.00000E+00
         0.00000E+00
         0.00000E+00
         0.00000E+00
         0.00000E+00
         0.00000E+00
         0.00000E+00
         0.00000E+00
         0.00000E+00
         0.00000E+00
         0.00000E+00
         0.00000E+00
         0.00000E+00
         0.00000E+00
         0.00000E+00
         0.00000E+00
         0.00000E+00
         0.00000E+00
         0.00000E+00
         0.00000E+00
         0.00000E+00
         0.00000E+00
         0.00000E+00
         0.00000E+00
         0.00000E+00
         0.00000E+00
         0.00000E+00
         0.00000E+00
         0.00000E+00
         0.00000E+00
         0.00000E+00
         0.00000E+00
         0.00000E+00
         0.00000E+00
         0.00000E+00
         0.00000E+00
         0.00000E+00
         0.00000E+00
         0.00000E+00
         0.00000E+00
         0.00000E+00
         0.00000E+00
         0.00000E+00
         0.00000E+00
         0.00000E+00
         0.00000E+00
         0.00000E+00
         0.00000E+00
         0.00000E+00
         0.00000E+00
         0.00000E+00
         0.00000E+00
         0.00000E+00
         0.00000E+00
         0.00000E+00
         0.00000E+00
         0.00000E+00
         0.00000E+00
         0.00000E+00
         0.00000E+00
         0.00000E+00
         0.00000E+00
         0.00000E+00
         0.00000E+00
         0.00000E+00
         0.00000E+00
         0.00000E+00
         0.00000E+00
         0.00000E+00
         0.00000E+00
         0.00000E+00
         0.00000E+00
         0.00000E+00
         0.00000E+00
         0.00000E+00
         0.00000E+00
         0.00000E+00
         0.00000E+00
         0.00000E+00
         0.00000E+00
         0.00000E+00
         0.00000E+00
         0.00000E+00
         0.00000E+00
         0.00000E+00
         0.00000E+00
         0.00000E+00
         0.00000E+00
         0.00000E+00
         0.00000E+00
         0.00000E+00
         0.00000E+00
         0.00000E+00
         0.00000E+00
         0.00000E+00
         0.00000E+00
         0.00000E+00
         0.00000E+00
         0.00000E+00
         0.00000E+00
         0.00000E+00
         0.00000E+00
         0.00000E+00
         0.00000E+00
         0.00000E+00
         0.00000E+00
         0.00000E+00
         0.00000E+00
         0.00000E+00
         0.00000E+00
         0.00000E+00
         0.00000E+00
         0.00000E+00
         0.00000E+00
         0.00000E+00
         0.00000E+00
         0.00000E+00
         0.00000E+00
         0.00000E+00
         0.00000E+00
         0.00000E+00
         0.00000E+00
         0.00000E+00
         0.00000E+00
         0.00000E+00
         0.00000E+00
         0.00000E+00
         0.00000E+00
         0.00000E+00
         0.00000E+00
         0.00000E+00
         0.00000E+00
         0.00000E+00
         0.00000E+00
         0.00000E+00
         0.00000E+00
         0.00000E+00
         0.00000E+00
         0.00000E+00
         0.00000E+00
         0.00000E+00
         0.00000E+00
         0.00000E+00
         0.00000E+00
         0.00000E+00
         0.00000E+00
         0.00000E+00
         0.00000E+00
         0.00000E+00
         0.00000E+00
         0.00000E+00
         0.00000E+00
         0.00000E+00
         0.00000E+00
         0.00000E+00
         0.00000E+00
         0.00000E+00
         0.00000E+00
         0.00000E+00
         0.00000E+00
         0.00000E+00
         0.00000E+00
         0.00000E+00
         0.00000E+00
         0.00000E+00
         0.00000E+00
         0.00000E+00
         0.00000E+00
         0.00000E+00
         0.00000E+00
         0.00000E+00
         0.00000E+00
         0.00000E+00
         0.00000E+00
         0.00000E+00
         0.00000E+00
         0.00000E+00
         0.00000E+00
         0.00000E+00
         0.00000E+00
         0.00000E+00
         0.00000E+00
         0.00000E+00
         0.00000E+00
         0.00000E+00
         0.00000E+00
         0.00000E+00
         0.00000E+00
         0.00000E+00
         0.00000E+00
         0.00000E+00
         0.00000E+00
         0.00000E+00
         0.00000E+00
         0.00000E+00
         0.00000E+00
         0.00000E+00
         0.00000E+00
         0.00000E+00
         0.00000E+00
         0.00000E+00
         0.00000E+00
         0.00000E+00
         0.00000E+00
         0.00000E+00
         0.00000E+00
         0.00000E+00
         0.00000E+00
         0.00000E+00
         0.00000E+00
         0.00000E+00
         0.00000E+00
         0.00000E+00
         0.00000E+00
         0.00000E+00
         0.00000E+00
         0.00000E+00
         0.00000E+00
         0.00000E+00
         0.00000E+00
         0.00000E+00
         0.00000E+00
         0.00000E+00
         0.00000E+00
         0.00000E+00
         0.00000E+00
         0.00000E+00
         0.00000E+00
         0.00000E+00
         0.00000E+00
         0.00000E+00
         0.00000E+00
         0.00000E+00
         0.00000E+00
         0.00000E+00
         0.00000E+00
         0.00000E+00
         0.00000E+00
         0.00000E+00
         0.00000E+00
         0.00000E+00
         0.00000E+00
         0.00000E+00
         0.00000E+00
         0.00000E+00
         0.00000E+00
         0.00000E+00
         0.00000E+00
         0.00000E+00
         0.00000E+00
         0.00000E+00
         0.00000E+00
         0.00000E+00
         0.00000E+00
         0.00000E+00
         0.00000E+00
         0.00000E+00
         0.00000E+00
         0.00000E+00
         0.00000E+00
         0.00000E+00
         0.00000E+00
         0.00000E+00
         0.00000E+00
         0.00000E+00
         0.00000E+00
         0.00000E+00
         0.00000E+00
         0.00000E+00
         0.00000E+00
         0.00000E+00
         0.00000E+00
         0.00000E+00
         0.00000E+00
         0.00000E+00
         0.00000E+00
         0.00000E+00
         0.00000E+00
         0.00000E+00
         0.00000E+00
         0.00000E+00
         0.00000E+00
         0.00000E+00
         0.00000E+00
         0.00000E+00
         0.00000E+00
         0.00000E+00
         0.00000E+00
         0.00000E+00
         0.00000E+00
         0.00000E+00
         0.00000E+00
         0.00000E+00
         0.00000E+00
         0.00000E+00
         0.00000E+00
         0.00000E+00
         0.00000E+00
         0.00000E+00
         0.00000E+00
         0.00000E+00
         0.00000E+00
         0.00000E+00
         0.00000E+00
         0.00000E+00
         0.00000E+00
         0.00000E+00
         0.00000E+00
         0.00000E+00
         0.00000E+00
         0.00000E+00
         0.00000E+00
         0.00000E+00
         0.00000E+00
         0.00000E+00
         0.00000E+00
         0.00000E+00
         0.00000E+00
         0.00000E+00
         0.00000E+00
         0.00000E+00
         0.00000E+00
         0.00000E+00
         0.00000E+00
         0.00000E+00
         0.00000E+00
         0.00000E+00
         0.00000E+00
         0.00000E+00
         0.00000E+00
         0.00000E+00
         0.00000E+00
         0.00000E+00
         0.00000E+00
         0.00000E+00
         0.00000E+00
         0.00000E+00
         0.00000E+00
         0.00000E+00
         0.00000E+00
         0.00000E+00
         0.00000E+00
         0.00000E+00
         0.00000E+00
         0.00000E+00
         0.00000E+00
         0.00000E+00
         0.00000E+00
         0.00000E+00
         0.00000E+00
         0.00000E+00
         0.00000E+00
         0.00000E+00
         0.00000E+00
         0.00000E+00
         0.00000E+00
         0.00000E+00
         0.00000E+00
         0.00000E+00
         0.00000E+00
         0.00000E+00
         0.00000E+00
         0.00000E+00
         0.00000E+00
         0.00000E+00
         0.00000E+00
         0.00000E+00
         0.00000E+00
         0.00000E+00
         0.00000E+00
         0.00000E+00
         0.00000E+00
         0.00000E+00
         0.00000E+00
         0.00000E+00
         0.00000E+00
         0.00000E+00
         0.00000E+00
         0.00000E+00
         0.00000E+00
         0.00000E+00
         0.00000E+00
         0.00000E+00
         0.00000E+00
         0.00000E+00
         0.00000E+00
         0.00000E+00
         0.00000E+00
         0.00000E+00
         0.00000E+00
         0.00000E+00
         0.00000E+00
         0.00000E+00
         0.00000E+00
         0.00000E+00
         0.00000E+00
         0.00000E+00
         0.00000E+00
         0.00000E+00
         0.00000E+00
         0.00000E+00
         0.00000E+00
         0.00000E+00
         0.00000E+00
         0.00000E+00
         0.00000E+00
         0.00000E+00
         0.00000E+00
         0.00000E+00
         0.00000E+00
         0.00000E+00
         0.00000E+00
         0.00000E+00
         0.00000E+00
         0.00000E+00
         0.00000E+00
         0.00000E+00
         0.00000E+00
         0.00000E+00
         0.00000E+00
         0.00000E+00
         0.00000E+00
         0.00000E+00
         0.00000E+00
         0.00000E+00
         0.00000E+00
         0.00000E+00
         0.00000E+00
         0.00000E+00
         0.00000E+00
         0.00000E+00
         0.00000E+00
         0.00000E+00
         0.00000E+00
         0.00000E+00
         0.00000E+00
         0.00000E+00
         0.00000E+00
         0.00000E+00
         0.00000E+00
         0.00000E+00
         0.00000E+00
         0.00000E+00
         0.00000E+00
         0.00000E+00
         0.00000E+00
         0.00000E+00
         0.00000E+00
         0.00000E+00
         0.00000E+00
         0.00000E+00
         0.00000E+00
         0.00000E+00
  
SCALARS               pre_disp_force_y  double 1
LOOKUP_TABLE default
         0.00000E+00
         0.00000E+00
         0.00000E+00
         0.00000E+00
         0.00000E+00
         0.00000E+00
         0.00000E+00
         0.00000E+00
         0.00000E+00
         0.00000E+00
         0.00000E+00
         0.00000E+00
         0.00000E+00
         0.00000E+00
         0.00000E+00
         0.00000E+00
         0.00000E+00
         0.00000E+00
         0.00000E+00
         0.00000E+00
         0.00000E+00
         0.00000E+00
         0.00000E+00
         0.00000E+00
         0.00000E+00
         0.00000E+00
         0.00000E+00
         0.00000E+00
         0.00000E+00
         0.00000E+00
         0.00000E+00
         0.00000E+00
         0.00000E+00
         0.00000E+00
         0.00000E+00
         0.00000E+00
         0.00000E+00
         0.00000E+00
         0.00000E+00
         0.00000E+00
         0.00000E+00
         0.00000E+00
         0.00000E+00
         0.00000E+00
         0.00000E+00
         0.00000E+00
         0.00000E+00
         0.00000E+00
         0.00000E+00
         0.00000E+00
         0.00000E+00
         0.00000E+00
         0.00000E+00
         0.00000E+00
         0.00000E+00
         0.00000E+00
         0.00000E+00
         0.00000E+00
         0.00000E+00
         0.00000E+00
         0.00000E+00
         0.00000E+00
         0.00000E+00
         0.00000E+00
         0.00000E+00
         0.00000E+00
         0.00000E+00
         0.00000E+00
         0.00000E+00
         0.00000E+00
         0.00000E+00
         0.00000E+00
         0.00000E+00
         0.00000E+00
         0.00000E+00
         0.00000E+00
         0.00000E+00
         0.00000E+00
         0.00000E+00
         0.00000E+00
         0.00000E+00
         0.00000E+00
         0.00000E+00
         0.00000E+00
         0.00000E+00
         0.00000E+00
         0.00000E+00
         0.00000E+00
         0.00000E+00
         0.00000E+00
         0.00000E+00
         0.00000E+00
         0.00000E+00
         0.00000E+00
         0.00000E+00
         0.00000E+00
         0.00000E+00
         0.00000E+00
         0.00000E+00
         0.00000E+00
         0.00000E+00
         0.00000E+00
         0.00000E+00
         0.00000E+00
         0.00000E+00
         0.00000E+00
         0.00000E+00
         0.00000E+00
         0.00000E+00
         0.00000E+00
         0.00000E+00
         0.00000E+00
         0.00000E+00
         0.00000E+00
         0.00000E+00
         0.00000E+00
         0.00000E+00
         0.00000E+00
         0.00000E+00
         0.00000E+00
         0.00000E+00
         0.00000E+00
         0.00000E+00
         0.00000E+00
         0.00000E+00
         0.00000E+00
         0.00000E+00
         0.00000E+00
         0.00000E+00
         0.00000E+00
         0.00000E+00
         0.00000E+00
         0.00000E+00
         0.00000E+00
         0.00000E+00
         0.00000E+00
         0.00000E+00
         0.00000E+00
         0.00000E+00
         0.00000E+00
         0.00000E+00
         0.00000E+00
         0.00000E+00
         0.00000E+00
         0.00000E+00
         0.00000E+00
         0.00000E+00
         0.00000E+00
         0.00000E+00
         0.00000E+00
         0.00000E+00
         0.00000E+00
         0.00000E+00
         0.00000E+00
         0.00000E+00
         0.00000E+00
         0.00000E+00
         0.00000E+00
         0.00000E+00
         0.00000E+00
         0.00000E+00
         0.00000E+00
         0.00000E+00
         0.00000E+00
         0.00000E+00
         0.00000E+00
         0.00000E+00
         0.00000E+00
         0.00000E+00
         0.00000E+00
         0.00000E+00
         0.00000E+00
         0.00000E+00
         0.00000E+00
         0.00000E+00
         0.00000E+00
         0.00000E+00
         0.00000E+00
         0.00000E+00
         0.00000E+00
         0.00000E+00
         0.00000E+00
         0.00000E+00
         0.00000E+00
         0.00000E+00
         0.00000E+00
         0.00000E+00
         0.00000E+00
         0.00000E+00
         0.00000E+00
         0.00000E+00
         0.00000E+00
         0.00000E+00
         0.00000E+00
         0.00000E+00
         0.00000E+00
         0.00000E+00
         0.00000E+00
         0.00000E+00
         0.00000E+00
         0.00000E+00
         0.00000E+00
         0.00000E+00
         0.00000E+00
         0.00000E+00
         0.00000E+00
         0.00000E+00
         0.00000E+00
         0.00000E+00
         0.00000E+00
         0.00000E+00
         0.00000E+00
         0.00000E+00
         0.00000E+00
         0.00000E+00
         0.00000E+00
         0.00000E+00
         0.00000E+00
         0.00000E+00
         0.00000E+00
         0.00000E+00
         0.00000E+00
         0.00000E+00
         0.00000E+00
         0.00000E+00
         0.00000E+00
         0.00000E+00
         0.00000E+00
         0.00000E+00
         0.00000E+00
         0.00000E+00
         0.00000E+00
         0.00000E+00
         0.00000E+00
         0.00000E+00
         0.00000E+00
         0.00000E+00
         0.00000E+00
         0.00000E+00
         0.00000E+00
         0.00000E+00
         0.00000E+00
         0.00000E+00
         0.00000E+00
         0.00000E+00
         0.00000E+00
         0.00000E+00
         0.00000E+00
         0.00000E+00
         0.00000E+00
         0.00000E+00
         0.00000E+00
         0.00000E+00
         0.00000E+00
         0.00000E+00
         0.00000E+00
         0.00000E+00
         0.00000E+00
         0.00000E+00
         0.00000E+00
         0.00000E+00
         0.00000E+00
         0.00000E+00
         0.00000E+00
         0.00000E+00
         0.00000E+00
         0.00000E+00
         0.00000E+00
         0.00000E+00
         0.00000E+00
         0.00000E+00
         0.00000E+00
         0.00000E+00
         0.00000E+00
         0.00000E+00
         0.00000E+00
         0.00000E+00
         0.00000E+00
         0.00000E+00
         0.00000E+00
         0.00000E+00
         0.00000E+00
         0.00000E+00
         0.00000E+00
         0.00000E+00
         0.00000E+00
         0.00000E+00
         0.00000E+00
         0.00000E+00
         0.00000E+00
         0.00000E+00
         0.00000E+00
         0.00000E+00
         0.00000E+00
         0.00000E+00
         0.00000E+00
         0.00000E+00
         0.00000E+00
         0.00000E+00
         0.00000E+00
         0.00000E+00
         0.00000E+00
         0.00000E+00
         0.00000E+00
         0.00000E+00
         0.00000E+00
         0.00000E+00
         0.00000E+00
         0.00000E+00
         0.00000E+00
         0.00000E+00
         0.00000E+00
         0.00000E+00
         0.00000E+00
         0.00000E+00
         0.00000E+00
         0.00000E+00
         0.00000E+00
         0.00000E+00
         0.00000E+00
         0.00000E+00
         0.00000E+00
         0.00000E+00
         0.00000E+00
         0.00000E+00
         0.00000E+00
         0.00000E+00
         0.00000E+00
         0.00000E+00
         0.00000E+00
         0.00000E+00
         0.00000E+00
         0.00000E+00
         0.00000E+00
         0.00000E+00
         0.00000E+00
         0.00000E+00
         0.00000E+00
         0.00000E+00
         0.00000E+00
         0.00000E+00
         0.00000E+00
         0.00000E+00
         0.00000E+00
         0.00000E+00
         0.00000E+00
         0.00000E+00
         0.00000E+00
         0.00000E+00
         0.00000E+00
         0.00000E+00
         0.00000E+00
         0.00000E+00
         0.00000E+00
         0.00000E+00
         0.00000E+00
         0.00000E+00
         0.00000E+00
         0.00000E+00
         0.00000E+00
         0.00000E+00
         0.00000E+00
         0.00000E+00
         0.00000E+00
         0.00000E+00
         0.00000E+00
         0.00000E+00
         0.00000E+00
         0.00000E+00
         0.00000E+00
         0.00000E+00
         0.00000E+00
         0.00000E+00
         0.00000E+00
         0.00000E+00
         0.00000E+00
         0.00000E+00
         0.00000E+00
         0.00000E+00
         0.00000E+00
         0.00000E+00
         0.00000E+00
         0.00000E+00
         0.00000E+00
         0.00000E+00
         0.00000E+00
         0.00000E+00
         0.00000E+00
         0.00000E+00
         0.00000E+00
         0.00000E+00
         0.00000E+00
         0.00000E+00
         0.00000E+00
         0.00000E+00
         0.00000E+00
         0.00000E+00
         0.00000E+00
         0.00000E+00
         0.00000E+00
         0.00000E+00
         0.00000E+00
         0.00000E+00
         0.00000E+00
         0.00000E+00
         0.00000E+00
         0.00000E+00
         0.00000E+00
         0.00000E+00
         0.00000E+00
         0.00000E+00
         0.00000E+00
         0.00000E+00
         0.00000E+00
         0.00000E+00
         0.00000E+00
         0.00000E+00
         0.00000E+00
         0.00000E+00
         0.00000E+00
         0.00000E+00
         0.00000E+00
         0.00000E+00
         0.00000E+00
         0.00000E+00
         0.00000E+00
         0.00000E+00
         0.00000E+00
         0.00000E+00
         0.00000E+00
         0.00000E+00
         0.00000E+00
         0.00000E+00
         0.00000E+00
         0.00000E+00
         0.00000E+00
         0.00000E+00
         0.00000E+00
         0.00000E+00
         0.00000E+00
         0.00000E+00
         0.00000E+00
         0.00000E+00
         0.00000E+00
         0.00000E+00
         0.00000E+00
         0.00000E+00
         0.00000E+00
         0.00000E+00
         0.00000E+00
         0.00000E+00
         0.00000E+00
         0.00000E+00
         0.00000E+00
         0.00000E+00
         0.00000E+00
         0.00000E+00
         0.00000E+00
         0.00000E+00
         0.00000E+00
         0.00000E+00
         0.00000E+00
         0.00000E+00
         0.00000E+00
         0.00000E+00
         0.00000E+00
         0.00000E+00
         0.00000E+00
         0.00000E+00
         0.00000E+00
         0.00000E+00
         0.00000E+00
         0.00000E+00
         0.00000E+00
         0.00000E+00
         0.00000E+00
         0.00000E+00
         0.00000E+00
         0.00000E+00
         0.00000E+00
         0.00000E+00
         0.00000E+00
         0.00000E+00
         0.00000E+00
         0.00000E+00
         0.00000E+00
         0.00000E+00
         0.00000E+00
         0.00000E+00
         0.00000E+00
         0.00000E+00
         0.00000E+00
         0.00000E+00
         0.00000E+00
         0.00000E+00
         0.00000E+00
         0.00000E+00
         0.00000E+00
         0.00000E+00
         0.00000E+00
         0.00000E+00
         0.00000E+00
         0.00000E+00
         0.00000E+00
         0.00000E+00
         0.00000E+00
         0.00000E+00
         0.00000E+00
         0.00000E+00
         0.00000E+00
         0.00000E+00
         0.00000E+00
         0.00000E+00
         0.00000E+00
         0.00000E+00
         0.00000E+00
         0.00000E+00
         0.00000E+00
         0.00000E+00
         0.00000E+00
         0.00000E+00
         0.00000E+00
         0.00000E+00
         0.00000E+00
         0.00000E+00
         0.00000E+00
         0.00000E+00
         0.00000E+00
         0.00000E+00
         0.00000E+00
         0.00000E+00
         0.00000E+00
         0.00000E+00
         0.00000E+00
         0.00000E+00
         0.00000E+00
         0.00000E+00
         0.00000E+00
         0.00000E+00
         0.00000E+00
         0.00000E+00
         0.00000E+00
         0.00000E+00
         0.00000E+00
         0.00000E+00
         0.00000E+00
         0.00000E+00
         0.00000E+00
         0.00000E+00
         0.00000E+00
         0.00000E+00
         0.00000E+00
         0.00000E+00
         0.00000E+00
         0.00000E+00
         0.00000E+00
         0.00000E+00
         0.00000E+00
         0.00000E+00
         0.00000E+00
         0.00000E+00
         0.00000E+00
         0.00000E+00
         0.00000E+00
         0.00000E+00
         0.00000E+00
         0.00000E+00
         0.00000E+00
         0.00000E+00
         0.00000E+00
         0.00000E+00
         0.00000E+00
         0.00000E+00
         0.00000E+00
         0.00000E+00
         0.00000E+00
         0.00000E+00
         0.00000E+00
         0.00000E+00
         0.00000E+00
         0.00000E+00
         0.00000E+00
         0.00000E+00
         0.00000E+00
         0.00000E+00
         0.00000E+00
         0.00000E+00
         0.00000E+00
         0.00000E+00
         0.00000E+00
         0.00000E+00
         0.00000E+00
         0.00000E+00
         0.00000E+00
         0.00000E+00
         0.00000E+00
         0.00000E+00
         0.00000E+00
         0.00000E+00
         0.00000E+00
         0.00000E+00
         0.00000E+00
         0.00000E+00
         0.00000E+00
         0.00000E+00
         0.00000E+00
         0.00000E+00
         0.00000E+00
         0.00000E+00
         0.00000E+00
         0.00000E+00
         0.00000E+00
         0.00000E+00
         0.00000E+00
         0.00000E+00
         0.00000E+00
         0.00000E+00
         0.00000E+00
         0.00000E+00
         0.00000E+00
         0.00000E+00
         0.00000E+00
         0.00000E+00
         0.00000E+00
         0.00000E+00
         0.00000E+00
         0.00000E+00
         0.00000E+00
         0.00000E+00
         0.00000E+00
         0.00000E+00
         0.00000E+00
         0.00000E+00
         0.00000E+00
         0.00000E+00
         0.00000E+00
         0.00000E+00
         0.00000E+00
         0.00000E+00
         0.00000E+00
         0.00000E+00
         0.00000E+00
         0.00000E+00
         0.00000E+00
         0.00000E+00
         0.00000E+00
         0.00000E+00
         0.00000E+00
         0.00000E+00
         0.00000E+00
         0.00000E+00
         0.00000E+00
         0.00000E+00
         0.00000E+00
         0.00000E+00
         0.00000E+00
         0.00000E+00
         0.00000E+00
         0.00000E+00
         0.00000E+00
         0.00000E+00
         0.00000E+00
         0.00000E+00
         0.00000E+00
         0.00000E+00
         0.00000E+00
         0.00000E+00
         0.00000E+00
         0.00000E+00
         0.00000E+00
         0.00000E+00
         0.00000E+00
         0.00000E+00
         0.00000E+00
         0.00000E+00
         0.00000E+00
         0.00000E+00
         0.00000E+00
         0.00000E+00
         0.00000E+00
         0.00000E+00
         0.00000E+00
         0.00000E+00
         0.00000E+00
         0.00000E+00
         0.00000E+00
         0.00000E+00
         0.00000E+00
         0.00000E+00
         0.00000E+00
         0.00000E+00
         0.00000E+00
         0.00000E+00
         0.00000E+00
         0.00000E+00
         0.00000E+00
         0.00000E+00
         0.00000E+00
         0.00000E+00
         0.00000E+00
         0.00000E+00
         0.00000E+00
         0.00000E+00
         0.00000E+00
         0.00000E+00
         0.00000E+00
         0.00000E+00
         0.00000E+00
         0.00000E+00
         0.00000E+00
         0.00000E+00
         0.00000E+00
         0.00000E+00
         0.00000E+00
         0.00000E+00
         0.00000E+00
         0.00000E+00
         0.00000E+00
         0.00000E+00
         0.00000E+00
         0.00000E+00
         0.00000E+00
         0.00000E+00
         0.00000E+00
         0.00000E+00
         0.00000E+00
         0.00000E+00
         0.00000E+00
         0.00000E+00
         0.00000E+00
         0.00000E+00
         0.00000E+00
         0.00000E+00
         0.00000E+00
         0.00000E+00
         0.00000E+00
         0.00000E+00
         0.00000E+00
         0.00000E+00
         0.00000E+00
         0.00000E+00
         0.00000E+00
         0.00000E+00
         0.00000E+00
         0.00000E+00
         0.00000E+00
         0.00000E+00
         0.00000E+00
         0.00000E+00
         0.00000E+00
         0.00000E+00
         0.00000E+00
         0.00000E+00
         0.00000E+00
         0.00000E+00
         0.00000E+00
         0.00000E+00
         0.00000E+00
         0.00000E+00
         0.00000E+00
         0.00000E+00
         0.00000E+00
         0.00000E+00
         0.00000E+00
         0.00000E+00
         0.00000E+00
         0.00000E+00
         0.00000E+00
         0.00000E+00
         0.00000E+00
         0.00000E+00
         0.00000E+00
         0.00000E+00
         0.00000E+00
         0.00000E+00
         0.00000E+00
         0.00000E+00
         0.00000E+00
         0.00000E+00
         0.00000E+00
         0.00000E+00
         0.00000E+00
         0.00000E+00
         0.00000E+00
         0.00000E+00
         0.00000E+00
         0.00000E+00
         0.00000E+00
         0.00000E+00
         0.00000E+00
         0.00000E+00
         0.00000E+00
         0.00000E+00
         0.00000E+00
         0.00000E+00
         0.00000E+00
         0.00000E+00
         0.00000E+00
         0.00000E+00
         0.00000E+00
         0.00000E+00
         0.00000E+00
         0.00000E+00
         0.00000E+00
         0.00000E+00
         0.00000E+00
         0.00000E+00
         0.00000E+00
         0.00000E+00
         0.00000E+00
         0.00000E+00
         0.00000E+00
         0.00000E+00
         0.00000E+00
         0.00000E+00
         0.00000E+00
         0.00000E+00
         0.00000E+00
         0.00000E+00
         0.00000E+00
         0.00000E+00
         0.00000E+00
         0.00000E+00
         0.00000E+00
         0.00000E+00
         0.00000E+00
         0.00000E+00
         0.00000E+00
         0.00000E+00
         0.00000E+00
         0.00000E+00
         0.00000E+00
         0.00000E+00
         0.00000E+00
         0.00000E+00
         0.00000E+00
         0.00000E+00
         0.00000E+00
         0.00000E+00
         0.00000E+00
         0.00000E+00
         0.00000E+00
         0.00000E+00
         0.00000E+00
         0.00000E+00
         0.00000E+00
         0.00000E+00
         0.00000E+00
         0.00000E+00
         0.00000E+00
         0.00000E+00
         0.00000E+00
         0.00000E+00
         0.00000E+00
         0.00000E+00
         0.00000E+00
         0.00000E+00
         0.00000E+00
         0.00000E+00
         0.00000E+00
         0.00000E+00
         0.00000E+00
         0.00000E+00
         0.00000E+00
         0.00000E+00
         0.00000E+00
         0.00000E+00
         0.00000E+00
         0.00000E+00
         0.00000E+00
         0.00000E+00
         0.00000E+00
         0.00000E+00
         0.00000E+00
         0.00000E+00
         0.00000E+00
         0.00000E+00
         0.00000E+00
         0.00000E+00
         0.00000E+00
         0.00000E+00
         0.00000E+00
         0.00000E+00
         0.00000E+00
         0.00000E+00
         0.00000E+00
         0.00000E+00
         0.00000E+00
         0.00000E+00
         0.00000E+00
         0.00000E+00
         0.00000E+00
         0.00000E+00
         0.00000E+00
         0.00000E+00
         0.00000E+00
         0.00000E+00
         0.00000E+00
         0.00000E+00
         0.00000E+00
         0.00000E+00
         0.00000E+00
         0.00000E+00
         0.00000E+00
         0.00000E+00
         0.00000E+00
         0.00000E+00
         0.00000E+00
         0.00000E+00
         0.00000E+00
         0.00000E+00
         0.00000E+00
         0.00000E+00
         0.00000E+00
         0.00000E+00
         0.00000E+00
         0.00000E+00
         0.00000E+00
         0.00000E+00
         0.00000E+00
         0.00000E+00
         0.00000E+00
         0.00000E+00
         0.00000E+00
         0.00000E+00
         0.00000E+00
         0.00000E+00
         0.00000E+00
         0.00000E+00
         0.00000E+00
         0.00000E+00
         0.00000E+00
         0.00000E+00
         0.00000E+00
         0.00000E+00
         0.00000E+00
         0.00000E+00
         0.00000E+00
         0.00000E+00
         0.00000E+00
         0.00000E+00
         0.00000E+00
         0.00000E+00
         0.00000E+00
         0.00000E+00
         0.00000E+00
         0.00000E+00
         0.00000E+00
         0.00000E+00
         0.00000E+00
         0.00000E+00
         0.00000E+00
         0.00000E+00
         0.00000E+00
         0.00000E+00
         0.00000E+00
         0.00000E+00
         0.00000E+00
         0.00000E+00
         0.00000E+00
         0.00000E+00
         0.00000E+00
         0.00000E+00
         0.00000E+00
         0.00000E+00
         0.00000E+00
         0.00000E+00
         0.00000E+00
         0.00000E+00
         0.00000E+00
         0.00000E+00
         0.00000E+00
         0.00000E+00
         0.00000E+00
         0.00000E+00
         0.00000E+00
         0.00000E+00
         0.00000E+00
         0.00000E+00
         0.00000E+00
         0.00000E+00
         0.00000E+00
         0.00000E+00
         0.00000E+00
         0.00000E+00
         0.00000E+00
         0.00000E+00
         0.00000E+00
         0.00000E+00
         0.00000E+00
         0.00000E+00
         0.00000E+00
         0.00000E+00
         0.00000E+00
         0.00000E+00
         0.00000E+00
         0.00000E+00
         0.00000E+00
         0.00000E+00
         0.00000E+00
         0.00000E+00
         0.00000E+00
         0.00000E+00
         0.00000E+00
         0.00000E+00
         0.00000E+00
         0.00000E+00
         0.00000E+00
         0.00000E+00
         0.00000E+00
         0.00000E+00
         0.00000E+00
         0.00000E+00
         0.00000E+00
         0.00000E+00
         0.00000E+00
         0.00000E+00
         0.00000E+00
         0.00000E+00
         0.00000E+00
         0.00000E+00
         0.00000E+00
         0.00000E+00
         0.00000E+00
         0.00000E+00
         0.00000E+00
         0.00000E+00
         0.00000E+00
         0.00000E+00
         0.00000E+00
         0.00000E+00
         0.00000E+00
         0.00000E+00
         0.00000E+00
         0.00000E+00
         0.00000E+00
         0.00000E+00
         0.00000E+00
         0.00000E+00
         0.00000E+00
         0.00000E+00
         0.00000E+00
         0.00000E+00
         0.00000E+00
         0.00000E+00
         0.00000E+00
         0.00000E+00
         0.00000E+00
         0.00000E+00
         0.00000E+00
         0.00000E+00
         0.00000E+00
         0.00000E+00
         0.00000E+00
         0.00000E+00
         0.00000E+00
         0.00000E+00
         0.00000E+00
         0.00000E+00
         0.00000E+00
         0.00000E+00
         0.00000E+00
         0.00000E+00
         0.00000E+00
         0.00000E+00
         0.00000E+00
         0.00000E+00
         0.00000E+00
         0.00000E+00
         0.00000E+00
         0.00000E+00
         0.00000E+00
         0.00000E+00
         0.00000E+00
         0.00000E+00
         0.00000E+00
         0.00000E+00
         0.00000E+00
         0.00000E+00
         0.00000E+00
         0.00000E+00
         0.00000E+00
         0.00000E+00
         0.00000E+00
         0.00000E+00
         0.00000E+00
         0.00000E+00
         0.00000E+00
         0.00000E+00
         0.00000E+00
         0.00000E+00
         0.00000E+00
         0.00000E+00
         0.00000E+00
         0.00000E+00
         0.00000E+00
         0.00000E+00
         0.00000E+00
         0.00000E+00
         0.00000E+00
         0.00000E+00
         0.00000E+00
         0.00000E+00
         0.00000E+00
         0.00000E+00
         0.00000E+00
         0.00000E+00
         0.00000E+00
         0.00000E+00
         0.00000E+00
         0.00000E+00
         0.00000E+00
         0.00000E+00
         0.00000E+00
         0.00000E+00
         0.00000E+00
         0.00000E+00
         0.00000E+00
         0.00000E+00
         0.00000E+00
         0.00000E+00
         0.00000E+00
         0.00000E+00
         0.00000E+00
         0.00000E+00
         0.00000E+00
         0.00000E+00
         0.00000E+00
         0.00000E+00
         0.00000E+00
         0.00000E+00
         0.00000E+00
         0.00000E+00
         0.00000E+00
         0.00000E+00
         0.00000E+00
         0.00000E+00
         0.00000E+00
         0.00000E+00
         0.00000E+00
         0.00000E+00
         0.00000E+00
         0.00000E+00
         0.00000E+00
         0.00000E+00
         0.00000E+00
         0.00000E+00
         0.00000E+00
         0.00000E+00
         0.00000E+00
         0.00000E+00
         0.00000E+00
         0.00000E+00
         0.00000E+00
         0.00000E+00
         0.00000E+00
         0.00000E+00
         0.00000E+00
         0.00000E+00
         0.00000E+00
         0.00000E+00
         0.00000E+00
         0.00000E+00
         0.00000E+00
         0.00000E+00
         0.00000E+00
         0.00000E+00
         0.00000E+00
         0.00000E+00
         0.00000E+00
         0.00000E+00
         0.00000E+00
         0.00000E+00
         0.00000E+00
         0.00000E+00
         0.00000E+00
         0.00000E+00
         0.00000E+00
         0.00000E+00
         0.00000E+00
         0.00000E+00
         0.00000E+00
         0.00000E+00
         0.00000E+00
         0.00000E+00
         0.00000E+00
         0.00000E+00
         0.00000E+00
         0.00000E+00
         0.00000E+00
         0.00000E+00
         0.00000E+00
         0.00000E+00
         0.00000E+00
         0.00000E+00
         0.00000E+00
         0.00000E+00
         0.00000E+00
         0.00000E+00
         0.00000E+00
         0.00000E+00
         0.00000E+00
         0.00000E+00
         0.00000E+00
         0.00000E+00
         0.00000E+00
         0.00000E+00
         0.00000E+00
         0.00000E+00
         0.00000E+00
         0.00000E+00
         0.00000E+00
         0.00000E+00
         0.00000E+00
         0.00000E+00
         0.00000E+00
         0.00000E+00
         0.00000E+00
         0.00000E+00
         0.00000E+00
         0.00000E+00
         0.00000E+00
         0.00000E+00
         0.00000E+00
         0.00000E+00
         0.00000E+00
         0.00000E+00
         0.00000E+00
         0.00000E+00
         0.00000E+00
         0.00000E+00
         0.00000E+00
         0.00000E+00
         0.00000E+00
         0.00000E+00
         0.00000E+00
         0.00000E+00
         0.00000E+00
         0.00000E+00
         0.00000E+00
         0.00000E+00
         0.00000E+00
         0.00000E+00
         0.00000E+00
         0.00000E+00
         0.00000E+00
         0.00000E+00
         0.00000E+00
         0.00000E+00
         0.00000E+00
         0.00000E+00
         0.00000E+00
         0.00000E+00
         0.00000E+00
         0.00000E+00
         0.00000E+00
         0.00000E+00
         0.00000E+00
         0.00000E+00
         0.00000E+00
         0.00000E+00
         0.00000E+00
         0.00000E+00
         0.00000E+00
         0.00000E+00
         0.00000E+00
         0.00000E+00
         0.00000E+00
         0.00000E+00
         0.00000E+00
         0.00000E+00
         0.00000E+00
         0.00000E+00
         0.00000E+00
         0.00000E+00
         0.00000E+00
         0.00000E+00
         0.00000E+00
         0.00000E+00
         0.00000E+00
         0.00000E+00
         0.00000E+00
         0.00000E+00
         0.00000E+00
         0.00000E+00
         0.00000E+00
         0.00000E+00
         0.00000E+00
         0.00000E+00
         0.00000E+00
         0.00000E+00
         0.00000E+00
         0.00000E+00
         0.00000E+00
         0.00000E+00
         0.00000E+00
         0.00000E+00
         0.00000E+00
         0.00000E+00
         0.00000E+00
         0.00000E+00
         0.00000E+00
         0.00000E+00
         0.00000E+00
         0.00000E+00
         0.00000E+00
         0.00000E+00
         0.00000E+00
         0.00000E+00
         0.00000E+00
         0.00000E+00
         0.00000E+00
         0.00000E+00
         0.00000E+00
         0.00000E+00
         0.00000E+00
         0.00000E+00
         0.00000E+00
         0.00000E+00
         0.00000E+00
         0.00000E+00
         0.00000E+00
         0.00000E+00
         0.00000E+00
         0.00000E+00
         0.00000E+00
         0.00000E+00
         0.00000E+00
         0.00000E+00
         0.00000E+00
         0.00000E+00
         0.00000E+00
         0.00000E+00
         0.00000E+00
         0.00000E+00
         0.00000E+00
         0.00000E+00
         0.00000E+00
         0.00000E+00
         0.00000E+00
         0.00000E+00
         0.00000E+00
         0.00000E+00
         0.00000E+00
         0.00000E+00
         0.00000E+00
         0.00000E+00
         0.00000E+00
         0.00000E+00
         0.00000E+00
         0.00000E+00
         0.00000E+00
         0.00000E+00
         0.00000E+00
         0.00000E+00
         0.00000E+00
         0.00000E+00
         0.00000E+00
         0.00000E+00
         0.00000E+00
         0.00000E+00
         0.00000E+00
         0.00000E+00
         0.00000E+00
         0.00000E+00
         0.00000E+00
         0.00000E+00
         0.00000E+00
         0.00000E+00
         0.00000E+00
         0.00000E+00
         0.00000E+00
         0.00000E+00
         0.00000E+00
         0.00000E+00
         0.00000E+00
         0.00000E+00
         0.00000E+00
         0.00000E+00
         0.00000E+00
         0.00000E+00
         0.00000E+00
         0.00000E+00
         0.00000E+00
         0.00000E+00
         0.00000E+00
         0.00000E+00
         0.00000E+00
         0.00000E+00
         0.00000E+00
         0.00000E+00
         0.00000E+00
         0.00000E+00
         0.00000E+00
         0.00000E+00
         0.00000E+00
         0.00000E+00
         0.00000E+00
         0.00000E+00
         0.00000E+00
         0.00000E+00
         0.00000E+00
         0.00000E+00
         0.00000E+00
         0.00000E+00
         0.00000E+00
         0.00000E+00
         0.00000E+00
         0.00000E+00
         0.00000E+00
         0.00000E+00
         0.00000E+00
         0.00000E+00
         0.00000E+00
         0.00000E+00
         0.00000E+00
         0.00000E+00
         0.00000E+00
         0.00000E+00
         0.00000E+00
         0.00000E+00
         0.00000E+00
         0.00000E+00
         0.00000E+00
         0.00000E+00
         0.00000E+00
         0.00000E+00
         0.00000E+00
         0.00000E+00
         0.00000E+00
         0.00000E+00
         0.00000E+00
         0.00000E+00
         0.00000E+00
         0.00000E+00
         0.00000E+00
         0.00000E+00
         0.00000E+00
         0.00000E+00
         0.00000E+00
         0.00000E+00
         0.00000E+00
         0.00000E+00
         0.00000E+00
         0.00000E+00
         0.00000E+00
         0.00000E+00
         0.00000E+00
         0.00000E+00
         0.00000E+00
         0.00000E+00
         0.00000E+00
         0.00000E+00
         0.00000E+00
         0.00000E+00
         0.00000E+00
         0.00000E+00
         0.00000E+00
         0.00000E+00
         0.00000E+00
         0.00000E+00
         0.00000E+00
         0.00000E+00
         0.00000E+00
         0.00000E+00
         0.00000E+00
         0.00000E+00
         0.00000E+00
         0.00000E+00
         0.00000E+00
         0.00000E+00
         0.00000E+00
         0.00000E+00
         0.00000E+00
         0.00000E+00
         0.00000E+00
         0.00000E+00
         0.00000E+00
         0.00000E+00
         0.00000E+00
         0.00000E+00
         0.00000E+00
         0.00000E+00
         0.00000E+00
         0.00000E+00
         0.00000E+00
         0.00000E+00
         0.00000E+00
         0.00000E+00
         0.00000E+00
         0.00000E+00
         0.00000E+00
         0.00000E+00
         0.00000E+00
         0.00000E+00
         0.00000E+00
         0.00000E+00
         0.00000E+00
         0.00000E+00
         0.00000E+00
         0.00000E+00
         0.00000E+00
         0.00000E+00
         0.00000E+00
         0.00000E+00
         0.00000E+00
         0.00000E+00
         0.00000E+00
         0.00000E+00
         0.00000E+00
         0.00000E+00
         0.00000E+00
         0.00000E+00
         0.00000E+00
         0.00000E+00
         0.00000E+00
         0.00000E+00
         0.00000E+00
         0.00000E+00
         0.00000E+00
         0.00000E+00
         0.00000E+00
         0.00000E+00
         0.00000E+00
         0.00000E+00
         0.00000E+00
         0.00000E+00
         0.00000E+00
         0.00000E+00
         0.00000E+00
         0.00000E+00
         0.00000E+00
         0.00000E+00
         0.00000E+00
         0.00000E+00
         0.00000E+00
         0.00000E+00
         0.00000E+00
         0.00000E+00
         0.00000E+00
         0.00000E+00
         0.00000E+00
         0.00000E+00
         0.00000E+00
         0.00000E+00
         0.00000E+00
         0.00000E+00
         0.00000E+00
         0.00000E+00
         0.00000E+00
         0.00000E+00
         0.00000E+00
         0.00000E+00
         0.00000E+00
         0.00000E+00
         0.00000E+00
         0.00000E+00
         0.00000E+00
         0.00000E+00
         0.00000E+00
         0.00000E+00
         0.00000E+00
         0.00000E+00
         0.00000E+00
         0.00000E+00
         0.00000E+00
         0.00000E+00
         0.00000E+00
         0.00000E+00
         0.00000E+00
         0.00000E+00
         0.00000E+00
         0.00000E+00
         0.00000E+00
         0.00000E+00
         0.00000E+00
         0.00000E+00
         0.00000E+00
         0.00000E+00
         0.00000E+00
         0.00000E+00
         0.00000E+00
         0.00000E+00
         0.00000E+00
         0.00000E+00
         0.00000E+00
         0.00000E+00
         0.00000E+00
         0.00000E+00
         0.00000E+00
         0.00000E+00
         0.00000E+00
         0.00000E+00
         0.00000E+00
         0.00000E+00
         0.00000E+00
         0.00000E+00
         0.00000E+00
         0.00000E+00
         0.00000E+00
         0.00000E+00
         0.00000E+00
         0.00000E+00
         0.00000E+00
         0.00000E+00
         0.00000E+00
         0.00000E+00
         0.00000E+00
         0.00000E+00
         0.00000E+00
         0.00000E+00
         0.00000E+00
         0.00000E+00
         0.00000E+00
         0.00000E+00
         0.00000E+00
         0.00000E+00
         0.00000E+00
         0.00000E+00
         0.00000E+00
         0.00000E+00
         0.00000E+00
         0.00000E+00
         0.00000E+00
         0.00000E+00
         0.00000E+00
         0.00000E+00
         0.00000E+00
         0.00000E+00
         0.00000E+00
         0.00000E+00
         0.00000E+00
         0.00000E+00
         0.00000E+00
         0.00000E+00
         0.00000E+00
         0.00000E+00
         0.00000E+00
         0.00000E+00
         0.00000E+00
         0.00000E+00
         0.00000E+00
         0.00000E+00
         0.00000E+00
         0.00000E+00
         0.00000E+00
         0.00000E+00
         0.00000E+00
         0.00000E+00
         0.00000E+00
         0.00000E+00
         0.00000E+00
         0.00000E+00
         0.00000E+00
         0.00000E+00
         0.00000E+00
         0.00000E+00
         0.00000E+00
         0.00000E+00
         0.00000E+00
         0.00000E+00
         0.00000E+00
         0.00000E+00
         0.00000E+00
         0.00000E+00
         0.00000E+00
         0.00000E+00
         0.00000E+00
         0.00000E+00
         0.00000E+00
         0.00000E+00
         0.00000E+00
         0.00000E+00
         0.00000E+00
         0.00000E+00
         0.00000E+00
         0.00000E+00
         0.00000E+00
         0.00000E+00
         0.00000E+00
         0.00000E+00
         0.00000E+00
         0.00000E+00
         0.00000E+00
         0.00000E+00
         0.00000E+00
         0.00000E+00
         0.00000E+00
         0.00000E+00
         0.00000E+00
         0.00000E+00
         0.00000E+00
         0.00000E+00
         0.00000E+00
         0.00000E+00
         0.00000E+00
         0.00000E+00
         0.00000E+00
         0.00000E+00
         0.00000E+00
         0.00000E+00
         0.00000E+00
         0.00000E+00
         0.00000E+00
         0.00000E+00
         0.00000E+00
         0.00000E+00
         0.00000E+00
         0.00000E+00
         0.00000E+00
         0.00000E+00
         0.00000E+00
         0.00000E+00
         0.00000E+00
         0.00000E+00
         0.00000E+00
         0.00000E+00
         0.00000E+00
         0.00000E+00
         0.00000E+00
         0.00000E+00
         0.00000E+00
         0.00000E+00
         0.00000E+00
         0.00000E+00
         0.00000E+00
         0.00000E+00
         0.00000E+00
         0.00000E+00
         0.00000E+00
         0.00000E+00
         0.00000E+00
         0.00000E+00
         0.00000E+00
         0.00000E+00
         0.00000E+00
         0.00000E+00
         0.00000E+00
         0.00000E+00
         0.00000E+00
         0.00000E+00
         0.00000E+00
         0.00000E+00
         0.00000E+00
         0.00000E+00
         0.00000E+00
         0.00000E+00
         0.00000E+00
         0.00000E+00
         0.00000E+00
         0.00000E+00
         0.00000E+00
         0.00000E+00
         0.00000E+00
         0.00000E+00
         0.00000E+00
         0.00000E+00
         0.00000E+00
         0.00000E+00
         0.00000E+00
         0.00000E+00
         0.00000E+00
         0.00000E+00
         0.00000E+00
         0.00000E+00
         0.00000E+00
         0.00000E+00
         0.00000E+00
         0.00000E+00
         0.00000E+00
         0.00000E+00
         0.00000E+00
         0.00000E+00
         0.00000E+00
         0.00000E+00
         0.00000E+00
         0.00000E+00
         0.00000E+00
         0.00000E+00
         0.00000E+00
         0.00000E+00
         0.00000E+00
         0.00000E+00
         0.00000E+00
         0.00000E+00
         0.00000E+00
         0.00000E+00
         0.00000E+00
         0.00000E+00
         0.00000E+00
         0.00000E+00
         0.00000E+00
         0.00000E+00
         0.00000E+00
         0.00000E+00
         0.00000E+00
         0.00000E+00
         0.00000E+00
         0.00000E+00
         0.00000E+00
         0.00000E+00
         0.00000E+00
         0.00000E+00
         0.00000E+00
         0.00000E+00
         0.00000E+00
         0.00000E+00
         0.00000E+00
         0.00000E+00
         0.00000E+00
         0.00000E+00
         0.00000E+00
         0.00000E+00
         0.00000E+00
         0.00000E+00
         0.00000E+00
         0.00000E+00
         0.00000E+00
         0.00000E+00
         0.00000E+00
         0.00000E+00
         0.00000E+00
         0.00000E+00
         0.00000E+00
         0.00000E+00
         0.00000E+00
         0.00000E+00
         0.00000E+00
         0.00000E+00
         0.00000E+00
         0.00000E+00
         0.00000E+00
         0.00000E+00
         0.00000E+00
         0.00000E+00
         0.00000E+00
         0.00000E+00
         0.00000E+00
         0.00000E+00
         0.00000E+00
         0.00000E+00
         0.00000E+00
         0.00000E+00
         0.00000E+00
         0.00000E+00
         0.00000E+00
         0.00000E+00
         0.00000E+00
         0.00000E+00
         0.00000E+00
         0.00000E+00
         0.00000E+00
         0.00000E+00
         0.00000E+00
         0.00000E+00
         0.00000E+00
         0.00000E+00
         0.00000E+00
         0.00000E+00
         0.00000E+00
         0.00000E+00
         0.00000E+00
         0.00000E+00
         0.00000E+00
         0.00000E+00
         0.00000E+00
         0.00000E+00
         0.00000E+00
         0.00000E+00
         0.00000E+00
         0.00000E+00
         0.00000E+00
         0.00000E+00
         0.00000E+00
         0.00000E+00
         0.00000E+00
         0.00000E+00
         0.00000E+00
         0.00000E+00
         0.00000E+00
         0.00000E+00
         0.00000E+00
         0.00000E+00
         0.00000E+00
         0.00000E+00
         0.00000E+00
         0.00000E+00
         0.00000E+00
         0.00000E+00
         0.00000E+00
         0.00000E+00
         0.00000E+00
         0.00000E+00
         0.00000E+00
         0.00000E+00
         0.00000E+00
         0.00000E+00
         0.00000E+00
         0.00000E+00
         0.00000E+00
         0.00000E+00
         0.00000E+00
         0.00000E+00
         0.00000E+00
         0.00000E+00
         0.00000E+00
         0.00000E+00
         0.00000E+00
         0.00000E+00
         0.00000E+00
         0.00000E+00
         0.00000E+00
         0.00000E+00
         0.00000E+00
         0.00000E+00
         0.00000E+00
         0.00000E+00
         0.00000E+00
         0.00000E+00
         0.00000E+00
         0.00000E+00
         0.00000E+00
         0.00000E+00
         0.00000E+00
         0.00000E+00
         0.00000E+00
         0.00000E+00
         0.00000E+00
         0.00000E+00
         0.00000E+00
         0.00000E+00
         0.00000E+00
         0.00000E+00
         0.00000E+00
         0.00000E+00
         0.00000E+00
         0.00000E+00
         0.00000E+00
         0.00000E+00
         0.00000E+00
         0.00000E+00
         0.00000E+00
         0.00000E+00
         0.00000E+00
         0.00000E+00
         0.00000E+00
         0.00000E+00
         0.00000E+00
         0.00000E+00
         0.00000E+00
  
SCALARS               pre_disp_force_z  double 1
LOOKUP_TABLE default
         0.00000E+00
         0.00000E+00
         0.00000E+00
         0.00000E+00
        -0.00000E+00
        -0.00000E+00
        -0.00000E+00
        -0.00000E+00
         0.00000E+00
         0.00000E+00
        -0.00000E+00
        -0.00000E+00
         0.00000E+00
         0.00000E+00
        -0.00000E+00
        -0.00000E+00
         0.00000E+00
         0.00000E+00
        -0.00000E+00
        -0.00000E+00
         0.00000E+00
         0.00000E+00
         0.00000E+00
        -0.00000E+00
        -0.00000E+00
        -0.00000E+00
         0.00000E+00
         0.00000E+00
        -0.00000E+00
        -0.00000E+00
         0.00000E+00
         0.00000E+00
         0.00000E+00
        -0.00000E+00
        -0.00000E+00
        -0.00000E+00
         0.00000E+00
         0.00000E+00
        -0.00000E+00
        -0.00000E+00
         0.00000E+00
         0.00000E+00
        -0.00000E+00
        -0.00000E+00
         0.00000E+00
         0.00000E+00
        -0.00000E+00
        -0.00000E+00
         0.00000E+00
        -0.00000E+00
         0.00000E+00
        -0.00000E+00
         0.00000E+00
        -0.00000E+00
         0.00000E+00
        -0.00000E+00
         0.00000E+00
         0.00000E+00
        -0.00000E+00
        -0.00000E+00
         0.00000E+00
         0.00000E+00
        -0.00000E+00
        -0.00000E+00
         0.00000E+00
        -0.00000E+00
         0.00000E+00
        -0.00000E+00
         0.00000E+00
         0.00000E+00
        -0.00000E+00
        -0.00000E+00
         0.00000E+00
        -0.00000E+00
         0.00000E+00
        -0.00000E+00
         0.00000E+00
        -0.00000E+00
         0.00000E+00
        -0.00000E+00
         0.00000E+00
         0.00000E+00
        -0.00000E+00
        -0.00000E+00
         0.00000E+00
        -0.00000E+00
         0.00000E+00
        -0.00000E+00
         0.00000E+00
        -0.00000E+00
         0.00000E+00
         0.00000E+00
        -0.00000E+00
        -0.00000E+00
         0.00000E+00
        -0.00000E+00
         0.00000E+00
        -0.00000E+00
         0.00000E+00
        -0.00000E+00
         0.00000E+00
         0.00000E+00
        -0.00000E+00
        -0.00000E+00
         0.00000E+00
         0.00000E+00
        -0.00000E+00
        -0.00000E+00
         0.00000E+00
        -0.00000E+00
         0.00000E+00
        -0.00000E+00
         0.00000E+00
        -0.00000E+00
         0.00000E+00
        -0.00000E+00
         0.00000E+00
        -0.00000E+00
         0.00000E+00
        -0.00000E+00
         0.00000E+00
        -0.00000E+00
         0.00000E+00
        -0.00000E+00
         0.00000E+00
        -0.00000E+00
         0.00000E+00
        -0.00000E+00
         0.00000E+00
        -0.00000E+00
         0.00000E+00
        -0.00000E+00
         0.00000E+00
        -0.00000E+00
         0.00000E+00
        -0.00000E+00
         0.00000E+00
        -0.00000E+00
         0.00000E+00
        -0.00000E+00
         0.00000E+00
        -0.00000E+00
         0.00000E+00
        -0.00000E+00
         0.00000E+00
        -0.00000E+00
         0.00000E+00
        -0.00000E+00
         0.00000E+00
        -0.00000E+00
         0.00000E+00
        -0.00000E+00
         0.00000E+00
        -0.00000E+00
         0.00000E+00
        -0.00000E+00
         0.00000E+00
         0.00000E+00
         0.00000E+00
         0.00000E+00
         0.00000E+00
         0.00000E+00
         0.00000E+00
         0.00000E+00
         0.00000E+00
         0.00000E+00
         0.00000E+00
         0.00000E+00
         0.00000E+00
         0.00000E+00
         0.00000E+00
         0.00000E+00
         0.00000E+00
         0.00000E+00
         0.00000E+00
         0.00000E+00
         0.00000E+00
         0.00000E+00
         0.00000E+00
         0.00000E+00
         0.00000E+00
         0.00000E+00
         0.00000E+00
         0.00000E+00
         0.00000E+00
         0.00000E+00
         0.00000E+00
         0.00000E+00
         0.00000E+00
         0.00000E+00
         0.00000E+00
         0.00000E+00
         0.00000E+00
         0.00000E+00
         0.00000E+00
         0.00000E+00
         0.00000E+00
         0.00000E+00
         0.00000E+00
         0.00000E+00
         0.00000E+00
         0.00000E+00
         0.00000E+00
         0.00000E+00
         0.00000E+00
         0.00000E+00
         0.00000E+00
         0.00000E+00
         0.00000E+00
         0.00000E+00
         0.00000E+00
         0.00000E+00
         0.00000E+00
         0.00000E+00
         0.00000E+00
         0.00000E+00
         0.00000E+00
         0.00000E+00
         0.00000E+00
         0.00000E+00
         0.00000E+00
         0.00000E+00
         0.00000E+00
         0.00000E+00
         0.00000E+00
         0.00000E+00
         0.00000E+00
         0.00000E+00
         0.00000E+00
         0.00000E+00
         0.00000E+00
         0.00000E+00
         0.00000E+00
         0.00000E+00
         0.00000E+00
         0.00000E+00
         0.00000E+00
         0.00000E+00
         0.00000E+00
         0.00000E+00
         0.00000E+00
         0.00000E+00
         0.00000E+00
         0.00000E+00
         0.00000E+00
         0.00000E+00
         0.00000E+00
         0.00000E+00
         0.00000E+00
         0.00000E+00
         0.00000E+00
         0.00000E+00
         0.00000E+00
         0.00000E+00
         0.00000E+00
         0.00000E+00
         0.00000E+00
         0.00000E+00
         0.00000E+00
         0.00000E+00
         0.00000E+00
         0.00000E+00
         0.00000E+00
         0.00000E+00
         0.00000E+00
         0.00000E+00
         0.00000E+00
         0.00000E+00
         0.00000E+00
         0.00000E+00
         0.00000E+00
         0.00000E+00
         0.00000E+00
         0.00000E+00
         0.00000E+00
         0.00000E+00
         0.00000E+00
         0.00000E+00
         0.00000E+00
         0.00000E+00
         0.00000E+00
         0.00000E+00
         0.00000E+00
         0.00000E+00
         0.00000E+00
         0.00000E+00
         0.00000E+00
         0.00000E+00
         0.00000E+00
         0.00000E+00
         0.00000E+00
         0.00000E+00
         0.00000E+00
         0.00000E+00
         0.00000E+00
         0.00000E+00
         0.00000E+00
         0.00000E+00
         0.00000E+00
         0.00000E+00
         0.00000E+00
         0.00000E+00
         0.00000E+00
         0.00000E+00
         0.00000E+00
         0.00000E+00
         0.00000E+00
         0.00000E+00
         0.00000E+00
         0.00000E+00
         0.00000E+00
         0.00000E+00
         0.00000E+00
         0.00000E+00
         0.00000E+00
         0.00000E+00
         0.00000E+00
         0.00000E+00
         0.00000E+00
         0.00000E+00
         0.00000E+00
         0.00000E+00
         0.00000E+00
         0.00000E+00
         0.00000E+00
         0.00000E+00
         0.00000E+00
         0.00000E+00
         0.00000E+00
         0.00000E+00
         0.00000E+00
         0.00000E+00
         0.00000E+00
         0.00000E+00
         0.00000E+00
         0.00000E+00
         0.00000E+00
         0.00000E+00
         0.00000E+00
         0.00000E+00
         0.00000E+00
         0.00000E+00
         0.00000E+00
         0.00000E+00
         0.00000E+00
         0.00000E+00
         0.00000E+00
         0.00000E+00
         0.00000E+00
         0.00000E+00
         0.00000E+00
         0.00000E+00
         0.00000E+00
         0.00000E+00
         0.00000E+00
         0.00000E+00
         0.00000E+00
         0.00000E+00
         0.00000E+00
         0.00000E+00
         0.00000E+00
         0.00000E+00
         0.00000E+00
         0.00000E+00
         0.00000E+00
         0.00000E+00
         0.00000E+00
         0.00000E+00
         0.00000E+00
         0.00000E+00
         0.00000E+00
         0.00000E+00
         0.00000E+00
         0.00000E+00
         0.00000E+00
         0.00000E+00
         0.00000E+00
         0.00000E+00
         0.00000E+00
         0.00000E+00
         0.00000E+00
         0.00000E+00
         0.00000E+00
         0.00000E+00
         0.00000E+00
         0.00000E+00
         0.00000E+00
         0.00000E+00
         0.00000E+00
         0.00000E+00
         0.00000E+00
         0.00000E+00
         0.00000E+00
         0.00000E+00
         0.00000E+00
         0.00000E+00
         0.00000E+00
         0.00000E+00
         0.00000E+00
         0.00000E+00
         0.00000E+00
         0.00000E+00
         0.00000E+00
         0.00000E+00
         0.00000E+00
         0.00000E+00
         0.00000E+00
         0.00000E+00
         0.00000E+00
         0.00000E+00
         0.00000E+00
         0.00000E+00
         0.00000E+00
         0.00000E+00
         0.00000E+00
         0.00000E+00
         0.00000E+00
         0.00000E+00
         0.00000E+00
         0.00000E+00
         0.00000E+00
         0.00000E+00
         0.00000E+00
         0.00000E+00
         0.00000E+00
         0.00000E+00
         0.00000E+00
         0.00000E+00
         0.00000E+00
         0.00000E+00
         0.00000E+00
         0.00000E+00
         0.00000E+00
         0.00000E+00
         0.00000E+00
         0.00000E+00
         0.00000E+00
         0.00000E+00
         0.00000E+00
         0.00000E+00
         0.00000E+00
         0.00000E+00
         0.00000E+00
         0.00000E+00
         0.00000E+00
         0.00000E+00
         0.00000E+00
         0.00000E+00
         0.00000E+00
         0.00000E+00
         0.00000E+00
         0.00000E+00
         0.00000E+00
         0.00000E+00
         0.00000E+00
         0.00000E+00
         0.00000E+00
         0.00000E+00
         0.00000E+00
         0.00000E+00
         0.00000E+00
         0.00000E+00
         0.00000E+00
         0.00000E+00
         0.00000E+00
         0.00000E+00
         0.00000E+00
         0.00000E+00
         0.00000E+00
         0.00000E+00
         0.00000E+00
         0.00000E+00
         0.00000E+00
         0.00000E+00
         0.00000E+00
         0.00000E+00
         0.00000E+00
         0.00000E+00
         0.00000E+00
         0.00000E+00
         0.00000E+00
         0.00000E+00
         0.00000E+00
         0.00000E+00
         0.00000E+00
         0.00000E+00
         0.00000E+00
         0.00000E+00
         0.00000E+00
         0.00000E+00
         0.00000E+00
         0.00000E+00
         0.00000E+00
         0.00000E+00
         0.00000E+00
         0.00000E+00
         0.00000E+00
         0.00000E+00
         0.00000E+00
         0.00000E+00
         0.00000E+00
         0.00000E+00
         0.00000E+00
         0.00000E+00
         0.00000E+00
         0.00000E+00
         0.00000E+00
         0.00000E+00
         0.00000E+00
         0.00000E+00
         0.00000E+00
         0.00000E+00
         0.00000E+00
         0.00000E+00
         0.00000E+00
         0.00000E+00
         0.00000E+00
         0.00000E+00
         0.00000E+00
         0.00000E+00
         0.00000E+00
         0.00000E+00
         0.00000E+00
         0.00000E+00
         0.00000E+00
         0.00000E+00
         0.00000E+00
         0.00000E+00
         0.00000E+00
         0.00000E+00
         0.00000E+00
         0.00000E+00
         0.00000E+00
         0.00000E+00
         0.00000E+00
         0.00000E+00
         0.00000E+00
         0.00000E+00
         0.00000E+00
         0.00000E+00
         0.00000E+00
         0.00000E+00
         0.00000E+00
         0.00000E+00
         0.00000E+00
         0.00000E+00
         0.00000E+00
         0.00000E+00
         0.00000E+00
         0.00000E+00
         0.00000E+00
         0.00000E+00
         0.00000E+00
         0.00000E+00
         0.00000E+00
         0.00000E+00
         0.00000E+00
         0.00000E+00
         0.00000E+00
         0.00000E+00
         0.00000E+00
         0.00000E+00
         0.00000E+00
         0.00000E+00
         0.00000E+00
         0.00000E+00
         0.00000E+00
         0.00000E+00
         0.00000E+00
         0.00000E+00
         0.00000E+00
         0.00000E+00
         0.00000E+00
         0.00000E+00
         0.00000E+00
         0.00000E+00
         0.00000E+00
         0.00000E+00
         0.00000E+00
         0.00000E+00
         0.00000E+00
         0.00000E+00
         0.00000E+00
         0.00000E+00
         0.00000E+00
         0.00000E+00
         0.00000E+00
         0.00000E+00
         0.00000E+00
         0.00000E+00
         0.00000E+00
         0.00000E+00
         0.00000E+00
         0.00000E+00
         0.00000E+00
         0.00000E+00
         0.00000E+00
         0.00000E+00
         0.00000E+00
         0.00000E+00
         0.00000E+00
         0.00000E+00
         0.00000E+00
         0.00000E+00
         0.00000E+00
         0.00000E+00
         0.00000E+00
         0.00000E+00
         0.00000E+00
         0.00000E+00
         0.00000E+00
         0.00000E+00
         0.00000E+00
         0.00000E+00
         0.00000E+00
         0.00000E+00
         0.00000E+00
         0.00000E+00
         0.00000E+00
         0.00000E+00
         0.00000E+00
         0.00000E+00
         0.00000E+00
         0.00000E+00
         0.00000E+00
         0.00000E+00
         0.00000E+00
         0.00000E+00
         0.00000E+00
         0.00000E+00
         0.00000E+00
         0.00000E+00
         0.00000E+00
         0.00000E+00
         0.00000E+00
         0.00000E+00
         0.00000E+00
         0.00000E+00
         0.00000E+00
         0.00000E+00
         0.00000E+00
         0.00000E+00
         0.00000E+00
         0.00000E+00
         0.00000E+00
         0.00000E+00
         0.00000E+00
         0.00000E+00
         0.00000E+00
         0.00000E+00
         0.00000E+00
         0.00000E+00
         0.00000E+00
         0.00000E+00
         0.00000E+00
         0.00000E+00
         0.00000E+00
         0.00000E+00
         0.00000E+00
         0.00000E+00
         0.00000E+00
         0.00000E+00
         0.00000E+00
         0.00000E+00
         0.00000E+00
         0.00000E+00
         0.00000E+00
         0.00000E+00
         0.00000E+00
         0.00000E+00
         0.00000E+00
         0.00000E+00
         0.00000E+00
         0.00000E+00
         0.00000E+00
         0.00000E+00
         0.00000E+00
         0.00000E+00
         0.00000E+00
         0.00000E+00
         0.00000E+00
         0.00000E+00
         0.00000E+00
         0.00000E+00
         0.00000E+00
         0.00000E+00
         0.00000E+00
         0.00000E+00
         0.00000E+00
         0.00000E+00
         0.00000E+00
         0.00000E+00
         0.00000E+00
         0.00000E+00
         0.00000E+00
         0.00000E+00
         0.00000E+00
         0.00000E+00
         0.00000E+00
         0.00000E+00
         0.00000E+00
         0.00000E+00
         0.00000E+00
         0.00000E+00
         0.00000E+00
         0.00000E+00
         0.00000E+00
         0.00000E+00
         0.00000E+00
         0.00000E+00
         0.00000E+00
         0.00000E+00
         0.00000E+00
         0.00000E+00
         0.00000E+00
         0.00000E+00
         0.00000E+00
         0.00000E+00
         0.00000E+00
         0.00000E+00
         0.00000E+00
         0.00000E+00
         0.00000E+00
         0.00000E+00
         0.00000E+00
         0.00000E+00
         0.00000E+00
         0.00000E+00
         0.00000E+00
         0.00000E+00
         0.00000E+00
         0.00000E+00
         0.00000E+00
         0.00000E+00
         0.00000E+00
         0.00000E+00
         0.00000E+00
         0.00000E+00
         0.00000E+00
         0.00000E+00
         0.00000E+00
         0.00000E+00
         0.00000E+00
         0.00000E+00
         0.00000E+00
         0.00000E+00
         0.00000E+00
         0.00000E+00
         0.00000E+00
         0.00000E+00
         0.00000E+00
         0.00000E+00
         0.00000E+00
         0.00000E+00
         0.00000E+00
         0.00000E+00
         0.00000E+00
         0.00000E+00
         0.00000E+00
         0.00000E+00
         0.00000E+00
         0.00000E+00
         0.00000E+00
         0.00000E+00
         0.00000E+00
         0.00000E+00
         0.00000E+00
         0.00000E+00
         0.00000E+00
         0.00000E+00
         0.00000E+00
         0.00000E+00
         0.00000E+00
         0.00000E+00
         0.00000E+00
         0.00000E+00
         0.00000E+00
         0.00000E+00
         0.00000E+00
         0.00000E+00
         0.00000E+00
         0.00000E+00
         0.00000E+00
         0.00000E+00
         0.00000E+00
         0.00000E+00
         0.00000E+00
         0.00000E+00
         0.00000E+00
         0.00000E+00
         0.00000E+00
         0.00000E+00
         0.00000E+00
         0.00000E+00
         0.00000E+00
         0.00000E+00
         0.00000E+00
         0.00000E+00
         0.00000E+00
         0.00000E+00
         0.00000E+00
         0.00000E+00
         0.00000E+00
         0.00000E+00
         0.00000E+00
         0.00000E+00
         0.00000E+00
         0.00000E+00
         0.00000E+00
         0.00000E+00
         0.00000E+00
         0.00000E+00
         0.00000E+00
         0.00000E+00
         0.00000E+00
         0.00000E+00
         0.00000E+00
         0.00000E+00
         0.00000E+00
         0.00000E+00
         0.00000E+00
         0.00000E+00
         0.00000E+00
         0.00000E+00
         0.00000E+00
         0.00000E+00
         0.00000E+00
         0.00000E+00
         0.00000E+00
         0.00000E+00
         0.00000E+00
         0.00000E+00
         0.00000E+00
         0.00000E+00
         0.00000E+00
         0.00000E+00
         0.00000E+00
         0.00000E+00
         0.00000E+00
         0.00000E+00
         0.00000E+00
         0.00000E+00
         0.00000E+00
         0.00000E+00
         0.00000E+00
         0.00000E+00
         0.00000E+00
         0.00000E+00
         0.00000E+00
         0.00000E+00
         0.00000E+00
         0.00000E+00
         0.00000E+00
         0.00000E+00
         0.00000E+00
         0.00000E+00
         0.00000E+00
         0.00000E+00
         0.00000E+00
         0.00000E+00
         0.00000E+00
         0.00000E+00
         0.00000E+00
         0.00000E+00
         0.00000E+00
         0.00000E+00
         0.00000E+00
         0.00000E+00
         0.00000E+00
         0.00000E+00
         0.00000E+00
         0.00000E+00
         0.00000E+00
         0.00000E+00
         0.00000E+00
         0.00000E+00
         0.00000E+00
         0.00000E+00
         0.00000E+00
         0.00000E+00
         0.00000E+00
         0.00000E+00
         0.00000E+00
         0.00000E+00
         0.00000E+00
         0.00000E+00
         0.00000E+00
         0.00000E+00
         0.00000E+00
         0.00000E+00
         0.00000E+00
         0.00000E+00
         0.00000E+00
         0.00000E+00
         0.00000E+00
         0.00000E+00
         0.00000E+00
         0.00000E+00
         0.00000E+00
         0.00000E+00
         0.00000E+00
         0.00000E+00
         0.00000E+00
         0.00000E+00
         0.00000E+00
         0.00000E+00
         0.00000E+00
         0.00000E+00
         0.00000E+00
         0.00000E+00
         0.00000E+00
         0.00000E+00
         0.00000E+00
         0.00000E+00
         0.00000E+00
         0.00000E+00
         0.00000E+00
         0.00000E+00
         0.00000E+00
         0.00000E+00
         0.00000E+00
         0.00000E+00
         0.00000E+00
         0.00000E+00
         0.00000E+00
         0.00000E+00
         0.00000E+00
         0.00000E+00
         0.00000E+00
         0.00000E+00
         0.00000E+00
         0.00000E+00
         0.00000E+00
         0.00000E+00
         0.00000E+00
         0.00000E+00
         0.00000E+00
         0.00000E+00
         0.00000E+00
         0.00000E+00
         0.00000E+00
         0.00000E+00
         0.00000E+00
         0.00000E+00
         0.00000E+00
         0.00000E+00
         0.00000E+00
         0.00000E+00
         0.00000E+00
         0.00000E+00
         0.00000E+00
         0.00000E+00
         0.00000E+00
         0.00000E+00
         0.00000E+00
         0.00000E+00
         0.00000E+00
         0.00000E+00
         0.00000E+00
         0.00000E+00
         0.00000E+00
         0.00000E+00
         0.00000E+00
         0.00000E+00
         0.00000E+00
         0.00000E+00
         0.00000E+00
         0.00000E+00
         0.00000E+00
         0.00000E+00
         0.00000E+00
         0.00000E+00
         0.00000E+00
         0.00000E+00
         0.00000E+00
         0.00000E+00
         0.00000E+00
         0.00000E+00
         0.00000E+00
         0.00000E+00
         0.00000E+00
         0.00000E+00
         0.00000E+00
         0.00000E+00
         0.00000E+00
         0.00000E+00
         0.00000E+00
         0.00000E+00
         0.00000E+00
         0.00000E+00
         0.00000E+00
         0.00000E+00
         0.00000E+00
         0.00000E+00
         0.00000E+00
         0.00000E+00
         0.00000E+00
         0.00000E+00
         0.00000E+00
         0.00000E+00
         0.00000E+00
         0.00000E+00
         0.00000E+00
         0.00000E+00
         0.00000E+00
         0.00000E+00
         0.00000E+00
         0.00000E+00
         0.00000E+00
         0.00000E+00
         0.00000E+00
         0.00000E+00
         0.00000E+00
         0.00000E+00
         0.00000E+00
         0.00000E+00
         0.00000E+00
         0.00000E+00
         0.00000E+00
         0.00000E+00
         0.00000E+00
         0.00000E+00
         0.00000E+00
         0.00000E+00
         0.00000E+00
         0.00000E+00
         0.00000E+00
         0.00000E+00
         0.00000E+00
         0.00000E+00
         0.00000E+00
         0.00000E+00
         0.00000E+00
         0.00000E+00
         0.00000E+00
         0.00000E+00
         0.00000E+00
         0.00000E+00
         0.00000E+00
         0.00000E+00
         0.00000E+00
         0.00000E+00
         0.00000E+00
         0.00000E+00
         0.00000E+00
         0.00000E+00
         0.00000E+00
         0.00000E+00
         0.00000E+00
         0.00000E+00
         0.00000E+00
         0.00000E+00
         0.00000E+00
         0.00000E+00
         0.00000E+00
         0.00000E+00
         0.00000E+00
         0.00000E+00
         0.00000E+00
         0.00000E+00
         0.00000E+00
         0.00000E+00
         0.00000E+00
         0.00000E+00
         0.00000E+00
         0.00000E+00
         0.00000E+00
         0.00000E+00
         0.00000E+00
         0.00000E+00
         0.00000E+00
         0.00000E+00
         0.00000E+00
         0.00000E+00
         0.00000E+00
         0.00000E+00
         0.00000E+00
         0.00000E+00
         0.00000E+00
         0.00000E+00
         0.00000E+00
         0.00000E+00
         0.00000E+00
         0.00000E+00
         0.00000E+00
         0.00000E+00
         0.00000E+00
         0.00000E+00
         0.00000E+00
         0.00000E+00
         0.00000E+00
         0.00000E+00
         0.00000E+00
         0.00000E+00
         0.00000E+00
         0.00000E+00
         0.00000E+00
         0.00000E+00
         0.00000E+00
         0.00000E+00
         0.00000E+00
         0.00000E+00
         0.00000E+00
         0.00000E+00
         0.00000E+00
         0.00000E+00
         0.00000E+00
         0.00000E+00
         0.00000E+00
         0.00000E+00
         0.00000E+00
         0.00000E+00
         0.00000E+00
         0.00000E+00
         0.00000E+00
         0.00000E+00
         0.00000E+00
         0.00000E+00
         0.00000E+00
         0.00000E+00
         0.00000E+00
         0.00000E+00
         0.00000E+00
         0.00000E+00
         0.00000E+00
         0.00000E+00
         0.00000E+00
         0.00000E+00
         0.00000E+00
         0.00000E+00
         0.00000E+00
         0.00000E+00
         0.00000E+00
         0.00000E+00
         0.00000E+00
         0.00000E+00
         0.00000E+00
         0.00000E+00
         0.00000E+00
         0.00000E+00
         0.00000E+00
         0.00000E+00
         0.00000E+00
         0.00000E+00
         0.00000E+00
         0.00000E+00
         0.00000E+00
         0.00000E+00
         0.00000E+00
         0.00000E+00
         0.00000E+00
         0.00000E+00
         0.00000E+00
         0.00000E+00
         0.00000E+00
         0.00000E+00
         0.00000E+00
         0.00000E+00
         0.00000E+00
         0.00000E+00
         0.00000E+00
         0.00000E+00
         0.00000E+00
         0.00000E+00
         0.00000E+00
         0.00000E+00
         0.00000E+00
         0.00000E+00
         0.00000E+00
         0.00000E+00
         0.00000E+00
         0.00000E+00
         0.00000E+00
         0.00000E+00
         0.00000E+00
         0.00000E+00
         0.00000E+00
         0.00000E+00
         0.00000E+00
         0.00000E+00
         0.00000E+00
         0.00000E+00
         0.00000E+00
         0.00000E+00
         0.00000E+00
         0.00000E+00
         0.00000E+00
         0.00000E+00
         0.00000E+00
         0.00000E+00
         0.00000E+00
         0.00000E+00
         0.00000E+00
         0.00000E+00
         0.00000E+00
         0.00000E+00
         0.00000E+00
         0.00000E+00
         0.00000E+00
         0.00000E+00
         0.00000E+00
         0.00000E+00
         0.00000E+00
         0.00000E+00
         0.00000E+00
         0.00000E+00
         0.00000E+00
         0.00000E+00
         0.00000E+00
         0.00000E+00
         0.00000E+00
         0.00000E+00
         0.00000E+00
         0.00000E+00
         0.00000E+00
         0.00000E+00
         0.00000E+00
         0.00000E+00
         0.00000E+00
         0.00000E+00
         0.00000E+00
         0.00000E+00
         0.00000E+00
         0.00000E+00
         0.00000E+00
         0.00000E+00
         0.00000E+00
         0.00000E+00
         0.00000E+00
         0.00000E+00
         0.00000E+00
         0.00000E+00
         0.00000E+00
         0.00000E+00
         0.00000E+00
         0.00000E+00
         0.00000E+00
         0.00000E+00
         0.00000E+00
         0.00000E+00
         0.00000E+00
         0.00000E+00
         0.00000E+00
         0.00000E+00
         0.00000E+00
         0.00000E+00
         0.00000E+00
         0.00000E+00
         0.00000E+00
         0.00000E+00
         0.00000E+00
         0.00000E+00
         0.00000E+00
         0.00000E+00
         0.00000E+00
         0.00000E+00
         0.00000E+00
         0.00000E+00
         0.00000E+00
         0.00000E+00
         0.00000E+00
         0.00000E+00
         0.00000E+00
         0.00000E+00
         0.00000E+00
         0.00000E+00
         0.00000E+00
         0.00000E+00
         0.00000E+00
         0.00000E+00
         0.00000E+00
         0.00000E+00
         0.00000E+00
         0.00000E+00
         0.00000E+00
         0.00000E+00
         0.00000E+00
         0.00000E+00
         0.00000E+00
         0.00000E+00
         0.00000E+00
         0.00000E+00
         0.00000E+00
         0.00000E+00
         0.00000E+00
         0.00000E+00
         0.00000E+00
         0.00000E+00
         0.00000E+00
         0.00000E+00
         0.00000E+00
         0.00000E+00
         0.00000E+00
         0.00000E+00
         0.00000E+00
         0.00000E+00
         0.00000E+00
         0.00000E+00
         0.00000E+00
         0.00000E+00
         0.00000E+00
         0.00000E+00
         0.00000E+00
         0.00000E+00
         0.00000E+00
         0.00000E+00
         0.00000E+00
         0.00000E+00
         0.00000E+00
         0.00000E+00
         0.00000E+00
         0.00000E+00
         0.00000E+00
         0.00000E+00
         0.00000E+00
         0.00000E+00
         0.00000E+00
         0.00000E+00
         0.00000E+00
         0.00000E+00
         0.00000E+00
         0.00000E+00
         0.00000E+00
         0.00000E+00
         0.00000E+00
         0.00000E+00
         0.00000E+00
         0.00000E+00
         0.00000E+00
         0.00000E+00
         0.00000E+00
         0.00000E+00
         0.00000E+00
         0.00000E+00
         0.00000E+00
         0.00000E+00
         0.00000E+00
         0.00000E+00
         0.00000E+00
         0.00000E+00
         0.00000E+00
         0.00000E+00
         0.00000E+00
         0.00000E+00
         0.00000E+00
         0.00000E+00
         0.00000E+00
         0.00000E+00
         0.00000E+00
         0.00000E+00
         0.00000E+00
         0.00000E+00
         0.00000E+00
         0.00000E+00
         0.00000E+00
         0.00000E+00
         0.00000E+00
         0.00000E+00
         0.00000E+00
         0.00000E+00
         0.00000E+00
         0.00000E+00
         0.00000E+00
         0.00000E+00
         0.00000E+00
         0.00000E+00
         0.00000E+00
         0.00000E+00
         0.00000E+00
         0.00000E+00
         0.00000E+00
         0.00000E+00
         0.00000E+00
         0.00000E+00
         0.00000E+00
         0.00000E+00
         0.00000E+00
         0.00000E+00
         0.00000E+00
         0.00000E+00
         0.00000E+00
         0.00000E+00
         0.00000E+00
         0.00000E+00
         0.00000E+00
         0.00000E+00
         0.00000E+00
         0.00000E+00
         0.00000E+00
         0.00000E+00
         0.00000E+00
         0.00000E+00
         0.00000E+00
         0.00000E+00
         0.00000E+00
         0.00000E+00
         0.00000E+00
         0.00000E+00
         0.00000E+00
         0.00000E+00
         0.00000E+00
         0.00000E+00
         0.00000E+00
         0.00000E+00
         0.00000E+00
         0.00000E+00
         0.00000E+00
         0.00000E+00
         0.00000E+00
         0.00000E+00
         0.00000E+00
         0.00000E+00
         0.00000E+00
         0.00000E+00
         0.00000E+00
         0.00000E+00
         0.00000E+00
         0.00000E+00
         0.00000E+00
         0.00000E+00
         0.00000E+00
         0.00000E+00
         0.00000E+00
         0.00000E+00
         0.00000E+00
         0.00000E+00
         0.00000E+00
         0.00000E+00
         0.00000E+00
         0.00000E+00
         0.00000E+00
         0.00000E+00
         0.00000E+00
         0.00000E+00
         0.00000E+00
         0.00000E+00
         0.00000E+00
         0.00000E+00
         0.00000E+00
         0.00000E+00
         0.00000E+00
         0.00000E+00
         0.00000E+00
         0.00000E+00
         0.00000E+00
         0.00000E+00
         0.00000E+00
         0.00000E+00
         0.00000E+00
         0.00000E+00
         0.00000E+00
         0.00000E+00
         0.00000E+00
         0.00000E+00
         0.00000E+00
         0.00000E+00
         0.00000E+00
         0.00000E+00
         0.00000E+00
         0.00000E+00
         0.00000E+00
         0.00000E+00
         0.00000E+00
         0.00000E+00
         0.00000E+00
         0.00000E+00
         0.00000E+00
         0.00000E+00
         0.00000E+00
         0.00000E+00
         0.00000E+00
         0.00000E+00
         0.00000E+00
         0.00000E+00
         0.00000E+00
         0.00000E+00
         0.00000E+00
         0.00000E+00
         0.00000E+00
         0.00000E+00
         0.00000E+00
         0.00000E+00
         0.00000E+00
         0.00000E+00
         0.00000E+00
         0.00000E+00
         0.00000E+00
         0.00000E+00
         0.00000E+00
         0.00000E+00
         0.00000E+00
         0.00000E+00
         0.00000E+00
         0.00000E+00
         0.00000E+00
         0.00000E+00
         0.00000E+00
         0.00000E+00
         0.00000E+00
         0.00000E+00
         0.00000E+00
         0.00000E+00
         0.00000E+00
         0.00000E+00
         0.00000E+00
         0.00000E+00
         0.00000E+00
         0.00000E+00
         0.00000E+00
         0.00000E+00
         0.00000E+00
         0.00000E+00
         0.00000E+00
         0.00000E+00
         0.00000E+00
         0.00000E+00
         0.00000E+00
         0.00000E+00
         0.00000E+00
         0.00000E+00
         0.00000E+00
         0.00000E+00
         0.00000E+00
         0.00000E+00
         0.00000E+00
         0.00000E+00
         0.00000E+00
         0.00000E+00
         0.00000E+00
         0.00000E+00
         0.00000E+00
         0.00000E+00
         0.00000E+00
         0.00000E+00
         0.00000E+00
         0.00000E+00
         0.00000E+00
         0.00000E+00
         0.00000E+00
         0.00000E+00
         0.00000E+00
         0.00000E+00
         0.00000E+00
         0.00000E+00
         0.00000E+00
         0.00000E+00
         0.00000E+00
         0.00000E+00
         0.00000E+00
         0.00000E+00
         0.00000E+00
         0.00000E+00
         0.00000E+00
         0.00000E+00
         0.00000E+00
         0.00000E+00
         0.00000E+00
         0.00000E+00
         0.00000E+00
         0.00000E+00
         0.00000E+00
         0.00000E+00
         0.00000E+00
         0.00000E+00
         0.00000E+00
         0.00000E+00
         0.00000E+00
         0.00000E+00
         0.00000E+00
         0.00000E+00
         0.00000E+00
         0.00000E+00
         0.00000E+00
         0.00000E+00
         0.00000E+00
         0.00000E+00
         0.00000E+00
         0.00000E+00
         0.00000E+00
         0.00000E+00
         0.00000E+00
         0.00000E+00
         0.00000E+00
         0.00000E+00
         0.00000E+00
         0.00000E+00
         0.00000E+00
         0.00000E+00
         0.00000E+00
         0.00000E+00
         0.00000E+00
         0.00000E+00
         0.00000E+00
         0.00000E+00
         0.00000E+00
         0.00000E+00
         0.00000E+00
         0.00000E+00
         0.00000E+00
         0.00000E+00
         0.00000E+00
         0.00000E+00
         0.00000E+00
         0.00000E+00
         0.00000E+00
         0.00000E+00
         0.00000E+00
         0.00000E+00
         0.00000E+00
         0.00000E+00
         0.00000E+00
         0.00000E+00
         0.00000E+00
         0.00000E+00
         0.00000E+00
         0.00000E+00
         0.00000E+00
         0.00000E+00
         0.00000E+00
         0.00000E+00
         0.00000E+00
         0.00000E+00
         0.00000E+00
         0.00000E+00
         0.00000E+00
         0.00000E+00
         0.00000E+00
         0.00000E+00
         0.00000E+00
         0.00000E+00
         0.00000E+00
         0.00000E+00
         0.00000E+00
         0.00000E+00
         0.00000E+00
         0.00000E+00
         0.00000E+00
         0.00000E+00
         0.00000E+00
         0.00000E+00
         0.00000E+00
         0.00000E+00
         0.00000E+00
         0.00000E+00
         0.00000E+00
         0.00000E+00
         0.00000E+00
         0.00000E+00
         0.00000E+00
         0.00000E+00
         0.00000E+00
         0.00000E+00
         0.00000E+00
         0.00000E+00
         0.00000E+00
         0.00000E+00
         0.00000E+00
         0.00000E+00
         0.00000E+00
         0.00000E+00
         0.00000E+00
         0.00000E+00
         0.00000E+00
         0.00000E+00
         0.00000E+00
         0.00000E+00
         0.00000E+00
         0.00000E+00
         0.00000E+00
         0.00000E+00
         0.00000E+00
         0.00000E+00
         0.00000E+00
         0.00000E+00
         0.00000E+00
         0.00000E+00
         0.00000E+00
         0.00000E+00
         0.00000E+00
         0.00000E+00
         0.00000E+00
         0.00000E+00
         0.00000E+00
         0.00000E+00
         0.00000E+00
         0.00000E+00
         0.00000E+00
         0.00000E+00
         0.00000E+00
         0.00000E+00
         0.00000E+00
         0.00000E+00
         0.00000E+00
         0.00000E+00
         0.00000E+00
         0.00000E+00
         0.00000E+00
         0.00000E+00
         0.00000E+00
         0.00000E+00
         0.00000E+00
         0.00000E+00
         0.00000E+00
         0.00000E+00
         0.00000E+00
         0.00000E+00
         0.00000E+00
         0.00000E+00
         0.00000E+00
         0.00000E+00
         0.00000E+00
         0.00000E+00
         0.00000E+00
         0.00000E+00
         0.00000E+00
         0.00000E+00
         0.00000E+00
         0.00000E+00
         0.00000E+00
         0.00000E+00
         0.00000E+00
         0.00000E+00
         0.00000E+00
         0.00000E+00
         0.00000E+00
         0.00000E+00
         0.00000E+00
         0.00000E+00
         0.00000E+00
         0.00000E+00
         0.00000E+00
         0.00000E+00
         0.00000E+00
         0.00000E+00
         0.00000E+00
         0.00000E+00
         0.00000E+00
         0.00000E+00
         0.00000E+00
         0.00000E+00
         0.00000E+00
         0.00000E+00
         0.00000E+00
         0.00000E+00
         0.00000E+00
         0.00000E+00
         0.00000E+00
         0.00000E+00
         0.00000E+00
         0.00000E+00
         0.00000E+00
         0.00000E+00
         0.00000E+00
         0.00000E+00
         0.00000E+00
         0.00000E+00
         0.00000E+00
         0.00000E+00
         0.00000E+00
         0.00000E+00
         0.00000E+00
         0.00000E+00
         0.00000E+00
         0.00000E+00
         0.00000E+00
         0.00000E+00
         0.00000E+00
         0.00000E+00
         0.00000E+00
         0.00000E+00
         0.00000E+00
         0.00000E+00
         0.00000E+00
         0.00000E+00
         0.00000E+00
         0.00000E+00
         0.00000E+00
         0.00000E+00
         0.00000E+00
         0.00000E+00
         0.00000E+00
         0.00000E+00
         0.00000E+00
         0.00000E+00
         0.00000E+00
         0.00000E+00
         0.00000E+00
         0.00000E+00
         0.00000E+00
         0.00000E+00
         0.00000E+00
         0.00000E+00
         0.00000E+00
         0.00000E+00
         0.00000E+00
         0.00000E+00
         0.00000E+00
         0.00000E+00
         0.00000E+00
         0.00000E+00
         0.00000E+00
         0.00000E+00
         0.00000E+00
         0.00000E+00
         0.00000E+00
         0.00000E+00
         0.00000E+00
         0.00000E+00
         0.00000E+00
         0.00000E+00
         0.00000E+00
         0.00000E+00
         0.00000E+00
         0.00000E+00
         0.00000E+00
         0.00000E+00
         0.00000E+00
         0.00000E+00
         0.00000E+00
         0.00000E+00
         0.00000E+00
         0.00000E+00
         0.00000E+00
         0.00000E+00
         0.00000E+00
         0.00000E+00
         0.00000E+00
         0.00000E+00
         0.00000E+00
         0.00000E+00
         0.00000E+00
         0.00000E+00
         0.00000E+00
         0.00000E+00
         0.00000E+00
         0.00000E+00
         0.00000E+00
         0.00000E+00
         0.00000E+00
         0.00000E+00
         0.00000E+00
         0.00000E+00
         0.00000E+00
         0.00000E+00
         0.00000E+00
         0.00000E+00
         0.00000E+00
         0.00000E+00
         0.00000E+00
         0.00000E+00
         0.00000E+00
         0.00000E+00
         0.00000E+00
         0.00000E+00
         0.00000E+00
         0.00000E+00
         0.00000E+00
         0.00000E+00
         0.00000E+00
         0.00000E+00
         0.00000E+00
         0.00000E+00
         0.00000E+00
         0.00000E+00
         0.00000E+00
         0.00000E+00
         0.00000E+00
         0.00000E+00
         0.00000E+00
         0.00000E+00
         0.00000E+00
         0.00000E+00
         0.00000E+00
         0.00000E+00
         0.00000E+00
         0.00000E+00
         0.00000E+00
         0.00000E+00
         0.00000E+00
         0.00000E+00
         0.00000E+00
         0.00000E+00
         0.00000E+00
         0.00000E+00
         0.00000E+00
         0.00000E+00
         0.00000E+00
         0.00000E+00
         0.00000E+00
         0.00000E+00
         0.00000E+00
         0.00000E+00
         0.00000E+00
         0.00000E+00
         0.00000E+00
         0.00000E+00
         0.00000E+00
         0.00000E+00
         0.00000E+00
         0.00000E+00
         0.00000E+00
         0.00000E+00
         0.00000E+00
         0.00000E+00
         0.00000E+00
         0.00000E+00
         0.00000E+00
         0.00000E+00
         0.00000E+00
         0.00000E+00
         0.00000E+00
         0.00000E+00
         0.00000E+00
         0.00000E+00
         0.00000E+00
         0.00000E+00
         0.00000E+00
         0.00000E+00
         0.00000E+00
         0.00000E+00
         0.00000E+00
         0.00000E+00
         0.00000E+00
         0.00000E+00
         0.00000E+00
         0.00000E+00
         0.00000E+00
         0.00000E+00
         0.00000E+00
         0.00000E+00
         0.00000E+00
         0.00000E+00
         0.00000E+00
         0.00000E+00
         0.00000E+00
         0.00000E+00
         0.00000E+00
         0.00000E+00
         0.00000E+00
         0.00000E+00
         0.00000E+00
         0.00000E+00
         0.00000E+00
         0.00000E+00
         0.00000E+00
         0.00000E+00
         0.00000E+00
         0.00000E+00
         0.00000E+00
         0.00000E+00
  
SCALARS                      stress_xx  double 1
LOOKUP_TABLE default
        -0.17398E+11
        -0.17783E+11
        -0.17539E+11
        -0.17099E+11
        -0.43087E+02
        -0.48315E+02
        -0.46263E+02
        -0.42028E+02
        -0.17796E+11
        -0.17666E+11
        -0.43447E+02
        -0.42046E+02
        -0.18336E+11
        -0.18356E+11
        -0.51624E+02
        -0.48540E+02
        -0.17164E+11
        -0.18327E+11
        -0.38145E+02
        -0.42309E+02
        -0.18749E+11
        -0.19074E+11
        -0.18555E+11
        -0.51166E+02
        -0.44684E+02
        -0.46141E+02
        -0.19062E+11
        -0.19534E+11
        -0.49086E+02
        -0.41396E+02
        -0.17185E+11
        -0.17693E+11
        -0.16689E+11
        -0.41888E+02
        -0.38941E+02
        -0.37861E+02
        -0.17480E+11
        -0.18124E+11
        -0.44316E+02
        -0.40438E+02
        -0.17735E+11
        -0.18231E+11
        -0.38301E+02
        -0.33907E+02
        -0.17313E+11
        -0.17125E+11
        -0.41973E+02
        -0.46899E+02
        -0.18626E+11
        -0.41004E+02
        -0.17162E+11
        -0.48182E+02
        -0.19198E+11
        -0.43302E+02
        -0.19347E+11
        -0.41535E+02
        -0.19345E+11
        -0.18815E+11
        -0.42319E+02
        -0.41214E+02
        -0.17196E+11
        -0.17391E+11
        -0.42436E+02
        -0.47973E+02
        -0.17073E+11
        -0.40947E+02
        -0.17306E+11
        -0.44689E+02
        -0.17915E+11
        -0.17976E+11
        -0.43018E+02
        -0.45075E+02
        -0.18113E+11
        -0.45453E+02
        -0.19701E+11
        -0.35911E+02
        -0.19783E+11
        -0.34857E+02
        -0.19742E+11
        -0.36753E+02
        -0.19515E+11
        -0.19278E+11
        -0.35018E+02
        -0.36508E+02
        -0.18798E+11
        -0.34002E+02
        -0.17323E+11
        -0.44589E+02
        -0.17555E+11
        -0.45636E+02
        -0.17745E+11
        -0.17849E+11
        -0.43826E+02
        -0.44337E+02
        -0.17721E+11
        -0.40271E+02
        -0.17630E+11
        -0.39696E+02
        -0.17712E+11
        -0.42495E+02
        -0.17741E+11
        -0.17658E+11
        -0.41673E+02
        -0.42896E+02
        -0.18197E+11
        -0.17979E+11
        -0.32355E+02
        -0.30432E+02
        -0.18239E+11
        -0.30895E+02
        -0.17987E+11
        -0.29623E+02
        -0.18235E+11
        -0.29210E+02
        -0.18782E+11
        -0.27604E+02
        -0.19308E+11
        -0.24523E+02
        -0.19621E+11
        -0.22082E+02
        -0.19653E+11
        -0.21928E+02
        -0.19643E+11
        -0.23780E+02
        -0.19304E+11
        -0.24992E+02
        -0.18665E+11
        -0.22820E+02
        -0.17956E+11
        -0.20570E+02
        -0.17537E+11
        -0.20547E+02
        -0.17120E+11
        -0.22966E+02
        -0.16844E+11
        -0.26187E+02
        -0.16854E+11
        -0.28133E+02
        -0.17524E+11
        -0.30383E+02
        -0.17987E+11
        -0.32551E+02
        -0.18145E+11
        -0.29819E+02
        -0.17898E+11
        -0.26159E+02
        -0.17768E+11
        -0.26078E+02
        -0.17985E+11
        -0.28533E+02
        -0.17982E+11
        -0.30418E+02
        -0.17818E+11
        -0.28866E+02
        -0.17605E+11
        -0.27907E+02
        -0.17045E+11
        -0.17318E+11
        -0.17282E+11
        -0.16926E+11
        -0.17578E+11
        -0.17251E+11
        -0.17655E+11
        -0.17445E+11
        -0.16982E+11
        -0.17272E+11
        -0.17877E+11
        -0.17943E+11
        -0.17764E+11
        -0.17752E+11
        -0.17868E+11
        -0.16943E+11
        -0.17010E+11
        -0.16822E+11
        -0.17348E+11
        -0.17253E+11
        -0.17388E+11
        -0.17299E+11
        -0.17463E+11
        -0.17421E+11
        -0.17261E+11
        -0.17273E+11
        -0.17544E+11
        -0.17520E+11
        -0.17718E+11
        -0.17417E+11
        -0.16976E+11
        -0.17322E+11
        -0.16978E+11
        -0.17206E+11
        -0.17990E+11
        -0.17743E+11
        -0.17624E+11
        -0.17764E+11
        -0.17782E+11
        -0.18007E+11
        -0.18168E+11
        -0.17772E+11
        -0.17383E+11
        -0.17436E+11
        -0.17636E+11
        -0.17980E+11
        -0.17687E+11
        -0.17366E+11
        -0.17388E+11
        -0.17637E+11
        -0.17887E+11
        -0.17549E+11
        -0.18552E+11
        -0.18265E+11
        -0.18313E+11
        -0.18245E+11
        -0.18262E+11
        -0.18418E+11
        -0.18576E+11
        -0.18627E+11
        -0.18605E+11
        -0.18621E+11
        -0.18687E+11
        -0.18277E+11
        -0.18120E+11
        -0.18059E+11
        -0.17955E+11
        -0.17875E+11
        -0.17879E+11
        -0.18014E+11
        -0.18457E+11
        -0.18352E+11
        -0.18201E+11
        -0.18202E+11
        -0.18229E+11
        -0.18374E+11
        -0.18159E+11
        -0.18079E+11
         0.23259E+06
         0.11944E+06
         0.15494E+06
         0.24741E+06
        -0.50925E+04
         0.17899E+06
        -0.87580E+05
        -0.21749E+06
         0.33842E+06
        -0.23275E+06
        -0.27517E+06
        -0.19873E+05
        -0.15267E+06
        -0.76193E+06
        -0.31919E+06
        -0.48818E+05
         0.14559E+06
         0.23164E+06
         0.22351E+04
         0.16410E+05
        -0.59992E+06
        -0.44078E+06
        -0.69513E+06
        -0.94379E+05
        -0.25128E+06
        -0.31136E+05
        -0.96478E+06
        -0.64168E+06
        -0.34484E+06
        -0.23883E+06
        -0.15120E+04
        -0.40530E+05
         0.21440E+06
         0.35860E+06
        -0.52028E+06
        -0.17368E+06
        -0.17864E+06
        -0.40942E+06
        -0.19680E+06
        -0.14801E+06
        -0.47570E+06
        -0.65363E+06
        -0.58925E+06
        -0.50856E+06
        -0.33562E+06
        -0.14093E+06
        -0.78013E+05
        -0.70242E+05
         0.14065E+06
         0.22577E+06
        -0.87401E+05
         0.41964E+05
        -0.14469E+07
        -0.82106E+06
        -0.94082E+06
        -0.23678E+06
         0.40525E+06
         0.88092E+06
         0.75133E+06
         0.78783E+06
         0.59704E+06
         0.19689E+06
        -0.39970E+06
        -0.81002E+06
        -0.98348E+06
        -0.73450E+06
        -0.11713E+07
        -0.14009E+07
        -0.11351E+07
        -0.94046E+06
        -0.40283E+06
         0.15327E+06
         0.11692E+06
        -0.32132E+05
        -0.37308E+06
        -0.79586E+06
        -0.88743E+06
        -0.65714E+06
         0.21728E+06
         0.10368E+06
         0.13935E+06
         0.23336E+06
        -0.22767E+05
         0.16240E+06
        -0.10494E+06
        -0.23466E+06
         0.32224E+06
        -0.25174E+06
        -0.29441E+06
        -0.46522E+05
        -0.17454E+06
        -0.78020E+06
        -0.34563E+06
        -0.65585E+05
         0.12732E+06
         0.21781E+06
        -0.16192E+05
        -0.28129E+04
        -0.62151E+06
        -0.46154E+06
        -0.71693E+06
        -0.11318E+06
        -0.27227E+06
        -0.49071E+05
        -0.98342E+06
        -0.66097E+06
        -0.36583E+06
        -0.26046E+06
        -0.17691E+05
        -0.57488E+05
         0.20028E+06
         0.34432E+06
        -0.54200E+06
        -0.19128E+06
        -0.19628E+06
        -0.43556E+06
        -0.21950E+06
        -0.16989E+06
        -0.50146E+06
        -0.67836E+06
        -0.61248E+06
        -0.52845E+06
        -0.35412E+06
        -0.16301E+06
        -0.96845E+05
        -0.88197E+05
         0.12431E+06
         0.20941E+06
        -0.10681E+06
         0.25541E+05
        -0.14943E+07
        -0.86730E+06
        -0.98640E+06
        -0.28053E+06
         0.35892E+06
         0.82908E+06
         0.69962E+06
         0.73576E+06
         0.54462E+06
         0.14310E+06
        -0.45323E+06
        -0.85945E+06
        -0.10243E+07
        -0.77254E+06
        -0.12114E+07
        -0.14439E+07
        -0.11790E+07
        -0.98665E+06
        -0.44905E+06
         0.10426E+06
         0.70976E+05
        -0.73541E+05
        -0.41457E+06
        -0.83841E+06
        -0.93055E+06
        -0.70107E+06
         0.22070E+06
         0.10677E+06
         0.14264E+06
         0.23706E+06
        -0.17629E+05
         0.16722E+06
        -0.10157E+06
        -0.23044E+06
         0.32489E+06
        -0.25091E+06
        -0.29041E+06
        -0.41515E+05
        -0.17059E+06
        -0.77455E+06
        -0.33893E+06
        -0.69211E+05
         0.12617E+06
         0.22164E+06
        -0.20727E+05
        -0.64038E+04
        -0.62496E+06
        -0.46281E+06
        -0.73121E+06
        -0.12674E+06
        -0.28133E+06
        -0.61642E+05
        -0.97985E+06
        -0.66341E+06
        -0.37443E+06
        -0.27559E+06
        -0.17927E+05
        -0.61330E+05
         0.20444E+06
         0.34899E+06
        -0.53670E+06
        -0.18663E+06
        -0.19216E+06
        -0.43145E+06
        -0.21621E+06
        -0.16905E+06
        -0.50232E+06
        -0.68757E+06
        -0.62499E+06
        -0.54174E+06
        -0.35715E+06
        -0.15991E+06
        -0.93389E+05
        -0.84249E+05
         0.12885E+06
         0.21451E+06
        -0.10107E+06
         0.31257E+05
        -0.14801E+07
        -0.85453E+06
        -0.97218E+06
        -0.26969E+06
         0.36706E+06
         0.83711E+06
         0.70986E+06
         0.74591E+06
         0.55505E+06
         0.15392E+06
        -0.44690E+06
        -0.85966E+06
        -0.10237E+07
        -0.76549E+06
        -0.12068E+07
        -0.14526E+07
        -0.11884E+07
        -0.98421E+06
        -0.43627E+06
         0.11899E+06
         0.84162E+05
        -0.60281E+05
        -0.39952E+06
        -0.82585E+06
        -0.92036E+06
        -0.69129E+06
         0.21841E+06
         0.10543E+06
         0.14132E+06
         0.23481E+06
        -0.18930E+05
         0.16606E+06
        -0.10320E+06
        -0.23244E+06
         0.32020E+06
        -0.25902E+06
        -0.29232E+06
        -0.44340E+05
        -0.17250E+06
        -0.77590E+06
        -0.34207E+06
        -0.82648E+05
         0.11532E+06
         0.21923E+06
        -0.36830E+05
        -0.22571E+05
        -0.64132E+06
        -0.47715E+06
        -0.76454E+06
        -0.15708E+06
        -0.30624E+06
        -0.90260E+05
        -0.98497E+06
        -0.67900E+06
        -0.40019E+06
        -0.31178E+06
        -0.25943E+05
        -0.76623E+05
         0.20252E+06
         0.34667E+06
        -0.53975E+06
        -0.18824E+06
        -0.19341E+06
        -0.43656E+06
        -0.22204E+06
        -0.17919E+06
        -0.51700E+06
        -0.71558E+06
        -0.65899E+06
        -0.57318E+06
        -0.37243E+06
        -0.16876E+06
        -0.99430E+05
        -0.87656E+05
         0.12611E+06
         0.21146E+06
        -0.10383E+06
         0.30207E+05
        -0.14866E+07
        -0.85901E+06
        -0.97929E+06
        -0.27600E+06
         0.36287E+06
         0.83219E+06
         0.70160E+06
         0.73695E+06
         0.54656E+06
         0.14355E+06
        -0.46338E+06
        -0.88623E+06
        -0.10484E+07
        -0.77718E+06
        -0.12201E+07
        -0.14892E+07
        -0.12272E+07
        -0.10024E+07
        -0.44485E+06
         0.11073E+06
         0.77974E+05
        -0.67617E+05
        -0.40708E+06
        -0.83103E+06
        -0.92434E+06
        -0.69531E+06
         0.21435E+06
         0.10271E+06
         0.13904E+06
         0.23248E+06
        -0.20502E+05
         0.16434E+06
        -0.10566E+06
        -0.23594E+06
         0.31459E+06
        -0.26744E+06
        -0.29436E+06
        -0.46128E+05
        -0.17461E+06
        -0.77747E+06
        -0.34348E+06
        -0.91874E+05
         0.10667E+06
         0.21700E+06
        -0.47427E+05
        -0.34192E+05
        -0.65182E+06
        -0.48745E+06
        -0.78504E+06
        -0.17587E+06
        -0.32422E+06
        -0.10859E+06
        -0.98943E+06
        -0.69019E+06
        -0.41803E+06
        -0.33584E+06
        -0.34318E+05
        -0.87738E+05
         0.19846E+06
         0.34342E+06
        -0.54289E+06
        -0.19035E+06
        -0.19539E+06
        -0.44046E+06
        -0.22693E+06
        -0.18699E+06
        -0.52741E+06
        -0.73457E+06
        -0.68134E+06
        -0.59313E+06
        -0.38243E+06
        -0.17457E+06
        -0.10479E+06
        -0.93076E+05
         0.12130E+06
         0.20691E+06
        -0.10826E+06
         0.27976E+05
        -0.14926E+07
        -0.86290E+06
        -0.98532E+06
        -0.28091E+06
         0.36095E+06
         0.83072E+06
         0.69806E+06
         0.73101E+06
         0.53937E+06
         0.13715E+06
        -0.47341E+06
        -0.90461E+06
        -0.10653E+07
        -0.78621E+06
        -0.12295E+07
        -0.15129E+07
        -0.12543E+07
        -0.10155E+07
        -0.44872E+06
         0.10322E+06
         0.69750E+05
        -0.76040E+05
        -0.41686E+06
        -0.83950E+06
        -0.92961E+06
        -0.69931E+06
         0.20472E+06
         0.97509E+05
         0.13679E+06
         0.23437E+06
        -0.17657E+05
         0.16779E+06
        -0.10742E+06
        -0.24227E+06
         0.30673E+06
        -0.27884E+06
        -0.29263E+06
        -0.40265E+05
        -0.17262E+06
        -0.77576E+06
        -0.33581E+06
        -0.90643E+05
         0.10448E+06
         0.22094E+06
        -0.45255E+05
        -0.32412E+05
        -0.64862E+06
        -0.48378E+06
        -0.78462E+06
        -0.17624E+06
        -0.33195E+06
        -0.11116E+06
        -0.99050E+06
        -0.69133E+06
        -0.41729E+06
        -0.33675E+06
        -0.44267E+05
        -0.93593E+05
         0.19148E+06
         0.34262E+06
        -0.54073E+06
        -0.18995E+06
        -0.19563E+06
        -0.43628E+06
        -0.22358E+06
        -0.18336E+06
        -0.52264E+06
        -0.73208E+06
        -0.67906E+06
        -0.59431E+06
        -0.38356E+06
        -0.17549E+06
        -0.10943E+06
        -0.10390E+06
         0.10945E+06
         0.20071E+06
        -0.10960E+06
         0.30241E+05
        -0.14809E+07
        -0.85080E+06
        -0.97538E+06
        -0.27434E+06
         0.36794E+06
         0.84014E+06
         0.70869E+06
         0.74111E+06
         0.55111E+06
         0.15268E+06
        -0.45986E+06
        -0.89642E+06
        -0.10564E+07
        -0.77691E+06
        -0.12206E+07
        -0.15058E+07
        -0.12490E+07
        -0.10102E+07
        -0.44237E+06
         0.10755E+06
         0.68879E+05
        -0.81886E+05
        -0.42060E+06
        -0.83746E+06
        -0.92378E+06
        -0.69100E+06
         0.19012E+06
         0.88310E+05
         0.13141E+06
         0.23295E+06
        -0.19211E+05
         0.16788E+06
        -0.11454E+06
        -0.25487E+06
         0.29348E+06
        -0.29569E+06
        -0.29719E+06
        -0.42613E+05
        -0.17630E+06
        -0.78097E+06
        -0.33726E+06
        -0.93680E+05
         0.97345E+05
         0.22032E+06
        -0.47112E+05
        -0.35048E+05
        -0.65000E+06
        -0.48476E+06
        -0.78628E+06
        -0.17852E+06
        -0.34284E+06
        -0.11579E+06
        -0.99806E+06
        -0.69699E+06
        -0.41944E+06
        -0.33968E+06
        -0.58046E+05
        -0.10318E+06
         0.18067E+06
         0.33828E+06
        -0.54437E+06
        -0.19351E+06
        -0.19968E+06
        -0.44035E+06
        -0.22722E+06
        -0.18548E+06
        -0.52372E+06
        -0.73292E+06
        -0.67939E+06
        -0.59728E+06
        -0.38905E+06
        -0.18375E+06
        -0.12013E+06
        -0.12011E+06
         0.92525E+05
         0.18985E+06
        -0.11560E+06
         0.28974E+05
        -0.14857E+07
        -0.85450E+06
        -0.97818E+06
        -0.27765E+06
         0.36320E+06
         0.83435E+06
         0.70390E+06
         0.73696E+06
         0.54711E+06
         0.14965E+06
        -0.46228E+06
        -0.89935E+06
        -0.10569E+07
        -0.77761E+06
        -0.12226E+07
        -0.15069E+07
        -0.12512E+07
        -0.10184E+07
        -0.45455E+06
         0.94019E+05
         0.53825E+05
        -0.10048E+06
        -0.43686E+06
        -0.84609E+06
        -0.92846E+06
        -0.69473E+06
         0.18579E+06
         0.84888E+05
         0.12920E+06
         0.23104E+06
        -0.20927E+05
         0.16622E+06
        -0.11824E+06
        -0.25902E+06
         0.28957E+06
        -0.30071E+06
        -0.30041E+06
        -0.45884E+05
        -0.17993E+06
        -0.78343E+06
        -0.33984E+06
        -0.96452E+05
         0.94331E+05
         0.21861E+06
        -0.48814E+05
        -0.37098E+05
        -0.65222E+06
        -0.48711E+06
        -0.78845E+06
        -0.18026E+06
        -0.34676E+06
        -0.11842E+06
        -0.10013E+07
        -0.69993E+06
        -0.42296E+06
        -0.34248E+06
        -0.62728E+05
        -0.10696E+06
         0.17740E+06
         0.33586E+06
        -0.54751E+06
        -0.19540E+06
        -0.20211E+06
        -0.44539E+06
        -0.23139E+06
        -0.18960E+06
        -0.52822E+06
        -0.73669E+06
        -0.68164E+06
        -0.59994E+06
        -0.39229E+06
        -0.18760E+06
        -0.12364E+06
        -0.12420E+06
         0.88366E+05
         0.18610E+06
        -0.11925E+06
         0.27166E+05
        -0.14923E+07
        -0.86097E+06
        -0.98252E+06
        -0.28223E+06
         0.35771E+06
         0.82944E+06
         0.69885E+06
         0.72996E+06
         0.53806E+06
         0.14008E+06
        -0.47097E+06
        -0.90326E+06
        -0.10600E+07
        -0.78417E+06
        -0.12296E+07
        -0.15136E+07
        -0.12598E+07
        -0.10267E+07
        -0.46146E+06
         0.88356E+05
         0.49295E+05
        -0.10665E+06
        -0.44495E+06
        -0.85370E+06
        -0.93492E+06
        -0.70118E+06
         0.18835E+06
         0.87179E+05
         0.13087E+06
         0.23161E+06
        -0.18282E+05
         0.16711E+06
        -0.11603E+06
        -0.25545E+06
         0.29207E+06
        -0.29746E+06
        -0.29802E+06
        -0.42741E+05
        -0.17788E+06
        -0.77901E+06
        -0.33454E+06
        -0.93727E+05
         0.96773E+05
         0.22046E+06
        -0.45622E+05
        -0.34249E+05
        -0.64895E+06
        -0.48417E+06
        -0.78537E+06
        -0.17715E+06
        -0.34410E+06
        -0.11551E+06
        -0.99679E+06
        -0.69616E+06
        -0.42059E+06
        -0.33993E+06
        -0.60433E+05
        -0.10475E+06
         0.17949E+06
         0.33670E+06
        -0.54462E+06
        -0.19294E+06
        -0.20000E+06
        -0.44235E+06
        -0.22921E+06
        -0.18778E+06
        -0.52549E+06
        -0.73401E+06
        -0.67856E+06
        -0.59721E+06
        -0.38997E+06
        -0.18507E+06
        -0.12129E+06
        -0.12151E+06
         0.91186E+05
         0.18826E+06
        -0.11750E+06
         0.28604E+05
        -0.14823E+07
        -0.85112E+06
        -0.97656E+06
        -0.27983E+06
         0.36266E+06
         0.83707E+06
         0.70732E+06
         0.73592E+06
         0.54045E+06
         0.14369E+06
        -0.46452E+06
        -0.89412E+06
        -0.10521E+07
        -0.77904E+06
        -0.12249E+07
        -0.15081E+07
        -0.12540E+07
        -0.10197E+07
        -0.45468E+06
         0.96227E+05
         0.57457E+05
        -0.99413E+05
        -0.43876E+06
        -0.84830E+06
        -0.92954E+06
        -0.69541E+06
         0.18754E+06
         0.86967E+05
         0.13042E+06
         0.23033E+06
        -0.18336E+05
         0.16634E+06
        -0.11666E+06
        -0.25633E+06
         0.29012E+06
        -0.29937E+06
        -0.29936E+06
        -0.44753E+05
        -0.17858E+06
        -0.77978E+06
        -0.33726E+06
        -0.95583E+05
         0.94746E+05
         0.21862E+06
        -0.47027E+05
        -0.35829E+05
        -0.65005E+06
        -0.48565E+06
        -0.78651E+06
        -0.17830E+06
        -0.34532E+06
        -0.11660E+06
        -0.99787E+06
        -0.69636E+06
        -0.42173E+06
        -0.34128E+06
        -0.62081E+05
        -0.10589E+06
         0.17786E+06
         0.33491E+06
        -0.54596E+06
        -0.19372E+06
        -0.20047E+06
        -0.44675E+06
        -0.23170E+06
        -0.19005E+06
        -0.52779E+06
        -0.73573E+06
        -0.68048E+06
        -0.59791E+06
        -0.39062E+06
        -0.18626E+06
        -0.12290E+06
        -0.12343E+06
         0.89578E+05
         0.18682E+06
        -0.11884E+06
         0.27907E+05
        -0.14851E+07
        -0.85331E+06
        -0.98112E+06
        -0.28380E+06
         0.36218E+06
         0.83424E+06
         0.70077E+06
         0.72859E+06
         0.53629E+06
         0.13734E+06
        -0.47148E+06
        -0.89756E+06
        -0.10561E+07
        -0.78124E+06
        -0.12270E+07
        -0.15101E+07
        -0.12542E+07
        -0.10210E+07
        -0.45661E+06
         0.90890E+05
         0.50968E+05
        -0.10442E+06
        -0.44118E+06
        -0.84949E+06
        -0.93244E+06
        -0.69955E+06
         0.18549E+06
         0.85213E+05
         0.12914E+06
         0.22959E+06
        -0.19432E+05
         0.16596E+06
        -0.11829E+06
        -0.25779E+06
         0.28834E+06
        -0.30127E+06
        -0.30088E+06
        -0.47400E+05
        -0.18032E+06
        -0.78017E+06
        -0.34005E+06
        -0.98021E+05
         0.93095E+05
         0.21760E+06
        -0.48755E+05
        -0.37000E+05
        -0.65149E+06
        -0.48716E+06
        -0.78822E+06
        -0.18009E+06
        -0.34652E+06
        -0.11865E+06
        -0.99868E+06
        -0.69700E+06
        -0.42299E+06
        -0.34228E+06
        -0.64332E+05
        -0.10778E+06
         0.17706E+06
         0.33461E+06
        -0.54877E+06
        -0.19516E+06
        -0.20173E+06
        -0.45103E+06
        -0.23444E+06
        -0.19207E+06
        -0.52919E+06
        -0.73725E+06
        -0.68225E+06
        -0.59930E+06
        -0.39189E+06
        -0.18789E+06
        -0.12440E+06
        -0.12510E+06
         0.88042E+05
         0.18556E+06
        -0.12012E+06
         0.28034E+05
        -0.14908E+07
        -0.85803E+06
        -0.98455E+06
        -0.28500E+06
         0.36068E+06
         0.82854E+06
         0.69254E+06
         0.72196E+06
         0.53197E+06
         0.13278E+06
        -0.47432E+06
        -0.90096E+06
        -0.10610E+07
        -0.78452E+06
        -0.12306E+07
        -0.15142E+07
        -0.12568E+07
        -0.10242E+07
        -0.46048E+06
         0.86489E+05
         0.46059E+05
        -0.10954E+06
        -0.44474E+06
        -0.85295E+06
        -0.93686E+06
        -0.70426E+06
         0.18664E+06
         0.85921E+05
         0.12975E+06
         0.23064E+06
        -0.17524E+05
         0.16770E+06
        -0.11694E+06
        -0.25521E+06
         0.28948E+06
        -0.29987E+06
        -0.29862E+06
        -0.45274E+05
        -0.17981E+06
        -0.77605E+06
        -0.33512E+06
        -0.96661E+05
         0.93934E+05
         0.21944E+06
        -0.46833E+05
        -0.34707E+05
        -0.64885E+06
        -0.48453E+06
        -0.78616E+06
        -0.17818E+06
        -0.34532E+06
        -0.11681E+06
        -0.99580E+06
        -0.69454E+06
        -0.42030E+06
        -0.33949E+06
        -0.62579E+05
        -0.10626E+06
         0.17953E+06
         0.33665E+06
        -0.54711E+06
        -0.19355E+06
        -0.20077E+06
        -0.44865E+06
        -0.23227E+06
        -0.18924E+06
        -0.52612E+06
        -0.73531E+06
        -0.67980E+06
        -0.59759E+06
        -0.39043E+06
        -0.18646E+06
        -0.12295E+06
        -0.12351E+06
         0.89917E+05
         0.18741E+06
        -0.11827E+06
         0.30598E+05
        -0.14835E+07
        -0.85007E+06
        -0.97701E+06
        -0.28136E+06
         0.35957E+06
         0.82891E+06
         0.69840E+06
         0.72836E+06
         0.53642E+06
         0.13947E+06
        -0.46799E+06
        -0.89793E+06
        -0.10557E+07
        -0.77915E+06
        -0.12258E+07
        -0.15105E+07
        -0.12542E+07
        -0.10210E+07
        -0.45737E+06
         0.91223E+05
         0.51713E+05
        -0.10415E+06
        -0.43993E+06
        -0.84896E+06
        -0.93102E+06
        -0.69749E+06
         0.18562E+06
         0.84513E+05
         0.12851E+06
         0.22920E+06
        -0.18642E+05
         0.16650E+06
        -0.11895E+06
        -0.25650E+06
         0.28805E+06
        -0.30222E+06
        -0.30083E+06
        -0.48548E+05
        -0.18316E+06
        -0.77732E+06
        -0.33706E+06
        -0.98703E+05
         0.91872E+05
         0.21747E+06
        -0.48950E+05
        -0.36580E+05
        -0.65155E+06
        -0.48729E+06
        -0.78906E+06
        -0.18025E+06
        -0.34768E+06
        -0.11861E+06
        -0.99860E+06
        -0.69735E+06
        -0.42302E+06
        -0.34122E+06
        -0.64696E+05
        -0.10804E+06
         0.17748E+06
         0.33504E+06
        -0.54979E+06
        -0.19527E+06
        -0.20291E+06
        -0.45327E+06
        -0.23648E+06
        -0.19285E+06
        -0.53035E+06
        -0.73938E+06
        -0.68274E+06
        -0.60053E+06
        -0.39287E+06
        -0.18884E+06
        -0.12511E+06
        -0.12609E+06
         0.87920E+05
         0.18598E+06
        -0.12001E+06
         0.29688E+05
        -0.14891E+07
        -0.85491E+06
        -0.98252E+06
        -0.28784E+06
         0.35206E+06
         0.82164E+06
         0.69394E+06
         0.72260E+06
         0.52906E+06
         0.13211E+06
        -0.47697E+06
        -0.90679E+06
        -0.10615E+07
        -0.78516E+06
        -0.12310E+07
        -0.15165E+07
        -0.12634E+07
        -0.10293E+07
        -0.46147E+06
         0.85411E+05
         0.45845E+05
        -0.10716E+06
        -0.44186E+06
        -0.85326E+06
        -0.93698E+06
        -0.70347E+06
         0.18535E+06
         0.84038E+05
         0.12813E+06
         0.22874E+06
        -0.18451E+05
         0.16636E+06
        -0.11946E+06
        -0.25631E+06
         0.28813E+06
        -0.30224E+06
        -0.30112E+06
        -0.49060E+05
        -0.18385E+06
        -0.77618E+06
        -0.33673E+06
        -0.99398E+05
         0.91728E+05
         0.21713E+06
        -0.49153E+05
        -0.36666E+05
        -0.65203E+06
        -0.48768E+06
        -0.78974E+06
        -0.18063E+06
        -0.34799E+06
        -0.11912E+06
        -0.99806E+06
        -0.69761E+06
        -0.42395E+06
        -0.34164E+06
        -0.65948E+05
        -0.10873E+06
         0.17684E+06
         0.33472E+06
        -0.55067E+06
        -0.19572E+06
        -0.20347E+06
        -0.45567E+06
        -0.23903E+06
        -0.19453E+06
        -0.53099E+06
        -0.74013E+06
        -0.68324E+06
        -0.60096E+06
        -0.39321E+06
        -0.18938E+06
        -0.12578E+06
        -0.12715E+06
         0.87170E+05
         0.18572E+06
        -0.12022E+06
         0.30066E+05
        -0.14892E+07
        -0.85472E+06
        -0.98393E+06
        -0.29034E+06
         0.35198E+06
         0.82149E+06
         0.69212E+06
         0.71778E+06
         0.52377E+06
         0.12919E+06
        -0.47725E+06
        -0.90763E+06
        -0.10630E+07
        -0.78748E+06
        -0.12338E+07
        -0.15185E+07
        -0.12645E+07
        -0.10304E+07
        -0.46258E+06
         0.83310E+05
         0.43299E+05
        -0.10879E+06
        -0.44188E+06
        -0.85375E+06
        -0.93963E+06
        -0.70593E+06
         0.18923E+06
         0.88413E+05
         0.13179E+06
         0.23152E+06
        -0.13588E+05
         0.17003E+06
        -0.11452E+06
        -0.25124E+06
         0.29112E+06
        -0.29850E+06
        -0.29581E+06
        -0.42175E+05
        -0.17831E+06
        -0.76982E+06
        -0.32946E+06
        -0.96019E+05
         0.95144E+05
         0.22049E+06
        -0.44947E+05
        -0.32022E+05
        -0.64635E+06
        -0.48250E+06
        -0.78461E+06
        -0.17651E+06
        -0.34355E+06
        -0.11502E+06
        -0.99233E+06
        -0.69132E+06
        -0.41840E+06
        -0.33644E+06
        -0.62134E+05
        -0.10452E+06
         0.18048E+06
         0.33745E+06
        -0.54566E+06
        -0.19130E+06
        -0.19898E+06
        -0.45171E+06
        -0.23440E+06
        -0.18967E+06
        -0.52572E+06
        -0.73517E+06
        -0.67856E+06
        -0.59583E+06
        -0.38809E+06
        -0.18385E+06
        -0.12124E+06
        -0.12296E+06
         0.90908E+05
         0.18902E+06
        -0.11654E+06
         0.33934E+05
        -0.14760E+07
        -0.84148E+06
        -0.97271E+06
        -0.28230E+06
         0.36189E+06
         0.83399E+06
         0.70255E+06
         0.72560E+06
         0.53272E+06
         0.13896E+06
        -0.46845E+06
        -0.89732E+06
        -0.10549E+07
        -0.77852E+06
        -0.12237E+07
        -0.15078E+07
        -0.12524E+07
        -0.10173E+07
        -0.45130E+06
         0.95022E+05
         0.53318E+05
        -0.10137E+06
        -0.43356E+06
        -0.84398E+06
        -0.92908E+06
        -0.69533E+06
         0.18745E+06
         0.87145E+05
         0.13064E+06
         0.22975E+06
        -0.15090E+05
         0.16877E+06
        -0.11634E+06
        -0.25301E+06
         0.28909E+06
        -0.30144E+06
        -0.29799E+06
        -0.44707E+05
        -0.17988E+06
        -0.77123E+06
        -0.33232E+06
        -0.98540E+05
         0.92602E+05
         0.21889E+06
        -0.47742E+05
        -0.34342E+05
        -0.64811E+06
        -0.48501E+06
        -0.78642E+06
        -0.17900E+06
        -0.34631E+06
        -0.11757E+06
        -0.99483E+06
        -0.69319E+06
        -0.41919E+06
        -0.33768E+06
        -0.63753E+05
        -0.10654E+06
         0.17916E+06
         0.33548E+06
        -0.54905E+06
        -0.19284E+06
        -0.19996E+06
        -0.45690E+06
        -0.23790E+06
        -0.19146E+06
        -0.52845E+06
        -0.73842E+06
        -0.68193E+06
        -0.59798E+06
        -0.39020E+06
        -0.18610E+06
        -0.12303E+06
        -0.12444E+06
         0.89241E+05
         0.18686E+06
        -0.11866E+06
         0.32975E+05
        -0.14843E+07
        -0.84849E+06
        -0.97909E+06
        -0.28572E+06
         0.36079E+06
         0.83074E+06
         0.69540E+06
         0.71699E+06
         0.52455E+06
         0.13164E+06
        -0.47711E+06
        -0.90722E+06
        -0.10619E+07
        -0.78193E+06
        -0.12253E+07
        -0.15089E+07
        -0.12557E+07
        -0.10232E+07
        -0.45561E+06
         0.89795E+05
         0.48632E+05
        -0.10668E+06
        -0.43914E+06
        -0.84755E+06
        -0.93246E+06
        -0.70099E+06
         0.18454E+06
         0.83927E+05
         0.12751E+06
         0.22738E+06
        -0.17733E+05
         0.16615E+06
        -0.11923E+06
        -0.25517E+06
         0.28618E+06
        -0.30670E+06
        -0.30065E+06
        -0.48765E+05
        -0.18317E+06
        -0.77270E+06
        -0.33600E+06
        -0.10155E+06
         0.88848E+05
         0.21704E+06
        -0.50033E+05
        -0.35410E+05
        -0.65032E+06
        -0.48795E+06
        -0.78859E+06
        -0.18115E+06
        -0.35116E+06
        -0.12008E+06
        -0.10006E+07
        -0.69635E+06
        -0.41263E+06
        -0.33399E+06
        -0.66461E+05
        -0.10940E+06
         0.17785E+06
         0.33413E+06
        -0.55281E+06
        -0.19547E+06
        -0.20249E+06
        -0.46441E+06
        -0.24135E+06
        -0.18700E+06
        -0.52886E+06
        -0.74190E+06
        -0.68640E+06
        -0.60034E+06
        -0.39292E+06
        -0.18972E+06
        -0.12618E+06
        -0.12703E+06
         0.87305E+05
         0.18514E+06
        -0.12052E+06
         0.31601E+05
        -0.14898E+07
        -0.85356E+06
        -0.98340E+06
        -0.28957E+06
         0.35546E+06
         0.82191E+06
         0.68534E+06
         0.70739E+06
         0.51632E+06
         0.12975E+06
        -0.49223E+06
        -0.93099E+06
        -0.10716E+07
        -0.78731E+06
        -0.12303E+07
        -0.15133E+07
        -0.12610E+07
        -0.10293E+07
        -0.46274E+06
         0.81626E+05
         0.43245E+05
        -0.11174E+06
        -0.44484E+06
        -0.85182E+06
        -0.93913E+06
        -0.70851E+06
         0.18823E+06
         0.87946E+05
         0.13149E+06
         0.23077E+06
        -0.12593E+05
         0.17008E+06
        -0.11493E+06
        -0.25018E+06
         0.28824E+06
        -0.30750E+06
        -0.29587E+06
        -0.43640E+05
        -0.17910E+06
        -0.76664E+06
        -0.32947E+06
        -0.98129E+05
         0.91119E+05
         0.22020E+06
        -0.45177E+05
        -0.27837E+05
        -0.64557E+06
        -0.48342E+06
        -0.78448E+06
        -0.17669E+06
        -0.35012E+06
        -0.11561E+06
        -0.10015E+07
        -0.69236E+06
        -0.39164E+06
        -0.31782E+06
        -0.63249E+05
        -0.10513E+06
         0.18142E+06
         0.33774E+06
        -0.54743E+06
        -0.19056E+06
        -0.19825E+06
        -0.46435E+06
        -0.23598E+06
        -0.16917E+06
        -0.51849E+06
        -0.73684E+06
        -0.68370E+06
        -0.59593E+06
        -0.38791E+06
        -0.18359E+06
        -0.12145E+06
        -0.12320E+06
         0.91400E+05
         0.18961E+06
        -0.11567E+06
         0.36036E+05
        -0.14762E+07
        -0.84012E+06
        -0.96959E+06
        -0.27999E+06
         0.36167E+06
         0.82900E+06
         0.69512E+06
         0.71719E+06
         0.52725E+06
         0.15099E+06
        -0.49712E+06
        -0.95012E+06
        -0.10709E+07
        -0.77988E+06
        -0.12241E+07
        -0.15081E+07
        -0.12543E+07
        -0.10184E+07
        -0.44927E+06
         0.94159E+05
         0.54104E+05
        -0.10062E+06
        -0.43215E+06
        -0.84017E+06
        -0.92971E+06
        -0.69870E+06
         0.17395E+06
         0.73119E+05
         0.11710E+06
         0.21697E+06
        -0.29167E+05
         0.15429E+06
        -0.13138E+06
        -0.26645E+06
         0.27262E+06
        -0.32802E+06
        -0.31407E+06
        -0.68419E+05
        -0.20098E+06
        -0.78468E+06
        -0.35473E+06
        -0.11280E+06
         0.74223E+05
         0.20641E+06
        -0.61482E+05
        -0.43177E+05
        -0.66589E+06
        -0.50308E+06
        -0.80385E+06
        -0.19240E+06
        -0.36980E+06
        -0.13051E+06
        -0.10240E+07
        -0.71091E+06
        -0.40036E+06
        -0.32889E+06
        -0.77770E+05
        -0.12056E+06
         0.16719E+06
         0.32244E+06
        -0.56866E+06
        -0.20797E+06
        -0.21637E+06
        -0.49288E+06
        -0.25712E+06
        -0.18141E+06
        -0.53930E+06
        -0.75896E+06
        -0.70563E+06
        -0.61373E+06
        -0.40620E+06
        -0.20638E+06
        -0.13966E+06
        -0.13987E+06
         0.75149E+05
         0.17205E+06
        -0.13654E+06
         0.19096E+05
        -0.15235E+07
        -0.88602E+06
        -0.10174E+07
        -0.32878E+06
         0.31298E+06
         0.78189E+06
         0.64728E+06
         0.66606E+06
         0.47949E+06
         0.10734E+06
        -0.55790E+06
        -0.10162E+07
        -0.11173E+07
        -0.81822E+06
        -0.12646E+07
        -0.15504E+07
        -0.12979E+07
        -0.10674E+07
        -0.49950E+06
         0.45872E+05
         0.96329E+04
        -0.14311E+06
        -0.47567E+06
        -0.88494E+06
        -0.97281E+06
        -0.74155E+06
         0.18194E+06
         0.74132E+05
         0.11977E+06
         0.22218E+06
        -0.23123E+05
         0.15980E+06
        -0.12924E+06
        -0.25604E+06
         0.28277E+06
        -0.31311E+06
        -0.30902E+06
        -0.68025E+05
        -0.20669E+06
        -0.77154E+06
        -0.34306E+06
        -0.10205E+06
         0.84845E+05
         0.21402E+06
        -0.52681E+05
        -0.33948E+05
        -0.65651E+06
        -0.49628E+06
        -0.79000E+06
        -0.18063E+06
        -0.35275E+06
        -0.11955E+06
        -0.10048E+07
        -0.68932E+06
        -0.38288E+06
        -0.31254E+06
        -0.69269E+05
        -0.11372E+06
         0.17159E+06
         0.32022E+06
        -0.56581E+06
        -0.20917E+06
        -0.22141E+06
        -0.48013E+06
        -0.24263E+06
        -0.16914E+06
        -0.53011E+06
        -0.74695E+06
        -0.69262E+06
        -0.60150E+06
        -0.39937E+06
        -0.20284E+06
        -0.13688E+06
        -0.13288E+06
         0.80657E+05
         0.17240E+06
        -0.13504E+06
         0.20213E+05
        -0.15052E+07
        -0.86224E+06
        -0.10113E+07
        -0.33930E+06
         0.29115E+06
         0.76848E+06
         0.66913E+06
         0.68835E+06
         0.49735E+06
         0.11797E+06
        -0.55490E+06
        -0.10072E+07
        -0.10998E+07
        -0.80954E+06
        -0.12463E+07
        -0.15241E+07
        -0.12753E+07
        -0.10501E+07
        -0.49196E+06
         0.44996E+05
         0.19610E+05
        -0.12895E+06
        -0.45303E+06
        -0.85760E+06
        -0.95129E+06
        -0.71933E+06
         0.55424E+08
         0.57697E+08
         0.57300E+08
         0.52404E+08
         0.66110E+08
         0.61890E+08
         0.62241E+08
         0.62898E+08
         0.54581E+08
         0.63026E+08
         0.69144E+08
         0.94832E+08
         0.79707E+08
         0.70940E+08
         0.98601E+08
         0.52979E+08
         0.57196E+08
         0.50121E+08
         0.59482E+08
         0.62242E+08
         0.73323E+08
         0.72719E+08
         0.68370E+08
         0.56786E+08
         0.63196E+08
         0.54454E+08
         0.70007E+08
         0.68162E+08
         0.68525E+08
         0.65421E+08
         0.53577E+08
         0.56331E+08
         0.52700E+08
         0.55153E+08
         0.78960E+08
         0.65729E+08
         0.65809E+08
         0.89734E+08
         0.81093E+08
         0.77694E+08
         0.87476E+08
         0.80343E+08
         0.76113E+08
         0.63218E+08
         0.63952E+08
         0.81554E+08
         0.66844E+08
         0.62247E+08
         0.60976E+08
         0.63449E+08
         0.74295E+08
         0.63825E+08
         0.17150E+09
         0.16825E+09
         0.17195E+09
         0.16666E+09
         0.17267E+09
         0.18186E+09
         0.18234E+09
         0.17939E+09
         0.18053E+09
         0.18595E+09
         0.17968E+09
         0.16899E+09
         0.14833E+09
         0.13958E+09
         0.14241E+09
         0.14634E+09
         0.14874E+09
         0.16293E+09
         0.17458E+09
         0.17574E+09
         0.16035E+09
         0.15424E+09
         0.16009E+09
         0.15777E+09
         0.15662E+09
         0.15688E+09
         0.76038E+09
         0.79438E+09
         0.78199E+09
         0.70789E+09
         0.88758E+09
         0.82856E+09
         0.86177E+09
         0.87357E+09
         0.73868E+09
         0.87286E+09
         0.95162E+09
         0.10819E+10
         0.97485E+09
         0.98181E+09
         0.11215E+10
         0.72384E+09
         0.77873E+09
         0.67190E+09
         0.80654E+09
         0.85007E+09
         0.89083E+09
         0.91007E+09
         0.85263E+09
         0.77299E+09
         0.88086E+09
         0.74330E+09
         0.97810E+09
         0.95863E+09
         0.96351E+09
         0.91373E+09
         0.73108E+09
         0.76923E+09
         0.71388E+09
         0.74881E+09
         0.97775E+09
         0.88999E+09
         0.89503E+09
         0.10826E+10
         0.10513E+10
         0.10374E+10
         0.10601E+10
         0.10041E+10
         0.94821E+09
         0.82966E+09
         0.86403E+09
         0.97837E+09
         0.89822E+09
         0.84103E+09
         0.82227E+09
         0.85510E+09
         0.93595E+09
         0.85837E+09
         0.15860E+10
         0.15464E+10
         0.15796E+10
         0.15309E+10
         0.15775E+10
         0.16591E+10
         0.16846E+10
         0.16783E+10
         0.16893E+10
         0.17287E+10
         0.16788E+10
         0.15793E+10
         0.14132E+10
         0.13351E+10
         0.13408E+10
         0.13594E+10
         0.13735E+10
         0.14902E+10
         0.15944E+10
         0.16016E+10
         0.14815E+10
         0.14350E+10
         0.14832E+10
         0.14719E+10
         0.14558E+10
         0.14515E+10
  
SCALARS                      stress_yy  double 1
LOOKUP_TABLE default
        -0.17398E+11
        -0.17783E+11
        -0.17539E+11
        -0.17099E+11
        -0.43087E+02
        -0.48315E+02
        -0.46263E+02
        -0.42028E+02
        -0.17796E+11
        -0.17666E+11
        -0.43447E+02
        -0.42046E+02
        -0.18336E+11
        -0.18356E+11
        -0.51624E+02
        -0.48540E+02
        -0.17164E+11
        -0.18327E+11
        -0.38145E+02
        -0.42309E+02
        -0.18749E+11
        -0.19074E+11
        -0.18555E+11
        -0.51166E+02
        -0.44684E+02
        -0.46141E+02
        -0.19062E+11
        -0.19534E+11
        -0.49086E+02
        -0.41396E+02
        -0.17185E+11
        -0.17693E+11
        -0.16689E+11
        -0.41888E+02
        -0.38941E+02
        -0.37861E+02
        -0.17480E+11
        -0.18124E+11
        -0.44316E+02
        -0.40438E+02
        -0.17735E+11
        -0.18231E+11
        -0.38301E+02
        -0.33907E+02
        -0.17313E+11
        -0.17125E+11
        -0.41973E+02
        -0.46899E+02
        -0.18626E+11
        -0.41004E+02
        -0.17162E+11
        -0.48182E+02
        -0.19198E+11
        -0.43302E+02
        -0.19347E+11
        -0.41535E+02
        -0.19345E+11
        -0.18815E+11
        -0.42319E+02
        -0.41214E+02
        -0.17196E+11
        -0.17391E+11
        -0.42436E+02
        -0.47973E+02
        -0.17073E+11
        -0.40947E+02
        -0.17306E+11
        -0.44689E+02
        -0.17915E+11
        -0.17976E+11
        -0.43018E+02
        -0.45075E+02
        -0.18113E+11
        -0.45453E+02
        -0.19701E+11
        -0.35911E+02
        -0.19783E+11
        -0.34857E+02
        -0.19742E+11
        -0.36753E+02
        -0.19515E+11
        -0.19278E+11
        -0.35018E+02
        -0.36508E+02
        -0.18798E+11
        -0.34002E+02
        -0.17323E+11
        -0.44589E+02
        -0.17555E+11
        -0.45636E+02
        -0.17745E+11
        -0.17849E+11
        -0.43826E+02
        -0.44337E+02
        -0.17721E+11
        -0.40271E+02
        -0.17630E+11
        -0.39696E+02
        -0.17712E+11
        -0.42495E+02
        -0.17741E+11
        -0.17658E+11
        -0.41673E+02
        -0.42896E+02
        -0.18197E+11
        -0.17979E+11
        -0.32355E+02
        -0.30432E+02
        -0.18239E+11
        -0.30895E+02
        -0.17987E+11
        -0.29623E+02
        -0.18235E+11
        -0.29210E+02
        -0.18782E+11
        -0.27604E+02
        -0.19308E+11
        -0.24523E+02
        -0.19621E+11
        -0.22082E+02
        -0.19653E+11
        -0.21928E+02
        -0.19643E+11
        -0.23780E+02
        -0.19304E+11
        -0.24992E+02
        -0.18665E+11
        -0.22820E+02
        -0.17956E+11
        -0.20570E+02
        -0.17537E+11
        -0.20547E+02
        -0.17120E+11
        -0.22966E+02
        -0.16844E+11
        -0.26187E+02
        -0.16854E+11
        -0.28133E+02
        -0.17524E+11
        -0.30383E+02
        -0.17987E+11
        -0.32551E+02
        -0.18145E+11
        -0.29819E+02
        -0.17898E+11
        -0.26159E+02
        -0.17768E+11
        -0.26078E+02
        -0.17985E+11
        -0.28533E+02
        -0.17982E+11
        -0.30418E+02
        -0.17818E+11
        -0.28866E+02
        -0.17605E+11
        -0.27907E+02
        -0.17045E+11
        -0.17318E+11
        -0.17282E+11
        -0.16926E+11
        -0.17578E+11
        -0.17251E+11
        -0.17655E+11
        -0.17445E+11
        -0.16982E+11
        -0.17272E+11
        -0.17877E+11
        -0.17943E+11
        -0.17764E+11
        -0.17752E+11
        -0.17868E+11
        -0.16943E+11
        -0.17010E+11
        -0.16822E+11
        -0.17348E+11
        -0.17253E+11
        -0.17388E+11
        -0.17299E+11
        -0.17463E+11
        -0.17421E+11
        -0.17261E+11
        -0.17273E+11
        -0.17544E+11
        -0.17520E+11
        -0.17718E+11
        -0.17417E+11
        -0.16976E+11
        -0.17322E+11
        -0.16978E+11
        -0.17206E+11
        -0.17990E+11
        -0.17743E+11
        -0.17624E+11
        -0.17764E+11
        -0.17782E+11
        -0.18007E+11
        -0.18168E+11
        -0.17772E+11
        -0.17383E+11
        -0.17436E+11
        -0.17636E+11
        -0.17980E+11
        -0.17687E+11
        -0.17366E+11
        -0.17388E+11
        -0.17637E+11
        -0.17887E+11
        -0.17549E+11
        -0.18552E+11
        -0.18265E+11
        -0.18313E+11
        -0.18245E+11
        -0.18262E+11
        -0.18418E+11
        -0.18576E+11
        -0.18627E+11
        -0.18605E+11
        -0.18621E+11
        -0.18687E+11
        -0.18277E+11
        -0.18120E+11
        -0.18059E+11
        -0.17955E+11
        -0.17875E+11
        -0.17879E+11
        -0.18014E+11
        -0.18457E+11
        -0.18352E+11
        -0.18201E+11
        -0.18202E+11
        -0.18229E+11
        -0.18374E+11
        -0.18159E+11
        -0.18079E+11
        -0.46340E+05
        -0.44438E+04
         0.53093E+05
         0.28843E+06
         0.11787E+05
         0.28697E+06
        -0.98346E+05
        -0.44061E+06
         0.22966E+06
        -0.42899E+06
        -0.34265E+06
        -0.70594E+06
        -0.26460E+06
        -0.58855E+06
        -0.85930E+06
         0.46147E+05
         0.18491E+06
         0.24344E+06
        -0.67808E+05
         0.35317E+05
        -0.80953E+05
         0.85420E+05
        -0.15211E+06
        -0.61603E+05
        -0.35144E+06
        -0.32242E+05
        -0.79449E+06
        -0.64018E+06
        -0.32956E+06
        -0.31569E+06
         0.28642E+05
        -0.95070E+04
         0.22723E+06
         0.36796E+06
         0.11970E+05
        -0.16846E+05
        -0.53914E+05
        -0.73324E+06
        -0.69986E+06
        -0.51880E+06
        -0.13354E+06
        -0.71571E+05
        -0.72173E+05
        -0.21167E+06
        -0.25489E+06
        -0.59296E+06
        -0.20757E+06
        -0.34924E+05
        -0.12919E+05
         0.11877E+05
         0.21631E+05
         0.31744E+06
        -0.42808E+06
         0.13662E+06
        -0.51768E+06
        -0.28664E+06
        -0.18935E+06
        -0.15485E+06
        -0.36623E+06
        -0.22519E+06
        -0.34128E+06
        -0.45591E+06
        -0.16944E+05
         0.20879E+06
         0.50798E+05
         0.28997E+06
        -0.11067E+06
        -0.48635E+06
        -0.66842E+06
        -0.86086E+06
        -0.11726E+07
        -0.93239E+06
        -0.83953E+06
        -0.96012E+06
        -0.10593E+07
        -0.63045E+06
        -0.35305E+05
         0.21401E+06
        -0.61903E+05
        -0.20233E+05
         0.37422E+05
         0.27436E+06
        -0.63098E+04
         0.27006E+06
        -0.11561E+06
        -0.45903E+06
         0.21307E+06
        -0.44993E+06
        -0.36206E+06
        -0.73242E+06
        -0.28631E+06
        -0.60772E+06
        -0.88671E+06
         0.29664E+05
         0.16675E+06
         0.22953E+06
        -0.86346E+05
         0.16049E+05
        -0.10291E+06
         0.64532E+05
        -0.17395E+06
        -0.80391E+05
        -0.37340E+06
        -0.50133E+05
        -0.81303E+06
        -0.65959E+06
        -0.35023E+06
        -0.33774E+06
         0.12686E+05
        -0.26458E+05
         0.21272E+06
         0.35365E+06
        -0.94129E+04
        -0.34670E+05
        -0.71704E+05
        -0.75972E+06
        -0.72346E+06
        -0.54081E+06
        -0.15919E+06
        -0.95917E+05
        -0.95511E+05
        -0.23176E+06
        -0.27358E+06
        -0.61514E+06
        -0.22648E+06
        -0.52672E+05
        -0.28874E+05
        -0.39276E+04
         0.20567E+04
         0.30024E+06
        -0.47548E+06
         0.90253E+05
        -0.56352E+06
        -0.33039E+06
        -0.23581E+06
        -0.20662E+06
        -0.41782E+06
        -0.27706E+06
        -0.39383E+06
        -0.50974E+06
        -0.70427E+05
         0.15930E+06
         0.99110E+04
         0.25185E+06
        -0.15076E+06
        -0.52941E+06
        -0.71258E+06
        -0.90709E+06
        -0.12190E+07
        -0.98136E+06
        -0.88560E+06
        -0.10016E+07
        -0.11011E+07
        -0.67292E+06
        -0.78276E+05
         0.17032E+06
        -0.58739E+05
        -0.17183E+05
         0.40626E+05
         0.27804E+06
        -0.16046E+04
         0.27456E+06
        -0.11214E+06
        -0.45606E+06
         0.21531E+06
        -0.45106E+06
        -0.35822E+06
        -0.72725E+06
        -0.28219E+06
        -0.60297E+06
        -0.88096E+06
         0.26333E+05
         0.16572E+06
         0.23330E+06
        -0.90996E+05
         0.12417E+05
        -0.10672E+06
         0.63139E+05
        -0.18827E+06
        -0.93944E+05
        -0.38342E+06
        -0.62655E+05
        -0.80938E+06
        -0.66216E+06
        -0.35850E+06
        -0.35329E+06
         0.12682E+05
        -0.30287E+05
         0.21651E+06
         0.35829E+06
        -0.37726E+04
        -0.30227E+05
        -0.67734E+05
        -0.75596E+06
        -0.72105E+06
        -0.54009E+06
        -0.15996E+06
        -0.10473E+06
        -0.10812E+06
        -0.24527E+06
        -0.27682E+06
        -0.61214E+06
        -0.22310E+06
        -0.48513E+05
        -0.23966E+05
         0.17320E+04
         0.76386E+04
         0.30519E+06
        -0.46128E+06
         0.10290E+06
        -0.54957E+06
        -0.31955E+06
        -0.22780E+06
        -0.19851E+06
        -0.40747E+06
        -0.26670E+06
        -0.38352E+06
        -0.49896E+06
        -0.64056E+05
         0.15902E+06
         0.10574E+05
         0.25883E+06
        -0.14607E+06
        -0.53818E+06
        -0.72222E+06
        -0.90468E+06
        -0.12063E+07
        -0.96659E+06
        -0.87255E+06
        -0.98843E+06
        -0.10863E+07
        -0.66028E+06
        -0.67942E+05
         0.18033E+06
        -0.61290E+05
        -0.18561E+05
         0.39219E+05
         0.27575E+06
        -0.33370E+04
         0.27307E+06
        -0.11367E+06
        -0.45931E+06
         0.21020E+06
        -0.46111E+06
        -0.36030E+06
        -0.72990E+06
        -0.28395E+06
        -0.60520E+06
        -0.88507E+06
         0.13214E+05
         0.15499E+06
         0.23081E+06
        -0.10722E+06
        -0.37931E+04
        -0.12343E+06
         0.48701E+05
        -0.22162E+06
        -0.12426E+06
        -0.40925E+06
        -0.91209E+05
        -0.81443E+06
        -0.67787E+06
        -0.38392E+06
        -0.38986E+06
         0.49271E+04
        -0.45547E+05
         0.21419E+06
         0.35594E+06
        -0.64876E+04
        -0.32055E+05
        -0.69132E+05
        -0.76143E+06
        -0.72778E+06
        -0.55042E+06
        -0.17460E+06
        -0.13230E+06
        -0.14214E+06
        -0.27701E+06
        -0.29238E+06
        -0.62112E+06
        -0.22925E+06
        -0.51708E+05
        -0.26327E+05
        -0.76442E+03
         0.47129E+04
         0.30336E+06
        -0.46786E+06
         0.98292E+05
        -0.55693E+06
        -0.32586E+06
        -0.23212E+06
        -0.20336E+06
        -0.41561E+06
        -0.27545E+06
        -0.39214E+06
        -0.50938E+06
        -0.80521E+05
         0.13237E+06
        -0.14210E+05
         0.24708E+06
        -0.15929E+06
        -0.57482E+06
        -0.76123E+06
        -0.92300E+06
        -0.12150E+07
        -0.97483E+06
        -0.87887E+06
        -0.99584E+06
        -0.10941E+07
        -0.66539E+06
        -0.71780E+05
         0.17654E+06
        -0.65601E+05
        -0.21311E+05
         0.36850E+05
         0.27339E+06
        -0.53303E+04
         0.27103E+06
        -0.11603E+06
        -0.46404E+06
         0.20417E+06
        -0.47148E+06
        -0.36251E+06
        -0.73152E+06
        -0.28590E+06
        -0.60768E+06
        -0.88744E+06
         0.43299E+04
         0.14648E+06
         0.22851E+06
        -0.11794E+06
        -0.15457E+05
        -0.13428E+06
         0.38323E+05
        -0.24213E+06
        -0.14303E+06
        -0.42810E+06
        -0.10946E+06
        -0.81883E+06
        -0.68920E+06
        -0.40140E+06
        -0.41425E+06
        -0.31623E+04
        -0.56610E+05
         0.20975E+06
         0.35266E+06
        -0.92948E+04
        -0.34383E+05
        -0.71252E+05
        -0.76569E+06
        -0.73360E+06
        -0.55842E+06
        -0.18500E+06
        -0.15081E+06
        -0.16447E+06
        -0.29731E+06
        -0.30273E+06
        -0.62711E+06
        -0.23473E+06
        -0.56921E+05
        -0.30761E+05
        -0.47443E+04
         0.13032E+03
         0.30035E+06
        -0.47376E+06
         0.94263E+05
        -0.56322E+06
        -0.33078E+06
        -0.23417E+06
        -0.20475E+06
        -0.41904E+06
        -0.28119E+06
        -0.39947E+06
        -0.51583E+06
        -0.90549E+05
         0.11391E+06
        -0.31107E+05
         0.23799E+06
        -0.16862E+06
        -0.59858E+06
        -0.78869E+06
        -0.93615E+06
        -0.12190E+07
        -0.98230E+06
        -0.88723E+06
        -0.10043E+07
        -0.11042E+07
        -0.67378E+06
        -0.76907E+05
         0.17277E+06
        -0.75475E+05
        -0.26531E+05
         0.34508E+05
         0.27525E+06
        -0.29121E+04
         0.27415E+06
        -0.11768E+06
        -0.47157E+06
         0.19588E+06
        -0.48479E+06
        -0.36095E+06
        -0.72550E+06
        -0.28375E+06
        -0.60686E+06
        -0.88073E+06
         0.59071E+04
         0.14442E+06
         0.23236E+06
        -0.11590E+06
        -0.13714E+05
        -0.13142E+06
         0.41926E+05
        -0.24171E+06
        -0.14337E+06
        -0.43668E+06
        -0.11195E+06
        -0.81985E+06
        -0.69047E+06
        -0.40030E+06
        -0.41547E+06
        -0.12819E+05
        -0.62413E+05
         0.20237E+06
         0.35182E+06
        -0.67843E+04
        -0.34186E+05
        -0.71637E+05
        -0.76188E+06
        -0.73118E+06
        -0.55503E+06
        -0.18023E+06
        -0.14780E+06
        -0.16214E+06
        -0.29886E+06
        -0.30423E+06
        -0.62821E+06
        -0.23951E+06
        -0.67556E+05
        -0.42263E+05
        -0.10394E+05
        -0.13554E+04
         0.30186E+06
        -0.46208E+06
         0.10624E+06
        -0.55354E+06
        -0.32421E+06
        -0.22731E+06
        -0.19525E+06
        -0.40829E+06
        -0.27088E+06
        -0.38785E+06
        -0.50035E+06
        -0.77021E+05
         0.12200E+06
        -0.22188E+05
         0.24722E+06
        -0.15960E+06
        -0.59144E+06
        -0.78370E+06
        -0.93103E+06
        -0.12128E+07
        -0.97793E+06
        -0.88824E+06
        -0.10103E+07
        -0.11082E+07
        -0.67166E+06
        -0.70934E+05
         0.18131E+06
        -0.90287E+05
        -0.35708E+05
         0.29041E+05
         0.27379E+06
        -0.48866E+04
         0.27393E+06
        -0.12467E+06
        -0.48530E+06
         0.18220E+06
        -0.50347E+06
        -0.36570E+06
        -0.72770E+06
        -0.28731E+06
        -0.61298E+06
        -0.88315E+06
         0.32118E+04
         0.13740E+06
         0.23167E+06
        -0.11788E+06
        -0.16386E+05
        -0.13314E+06
         0.40877E+05
        -0.24336E+06
        -0.14562E+06
        -0.44841E+06
        -0.11650E+06
        -0.82736E+06
        -0.69626E+06
        -0.40208E+06
        -0.41869E+06
        -0.26318E+05
        -0.71959E+05
         0.19116E+06
         0.34744E+06
        -0.10083E+05
        -0.37950E+05
        -0.75833E+05
        -0.76634E+06
        -0.73576E+06
        -0.55737E+06
        -0.18131E+06
        -0.14814E+06
        -0.16241E+06
        -0.30221E+06
        -0.31009E+06
        -0.63667E+06
        -0.25044E+06
        -0.83650E+05
        -0.58906E+05
        -0.20731E+05
        -0.74651E+04
         0.29984E+06
        -0.46689E+06
         0.10241E+06
        -0.55659E+06
        -0.32753E+06
        -0.23218E+06
        -0.20097E+06
        -0.41297E+06
        -0.27482E+06
        -0.39198E+06
        -0.50341E+06
        -0.79460E+05
         0.11897E+06
        -0.22710E+05
         0.24646E+06
        -0.16156E+06
        -0.59265E+06
        -0.78624E+06
        -0.93939E+06
        -0.12252E+07
        -0.99143E+06
        -0.90344E+06
        -0.10290E+07
        -0.11247E+07
        -0.68019E+06
        -0.75463E+05
         0.17782E+06
        -0.94835E+05
        -0.39098E+05
         0.26733E+05
         0.27184E+06
        -0.70114E+04
         0.27194E+06
        -0.12823E+06
        -0.49054E+06
         0.17784E+06
        -0.51029E+06
        -0.36913E+06
        -0.73081E+06
        -0.29081E+06
        -0.61634E+06
        -0.88670E+06
         0.77984E+03
         0.13450E+06
         0.22988E+06
        -0.11971E+06
        -0.18468E+05
        -0.13570E+06
         0.38457E+05
        -0.24552E+06
        -0.14733E+06
        -0.45318E+06
        -0.11906E+06
        -0.83056E+06
        -0.69932E+06
        -0.40522E+06
        -0.42178E+06
        -0.30726E+05
        -0.75702E+05
         0.18749E+06
         0.34497E+06
        -0.12864E+05
        -0.40017E+05
        -0.78406E+05
        -0.77178E+06
        -0.74086E+06
        -0.56171E+06
        -0.18582E+06
        -0.15138E+06
        -0.16458E+06
        -0.30523E+06
        -0.31369E+06
        -0.64072E+06
        -0.25421E+06
        -0.87644E+05
        -0.62809E+05
        -0.23954E+05
        -0.11229E+05
         0.29729E+06
        -0.47350E+06
         0.95808E+05
        -0.56119E+06
        -0.33211E+06
        -0.23780E+06
        -0.20580E+06
        -0.41790E+06
        -0.28161E+06
        -0.40116E+06
        -0.51302E+06
        -0.88159E+05
         0.11497E+06
        -0.25808E+05
         0.23983E+06
        -0.16850E+06
        -0.59937E+06
        -0.79513E+06
        -0.94783E+06
        -0.12322E+07
        -0.99707E+06
        -0.90812E+06
        -0.10352E+07
        -0.11330E+07
        -0.68771E+06
        -0.81783E+05
         0.17160E+06
        -0.92481E+05
        -0.36773E+05
         0.28318E+05
         0.27237E+06
        -0.47821E+04
         0.27250E+06
        -0.12589E+06
        -0.48806E+06
         0.17991E+06
        -0.50882E+06
        -0.36693E+06
        -0.72752E+06
        -0.28863E+06
        -0.61282E+06
        -0.88237E+06
         0.38430E+04
         0.13706E+06
         0.23166E+06
        -0.11665E+06
        -0.15654E+05
        -0.13278E+06
         0.41335E+05
        -0.24244E+06
        -0.14420E+06
        -0.45136E+06
        -0.11608E+06
        -0.82597E+06
        -0.69569E+06
        -0.40248E+06
        -0.41952E+06
        -0.28155E+05
        -0.73457E+05
         0.18918E+06
         0.34576E+06
        -0.96152E+04
        -0.37751E+05
        -0.76430E+05
        -0.76915E+06
        -0.73962E+06
        -0.56011E+06
        -0.18310E+06
        -0.14818E+06
        -0.16143E+06
        -0.30285E+06
        -0.31173E+06
        -0.63838E+06
        -0.25211E+06
        -0.84852E+05
        -0.59737E+05
        -0.21276E+05
        -0.95734E+04
         0.29798E+06
        -0.46352E+06
         0.10553E+06
        -0.55549E+06
        -0.32972E+06
        -0.23298E+06
        -0.19809E+06
        -0.40931E+06
        -0.27544E+06
        -0.39889E+06
        -0.50944E+06
        -0.81731E+05
         0.12402E+06
        -0.17925E+05
         0.24489E+06
        -0.16365E+06
        -0.59385E+06
        -0.78966E+06
        -0.94088E+06
        -0.12256E+07
        -0.98916E+06
        -0.90011E+06
        -0.10281E+07
        -0.11270E+07
        -0.68221E+06
        -0.76261E+05
         0.17760E+06
        -0.93491E+05
        -0.36949E+05
         0.27773E+05
         0.27104E+06
        -0.52478E+04
         0.27142E+06
        -0.12638E+06
        -0.49003E+06
         0.17751E+06
        -0.51252E+06
        -0.36847E+06
        -0.72938E+06
        -0.28921E+06
        -0.61449E+06
        -0.88607E+06
         0.23242E+04
         0.13514E+06
         0.22974E+06
        -0.11818E+06
        -0.17266E+05
        -0.13422E+06
         0.39780E+05
        -0.24357E+06
        -0.14531E+06
        -0.45342E+06
        -0.11709E+06
        -0.82699E+06
        -0.69602E+06
        -0.40324E+06
        -0.42115E+06
        -0.29528E+05
        -0.74559E+05
         0.18714E+06
         0.34392E+06
        -0.10606E+05
        -0.38710E+05
        -0.77041E+05
        -0.77396E+06
        -0.74304E+06
        -0.56260E+06
        -0.18540E+06
        -0.14939E+06
        -0.16330E+06
        -0.30391E+06
        -0.31274E+06
        -0.63978E+06
        -0.25398E+06
        -0.86681E+05
        -0.61088E+05
        -0.22194E+05
        -0.11023E+05
         0.29654E+06
        -0.46634E+06
         0.10321E+06
        -0.56029E+06
        -0.33369E+06
        -0.23359E+06
        -0.20085E+06
        -0.41575E+06
        -0.28257E+06
        -0.40318E+06
        -0.51584E+06
        -0.88702E+05
         0.12049E+06
        -0.21998E+05
         0.24263E+06
        -0.16574E+06
        -0.59591E+06
        -0.79022E+06
        -0.94239E+06
        -0.12276E+07
        -0.99447E+06
        -0.90676E+06
        -0.10332E+07
        -0.11297E+07
        -0.68331E+06
        -0.79016E+05
         0.17369E+06
        -0.95748E+05
        -0.38664E+05
         0.26406E+05
         0.27026E+06
        -0.67482E+04
         0.27071E+06
        -0.12787E+06
        -0.49257E+06
         0.17529E+06
        -0.51622E+06
        -0.37018E+06
        -0.73187E+06
        -0.29083E+06
        -0.61577E+06
        -0.88983E+06
         0.22347E+03
         0.13360E+06
         0.22865E+06
        -0.12003E+06
        -0.18472E+05
        -0.13600E+06
         0.38203E+05
        -0.24528E+06
        -0.14707E+06
        -0.45547E+06
        -0.11907E+06
        -0.82773E+06
        -0.69678E+06
        -0.40413E+06
        -0.42244E+06
        -0.31504E+05
        -0.76409E+05
         0.18595E+06
         0.34357E+06
        -0.13056E+05
        -0.40341E+05
        -0.78433E+05
        -0.77864E+06
        -0.74672E+06
        -0.56483E+06
        -0.18680E+06
        -0.15041E+06
        -0.16501E+06
        -0.30566E+06
        -0.31437E+06
        -0.64160E+06
        -0.25574E+06
        -0.88255E+05
        -0.62371E+05
        -0.22936E+05
        -0.12400E+05
         0.29593E+06
        -0.47203E+06
         0.98372E+05
        -0.56398E+06
        -0.33490E+06
        -0.23522E+06
        -0.20648E+06
        -0.42386E+06
        -0.28899E+06
        -0.40763E+06
        -0.52043E+06
        -0.91547E+05
         0.11700E+06
        -0.26888E+05
         0.23928E+06
        -0.16922E+06
        -0.60006E+06
        -0.79316E+06
        -0.94571E+06
        -0.12316E+07
        -0.99884E+06
        -0.91182E+06
        -0.10384E+07
        -0.11335E+07
        -0.68668E+06
        -0.83291E+05
         0.16921E+06
        -0.94799E+05
        -0.37921E+05
         0.26922E+05
         0.27127E+06
        -0.52524E+04
         0.27214E+06
        -0.12638E+06
        -0.49108E+06
         0.17599E+06
        -0.51662E+06
        -0.36812E+06
        -0.72959E+06
        -0.29020E+06
        -0.61254E+06
        -0.88586E+06
         0.19211E+04
         0.13455E+06
         0.23042E+06
        -0.11823E+06
        -0.16212E+05
        -0.13371E+06
         0.40773E+05
        -0.24320E+06
        -0.14513E+06
        -0.45512E+06
        -0.11715E+06
        -0.82479E+06
        -0.69444E+06
        -0.40107E+06
        -0.41994E+06
        -0.29473E+05
        -0.74860E+05
         0.18802E+06
         0.34556E+06
        -0.11035E+05
        -0.38910E+05
        -0.77611E+05
        -0.77667E+06
        -0.74547E+06
        -0.56221E+06
        -0.18374E+06
        -0.14796E+06
        -0.16248E+06
        -0.30431E+06
        -0.31327E+06
        -0.64037E+06
        -0.25454E+06
        -0.86568E+05
        -0.60244E+05
        -0.20572E+05
        -0.10668E+05
         0.29775E+06
        -0.46472E+06
         0.10620E+06
        -0.55669E+06
        -0.33127E+06
        -0.23647E+06
        -0.20602E+06
        -0.41788E+06
        -0.28239E+06
        -0.40331E+06
        -0.51378E+06
        -0.85229E+05
         0.11993E+06
        -0.21618E+05
         0.24459E+06
        -0.16432E+06
        -0.59636E+06
        -0.79084E+06
        -0.94259E+06
        -0.12287E+07
        -0.99408E+06
        -0.90632E+06
        -0.10331E+07
        -0.11289E+07
        -0.68259E+06
        -0.77312E+05
         0.17622E+06
        -0.96018E+05
        -0.39293E+05
         0.25594E+05
         0.26978E+06
        -0.67818E+04
         0.27061E+06
        -0.12825E+06
        -0.49345E+06
         0.17411E+06
        -0.52076E+06
        -0.37053E+06
        -0.73271E+06
        -0.29343E+06
        -0.61470E+06
        -0.88877E+06
         0.21767E+03
         0.13260E+06
         0.22837E+06
        -0.12048E+06
        -0.18119E+05
        -0.13676E+06
         0.37949E+05
        -0.24610E+06
        -0.14717E+06
        -0.45833E+06
        -0.11888E+06
        -0.82753E+06
        -0.69737E+06
        -0.40341E+06
        -0.42195E+06
        -0.31313E+05
        -0.76604E+05
         0.18557E+06
         0.34390E+06
        -0.13374E+05
        -0.40809E+05
        -0.79892E+05
        -0.78171E+06
        -0.75061E+06
        -0.56604E+06
        -0.18796E+06
        -0.15153E+06
        -0.16536E+06
        -0.30759E+06
        -0.31607E+06
        -0.64294E+06
        -0.25697E+06
        -0.89047E+05
        -0.61990E+05
        -0.21482E+05
        -0.12513E+05
         0.29610E+06
        -0.47035E+06
         0.10124E+06
        -0.56246E+06
        -0.33776E+06
        -0.24411E+06
        -0.21322E+06
        -0.42223E+06
        -0.28793E+06
        -0.41080E+06
        -0.52117E+06
        -0.94224E+05
         0.11098E+06
        -0.27464E+05
         0.23852E+06
        -0.16953E+06
        -0.60245E+06
        -0.80038E+06
        -0.95107E+06
        -0.12329E+07
        -0.99986E+06
        -0.91234E+06
        -0.10361E+07
        -0.11311E+07
        -0.68679E+06
        -0.83132E+05
         0.17047E+06
        -0.96491E+05
        -0.39733E+05
         0.25119E+05
         0.26927E+06
        -0.69924E+04
         0.27015E+06
        -0.12863E+06
        -0.49433E+06
         0.17374E+06
        -0.52259E+06
        -0.37101E+06
        -0.73307E+06
        -0.29399E+06
        -0.61444E+06
        -0.88941E+06
        -0.13962E+03
         0.13256E+06
         0.22796E+06
        -0.12081E+06
        -0.18238E+05
        -0.13759E+06
         0.37487E+05
        -0.24677E+06
        -0.14752E+06
        -0.45950E+06
        -0.11932E+06
        -0.82694E+06
        -0.69775E+06
        -0.40397E+06
        -0.42267E+06
        -0.32288E+05
        -0.77255E+05
         0.18453E+06
         0.34353E+06
        -0.13894E+05
        -0.41443E+05
        -0.80579E+05
        -0.78453E+06
        -0.75408E+06
        -0.56791E+06
        -0.18862E+06
        -0.15178E+06
        -0.16579E+06
        -0.30838E+06
        -0.31677E+06
        -0.64368E+06
        -0.25790E+06
        -0.90013E+05
        -0.62482E+05
        -0.21229E+05
        -0.12828E+05
         0.29574E+06
        -0.47044E+06
         0.10130E+06
        -0.56411E+06
        -0.34026E+06
        -0.24432E+06
        -0.21329E+06
        -0.42394E+06
        -0.29255E+06
        -0.41622E+06
        -0.52412E+06
        -0.94511E+05
         0.11005E+06
        -0.28934E+05
         0.23613E+06
        -0.17224E+06
        -0.60447E+06
        -0.80188E+06
        -0.95229E+06
        -0.12341E+07
        -0.10019E+07
        -0.91504E+06
        -0.10379E+07
        -0.11313E+07
        -0.68720E+06
        -0.85645E+05
         0.16824E+06
        -0.92813E+05
        -0.35324E+05
         0.28692E+05
         0.27201E+06
        -0.25382E+04
         0.27349E+06
        -0.12355E+06
        -0.49034E+06
         0.17628E+06
        -0.52065E+06
        -0.36589E+06
        -0.72603E+06
        -0.28832E+06
        -0.60896E+06
        -0.88311E+06
         0.35775E+04
         0.13609E+06
         0.23125E+06
        -0.11673E+06
        -0.13630E+05
        -0.13225E+06
         0.42606E+05
        -0.24163E+06
        -0.14337E+06
        -0.45591E+06
        -0.11514E+06
        -0.82115E+06
        -0.69157E+06
        -0.39805E+06
        -0.41776E+06
        -0.28197E+05
        -0.73017E+05
         0.18778E+06
         0.34621E+06
        -0.85432E+04
        -0.37203E+05
        -0.76225E+05
        -0.78100E+06
        -0.75037E+06
        -0.56325E+06
        -0.18335E+06
        -0.14632E+06
        -0.16105E+06
        -0.30361E+06
        -0.31202E+06
        -0.63835E+06
        -0.25361E+06
        -0.85735E+05
        -0.58491E+05
        -0.17406E+05
        -0.92626E+04
         0.29886E+06
        -0.45720E+06
         0.11442E+06
        -0.55314E+06
        -0.33223E+06
        -0.23454E+06
        -0.20072E+06
        -0.41338E+06
        -0.28453E+06
        -0.40739E+06
        -0.51438E+06
        -0.85730E+05
         0.12026E+06
        -0.20881E+05
         0.24503E+06
        -0.16199E+06
        -0.59384E+06
        -0.79003E+06
        -0.93932E+06
        -0.12230E+07
        -0.99019E+06
        -0.90518E+06
        -0.10305E+07
        -0.11232E+07
        -0.67733E+06
        -0.74958E+05
         0.17908E+06
        -0.94789E+05
        -0.36551E+05
         0.27452E+05
         0.27019E+06
        -0.44493E+04
         0.27192E+06
        -0.12522E+06
        -0.49319E+06
         0.17379E+06
        -0.52540E+06
        -0.36825E+06
        -0.72841E+06
        -0.28978E+06
        -0.61125E+06
        -0.88693E+06
         0.13968E+04
         0.13365E+06
         0.22958E+06
        -0.11965E+06
        -0.15983E+05
        -0.13436E+06
         0.40028E+05
        -0.24343E+06
        -0.14583E+06
        -0.45954E+06
        -0.11762E+06
        -0.82360E+06
        -0.69356E+06
        -0.39846E+06
        -0.41928E+06
        -0.29540E+05
        -0.75005E+05
         0.18607E+06
         0.34419E+06
        -0.11569E+05
        -0.38924E+05
        -0.77339E+05
        -0.78662E+06
        -0.75478E+06
        -0.56524E+06
        -0.18609E+06
        -0.14908E+06
        -0.16436E+06
        -0.30612E+06
        -0.31450E+06
        -0.64080E+06
        -0.25566E+06
        -0.87119E+05
        -0.59908E+05
        -0.19054E+05
        -0.11479E+05
         0.29716E+06
        -0.46553E+06
         0.10728E+06
        -0.55977E+06
        -0.33566E+06
        -0.23577E+06
        -0.20389E+06
        -0.42041E+06
        -0.29293E+06
        -0.41569E+06
        -0.52173E+06
        -0.94400E+05
         0.11027E+06
        -0.27838E+05
         0.24155E+06
        -0.16359E+06
        -0.59496E+06
        -0.79365E+06
        -0.94535E+06
        -0.12275E+07
        -0.99539E+06
        -0.91002E+06
        -0.10359E+07
        -0.11291E+07
        -0.68081E+06
        -0.78207E+05
         0.17365E+06
        -0.97887E+05
        -0.39732E+05
         0.24227E+05
         0.26777E+06
        -0.74928E+04
         0.26898E+06
        -0.12798E+06
        -0.49642E+06
         0.17042E+06
        -0.53247E+06
        -0.37110E+06
        -0.73232E+06
        -0.29294E+06
        -0.61360E+06
        -0.89158E+06
        -0.12704E+04
         0.13000E+06
         0.22765E+06
        -0.12206E+06
        -0.17087E+05
        -0.13693E+06
         0.37019E+05
        -0.24560E+06
        -0.14794E+06
        -0.46526E+06
        -0.12005E+06
        -0.82927E+06
        -0.69683E+06
        -0.39153E+06
        -0.41588E+06
        -0.31966E+05
        -0.77826E+05
         0.18437E+06
         0.34279E+06
        -0.14981E+05
        -0.41742E+05
        -0.80006E+05
        -0.79457E+06
        -0.75915E+06
        -0.56096E+06
        -0.18652E+06
        -0.15206E+06
        -0.16877E+06
        -0.30883E+06
        -0.31758E+06
        -0.64462E+06
        -0.25908E+06
        -0.89609E+05
        -0.61594E+05
        -0.20267E+05
        -0.13445E+05
         0.29505E+06
        -0.47107E+06
         0.10209E+06
        -0.56432E+06
        -0.33952E+06
        -0.24123E+06
        -0.21263E+06
        -0.43036E+06
        -0.30232E+06
        -0.42404E+06
        -0.52365E+06
        -0.10954E+06
         0.86413E+05
        -0.37616E+05
         0.23610E+06
        -0.16844E+06
        -0.59941E+06
        -0.79930E+06
        -0.95166E+06
        -0.12347E+07
        -0.10035E+07
        -0.91556E+06
        -0.10411E+07
        -0.11350E+07
        -0.68498E+06
        -0.84738E+05
         0.16635E+06
        -0.94398E+05
        -0.35676E+05
         0.28114E+05
         0.27110E+06
        -0.27593E+04
         0.27259E+06
        -0.12353E+06
        -0.49249E+06
         0.17202E+06
        -0.53511E+06
        -0.36651E+06
        -0.72704E+06
        -0.28875E+06
        -0.60841E+06
        -0.88602E+06
         0.24876E+04
         0.13238E+06
         0.23074E+06
        -0.11733E+06
        -0.95485E+04
        -0.13252E+06
         0.41491E+05
        -0.24148E+06
        -0.14346E+06
        -0.46510E+06
        -0.11551E+06
        -0.83020E+06
        -0.69297E+06
        -0.37015E+06
        -0.39997E+06
        -0.28475E+05
        -0.73519E+05
         0.18754E+06
         0.34635E+06
        -0.92496E+04
        -0.37011E+05
        -0.75895E+05
        -0.79497E+06
        -0.75467E+06
        -0.54328E+06
        -0.17620E+06
        -0.14654E+06
        -0.16603E+06
        -0.30477E+06
        -0.31294E+06
        -0.63869E+06
        -0.25460E+06
        -0.85687E+05
        -0.57241E+05
        -0.15274E+05
        -0.87084E+04
         0.29874E+06
        -0.45744E+06
         0.11541E+06
        -0.55076E+06
        -0.32995E+06
        -0.23515E+06
        -0.20547E+06
        -0.42047E+06
        -0.29232E+06
        -0.41324E+06
        -0.50243E+06
        -0.11446E+06
         0.67204E+05
        -0.36908E+05
         0.24348E+06
        -0.16218E+06
        -0.59424E+06
        -0.79300E+06
        -0.94082E+06
        -0.12214E+07
        -0.99097E+06
        -0.90485E+06
        -0.10300E+07
        -0.11225E+07
        -0.67323E+06
        -0.75189E+05
         0.17640E+06
        -0.10887E+06
        -0.50468E+05
         0.13630E+05
         0.25725E+06
        -0.19740E+05
         0.25649E+06
        -0.13984E+06
        -0.50983E+06
         0.15594E+06
        -0.55747E+06
        -0.38489E+06
        -0.75166E+06
        -0.31051E+06
        -0.62734E+06
        -0.91226E+06
        -0.11846E+05
         0.11558E+06
         0.21689E+06
        -0.13376E+06
        -0.24926E+05
        -0.15319E+06
         0.21755E+05
        -0.26084E+06
        -0.15914E+06
        -0.48566E+06
        -0.13034E+06
        -0.85271E+06
        -0.71163E+06
        -0.37849E+06
        -0.41127E+06
        -0.42715E+05
        -0.88922E+05
         0.17292E+06
         0.33100E+06
        -0.30134E+05
        -0.54597E+05
        -0.94141E+05
        -0.82400E+06
        -0.77669E+06
        -0.55566E+06
        -0.19707E+06
        -0.16823E+06
        -0.18793E+06
        -0.32293E+06
        -0.33159E+06
        -0.66168E+06
        -0.27308E+06
        -0.10225E+06
        -0.73244E+05
        -0.32317E+05
        -0.29679E+05
         0.28105E+06
        -0.50471E+06
         0.69387E+05
        -0.59883E+06
        -0.37874E+06
        -0.28397E+06
        -0.25250E+06
        -0.46818E+06
        -0.34324E+06
        -0.46112E+06
        -0.54610E+06
        -0.17531E+06
         0.99787E+03
        -0.83286E+05
         0.20507E+06
        -0.20261E+06
        -0.63651E+06
        -0.83691E+06
        -0.98999E+06
        -0.12718E+07
        -0.10392E+07
        -0.94948E+06
        -0.10726E+07
        -0.11663E+07
        -0.71791E+06
        -0.11817E+06
         0.13379E+06
        -0.10108E+06
        -0.49419E+05
         0.16204E+05
         0.26241E+06
        -0.14102E+05
         0.26169E+06
        -0.13756E+06
        -0.50048E+06
         0.16561E+06
        -0.54441E+06
        -0.38002E+06
        -0.75111E+06
        -0.31610E+06
        -0.61508E+06
        -0.90155E+06
        -0.75664E+03
         0.12630E+06
         0.22442E+06
        -0.12509E+06
        -0.15734E+05
        -0.14416E+06
         0.28494E+05
        -0.24699E+06
        -0.14734E+06
        -0.46950E+06
        -0.11930E+06
        -0.83351E+06
        -0.69014E+06
        -0.36064E+06
        -0.39517E+06
        -0.33934E+05
        -0.82051E+05
         0.17693E+06
         0.32872E+06
        -0.26925E+05
        -0.55974E+05
        -0.99313E+05
        -0.81174E+06
        -0.76307E+06
        -0.54350E+06
        -0.18796E+06
        -0.15580E+06
        -0.17492E+06
        -0.31105E+06
        -0.32512E+06
        -0.65833E+06
        -0.27055E+06
        -0.95165E+05
        -0.67485E+05
        -0.31462E+05
        -0.28289E+05
         0.28144E+06
        -0.48645E+06
         0.93041E+05
        -0.59295E+06
        -0.38927E+06
        -0.30593E+06
        -0.26583E+06
        -0.44622E+06
        -0.32075E+06
        -0.44338E+06
        -0.53549E+06
        -0.17237E+06
         0.10003E+05
        -0.65745E+05
         0.21369E+06
        -0.18424E+06
        -0.61024E+06
        -0.81465E+06
        -0.97280E+06
        -0.12644E+07
        -0.10401E+07
        -0.93965E+06
        -0.10585E+07
        -0.11439E+07
        -0.69048E+06
        -0.96511E+05
         0.15624E+06
         0.55139E+08
         0.57572E+08
         0.57196E+08
         0.52444E+08
         0.66118E+08
         0.61993E+08
         0.62232E+08
         0.62651E+08
         0.54463E+08
         0.62791E+08
         0.69073E+08
         0.94169E+08
         0.79601E+08
         0.71096E+08
         0.98058E+08
         0.53081E+08
         0.57238E+08
         0.50131E+08
         0.59409E+08
         0.62260E+08
         0.73821E+08
         0.73228E+08
         0.68898E+08
         0.56820E+08
         0.63078E+08
         0.54455E+08
         0.70180E+08
         0.68161E+08
         0.68547E+08
         0.65338E+08
         0.53613E+08
         0.56363E+08
         0.52705E+08
         0.55161E+08
         0.79477E+08
         0.65883E+08
         0.65932E+08
         0.89414E+08
         0.80594E+08
         0.77336E+08
         0.87807E+08
         0.80915E+08
         0.76615E+08
         0.63499E+08
         0.64027E+08
         0.81115E+08
         0.66709E+08
         0.62285E+08
         0.60827E+08
         0.63244E+08
         0.74398E+08
         0.64087E+08
         0.17250E+09
         0.16919E+09
         0.17236E+09
         0.16661E+09
         0.17208E+09
         0.18084E+09
         0.18124E+09
         0.17839E+09
         0.17960E+09
         0.18531E+09
         0.18006E+09
         0.17000E+09
         0.14935E+09
         0.14060E+09
         0.14346E+09
         0.14725E+09
         0.14920E+09
         0.16301E+09
         0.17382E+09
         0.17467E+09
         0.15940E+09
         0.15332E+09
         0.15941E+09
         0.15793E+09
         0.15747E+09
         0.15775E+09
         0.76023E+09
         0.79432E+09
         0.78193E+09
         0.70792E+09
         0.88759E+09
         0.82861E+09
         0.86177E+09
         0.87347E+09
         0.73861E+09
         0.87276E+09
         0.95159E+09
         0.10816E+10
         0.97481E+09
         0.98186E+09
         0.11213E+10
         0.72390E+09
         0.77875E+09
         0.67190E+09
         0.80650E+09
         0.85007E+09
         0.89106E+09
         0.91029E+09
         0.85287E+09
         0.77301E+09
         0.88081E+09
         0.74330E+09
         0.97817E+09
         0.95863E+09
         0.96352E+09
         0.91370E+09
         0.73110E+09
         0.76924E+09
         0.71388E+09
         0.74881E+09
         0.97794E+09
         0.89005E+09
         0.89508E+09
         0.10825E+10
         0.10511E+10
         0.10373E+10
         0.10603E+10
         0.10044E+10
         0.94843E+09
         0.82979E+09
         0.86406E+09
         0.97820E+09
         0.89817E+09
         0.84105E+09
         0.82220E+09
         0.85502E+09
         0.93599E+09
         0.85848E+09
         0.15866E+10
         0.15470E+10
         0.15799E+10
         0.15308E+10
         0.15771E+10
         0.16583E+10
         0.16838E+10
         0.16777E+10
         0.16887E+10
         0.17283E+10
         0.16791E+10
         0.15800E+10
         0.14139E+10
         0.13358E+10
         0.13415E+10
         0.13600E+10
         0.13738E+10
         0.14902E+10
         0.15939E+10
         0.16008E+10
         0.14808E+10
         0.14344E+10
         0.14827E+10
         0.14720E+10
         0.14564E+10
         0.14521E+10
  
SCALARS                      stress_zz  double 1
LOOKUP_TABLE default
        -0.16962E+11
        -0.17347E+11
        -0.17103E+11
        -0.16663E+11
        -0.10054E+03
        -0.11273E+03
        -0.10795E+03
        -0.98066E+02
        -0.17360E+11
        -0.17230E+11
        -0.10138E+03
        -0.98107E+02
        -0.17901E+11
        -0.17921E+11
        -0.12046E+03
        -0.11326E+03
        -0.16728E+11
        -0.17892E+11
        -0.89005E+02
        -0.98720E+02
        -0.18314E+11
        -0.18640E+11
        -0.18120E+11
        -0.11939E+03
        -0.10426E+03
        -0.10766E+03
        -0.18627E+11
        -0.19100E+11
        -0.11453E+03
        -0.96590E+02
        -0.16749E+11
        -0.17258E+11
        -0.16253E+11
        -0.97739E+02
        -0.90863E+02
        -0.88342E+02
        -0.17044E+11
        -0.17688E+11
        -0.10340E+03
        -0.94356E+02
        -0.17300E+11
        -0.17796E+11
        -0.89370E+02
        -0.79117E+02
        -0.16877E+11
        -0.16689E+11
        -0.97937E+02
        -0.10943E+03
        -0.18191E+11
        -0.95676E+02
        -0.16726E+11
        -0.11242E+03
        -0.18764E+11
        -0.10104E+03
        -0.18913E+11
        -0.96915E+02
        -0.18911E+11
        -0.18380E+11
        -0.98745E+02
        -0.96167E+02
        -0.16759E+11
        -0.16955E+11
        -0.99016E+02
        -0.11194E+03
        -0.16637E+11
        -0.95544E+02
        -0.16870E+11
        -0.10427E+03
        -0.17480E+11
        -0.17541E+11
        -0.10037E+03
        -0.10517E+03
        -0.17678E+11
        -0.10606E+03
        -0.19268E+11
        -0.83792E+02
        -0.19350E+11
        -0.81333E+02
        -0.19309E+11
        -0.85758E+02
        -0.19082E+11
        -0.18844E+11
        -0.81708E+02
        -0.85185E+02
        -0.18363E+11
        -0.79338E+02
        -0.16887E+11
        -0.10404E+03
        -0.17119E+11
        -0.10648E+03
        -0.17310E+11
        -0.17414E+11
        -0.10226E+03
        -0.10345E+03
        -0.17285E+11
        -0.93965E+02
        -0.17194E+11
        -0.92625E+02
        -0.17276E+11
        -0.99156E+02
        -0.17306E+11
        -0.17222E+11
        -0.97237E+02
        -0.10009E+03
        -0.17762E+11
        -0.17544E+11
        -0.75495E+02
        -0.71007E+02
        -0.17804E+11
        -0.72088E+02
        -0.17552E+11
        -0.69120E+02
        -0.17801E+11
        -0.68157E+02
        -0.18348E+11
        -0.64409E+02
        -0.18875E+11
        -0.57220E+02
        -0.19187E+11
        -0.51524E+02
        -0.19219E+11
        -0.51166E+02
        -0.19209E+11
        -0.55487E+02
        -0.18870E+11
        -0.58315E+02
        -0.18231E+11
        -0.53248E+02
        -0.17521E+11
        -0.47997E+02
        -0.17101E+11
        -0.47942E+02
        -0.16685E+11
        -0.53588E+02
        -0.16408E+11
        -0.61102E+02
        -0.16418E+11
        -0.65643E+02
        -0.17088E+11
        -0.70894E+02
        -0.17552E+11
        -0.75952E+02
        -0.17710E+11
        -0.69577E+02
        -0.17463E+11
        -0.61038E+02
        -0.17333E+11
        -0.60849E+02
        -0.17550E+11
        -0.66576E+02
        -0.17547E+11
        -0.70975E+02
        -0.17383E+11
        -0.67355E+02
        -0.17170E+11
        -0.65116E+02
        -0.17440E+11
        -0.17715E+11
        -0.17678E+11
        -0.17321E+11
        -0.17975E+11
        -0.17647E+11
        -0.18052E+11
        -0.17842E+11
        -0.17378E+11
        -0.17668E+11
        -0.18274E+11
        -0.18341E+11
        -0.18162E+11
        -0.18149E+11
        -0.18266E+11
        -0.17338E+11
        -0.17405E+11
        -0.17217E+11
        -0.17744E+11
        -0.17649E+11
        -0.17785E+11
        -0.17695E+11
        -0.17860E+11
        -0.17817E+11
        -0.17657E+11
        -0.17669E+11
        -0.17941E+11
        -0.17916E+11
        -0.18115E+11
        -0.17814E+11
        -0.17371E+11
        -0.17719E+11
        -0.17374E+11
        -0.17602E+11
        -0.18387E+11
        -0.18140E+11
        -0.18021E+11
        -0.18161E+11
        -0.18179E+11
        -0.18405E+11
        -0.18566E+11
        -0.18169E+11
        -0.17779E+11
        -0.17833E+11
        -0.18033E+11
        -0.18378E+11
        -0.18084E+11
        -0.17762E+11
        -0.17785E+11
        -0.18034E+11
        -0.18285E+11
        -0.17946E+11
        -0.18950E+11
        -0.18662E+11
        -0.18710E+11
        -0.18642E+11
        -0.18659E+11
        -0.18815E+11
        -0.18973E+11
        -0.19025E+11
        -0.19003E+11
        -0.19018E+11
        -0.19085E+11
        -0.18674E+11
        -0.18517E+11
        -0.18456E+11
        -0.18351E+11
        -0.18271E+11
        -0.18275E+11
        -0.18411E+11
        -0.18854E+11
        -0.18750E+11
        -0.18598E+11
        -0.18600E+11
        -0.18626E+11
        -0.18772E+11
        -0.18557E+11
        -0.18476E+11
         0.97915E+06
         0.40921E+06
         0.48742E+06
         0.74022E+06
         0.82945E+06
         0.93639E+06
        -0.14039E+06
        -0.30824E+05
         0.95194E+06
        -0.11768E+06
        -0.56524E+06
         0.70952E+06
         0.75024E+06
        -0.11589E+07
         0.37540E+06
         0.39912E+06
         0.48882E+06
         0.59628E+06
         0.10587E+06
         0.11380E+06
         0.52803E+06
         0.78677E+06
         0.26710E+06
        -0.81002E+05
        -0.43066E+06
        -0.46389E+05
        -0.16816E+07
        -0.14857E+07
        -0.73705E+06
        -0.32633E+06
         0.32520E+06
         0.24675E+05
         0.63839E+06
         0.93981E+06
         0.57020E+06
         0.26938E+06
         0.55249E+06
         0.18658E+06
         0.10533E+06
         0.26911E+06
         0.68803E+06
         0.48686E+06
         0.55429E+06
         0.21274E+06
         0.17825E+06
         0.42735E+06
         0.36423E+06
         0.38155E+06
         0.49191E+06
         0.75541E+06
         0.10063E+07
         0.10219E+07
         0.60858E+06
         0.13423E+07
         0.89075E+06
         0.14518E+07
         0.19130E+07
         0.22311E+07
         0.20206E+07
         0.21021E+07
         0.19101E+07
         0.16166E+07
         0.15157E+07
         0.13999E+07
         0.11269E+07
         0.14151E+07
         0.92729E+06
         0.58528E+06
         0.65396E+06
         0.69480E+06
         0.81406E+06
         0.13041E+07
         0.13023E+07
         0.11172E+07
         0.87305E+06
         0.86706E+06
         0.11866E+07
         0.14767E+07
         0.94429E+06
         0.37254E+06
         0.45123E+06
         0.70774E+06
         0.78698E+06
         0.89684E+06
        -0.18032E+06
        -0.70929E+05
         0.91469E+06
        -0.16040E+06
        -0.61034E+06
         0.66478E+06
         0.70802E+06
        -0.12046E+07
         0.33208E+06
         0.36097E+06
         0.44690E+06
         0.56371E+06
         0.62958E+05
         0.68660E+05
         0.48648E+06
         0.74531E+06
         0.22291E+06
        -0.12486E+06
        -0.47842E+06
        -0.88198E+05
        -0.17248E+07
        -0.15311E+07
        -0.78519E+06
        -0.37617E+06
         0.28827E+06
        -0.14939E+05
         0.60457E+06
         0.90663E+06
         0.52585E+06
         0.22777E+06
         0.51078E+06
         0.14045E+06
         0.58586E+05
         0.22111E+06
         0.64217E+06
         0.44053E+06
         0.51010E+06
         0.16755E+06
         0.13450E+06
         0.38373E+06
         0.32021E+06
         0.33983E+06
         0.45326E+06
         0.71657E+06
         0.96441E+06
         0.98078E+06
         0.55062E+06
         0.12860E+07
         0.83567E+06
         0.13990E+07
         0.18576E+07
         0.21699E+07
         0.19592E+07
         0.20391E+07
         0.18462E+07
         0.15518E+07
         0.14511E+07
         0.13400E+07
         0.10757E+07
         0.13668E+07
         0.87748E+06
         0.53261E+06
         0.60041E+06
         0.63944E+06
         0.75813E+06
         0.12452E+07
         0.12460E+07
         0.10659E+07
         0.82205E+06
         0.81461E+06
         0.11339E+07
         0.14229E+07
         0.95313E+06
         0.37982E+06
         0.45909E+06
         0.71669E+06
         0.79770E+06
         0.90729E+06
        -0.17186E+06
        -0.61110E+05
         0.92142E+06
        -0.15691E+06
        -0.60119E+06
         0.67332E+06
         0.71626E+06
        -0.11944E+07
         0.34337E+06
         0.35352E+06
         0.44495E+06
         0.57236E+06
         0.52460E+05
         0.60002E+05
         0.47965E+06
         0.74260E+06
         0.19391E+06
        -0.15651E+06
        -0.49833E+06
        -0.11749E+06
        -0.17161E+07
        -0.15371E+07
        -0.80440E+06
        -0.41086E+06
         0.28856E+06
        -0.23943E+05
         0.61343E+06
         0.91767E+06
         0.53766E+06
         0.23813E+06
         0.51982E+06
         0.14946E+06
         0.67674E+05
         0.22458E+06
         0.64131E+06
         0.42386E+06
         0.48634E+06
         0.13732E+06
         0.12691E+06
         0.38971E+06
         0.32820E+06
         0.34922E+06
         0.46330E+06
         0.72781E+06
         0.97610E+06
         0.99138E+06
         0.56776E+06
         0.13014E+07
         0.85264E+06
         0.14121E+07
         0.18672E+07
         0.21794E+07
         0.19713E+07
         0.20514E+07
         0.18587E+07
         0.15647E+07
         0.14587E+07
         0.13398E+07
         0.10765E+07
         0.13757E+07
         0.88332E+06
         0.52201E+06
         0.58893E+06
         0.64245E+06
         0.77347E+06
         0.12629E+07
         0.12620E+07
         0.10822E+07
         0.84013E+06
         0.82979E+06
         0.11462E+07
         0.14348E+07
         0.94864E+06
         0.37678E+06
         0.45619E+06
         0.71171E+06
         0.79341E+06
         0.90375E+06
        -0.17508E+06
        -0.65821E+05
         0.91098E+06
        -0.17433E+06
        -0.60584E+06
         0.66868E+06
         0.71304E+06
        -0.12005E+07
         0.33845E+06
         0.32326E+06
         0.42038E+06
         0.56644E+06
         0.14979E+05
         0.21989E+05
         0.44816E+06
         0.71395E+06
         0.12651E+06
        -0.22728E+06
        -0.55523E+06
        -0.18421E+06
        -0.17278E+07
        -0.15738E+07
        -0.86365E+06
        -0.49475E+06
         0.27076E+06
        -0.59629E+05
         0.60806E+06
         0.91237E+06
         0.53211E+06
         0.23384E+06
         0.51634E+06
         0.14168E+06
         0.57260E+05
         0.20327E+06
         0.61551E+06
         0.37140E+06
         0.42181E+06
         0.66089E+05
         0.90741E+05
         0.37214E+06
         0.31409E+06
         0.34146E+06
         0.45639E+06
         0.72002E+06
         0.96963E+06
         0.98617E+06
         0.55957E+06
         0.12958E+07
         0.84393E+06
         0.14045E+07
         0.18621E+07
         0.21735E+07
         0.19615E+07
         0.20407E+07
         0.18482E+07
         0.15521E+07
         0.14387E+07
         0.13076E+07
         0.10454E+07
         0.13608E+07
         0.86691E+06
         0.47725E+06
         0.54173E+06
         0.62061E+06
         0.76298E+06
         0.12529E+07
         0.12543E+07
         0.10731E+07
         0.83058E+06
         0.82318E+06
         0.11412E+07
         0.14299E+07
         0.94001E+06
         0.37052E+06
         0.45104E+06
         0.70657E+06
         0.78853E+06
         0.89891E+06
        -0.18023E+06
        -0.74032E+05
         0.89839E+06
        -0.19256E+06
        -0.61080E+06
         0.66578E+06
         0.70942E+06
        -0.12071E+07
         0.33638E+06
         0.30291E+06
         0.40100E+06
         0.56093E+06
        -0.96548E+04
        -0.54233E+04
         0.42792E+06
         0.69338E+06
         0.85130E+05
        -0.27113E+06
        -0.59594E+06
        -0.22693E+06
        -0.17379E+07
        -0.16002E+07
        -0.90445E+06
        -0.55037E+06
         0.25218E+06
        -0.85540E+05
         0.59773E+06
         0.90492E+06
         0.52638E+06
         0.22839E+06
         0.51120E+06
         0.13612E+06
         0.48901E+05
         0.18737E+06
         0.59743E+06
         0.33625E+06
         0.37955E+06
         0.20911E+05
         0.66924E+05
         0.36057E+06
         0.30160E+06
         0.32904E+06
         0.44466E+06
         0.70875E+06
         0.95965E+06
         0.97821E+06
         0.55219E+06
         0.12909E+07
         0.83650E+06
         0.13986E+07
         0.18597E+07
         0.21718E+07
         0.19572E+07
         0.20335E+07
         0.18393E+07
         0.15443E+07
         0.14266E+07
         0.12853E+07
         0.10242E+07
         0.13494E+07
         0.85533E+06
         0.44829E+06
         0.50862E+06
         0.60502E+06
         0.75821E+06
         0.12439E+07
         0.12441E+07
         0.10626E+07
         0.81831E+06
         0.81255E+06
         0.11347E+07
         0.14250E+07
         0.91835E+06
         0.35845E+06
         0.44595E+06
         0.71130E+06
         0.79393E+06
         0.90614E+06
        -0.18375E+06
        -0.88892E+05
         0.88056E+06
        -0.21778E+06
        -0.60693E+06
         0.67577E+06
         0.71382E+06
        -0.12061E+07
         0.34924E+06
         0.30698E+06
         0.39669E+06
         0.56980E+06
        -0.44931E+04
        -0.15510E+04
         0.43389E+06
         0.70061E+06
         0.86107E+05
        -0.27199E+06
        -0.61275E+06
        -0.23288E+06
        -0.17402E+07
        -0.16032E+07
        -0.90187E+06
        -0.55199E+06
         0.22991E+06
        -0.99189E+05
         0.58056E+06
         0.90318E+06
         0.53170E+06
         0.22887E+06
         0.51014E+06
         0.14524E+06
         0.58178E+05
         0.19725E+06
         0.60678E+06
         0.34215E+06
         0.38420E+06
         0.18169E+05
         0.63895E+05
         0.35869E+06
         0.29081E+06
         0.30403E+06
         0.41651E+06
         0.69365E+06
         0.95626E+06
         0.98082E+06
         0.56626E+06
         0.13054E+07
         0.84831E+06
         0.14065E+07
         0.18679E+07
         0.21829E+07
         0.19698E+07
         0.20458E+07
         0.18535E+07
         0.15628E+07
         0.14429E+07
         0.12952E+07
         0.10354E+07
         0.13611E+07
         0.86655E+06
         0.45724E+06
         0.51508E+06
         0.61136E+06
         0.76577E+06
         0.12491E+07
         0.12429E+07
         0.10553E+07
         0.81344E+06
         0.81481E+06
         0.11416E+07
         0.14351E+07
         0.88504E+06
         0.33703E+06
         0.43356E+06
         0.70827E+06
         0.78910E+06
         0.90556E+06
        -0.19976E+06
        -0.11849E+06
         0.85016E+06
        -0.25578E+06
        -0.61770E+06
         0.67195E+06
         0.70716E+06
        -0.12212E+07
         0.34711E+06
         0.30110E+06
         0.38081E+06
         0.56806E+06
        -0.87265E+04
        -0.79790E+04
         0.43111E+06
         0.69859E+06
         0.82903E+05
        -0.27730E+06
        -0.63699E+06
        -0.24364E+06
        -0.17576E+07
        -0.16167E+07
        -0.90603E+06
        -0.55831E+06
         0.19865E+06
        -0.12159E+06
         0.55445E+06
         0.89317E+06
         0.52496E+06
         0.22012E+06
         0.50024E+06
         0.13939E+06
         0.52552E+05
         0.19418E+06
         0.60556E+06
         0.34169E+06
         0.38391E+06
         0.11396E+05
         0.50775E+05
         0.34237E+06
         0.26589E+06
         0.26646E+06
         0.37656E+06
         0.66769E+06
         0.94299E+06
         0.97518E+06
         0.56023E+06
         0.13008E+07
         0.84479E+06
         0.14025E+07
         0.18621E+07
         0.21760E+07
         0.19641E+07
         0.20409E+07
         0.18485E+07
         0.15591E+07
         0.14399E+07
         0.12916E+07
         0.10347E+07
         0.13602E+07
         0.86413E+06
         0.45595E+06
         0.51235E+06
         0.60151E+06
         0.75094E+06
         0.12329E+07
         0.12243E+07
         0.10322E+07
         0.79327E+06
         0.80399E+06
         0.11358E+07
         0.14305E+07
         0.87564E+06
         0.32909E+06
         0.42853E+06
         0.70409E+06
         0.78394E+06
         0.90085E+06
        -0.20781E+06
        -0.12843E+06
         0.84156E+06
        -0.26619E+06
        -0.62536E+06
         0.66658E+06
         0.70060E+06
        -0.12299E+07
         0.34311E+06
         0.29584E+06
         0.37455E+06
         0.56376E+06
        -0.12603E+05
        -0.13024E+05
         0.42672E+06
         0.69384E+06
         0.78660E+05
        -0.28135E+06
        -0.64500E+06
        -0.24974E+06
        -0.17649E+07
        -0.16238E+07
        -0.91334E+06
        -0.56431E+06
         0.18859E+06
        -0.13047E+06
         0.54593E+06
         0.88762E+06
         0.51931E+06
         0.21537E+06
         0.49418E+06
         0.13178E+06
         0.45836E+05
         0.18666E+06
         0.59819E+06
         0.33569E+06
         0.37999E+06
         0.53680E+04
         0.42969E+05
         0.33478E+06
         0.25774E+06
         0.25718E+06
         0.36644E+06
         0.65837E+06
         0.93472E+06
         0.96836E+06
         0.55200E+06
         0.12927E+07
         0.83939E+06
         0.13970E+07
         0.18554E+07
         0.21702E+07
         0.19581E+07
         0.20325E+07
         0.18373E+07
         0.15474E+07
         0.14293E+07
         0.12869E+07
         0.10308E+07
         0.13518E+07
         0.85553E+06
         0.44790E+06
         0.50189E+06
         0.59157E+06
         0.74249E+06
         0.12260E+07
         0.12187E+07
         0.10245E+07
         0.78308E+06
         0.79440E+06
         0.11278E+07
         0.14226E+07
         0.88234E+06
         0.33447E+06
         0.43259E+06
         0.70572E+06
         0.78893E+06
         0.90209E+06
        -0.20206E+06
        -0.12036E+06
         0.84793E+06
        -0.25727E+06
        -0.61990E+06
         0.67200E+06
         0.70513E+06
        -0.12225E+07
         0.35208E+06
         0.30340E+06
         0.38101E+06
         0.56778E+06
        -0.50605E+04
        -0.66487E+04
         0.43281E+06
         0.69964E+06
         0.85034E+05
        -0.27410E+06
        -0.63764E+06
        -0.24292E+06
        -0.17541E+07
        -0.16153E+07
        -0.90694E+06
        -0.55783E+06
         0.19482E+06
        -0.12537E+06
         0.54994E+06
         0.88969E+06
         0.52618E+06
         0.22070E+06
         0.49872E+06
         0.13880E+06
         0.52610E+05
         0.19244E+06
         0.60385E+06
         0.34196E+06
         0.38619E+06
         0.11555E+05
         0.48153E+05
         0.33976E+06
         0.26326E+06
         0.26374E+06
         0.37260E+06
         0.66284E+06
         0.93804E+06
         0.96907E+06
         0.56399E+06
         0.13045E+07
         0.84641E+06
         0.13999E+07
         0.18612E+07
         0.21792E+07
         0.19681E+07
         0.20398E+07
         0.18401E+07
         0.15517E+07
         0.14371E+07
         0.12979E+07
         0.10407E+07
         0.13582E+07
         0.86157E+06
         0.45486E+06
         0.50891E+06
         0.60010E+06
         0.75056E+06
         0.12355E+07
         0.12285E+07
         0.10334E+07
         0.79035E+06
         0.80081E+06
         0.11342E+07
         0.14296E+07
         0.88116E+06
         0.33401E+06
         0.43167E+06
         0.70302E+06
         0.78762E+06
         0.89949E+06
        -0.20292E+06
        -0.12266E+06
         0.84391E+06
        -0.26042E+06
        -0.62315E+06
         0.66874E+06
         0.70429E+06
        -0.12272E+07
         0.34785E+06
         0.30027E+06
         0.37705E+06
         0.56319E+06
        -0.82470E+04
        -0.10596E+05
         0.43057E+06
         0.69661E+06
         0.82864E+05
        -0.27676E+06
        -0.63933E+06
        -0.24542E+06
        -0.17563E+07
        -0.16160E+07
        -0.90870E+06
        -0.56043E+06
         0.19183E+06
        -0.12808E+06
         0.54524E+06
         0.88562E+06
         0.52424E+06
         0.21854E+06
         0.49724E+06
         0.13235E+06
         0.49488E+05
         0.18909E+06
         0.60045E+06
         0.33984E+06
         0.38286E+06
         0.99549E+04
         0.46379E+05
         0.33739E+06
         0.25954E+06
         0.25954E+06
         0.36843E+06
         0.65889E+06
         0.93471E+06
         0.96480E+06
         0.56038E+06
         0.13017E+07
         0.84077E+06
         0.13951E+07
         0.18605E+07
         0.21758E+07
         0.19603E+07
         0.20309E+07
         0.18349E+07
         0.15439E+07
         0.14286E+07
         0.12937E+07
         0.10356E+07
         0.13554E+07
         0.85900E+06
         0.45253E+06
         0.50861E+06
         0.59848E+06
         0.74812E+06
         0.12291E+07
         0.12205E+07
         0.10271E+07
         0.78710E+06
         0.79912E+06
         0.11306E+07
         0.14245E+07
         0.87708E+06
         0.32995E+06
         0.42884E+06
         0.70158E+06
         0.78392E+06
         0.89778E+06
        -0.20613E+06
        -0.12631E+06
         0.84030E+06
        -0.26355E+06
        -0.62679E+06
         0.66442E+06
         0.70142E+06
        -0.12310E+07
         0.34352E+06
         0.29579E+06
         0.37397E+06
         0.56051E+06
        -0.12178E+05
        -0.13601E+05
         0.42767E+06
         0.69354E+06
         0.79545E+05
        -0.28091E+06
        -0.64097E+06
        -0.25018E+06
        -0.17579E+07
        -0.16178E+07
        -0.91075E+06
        -0.56224E+06
         0.18745E+06
        -0.13254E+06
         0.54251E+06
         0.88501E+06
         0.51929E+06
         0.21479E+06
         0.49394E+06
         0.12614E+06
         0.45834E+05
         0.18626E+06
         0.59867E+06
         0.33808E+06
         0.37983E+06
         0.67843E+04
         0.43174E+05
         0.33417E+06
         0.25608E+06
         0.25590E+06
         0.36443E+06
         0.65537E+06
         0.93154E+06
         0.96250E+06
         0.55326E+06
         0.12958E+07
         0.83647E+06
         0.13936E+07
         0.18586E+07
         0.21690E+07
         0.19505E+07
         0.20230E+07
         0.18295E+07
         0.15383E+07
         0.14251E+07
         0.12895E+07
         0.10295E+07
         0.13512E+07
         0.85469E+06
         0.44763E+06
         0.50538E+06
         0.59468E+06
         0.74333E+06
         0.12238E+07
         0.12143E+07
         0.10207E+07
         0.78244E+06
         0.79463E+06
         0.11251E+07
         0.14187E+07
         0.88048E+06
         0.33164E+06
         0.43040E+06
         0.70433E+06
         0.78720E+06
         0.90104E+06
        -0.20237E+06
        -0.12054E+06
         0.84350E+06
        -0.25896E+06
        -0.62163E+06
         0.66813E+06
         0.70293E+06
        -0.12243E+07
         0.35185E+06
         0.30016E+06
         0.37670E+06
         0.56451E+06
        -0.75994E+04
        -0.85126E+04
         0.43255E+06
         0.69871E+06
         0.83876E+05
        -0.27644E+06
        -0.63701E+06
        -0.24583E+06
        -0.17509E+07
        -0.16123E+07
        -0.90358E+06
        -0.55519E+06
         0.19241E+06
        -0.12906E+06
         0.54740E+06
         0.88989E+06
         0.52361E+06
         0.21819E+06
         0.49578E+06
         0.13195E+06
         0.52555E+05
         0.19432E+06
         0.60493E+06
         0.34293E+06
         0.38485E+06
         0.10626E+05
         0.46336E+05
         0.33698E+06
         0.25949E+06
         0.25991E+06
         0.36840E+06
         0.65911E+06
         0.93502E+06
         0.96585E+06
         0.56200E+06
         0.13053E+07
         0.84540E+06
         0.13980E+07
         0.18572E+07
         0.21695E+07
         0.19574E+07
         0.20308E+07
         0.18348E+07
         0.15462E+07
         0.14327E+07
         0.12932E+07
         0.10361E+07
         0.13580E+07
         0.86080E+06
         0.45235E+06
         0.50858E+06
         0.59861E+06
         0.74698E+06
         0.12295E+07
         0.12211E+07
         0.10273E+07
         0.78802E+06
         0.79930E+06
         0.11321E+07
         0.14270E+07
         0.87882E+06
         0.32840E+06
         0.42765E+06
         0.70126E+06
         0.78342E+06
         0.89742E+06
        -0.20646E+06
        -0.12379E+06
         0.84070E+06
        -0.26312E+06
        -0.62689E+06
         0.66275E+06
         0.69693E+06
        -0.12302E+07
         0.34892E+06
         0.29660E+06
         0.37266E+06
         0.55962E+06
        -0.12442E+05
        -0.13149E+05
         0.42723E+06
         0.69316E+06
         0.78143E+05
        -0.28125E+06
        -0.64136E+06
        -0.25000E+06
        -0.17571E+07
        -0.16191E+07
        -0.90900E+06
        -0.55870E+06
         0.18834E+06
        -0.13327E+06
         0.54174E+06
         0.88623E+06
         0.51889E+06
         0.21384E+06
         0.49040E+06
         0.12511E+06
         0.45824E+05
         0.18796E+06
         0.59808E+06
         0.33632E+06
         0.37960E+06
         0.40193E+04
         0.40419E+05
         0.33225E+06
         0.25450E+06
         0.25417E+06
         0.36333E+06
         0.65520E+06
         0.93084E+06
         0.96110E+06
         0.55496E+06
         0.12993E+07
         0.83860E+06
         0.13902E+07
         0.18481E+07
         0.21608E+07
         0.19521E+07
         0.20239E+07
         0.18257E+07
         0.15373E+07
         0.14218E+07
         0.12824E+07
         0.10287E+07
         0.13503E+07
         0.85435E+06
         0.44508E+06
         0.49733E+06
         0.58862E+06
         0.74191E+06
         0.12225E+07
         0.12138E+07
         0.10235E+07
         0.78537E+06
         0.79379E+06
         0.11247E+07
         0.14196E+07
         0.87890E+06
         0.32733E+06
         0.42690E+06
         0.70048E+06
         0.78273E+06
         0.89627E+06
        -0.20704E+06
        -0.12358E+06
         0.84141E+06
        -0.26185E+06
        -0.62766E+06
         0.66203E+06
         0.69613E+06
        -0.12304E+07
         0.34971E+06
         0.29618E+06
         0.37310E+06
         0.55852E+06
        -0.12817E+05
        -0.13610E+05
         0.42616E+06
         0.69231E+06
         0.76931E+05
        -0.28213E+06
        -0.64094E+06
        -0.25116E+06
        -0.17556E+07
        -0.16199E+07
        -0.91026E+06
        -0.55917E+06
         0.18629E+06
        -0.13493E+06
         0.53938E+06
         0.88559E+06
         0.51795E+06
         0.21242E+06
         0.48872E+06
         0.12230E+06
         0.42605E+05
         0.18592E+06
         0.59764E+06
         0.33603E+06
         0.37899E+06
         0.30392E+04
         0.39383E+05
         0.33119E+06
         0.25298E+06
         0.25197E+06
         0.36116E+06
         0.65402E+06
         0.92994E+06
         0.95939E+06
         0.55468E+06
         0.12994E+07
         0.83675E+06
         0.13872E+07
         0.18479E+07
         0.21607E+07
         0.19499E+07
         0.20181E+07
         0.18191E+07
         0.15336E+07
         0.14214E+07
         0.12814E+07
         0.10269E+07
         0.13473E+07
         0.85100E+06
         0.44281E+06
         0.49587E+06
         0.58734E+06
         0.74045E+06
         0.12199E+07
         0.12106E+07
         0.10214E+07
         0.78504E+06
         0.79294E+06
         0.11213E+07
         0.14166E+07
         0.88865E+06
         0.33757E+06
         0.43559E+06
         0.70727E+06
         0.79291E+06
         0.90400E+06
        -0.19490E+06
        -0.11200E+06
         0.84893E+06
        -0.25179E+06
        -0.61535E+06
         0.67376E+06
         0.70743E+06
        -0.12184E+07
         0.36186E+06
         0.30527E+06
         0.38185E+06
         0.56607E+06
        -0.29063E+04
        -0.30420E+04
         0.43688E+06
         0.70255E+06
         0.87426E+05
        -0.27248E+06
        -0.62940E+06
        -0.24156E+06
        -0.17419E+07
        -0.16055E+07
        -0.89640E+06
        -0.54650E+06
         0.19605E+06
        -0.12518E+06
         0.54701E+06
         0.89206E+06
         0.52914E+06
         0.22239E+06
         0.49883E+06
         0.13093E+06
         0.54492E+05
         0.19847E+06
         0.60785E+06
         0.34659E+06
         0.38821E+06
         0.14584E+05
         0.51066E+05
         0.34205E+06
         0.26361E+06
         0.26202E+06
         0.36947E+06
         0.66114E+06
         0.93735E+06
         0.96579E+06
         0.57066E+06
         0.13153E+07
         0.85012E+06
         0.13969E+07
         0.18596E+07
         0.21754E+07
         0.19623E+07
         0.20276E+07
         0.18298E+07
         0.15453E+07
         0.14320E+07
         0.12938E+07
         0.10370E+07
         0.13586E+07
         0.86376E+06
         0.45602E+06
         0.51068E+06
         0.60309E+06
         0.75397E+06
         0.12340E+07
         0.12227E+07
         0.10305E+07
         0.79492E+06
         0.80471E+06
         0.11341E+07
         0.14295E+07
         0.88521E+06
         0.33465E+06
         0.43305E+06
         0.70342E+06
         0.78823E+06
         0.90028E+06
        -0.19853E+06
        -0.11636E+06
         0.84472E+06
        -0.25732E+06
        -0.62050E+06
         0.66963E+06
         0.70489E+06
        -0.12245E+07
         0.35741E+06
         0.30059E+06
         0.37670E+06
         0.56206E+06
        -0.93306E+04
        -0.87152E+04
         0.43335E+06
         0.69749E+06
         0.83925E+05
        -0.27828E+06
        -0.63469E+06
        -0.24747E+06
        -0.17475E+07
        -0.16101E+07
        -0.89730E+06
        -0.54886E+06
         0.19314E+06
        -0.12995E+06
         0.54308E+06
         0.88758E+06
         0.52302E+06
         0.21843E+06
         0.49617E+06
         0.12308E+06
         0.49275E+05
         0.19615E+06
         0.60367E+06
         0.34154E+06
         0.38214E+06
         0.96892E+04
         0.45925E+05
         0.33761E+06
         0.25948E+06
         0.25884E+06
         0.36518E+06
         0.65552E+06
         0.93238E+06
         0.96093E+06
         0.56031E+06
         0.13066E+07
         0.84227E+06
         0.13927E+07
         0.18582E+07
         0.21715E+07
         0.19537E+07
         0.20173E+07
         0.18198E+07
         0.15364E+07
         0.14214E+07
         0.12818E+07
         0.10282E+07
         0.13542E+07
         0.86178E+06
         0.45483E+06
         0.50663E+06
         0.59605E+06
         0.74865E+06
         0.12277E+07
         0.12168E+07
         0.10239E+07
         0.78780E+06
         0.80009E+06
         0.11298E+07
         0.14226E+07
         0.87914E+06
         0.32718E+06
         0.42589E+06
         0.69819E+06
         0.78094E+06
         0.89334E+06
        -0.20466E+06
        -0.12163E+06
         0.83847E+06
        -0.26827E+06
        -0.62678E+06
         0.66294E+06
         0.69903E+06
        -0.12308E+07
         0.35164E+06
         0.29479E+06
         0.36873E+06
         0.55744E+06
        -0.14579E+05
        -0.11473E+05
         0.42898E+06
         0.69156E+06
         0.79678E+05
        -0.28325E+06
        -0.64485E+06
        -0.25328E+06
        -0.17606E+07
        -0.16176E+07
        -0.88107E+06
        -0.53974E+06
         0.18770E+06
        -0.13667E+06
         0.53918E+06
         0.88454E+06
         0.51610E+06
         0.21192E+06
         0.48986E+06
         0.11105E+06
         0.44173E+05
         0.20777E+06
         0.60363E+06
         0.33605E+06
         0.37398E+06
         0.43976E+04
         0.39344E+05
         0.33047E+06
         0.25219E+06
         0.25310E+06
         0.36026E+06
         0.65092E+06
         0.92794E+06
         0.95516E+06
         0.55338E+06
         0.13003E+07
         0.83692E+06
         0.13881E+07
         0.18517E+07
         0.21611E+07
         0.19417E+07
         0.20057E+07
         0.18096E+07
         0.15340E+07
         0.14031E+07
         0.12530E+07
         0.10160E+07
         0.13474E+07
         0.85578E+06
         0.44957E+06
         0.50013E+06
         0.58866E+06
         0.73993E+06
         0.12179E+07
         0.12101E+07
         0.10176E+07
         0.78053E+06
         0.79461E+06
         0.11215E+07
         0.14133E+07
         0.88845E+06
         0.33659E+06
         0.43531E+06
         0.70638E+06
         0.79177E+06
         0.90171E+06
        -0.19400E+06
        -0.11023E+06
         0.84382E+06
        -0.26887E+06
        -0.61570E+06
         0.67170E+06
         0.70745E+06
        -0.12195E+07
         0.36254E+06
         0.30397E+06
         0.37481E+06
         0.56452E+06
        -0.31464E+04
         0.59445E+04
         0.43791E+06
         0.70051E+06
         0.88141E+05
        -0.27284E+06
        -0.64128E+06
        -0.24282E+06
        -0.17627E+07
        -0.16086E+07
        -0.83114E+06
        -0.50149E+06
         0.19607E+06
        -0.12675E+06
         0.54664E+06
         0.89308E+06
         0.52808E+06
         0.22304E+06
         0.49940E+06
         0.11265E+06
         0.57553E+05
         0.24902E+06
         0.62288E+06
         0.34670E+06
         0.37939E+06
         0.14327E+05
         0.50777E+05
         0.34252E+06
         0.26326E+06
         0.26231E+06
         0.36940E+06
         0.66079E+06
         0.93788E+06
         0.96289E+06
         0.56984E+06
         0.13165E+07
         0.85341E+06
         0.13996E+07
         0.18590E+07
         0.21694E+07
         0.19533E+07
         0.20176E+07
         0.18228E+07
         0.15594E+07
         0.13972E+07
         0.12299E+07
         0.10169E+07
         0.13568E+07
         0.86358E+06
         0.45609E+06
         0.50816E+06
         0.60185E+06
         0.75608E+06
         0.12330E+07
         0.12233E+07
         0.10313E+07
         0.79576E+06
         0.80870E+06
         0.11329E+07
         0.14253E+07
         0.85585E+06
         0.30204E+06
         0.40187E+06
         0.67448E+06
         0.75194E+06
         0.86405E+06
        -0.23176E+06
        -0.14845E+06
         0.80792E+06
        -0.31550E+06
        -0.65823E+06
         0.63013E+06
         0.66544E+06
        -0.12645E+07
         0.32149E+06
         0.27094E+06
         0.33617E+06
         0.53207E+06
        -0.41090E+05
        -0.30106E+05
         0.39896E+06
         0.66131E+06
         0.49160E+05
        -0.30947E+06
        -0.68604E+06
        -0.27754E+06
        -0.18151E+07
        -0.16521E+07
        -0.85053E+06
        -0.52682E+06
         0.16306E+06
        -0.16283E+06
         0.51260E+06
         0.85747E+06
         0.48507E+06
         0.18207E+06
         0.45677E+06
         0.62848E+05
         0.15542E+05
         0.22342E+06
         0.58613E+06
         0.30563E+06
         0.33800E+06
        -0.25787E+05
         0.78924E+04
         0.29770E+06
         0.22081E+06
         0.22371E+06
         0.33108E+06
         0.61924E+06
         0.89270E+06
         0.92074E+06
         0.51196E+06
         0.12606E+07
         0.79562E+06
         0.13408E+07
         0.18007E+07
         0.21137E+07
         0.18964E+07
         0.19557E+07
         0.17645E+07
         0.15068E+07
         0.13237E+07
         0.11499E+07
         0.95872E+06
         0.13081E+07
         0.81339E+06
         0.40449E+06
         0.45509E+06
         0.54307E+06
         0.69529E+06
         0.11749E+07
         0.11687E+07
         0.97862E+06
         0.74221E+06
         0.75342E+06
         0.10801E+07
         0.13728E+07
         0.87521E+06
         0.30444E+06
         0.40826E+06
         0.68693E+06
         0.76492E+06
         0.87613E+06
        -0.22615E+06
        -0.12439E+06
         0.83214E+06
        -0.27948E+06
        -0.64650E+06
         0.63093E+06
         0.65486E+06
        -0.12367E+07
         0.34080E+06
         0.29723E+06
         0.36173E+06
         0.54953E+06
        -0.20457E+05
        -0.88207E+04
         0.41671E+06
         0.67476E+06
         0.77260E+05
        -0.28198E+06
        -0.64513E+06
        -0.25192E+06
        -0.17702E+07
        -0.16019E+07
        -0.80879E+06
        -0.48821E+06
         0.18378E+06
        -0.14693E+06
         0.52203E+06
         0.85239E+06
         0.49186E+06
         0.17893E+06
         0.44460E+06
         0.87219E+05
         0.47922E+05
         0.25217E+06
         0.60315E+06
         0.32933E+06
         0.36291E+06
         0.17570E+04
         0.23578E+05
         0.30466E+06
         0.22736E+06
         0.24032E+06
         0.34354E+06
         0.61947E+06
         0.89545E+06
         0.92079E+06
         0.53407E+06
         0.12893E+07
         0.80285E+06
         0.13281E+07
         0.17745E+07
         0.20979E+07
         0.19224E+07
         0.19828E+07
         0.17861E+07
         0.15194E+07
         0.13272E+07
         0.11609E+07
         0.98070E+06
         0.13191E+07
         0.83623E+06
         0.43686E+06
         0.48255E+06
         0.56387E+06
         0.70429E+06
         0.11738E+07
         0.11808E+07
         0.99606E+06
         0.76962E+06
         0.78679E+06
         0.11062E+07
         0.14000E+07
         0.12978E+09
         0.13476E+09
         0.13383E+09
         0.12244E+09
         0.15508E+09
         0.14492E+09
         0.14530E+09
         0.14724E+09
         0.12753E+09
         0.14752E+09
         0.16141E+09
         0.15843E+09
         0.15269E+09
         0.16609E+09
         0.16012E+09
         0.12416E+09
         0.13362E+09
         0.11700E+09
         0.13889E+09
         0.14530E+09
         0.13927E+09
         0.14334E+09
         0.13706E+09
         0.13264E+09
         0.14764E+09
         0.12709E+09
         0.16393E+09
         0.15905E+09
         0.15998E+09
         0.15289E+09
         0.12536E+09
         0.13156E+09
         0.12309E+09
         0.12880E+09
         0.16016E+09
         0.15404E+09
         0.15452E+09
         0.15924E+09
         0.16433E+09
         0.16641E+09
         0.15590E+09
         0.15134E+09
         0.14364E+09
         0.13965E+09
         0.15018E+09
         0.15741E+09
         0.15652E+09
         0.14580E+09
         0.14243E+09
         0.14826E+09
         0.15579E+09
         0.14980E+09
         0.21133E+09
         0.20642E+09
         0.20889E+09
         0.20249E+09
         0.20739E+09
         0.21588E+09
         0.21778E+09
         0.21826E+09
         0.22062E+09
         0.22488E+09
         0.21857E+09
         0.20640E+09
         0.18789E+09
         0.17876E+09
         0.17891E+09
         0.18130E+09
         0.18277E+09
         0.19696E+09
         0.21189E+09
         0.21218E+09
         0.19727E+09
         0.19157E+09
         0.19685E+09
         0.19553E+09
         0.19350E+09
         0.19410E+09
         0.10371E+10
         0.10902E+10
         0.10783E+10
         0.10064E+10
         0.11742E+10
         0.11232E+10
         0.11666E+10
         0.11592E+10
         0.10307E+10
         0.11594E+10
         0.12569E+10
         0.13479E+10
         0.12494E+10
         0.12827E+10
         0.13853E+10
         0.10108E+10
         0.10800E+10
         0.97329E+09
         0.11063E+10
         0.11559E+10
         0.11567E+10
         0.11812E+10
         0.11210E+10
         0.10747E+10
         0.11791E+10
         0.10472E+10
         0.12788E+10
         0.12681E+10
         0.12717E+10
         0.12126E+10
         0.10229E+10
         0.10716E+10
         0.10129E+10
         0.10499E+10
         0.12587E+10
         0.11846E+10
         0.11815E+10
         0.13555E+10
         0.13352E+10
         0.13244E+10
         0.13313E+10
         0.12772E+10
         0.12168E+10
         0.11049E+10
         0.11476E+10
         0.12555E+10
         0.11880E+10
         0.11325E+10
         0.11181E+10
         0.11488E+10
         0.12165E+10
         0.11493E+10
         0.18034E+10
         0.17576E+10
         0.17877E+10
         0.17351E+10
         0.17783E+10
         0.18580E+10
         0.18893E+10
         0.18951E+10
         0.19102E+10
         0.19457E+10
         0.18941E+10
         0.17881E+10
         0.16289E+10
         0.15490E+10
         0.15454E+10
         0.15586E+10
         0.15697E+10
         0.16873E+10
         0.18055E+10
         0.18099E+10
         0.16908E+10
         0.16457E+10
         0.16919E+10
         0.16828E+10
         0.16624E+10
         0.16590E+10
  
SCALARS                      stress_yz  double 1
LOOKUP_TABLE default
         0.27451E+06
        -0.91350E+05
        -0.23728E+06
        -0.12198E+06
        -0.22220E+01
        -0.61244E+00
        -0.27538E+01
        -0.21004E+01
        -0.88963E+06
         0.58503E+06
        -0.40981E+01
        -0.36079E+01
        -0.78089E+06
        -0.39708E+05
         0.29329E+01
        -0.18804E+00
         0.26812E+06
         0.10007E+07
         0.43150E-01
         0.44150E+00
        -0.51952E+06
        -0.19563E+07
        -0.20324E+07
         0.67231E+01
         0.11611E+02
         0.97050E+01
        -0.19283E+06
        -0.19846E+07
         0.48361E+01
         0.93819E+01
         0.30643E+06
         0.26725E+06
        -0.22675E+06
         0.25071E+01
         0.25593E+01
        -0.53134E-01
         0.91096E+06
         0.87849E+06
         0.46135E+01
         0.35895E+01
         0.89575E+06
         0.57051E+06
         0.34866E+01
         0.31863E+01
         0.81199E+06
         0.27989E+06
        -0.11566E+00
         0.17890E+01
         0.75509E+06
         0.84231E+00
         0.74293E+05
        -0.68221E-01
         0.44518E+05
         0.32582E+01
        -0.29509E+06
         0.18953E+01
        -0.96242E+06
         0.17078E+06
         0.51419E-01
        -0.10436E+00
         0.37161E+06
         0.13562E+07
        -0.70058E+00
        -0.26205E+01
         0.22437E+06
        -0.14141E+01
         0.96349E+06
        -0.17227E+01
        -0.78304E+06
        -0.41479E+06
        -0.21290E+00
         0.28110E+01
        -0.14505E+07
         0.61726E+01
        -0.25197E+07
         0.59766E+01
        -0.25431E+07
         0.45369E+01
        -0.20948E+07
         0.38027E+01
        -0.30714E+07
        -0.23566E+07
         0.24394E+01
        -0.54086E+00
        -0.32938E+06
        -0.60519E-01
         0.12690E+07
        -0.37911E+01
         0.29999E+07
        -0.66368E+01
         0.41929E+07
         0.25994E+07
        -0.98437E+01
        -0.79675E+01
         0.18279E+07
        -0.61849E+01
         0.16400E+07
        -0.63275E+01
         0.15960E+07
        -0.68034E+01
         0.26559E+07
         0.22070E+07
        -0.63268E+01
        -0.30315E+01
        -0.17826E+07
         0.67459E+06
         0.22246E+01
        -0.27645E+01
        -0.43827E+07
         0.74008E+01
        -0.62721E+07
         0.10826E+02
        -0.76814E+07
         0.13370E+02
        -0.90147E+07
         0.13262E+02
        -0.10620E+08
         0.10495E+02
        -0.10860E+08
         0.81217E+01
        -0.10226E+08
         0.75539E+01
        -0.90995E+07
         0.71870E+01
        -0.66333E+07
         0.45930E+01
        -0.44761E+07
         0.15164E+01
        -0.22437E+07
         0.97986E+00
         0.16132E+06
         0.14728E+01
         0.21389E+07
         0.76068E+00
         0.38359E+07
        -0.23005E+01
         0.59365E+07
        -0.64933E+01
         0.66844E+07
        -0.10140E+02
         0.73156E+07
        -0.13293E+02
         0.93476E+07
        -0.13281E+02
         0.96794E+07
        -0.11594E+02
         0.89434E+07
        -0.11299E+02
         0.72756E+07
        -0.11370E+02
         0.49465E+07
        -0.89909E+01
         0.35029E+07
        -0.53167E+01
         0.25184E+07
        -0.41109E+01
        -0.27058E+07
        -0.14002E+07
        -0.12222E+07
        -0.37936E+06
        -0.12524E+07
        -0.13315E+07
        -0.14040E+06
        -0.21578E+07
        -0.18511E+07
        -0.27161E+07
         0.14185E+07
         0.60511E+07
         0.41347E+07
         0.47957E+06
         0.61132E+07
         0.71667E+06
        -0.63498E+06
         0.40877E+06
         0.53373E+06
        -0.40344E+06
         0.37044E+06
         0.30545E+06
        -0.10263E+07
         0.86504E+05
        -0.18544E+07
         0.27416E+06
         0.14195E+05
         0.24819E+06
         0.30114E+06
        -0.14537E+07
         0.69955E+06
        -0.75891E+06
         0.50874E+06
        -0.12392E+06
         0.20443E+06
         0.11084E+07
         0.24860E+07
         0.53729E+07
         0.49093E+07
         0.41470E+07
         0.39038E+07
         0.97027E+06
        -0.79419E+06
        -0.21783E+07
        -0.35981E+07
        -0.58735E+07
        -0.38562E+07
        -0.27668E+07
        -0.29519E+07
        -0.31348E+07
        -0.36753E+07
        -0.16807E+07
         0.31594E+07
        -0.37995E+07
         0.10289E+08
         0.14217E+08
         0.18122E+08
         0.21512E+08
         0.21625E+08
         0.19577E+08
         0.18630E+08
         0.17606E+08
         0.11374E+08
         0.49964E+07
         0.21992E+07
         0.96967E+06
        -0.14852E+07
        -0.58716E+07
        -0.10791E+08
        -0.14079E+08
        -0.17031E+08
        -0.19529E+08
        -0.18400E+08
        -0.17395E+08
        -0.16183E+08
        -0.11253E+08
        -0.65747E+07
        -0.57732E+07
        -0.13833E+09
        -0.87244E+08
        -0.80733E+08
        -0.19149E+08
        -0.10486E+09
        -0.47160E+08
        -0.37397E+08
        -0.13074E+09
        -0.85734E+08
        -0.12296E+09
         0.65010E+08
         0.16964E+09
         0.13059E+09
         0.23953E+08
         0.15997E+09
         0.52458E+08
        -0.15897E+08
         0.15177E+08
         0.68409E+08
         0.13226E+08
         0.44678E+08
         0.33714E+08
        -0.20047E+08
         0.20485E+08
        -0.82802E+08
         0.20481E+08
         0.51394E+07
         0.95540E+07
        -0.15261E+08
        -0.82598E+08
         0.56535E+08
         0.14892E+08
         0.36542E+08
         0.31728E+08
        -0.13000E+08
         0.46117E+08
         0.88050E+08
         0.14754E+09
         0.16718E+09
         0.15783E+09
         0.82908E+08
        -0.22495E+08
        -0.46042E+08
        -0.73481E+08
        -0.98467E+08
        -0.15956E+09
        -0.11704E+09
        -0.77398E+08
        -0.97275E+08
        -0.11484E+09
        -0.10580E+09
        -0.89279E+07
         0.32833E+08
        -0.45951E+08
         0.10265E+09
         0.13355E+09
         0.16251E+09
         0.18267E+09
         0.18585E+09
         0.18084E+09
         0.17749E+09
         0.16495E+09
         0.10552E+09
         0.35222E+08
         0.16734E+08
         0.15028E+08
        -0.63797E+07
        -0.50789E+08
        -0.98326E+08
        -0.12617E+09
        -0.17019E+09
        -0.18413E+09
        -0.17812E+09
        -0.17666E+09
        -0.16596E+09
        -0.11933E+09
        -0.60371E+08
        -0.57612E+08
        -0.13841E+09
        -0.87260E+08
        -0.80773E+08
        -0.19290E+08
        -0.10487E+09
        -0.47197E+08
        -0.37444E+08
        -0.13096E+09
        -0.85887E+08
        -0.12342E+09
         0.65049E+08
         0.16963E+09
         0.13057E+09
         0.23954E+08
         0.16001E+09
         0.52461E+08
        -0.16042E+08
         0.15155E+08
         0.68455E+08
         0.13152E+08
         0.44785E+08
         0.33749E+08
        -0.20053E+08
         0.20475E+08
        -0.83178E+08
         0.20443E+08
         0.52000E+07
         0.96074E+07
        -0.15160E+08
        -0.82773E+08
         0.56545E+08
         0.14860E+08
         0.36622E+08
         0.31780E+08
        -0.12872E+08
         0.46147E+08
         0.88047E+08
         0.14755E+09
         0.16718E+09
         0.15780E+09
         0.82919E+08
        -0.22423E+08
        -0.46084E+08
        -0.73520E+08
        -0.98470E+08
        -0.15957E+09
        -0.11705E+09
        -0.77352E+08
        -0.97145E+08
        -0.11468E+09
        -0.10581E+09
        -0.87927E+07
         0.32813E+08
        -0.45964E+08
         0.10267E+09
         0.13356E+09
         0.16252E+09
         0.18266E+09
         0.18584E+09
         0.18083E+09
         0.17749E+09
         0.16495E+09
         0.10552E+09
         0.35237E+08
         0.16734E+08
         0.15059E+08
        -0.63271E+07
        -0.50805E+08
        -0.98347E+08
        -0.12618E+09
        -0.17020E+09
        -0.18413E+09
        -0.17812E+09
        -0.17666E+09
        -0.16597E+09
        -0.11931E+09
        -0.60336E+08
        -0.57564E+08
        -0.13850E+09
        -0.87277E+08
        -0.80814E+08
        -0.19432E+08
        -0.10488E+09
        -0.47236E+08
        -0.37491E+08
        -0.13118E+09
        -0.86042E+08
        -0.12388E+09
         0.65087E+08
         0.16962E+09
         0.13056E+09
         0.23952E+08
         0.16006E+09
         0.52465E+08
        -0.16188E+08
         0.15132E+08
         0.68503E+08
         0.13077E+08
         0.44893E+08
         0.33783E+08
        -0.20062E+08
         0.20463E+08
        -0.83549E+08
         0.20401E+08
         0.52647E+07
         0.96642E+07
        -0.15050E+08
        -0.82942E+08
         0.56554E+08
         0.14820E+08
         0.36704E+08
         0.31831E+08
        -0.12744E+08
         0.46178E+08
         0.88041E+08
         0.14756E+09
         0.16718E+09
         0.15778E+09
         0.82933E+08
        -0.22345E+08
        -0.46122E+08
        -0.73565E+08
        -0.98482E+08
        -0.15957E+09
        -0.11706E+09
        -0.77304E+08
        -0.97017E+08
        -0.11453E+09
        -0.10582E+09
        -0.86580E+07
         0.32793E+08
        -0.45977E+08
         0.10269E+09
         0.13356E+09
         0.16252E+09
         0.18266E+09
         0.18583E+09
         0.18082E+09
         0.17750E+09
         0.16495E+09
         0.10551E+09
         0.35253E+08
         0.16735E+08
         0.15091E+08
        -0.62741E+07
        -0.50821E+08
        -0.98370E+08
        -0.12618E+09
        -0.17020E+09
        -0.18413E+09
        -0.17813E+09
        -0.17667E+09
        -0.16598E+09
        -0.11930E+09
        -0.60301E+08
        -0.57516E+08
        -0.13859E+09
        -0.87293E+08
        -0.80855E+08
        -0.19574E+08
        -0.10489E+09
        -0.47274E+08
        -0.37540E+08
        -0.13140E+09
        -0.86198E+08
        -0.12433E+09
         0.65126E+08
         0.16961E+09
         0.13054E+09
         0.23952E+08
         0.16011E+09
         0.52469E+08
        -0.16337E+08
         0.15108E+08
         0.68553E+08
         0.12998E+08
         0.45001E+08
         0.33813E+08
        -0.20079E+08
         0.20443E+08
        -0.83907E+08
         0.20345E+08
         0.53316E+07
         0.97394E+07
        -0.14914E+08
        -0.83095E+08
         0.56558E+08
         0.14767E+08
         0.36784E+08
         0.31883E+08
        -0.12617E+08
         0.46208E+08
         0.88035E+08
         0.14757E+09
         0.16718E+09
         0.15775E+09
         0.82953E+08
        -0.22248E+08
        -0.46151E+08
        -0.73630E+08
        -0.98511E+08
        -0.15958E+09
        -0.11708E+09
        -0.77257E+08
        -0.96888E+08
        -0.11437E+09
        -0.10583E+09
        -0.85237E+07
         0.32774E+08
        -0.45990E+08
         0.10271E+09
         0.13356E+09
         0.16253E+09
         0.18265E+09
         0.18582E+09
         0.18081E+09
         0.17750E+09
         0.16495E+09
         0.10551E+09
         0.35273E+08
         0.16736E+08
         0.15122E+08
        -0.62207E+07
        -0.50838E+08
        -0.98396E+08
        -0.12619E+09
        -0.17021E+09
        -0.18412E+09
        -0.17813E+09
        -0.17667E+09
        -0.16599E+09
        -0.11929E+09
        -0.60266E+08
        -0.57469E+08
        -0.13867E+09
        -0.87309E+08
        -0.80896E+08
        -0.19716E+08
        -0.10491E+09
        -0.47311E+08
        -0.37586E+08
        -0.13162E+09
        -0.86353E+08
        -0.12477E+09
         0.65166E+08
         0.16960E+09
         0.13053E+09
         0.23954E+08
         0.16016E+09
         0.52474E+08
        -0.16488E+08
         0.15084E+08
         0.68605E+08
         0.12914E+08
         0.45110E+08
         0.33839E+08
        -0.20104E+08
         0.20414E+08
        -0.84252E+08
         0.20275E+08
         0.54060E+07
         0.98314E+07
        -0.14750E+08
        -0.83231E+08
         0.56558E+08
         0.14697E+08
         0.36865E+08
         0.31935E+08
        -0.12488E+08
         0.46239E+08
         0.88031E+08
         0.14758E+09
         0.16718E+09
         0.15773E+09
         0.82981E+08
        -0.22132E+08
        -0.46168E+08
        -0.73713E+08
        -0.98560E+08
        -0.15960E+09
        -0.11711E+09
        -0.77215E+08
        -0.96761E+08
        -0.11422E+09
        -0.10585E+09
        -0.83886E+07
         0.32754E+08
        -0.46002E+08
         0.10273E+09
         0.13356E+09
         0.16253E+09
         0.18264E+09
         0.18582E+09
         0.18080E+09
         0.17750E+09
         0.16495E+09
         0.10551E+09
         0.35295E+08
         0.16738E+08
         0.15152E+08
        -0.61671E+07
        -0.50855E+08
        -0.98426E+08
        -0.12620E+09
        -0.17022E+09
        -0.18412E+09
        -0.17814E+09
        -0.17667E+09
        -0.16600E+09
        -0.11928E+09
        -0.60231E+08
        -0.57421E+08
        -0.13875E+09
        -0.87319E+08
        -0.80935E+08
        -0.19860E+08
        -0.10492E+09
        -0.47349E+08
        -0.37628E+08
        -0.13182E+09
        -0.86509E+08
        -0.12521E+09
         0.65210E+08
         0.16959E+09
         0.13051E+09
         0.23958E+08
         0.16020E+09
         0.52480E+08
        -0.16642E+08
         0.15061E+08
         0.68658E+08
         0.12828E+08
         0.45218E+08
         0.33863E+08
        -0.20133E+08
         0.20382E+08
        -0.84589E+08
         0.20200E+08
         0.54860E+07
         0.99332E+07
        -0.14575E+08
        -0.83360E+08
         0.56555E+08
         0.14620E+08
         0.36947E+08
         0.31989E+08
        -0.12359E+08
         0.46272E+08
         0.88030E+08
         0.14759E+09
         0.16718E+09
         0.15771E+09
         0.83010E+08
        -0.22009E+08
        -0.46182E+08
        -0.73803E+08
        -0.98621E+08
        -0.15961E+09
        -0.11714E+09
        -0.77181E+08
        -0.96641E+08
        -0.11407E+09
        -0.10585E+09
        -0.82535E+07
         0.32734E+08
        -0.46015E+08
         0.10275E+09
         0.13356E+09
         0.16254E+09
         0.18264E+09
         0.18581E+09
         0.18079E+09
         0.17751E+09
         0.16495E+09
         0.10551E+09
         0.35319E+08
         0.16741E+08
         0.15182E+08
        -0.61136E+07
        -0.50872E+08
        -0.98458E+08
        -0.12621E+09
        -0.17022E+09
        -0.18412E+09
        -0.17814E+09
        -0.17668E+09
        -0.16601E+09
        -0.11926E+09
        -0.60196E+08
        -0.57374E+08
        -0.13883E+09
        -0.87316E+08
        -0.80975E+08
        -0.20007E+08
        -0.10493E+09
        -0.47388E+08
        -0.37660E+08
        -0.13201E+09
        -0.86668E+08
        -0.12562E+09
         0.65263E+08
         0.16958E+09
         0.13050E+09
         0.23976E+08
         0.16025E+09
         0.52489E+08
        -0.16800E+08
         0.15038E+08
         0.68711E+08
         0.12742E+08
         0.45327E+08
         0.33888E+08
        -0.20161E+08
         0.20352E+08
        -0.84918E+08
         0.20125E+08
         0.55804E+07
         0.10041E+08
        -0.14397E+08
        -0.83486E+08
         0.56550E+08
         0.14537E+08
         0.37032E+08
         0.32045E+08
        -0.12230E+08
         0.46308E+08
         0.88033E+08
         0.14760E+09
         0.16719E+09
         0.15768E+09
         0.83041E+08
        -0.21884E+08
        -0.46193E+08
        -0.73892E+08
        -0.98686E+08
        -0.15962E+09
        -0.11719E+09
        -0.77168E+08
        -0.96540E+08
        -0.11392E+09
        -0.10586E+09
        -0.81167E+07
         0.32714E+08
        -0.46028E+08
         0.10277E+09
         0.13356E+09
         0.16254E+09
         0.18263E+09
         0.18580E+09
         0.18078E+09
         0.17751E+09
         0.16495E+09
         0.10551E+09
         0.35343E+08
         0.16744E+08
         0.15212E+08
        -0.60600E+07
        -0.50890E+08
        -0.98489E+08
        -0.12622E+09
        -0.17023E+09
        -0.18412E+09
        -0.17815E+09
        -0.17668E+09
        -0.16602E+09
        -0.11925E+09
        -0.60161E+08
        -0.57326E+08
        -0.13890E+09
        -0.87311E+08
        -0.81014E+08
        -0.20156E+08
        -0.10495E+09
        -0.47426E+08
        -0.37685E+08
        -0.13219E+09
        -0.86829E+08
        -0.12603E+09
         0.65322E+08
         0.16957E+09
         0.13048E+09
         0.23998E+08
         0.16030E+09
         0.52499E+08
        -0.16960E+08
         0.15014E+08
         0.68764E+08
         0.12657E+08
         0.45436E+08
         0.33913E+08
        -0.20189E+08
         0.20322E+08
        -0.85244E+08
         0.20050E+08
         0.56784E+07
         0.10152E+08
        -0.14218E+08
        -0.83611E+08
         0.56544E+08
         0.14450E+08
         0.37118E+08
         0.32104E+08
        -0.12099E+08
         0.46346E+08
         0.88039E+08
         0.14762E+09
         0.16719E+09
         0.15766E+09
         0.83071E+08
        -0.21759E+08
        -0.46204E+08
        -0.73979E+08
        -0.98753E+08
        -0.15963E+09
        -0.11724E+09
        -0.77162E+08
        -0.96447E+08
        -0.11378E+09
        -0.10587E+09
        -0.79801E+07
         0.32694E+08
        -0.46040E+08
         0.10279E+09
         0.13356E+09
         0.16255E+09
         0.18263E+09
         0.18580E+09
         0.18077E+09
         0.17752E+09
         0.16495E+09
         0.10550E+09
         0.35367E+08
         0.16747E+08
         0.15243E+08
        -0.60063E+07
        -0.50907E+08
        -0.98520E+08
        -0.12623E+09
        -0.17023E+09
        -0.18412E+09
        -0.17816E+09
        -0.17668E+09
        -0.16603E+09
        -0.11924E+09
        -0.60126E+08
        -0.57278E+08
        -0.13897E+09
        -0.87305E+08
        -0.81053E+08
        -0.20305E+08
        -0.10496E+09
        -0.47464E+08
        -0.37711E+08
        -0.13237E+09
        -0.86991E+08
        -0.12643E+09
         0.65377E+08
         0.16956E+09
         0.13047E+09
         0.24022E+08
         0.16035E+09
         0.52510E+08
        -0.17121E+08
         0.14990E+08
         0.68817E+08
         0.12570E+08
         0.45545E+08
         0.33938E+08
        -0.20217E+08
         0.20292E+08
        -0.85568E+08
         0.19975E+08
         0.57789E+07
         0.10262E+08
        -0.14039E+08
        -0.83736E+08
         0.56538E+08
         0.14365E+08
         0.37204E+08
         0.32162E+08
        -0.11968E+08
         0.46381E+08
         0.88044E+08
         0.14763E+09
         0.16719E+09
         0.15764E+09
         0.83102E+08
        -0.21635E+08
        -0.46215E+08
        -0.74067E+08
        -0.98822E+08
        -0.15965E+09
        -0.11729E+09
        -0.77157E+08
        -0.96356E+08
        -0.11364E+09
        -0.10587E+09
        -0.78428E+07
         0.32674E+08
        -0.46053E+08
         0.10281E+09
         0.13356E+09
         0.16255E+09
         0.18262E+09
         0.18579E+09
         0.18076E+09
         0.17752E+09
         0.16495E+09
         0.10550E+09
         0.35390E+08
         0.16750E+08
         0.15274E+08
        -0.59528E+07
        -0.50925E+08
        -0.98551E+08
        -0.12624E+09
        -0.17024E+09
        -0.18412E+09
        -0.17816E+09
        -0.17669E+09
        -0.16604E+09
        -0.11922E+09
        -0.60091E+08
        -0.57230E+08
        -0.13904E+09
        -0.87298E+08
        -0.81091E+08
        -0.20454E+08
        -0.10497E+09
        -0.47501E+08
        -0.37736E+08
        -0.13255E+09
        -0.87152E+08
        -0.12683E+09
         0.65436E+08
         0.16955E+09
         0.13046E+09
         0.24043E+08
         0.16039E+09
         0.52519E+08
        -0.17282E+08
         0.14966E+08
         0.68869E+08
         0.12484E+08
         0.45653E+08
         0.33963E+08
        -0.20244E+08
         0.20263E+08
        -0.85893E+08
         0.19901E+08
         0.58766E+07
         0.10371E+08
        -0.13861E+08
        -0.83861E+08
         0.56531E+08
         0.14279E+08
         0.37289E+08
         0.32221E+08
        -0.11837E+08
         0.46420E+08
         0.88051E+08
         0.14764E+09
         0.16719E+09
         0.15761E+09
         0.83132E+08
        -0.21511E+08
        -0.46227E+08
        -0.74154E+08
        -0.98889E+08
        -0.15966E+09
        -0.11735E+09
        -0.77155E+08
        -0.96263E+08
        -0.11349E+09
        -0.10588E+09
        -0.77060E+07
         0.32654E+08
        -0.46065E+08
         0.10283E+09
         0.13356E+09
         0.16256E+09
         0.18262E+09
         0.18578E+09
         0.18075E+09
         0.17753E+09
         0.16495E+09
         0.10550E+09
         0.35414E+08
         0.16754E+08
         0.15305E+08
        -0.58994E+07
        -0.50942E+08
        -0.98583E+08
        -0.12625E+09
        -0.17025E+09
        -0.18411E+09
        -0.17817E+09
        -0.17669E+09
        -0.16605E+09
        -0.11921E+09
        -0.60057E+08
        -0.57182E+08
        -0.13911E+09
        -0.87291E+08
        -0.81129E+08
        -0.20602E+08
        -0.10499E+09
        -0.47539E+08
        -0.37765E+08
        -0.13273E+09
        -0.87314E+08
        -0.12724E+09
         0.65495E+08
         0.16954E+09
         0.13045E+09
         0.24067E+08
         0.16044E+09
         0.52530E+08
        -0.17444E+08
         0.14942E+08
         0.68922E+08
         0.12396E+08
         0.45762E+08
         0.33987E+08
        -0.20272E+08
         0.20233E+08
        -0.86217E+08
         0.19826E+08
         0.59761E+07
         0.10478E+08
        -0.13684E+08
        -0.83985E+08
         0.56525E+08
         0.14193E+08
         0.37375E+08
         0.32279E+08
        -0.11706E+08
         0.46456E+08
         0.88058E+08
         0.14766E+09
         0.16719E+09
         0.15759E+09
         0.83162E+08
        -0.21387E+08
        -0.46238E+08
        -0.74241E+08
        -0.98956E+08
        -0.15967E+09
        -0.11740E+09
        -0.77150E+08
        -0.96172E+08
        -0.11335E+09
        -0.10588E+09
        -0.75688E+07
         0.32634E+08
        -0.46077E+08
         0.10285E+09
         0.13356E+09
         0.16256E+09
         0.18261E+09
         0.18577E+09
         0.18074E+09
         0.17753E+09
         0.16495E+09
         0.10550E+09
         0.35437E+08
         0.16757E+08
         0.15336E+08
        -0.58459E+07
        -0.50960E+08
        -0.98614E+08
        -0.12626E+09
        -0.17025E+09
        -0.18411E+09
        -0.17818E+09
        -0.17669E+09
        -0.16606E+09
        -0.11920E+09
        -0.60022E+08
        -0.57134E+08
        -0.13918E+09
        -0.87285E+08
        -0.81168E+08
        -0.20752E+08
        -0.10500E+09
        -0.47576E+08
        -0.37790E+08
        -0.13290E+09
        -0.87476E+08
        -0.12764E+09
         0.65553E+08
         0.16953E+09
         0.13043E+09
         0.24090E+08
         0.16049E+09
         0.52540E+08
        -0.17606E+08
         0.14918E+08
         0.68974E+08
         0.12310E+08
         0.45871E+08
         0.34011E+08
        -0.20300E+08
         0.20205E+08
        -0.86540E+08
         0.19753E+08
         0.60734E+07
         0.10584E+08
        -0.13506E+08
        -0.84109E+08
         0.56518E+08
         0.14107E+08
         0.37460E+08
         0.32338E+08
        -0.11574E+08
         0.46494E+08
         0.88063E+08
         0.14767E+09
         0.16719E+09
         0.15756E+09
         0.83193E+08
        -0.21264E+08
        -0.46248E+08
        -0.74328E+08
        -0.99024E+08
        -0.15968E+09
        -0.11746E+09
        -0.77148E+08
        -0.96080E+08
        -0.11321E+09
        -0.10589E+09
        -0.74319E+07
         0.32614E+08
        -0.46089E+08
         0.10286E+09
         0.13356E+09
         0.16257E+09
         0.18261E+09
         0.18577E+09
         0.18073E+09
         0.17754E+09
         0.16495E+09
         0.10550E+09
         0.35461E+08
         0.16760E+08
         0.15366E+08
        -0.57921E+07
        -0.50977E+08
        -0.98645E+08
        -0.12627E+09
        -0.17026E+09
        -0.18411E+09
        -0.17818E+09
        -0.17670E+09
        -0.16607E+09
        -0.11918E+09
        -0.59988E+08
        -0.57086E+08
        -0.13925E+09
        -0.87278E+08
        -0.81207E+08
        -0.20902E+08
        -0.10501E+09
        -0.47614E+08
        -0.37815E+08
        -0.13308E+09
        -0.87638E+08
        -0.12804E+09
         0.65612E+08
         0.16952E+09
         0.13042E+09
         0.24110E+08
         0.16054E+09
         0.52550E+08
        -0.17768E+08
         0.14893E+08
         0.69027E+08
         0.12223E+08
         0.45979E+08
         0.34035E+08
        -0.20328E+08
         0.20176E+08
        -0.86863E+08
         0.19678E+08
         0.61735E+07
         0.10690E+08
        -0.13328E+08
        -0.84233E+08
         0.56512E+08
         0.14020E+08
         0.37545E+08
         0.32397E+08
        -0.11442E+08
         0.46532E+08
         0.88069E+08
         0.14768E+09
         0.16720E+09
         0.15754E+09
         0.83222E+08
        -0.21141E+08
        -0.46259E+08
        -0.74415E+08
        -0.99094E+08
        -0.15969E+09
        -0.11751E+09
        -0.77144E+08
        -0.95990E+08
        -0.11307E+09
        -0.10589E+09
        -0.72953E+07
         0.32594E+08
        -0.46101E+08
         0.10288E+09
         0.13356E+09
         0.16257E+09
         0.18260E+09
         0.18576E+09
         0.18072E+09
         0.17754E+09
         0.16495E+09
         0.10550E+09
         0.35484E+08
         0.16763E+08
         0.15397E+08
        -0.57385E+07
        -0.50994E+08
        -0.98676E+08
        -0.12628E+09
        -0.17026E+09
        -0.18411E+09
        -0.17819E+09
        -0.17670E+09
        -0.16608E+09
        -0.11917E+09
        -0.59954E+08
        -0.57038E+08
        -0.13932E+09
        -0.87272E+08
        -0.81246E+08
        -0.21052E+08
        -0.10503E+09
        -0.47652E+08
        -0.37844E+08
        -0.13326E+09
        -0.87800E+08
        -0.12844E+09
         0.65670E+08
         0.16951E+09
         0.13041E+09
         0.24133E+08
         0.16058E+09
         0.52560E+08
        -0.17931E+08
         0.14869E+08
         0.69079E+08
         0.12137E+08
         0.46088E+08
         0.34060E+08
        -0.20355E+08
         0.20147E+08
        -0.87186E+08
         0.19603E+08
         0.62709E+07
         0.10794E+08
        -0.13152E+08
        -0.84357E+08
         0.56505E+08
         0.13934E+08
         0.37630E+08
         0.32456E+08
        -0.11310E+08
         0.46569E+08
         0.88074E+08
         0.14770E+09
         0.16720E+09
         0.15752E+09
         0.83253E+08
        -0.21017E+08
        -0.46270E+08
        -0.74502E+08
        -0.99162E+08
        -0.15970E+09
        -0.11757E+09
        -0.77139E+08
        -0.95896E+08
        -0.11292E+09
        -0.10590E+09
        -0.71595E+07
         0.32574E+08
        -0.46114E+08
         0.10290E+09
         0.13356E+09
         0.16258E+09
         0.18260E+09
         0.18575E+09
         0.18071E+09
         0.17754E+09
         0.16495E+09
         0.10550E+09
         0.35508E+08
         0.16766E+08
         0.15428E+08
        -0.56852E+07
        -0.51012E+08
        -0.98708E+08
        -0.12630E+09
        -0.17027E+09
        -0.18411E+09
        -0.17819E+09
        -0.17670E+09
        -0.16609E+09
        -0.11915E+09
        -0.59919E+08
        -0.56989E+08
        -0.13939E+09
        -0.87266E+08
        -0.81284E+08
        -0.21202E+08
        -0.10504E+09
        -0.47689E+08
        -0.37870E+08
        -0.13343E+09
        -0.87962E+08
        -0.12884E+09
         0.65729E+08
         0.16950E+09
         0.13040E+09
         0.24153E+08
         0.16063E+09
         0.52570E+08
        -0.18094E+08
         0.14845E+08
         0.69131E+08
         0.12050E+08
         0.46196E+08
         0.34083E+08
        -0.20382E+08
         0.20119E+08
        -0.87509E+08
         0.19529E+08
         0.63701E+07
         0.10896E+08
        -0.12976E+08
        -0.84481E+08
         0.56498E+08
         0.13848E+08
         0.37715E+08
         0.32515E+08
        -0.11178E+08
         0.46607E+08
         0.88080E+08
         0.14771E+09
         0.16720E+09
         0.15749E+09
         0.83283E+08
        -0.20895E+08
        -0.46281E+08
        -0.74588E+08
        -0.99230E+08
        -0.15972E+09
        -0.11762E+09
        -0.77137E+08
        -0.95805E+08
        -0.11278E+09
        -0.10590E+09
        -0.70228E+07
         0.32553E+08
        -0.46125E+08
         0.10292E+09
         0.13356E+09
         0.16259E+09
         0.18259E+09
         0.18575E+09
         0.18070E+09
         0.17755E+09
         0.16495E+09
         0.10549E+09
         0.35531E+08
         0.16769E+08
         0.15459E+08
        -0.56317E+07
        -0.51029E+08
        -0.98739E+08
        -0.12631E+09
        -0.17027E+09
        -0.18411E+09
        -0.17820E+09
        -0.17671E+09
        -0.16610E+09
        -0.11914E+09
        -0.59885E+08
        -0.56941E+08
        -0.13946E+09
        -0.87257E+08
        -0.81322E+08
        -0.21351E+08
        -0.10505E+09
        -0.47726E+08
        -0.37896E+08
        -0.13361E+09
        -0.88126E+08
        -0.12924E+09
         0.65788E+08
         0.16950E+09
         0.13038E+09
         0.24175E+08
         0.16068E+09
         0.52580E+08
        -0.18258E+08
         0.14820E+08
         0.69184E+08
         0.11964E+08
         0.46305E+08
         0.34106E+08
        -0.20410E+08
         0.20091E+08
        -0.87832E+08
         0.19454E+08
         0.64666E+07
         0.10997E+08
        -0.12800E+08
        -0.84605E+08
         0.56491E+08
         0.13762E+08
         0.37800E+08
         0.32574E+08
        -0.11045E+08
         0.46644E+08
         0.88086E+08
         0.14773E+09
         0.16720E+09
         0.15747E+09
         0.83313E+08
        -0.20772E+08
        -0.46293E+08
        -0.74674E+08
        -0.99300E+08
        -0.15973E+09
        -0.11767E+09
        -0.77133E+08
        -0.95714E+08
        -0.11264E+09
        -0.10591E+09
        -0.68860E+07
         0.32533E+08
        -0.46137E+08
         0.10294E+09
         0.13356E+09
         0.16259E+09
         0.18259E+09
         0.18574E+09
         0.18069E+09
         0.17755E+09
         0.16495E+09
         0.10549E+09
         0.35555E+08
         0.16772E+08
         0.15489E+08
        -0.55782E+07
        -0.51046E+08
        -0.98770E+08
        -0.12632E+09
        -0.17028E+09
        -0.18410E+09
        -0.17821E+09
        -0.17671E+09
        -0.16611E+09
        -0.11913E+09
        -0.59852E+08
        -0.56893E+08
        -0.13953E+09
        -0.87250E+08
        -0.81361E+08
        -0.21501E+08
        -0.10507E+09
        -0.47764E+08
        -0.37924E+08
        -0.13378E+09
        -0.88290E+08
        -0.12964E+09
         0.65846E+08
         0.16949E+09
         0.13037E+09
         0.24194E+08
         0.16072E+09
         0.52590E+08
        -0.18424E+08
         0.14795E+08
         0.69236E+08
         0.11878E+08
         0.46413E+08
         0.34128E+08
        -0.20437E+08
         0.20063E+08
        -0.88154E+08
         0.19379E+08
         0.65658E+07
         0.11096E+08
        -0.12625E+08
        -0.84725E+08
         0.56484E+08
         0.13676E+08
         0.37884E+08
         0.32633E+08
        -0.10911E+08
         0.46681E+08
         0.88090E+08
         0.14774E+09
         0.16720E+09
         0.15744E+09
         0.83344E+08
        -0.20651E+08
        -0.46305E+08
        -0.74761E+08
        -0.99369E+08
        -0.15974E+09
        -0.11773E+09
        -0.77131E+08
        -0.95623E+08
        -0.11250E+09
        -0.10591E+09
        -0.67505E+07
         0.32512E+08
        -0.46149E+08
         0.10296E+09
         0.13356E+09
         0.16260E+09
         0.18258E+09
         0.18573E+09
         0.18068E+09
         0.17756E+09
         0.16495E+09
         0.10549E+09
         0.35578E+08
         0.16775E+08
         0.15519E+08
        -0.55249E+07
        -0.51063E+08
        -0.98801E+08
        -0.12633E+09
        -0.17029E+09
        -0.18410E+09
        -0.17821E+09
        -0.17671E+09
        -0.16612E+09
        -0.11911E+09
        -0.59818E+08
        -0.56844E+08
        -0.13959E+09
        -0.87244E+08
        -0.81399E+08
        -0.21651E+08
        -0.10508E+09
        -0.47801E+08
        -0.37951E+08
        -0.13396E+09
        -0.88454E+08
        -0.13004E+09
         0.65905E+08
         0.16948E+09
         0.13036E+09
         0.24216E+08
         0.16077E+09
         0.52600E+08
        -0.18591E+08
         0.14770E+08
         0.69288E+08
         0.11796E+08
         0.46521E+08
         0.34150E+08
        -0.20465E+08
         0.20035E+08
        -0.88477E+08
         0.19305E+08
         0.66640E+07
         0.11195E+08
        -0.12450E+08
        -0.84839E+08
         0.56477E+08
         0.13588E+08
         0.37969E+08
         0.32693E+08
        -0.10779E+08
         0.46719E+08
         0.88096E+08
         0.14776E+09
         0.16720E+09
         0.15742E+09
         0.83377E+08
        -0.20530E+08
        -0.46319E+08
        -0.74847E+08
        -0.99438E+08
        -0.15975E+09
        -0.11778E+09
        -0.77127E+08
        -0.95531E+08
        -0.11235E+09
        -0.10592E+09
        -0.66147E+07
         0.32492E+08
        -0.46161E+08
         0.10298E+09
         0.13356E+09
         0.16260E+09
         0.18258E+09
         0.18572E+09
         0.18067E+09
         0.17756E+09
         0.16494E+09
         0.10549E+09
         0.35601E+08
         0.16776E+08
         0.15549E+08
        -0.54718E+07
        -0.51080E+08
        -0.98832E+08
        -0.12634E+09
        -0.17029E+09
        -0.18410E+09
        -0.17822E+09
        -0.17672E+09
        -0.16612E+09
        -0.11910E+09
        -0.59785E+08
        -0.56796E+08
        -0.13966E+09
        -0.87237E+08
        -0.81438E+08
        -0.21801E+08
        -0.10509E+09
        -0.47837E+08
        -0.37977E+08
        -0.13413E+09
        -0.88621E+08
        -0.13043E+09
         0.65963E+08
         0.16947E+09
         0.13035E+09
         0.24237E+08
         0.16082E+09
         0.52610E+08
        -0.18760E+08
         0.14745E+08
         0.69341E+08
         0.11718E+08
         0.46629E+08
         0.34172E+08
        -0.20492E+08
         0.20008E+08
        -0.88800E+08
         0.19230E+08
         0.67664E+07
         0.11294E+08
        -0.12275E+08
        -0.84946E+08
         0.56469E+08
         0.13502E+08
         0.38053E+08
         0.32752E+08
        -0.10645E+08
         0.46756E+08
         0.88102E+08
         0.14778E+09
         0.16720E+09
         0.15739E+09
         0.83412E+08
        -0.20410E+08
        -0.46335E+08
        -0.74932E+08
        -0.99508E+08
        -0.15976E+09
        -0.11784E+09
        -0.77123E+08
        -0.95441E+08
        -0.11221E+09
        -0.10593E+09
        -0.64780E+07
         0.32472E+08
        -0.46172E+08
         0.10299E+09
         0.13356E+09
         0.16261E+09
         0.18257E+09
         0.18572E+09
         0.18066E+09
         0.17757E+09
         0.16494E+09
         0.10549E+09
         0.35623E+08
         0.16775E+08
         0.15580E+08
        -0.54184E+07
        -0.51097E+08
        -0.98864E+08
        -0.12635E+09
        -0.17030E+09
        -0.18410E+09
        -0.17823E+09
        -0.17672E+09
        -0.16613E+09
        -0.11909E+09
        -0.59752E+08
        -0.56747E+08
        -0.13973E+09
        -0.87231E+08
        -0.81479E+08
        -0.21951E+08
        -0.10511E+09
        -0.47875E+08
        -0.38006E+08
        -0.13430E+09
        -0.88788E+08
        -0.13083E+09
         0.66022E+08
         0.16946E+09
         0.13033E+09
         0.24256E+08
         0.16087E+09
         0.52621E+08
        -0.18931E+08
         0.14720E+08
         0.69394E+08
         0.11642E+08
         0.46737E+08
         0.34193E+08
        -0.20518E+08
         0.19982E+08
        -0.89123E+08
         0.19158E+08
         0.68662E+07
         0.11387E+08
        -0.12103E+08
        -0.85051E+08
         0.56463E+08
         0.13417E+08
         0.38137E+08
         0.32813E+08
        -0.10512E+08
         0.46793E+08
         0.88104E+08
         0.14780E+09
         0.16720E+09
         0.15737E+09
         0.83446E+08
        -0.20292E+08
        -0.46353E+08
        -0.75016E+08
        -0.99575E+08
        -0.15977E+09
        -0.11789E+09
        -0.77120E+08
        -0.95350E+08
        -0.11207E+09
        -0.10593E+09
        -0.63422E+07
         0.32451E+08
        -0.46185E+08
         0.10301E+09
         0.13356E+09
         0.16261E+09
         0.18257E+09
         0.18571E+09
         0.18065E+09
         0.17757E+09
         0.16494E+09
         0.10550E+09
         0.35645E+08
         0.16773E+08
         0.15610E+08
        -0.53650E+07
        -0.51113E+08
        -0.98894E+08
        -0.12636E+09
        -0.17030E+09
        -0.18410E+09
        -0.17823E+09
        -0.17673E+09
        -0.16614E+09
        -0.11907E+09
        -0.59719E+08
        -0.56699E+08
        -0.14021E+09
        -0.87490E+08
        -0.81769E+08
        -0.22161E+08
        -0.10541E+09
        -0.48041E+08
        -0.38147E+08
        -0.13483E+09
        -0.89206E+08
        -0.13156E+09
         0.66251E+08
         0.16572E+09
         0.12643E+09
         0.24337E+08
         0.15763E+09
         0.52792E+08
        -0.19146E+08
         0.14740E+08
         0.69640E+08
         0.11606E+08
         0.45718E+08
         0.33264E+08
        -0.19988E+08
         0.20027E+08
        -0.89677E+08
         0.19166E+08
         0.69755E+07
         0.11490E+08
        -0.11995E+08
        -0.85395E+08
         0.56633E+08
         0.13396E+08
         0.38331E+08
         0.32968E+08
        -0.10006E+08
         0.46932E+08
         0.88320E+08
         0.14387E+09
         0.16055E+09
         0.15016E+09
         0.81338E+08
        -0.19638E+08
        -0.45216E+08
        -0.72563E+08
        -0.99864E+08
        -0.15458E+09
        -0.11821E+09
        -0.77296E+08
        -0.95510E+08
        -0.11223E+09
        -0.10191E+09
        -0.62248E+07
         0.32201E+08
        -0.45912E+08
         0.10242E+09
         0.13281E+09
         0.16176E+09
         0.18164E+09
         0.18467E+09
         0.17941E+09
         0.17628E+09
         0.16383E+09
         0.10481E+09
         0.35446E+08
         0.16651E+08
         0.15529E+08
        -0.52835E+07
        -0.50854E+08
        -0.98422E+08
        -0.12574E+09
        -0.16925E+09
        -0.18300E+09
        -0.17713E+09
        -0.17559E+09
        -0.16513E+09
        -0.11830E+09
        -0.59336E+08
        -0.56313E+08
        -0.72881E+08
        -0.46621E+08
        -0.44008E+08
        -0.13224E+08
        -0.47407E+08
        -0.23804E+08
        -0.19371E+08
        -0.63370E+08
        -0.49848E+08
        -0.61946E+08
         0.30280E+08
         0.96894E+08
         0.66510E+08
         0.10624E+08
         0.94618E+08
         0.29638E+08
        -0.10556E+08
         0.92226E+07
         0.36439E+08
         0.58964E+07
         0.25941E+08
         0.17947E+08
        -0.10938E+08
         0.11028E+08
        -0.43844E+08
         0.11083E+08
         0.31048E+07
         0.53832E+07
        -0.55451E+07
        -0.40401E+08
         0.31996E+08
         0.74412E+07
         0.22681E+08
         0.18788E+08
        -0.47886E+07
         0.21763E+08
         0.39729E+08
         0.78875E+08
         0.76170E+08
         0.67580E+08
         0.45304E+08
        -0.10584E+08
        -0.25282E+08
        -0.36459E+08
        -0.45681E+08
        -0.78673E+08
        -0.53077E+08
        -0.37470E+08
        -0.48131E+08
        -0.53997E+08
        -0.49105E+08
        -0.28975E+07
         0.25484E+08
        -0.37058E+08
         0.83526E+08
         0.10932E+09
         0.13459E+09
         0.15228E+09
         0.15258E+09
         0.14285E+09
         0.13848E+09
         0.13063E+09
         0.83952E+08
         0.28890E+08
         0.13182E+08
         0.12347E+08
        -0.42933E+07
        -0.42256E+08
        -0.82442E+08
        -0.10540E+09
        -0.13658E+09
        -0.14898E+09
        -0.14317E+09
        -0.14109E+09
        -0.13383E+09
        -0.95237E+08
        -0.48413E+08
        -0.45781E+08
  
SCALARS                      stress_xz  double 1
LOOKUP_TABLE default
         0.45299E+05
        -0.31961E+06
        -0.10548E+07
         0.72429E+05
        -0.22999E+01
         0.81548E+00
         0.27268E+01
         0.54459E+00
        -0.29688E+07
        -0.19832E+07
         0.81560E+01
         0.73465E+01
         0.12666E+06
        -0.51685E+06
        -0.10059E+01
        -0.47122E+01
        -0.10590E+06
        -0.49599E+06
        -0.34038E+01
        -0.50694E+01
        -0.72725E+06
        -0.12259E+07
        -0.11602E+07
        -0.33851E+01
        -0.15610E+01
         0.27271E+01
        -0.12949E+07
        -0.10521E+07
        -0.63365E+01
        -0.50265E+01
         0.24780E+06
        -0.55076E+06
         0.52653E+05
         0.64514E+00
        -0.24931E+01
        -0.15359E+01
         0.73543E+06
         0.35473E+06
        -0.37014E+01
        -0.39410E+01
         0.14663E+07
         0.20787E+07
        -0.83493E+01
        -0.61572E+01
         0.15681E+07
         0.83493E+06
        -0.91690E+01
        -0.44132E+01
        -0.45078E+06
        -0.27702E+01
         0.10718E+07
        -0.77112E+00
        -0.47056E+06
        -0.54130E+01
         0.35159E+06
        -0.14319E+01
         0.15383E+07
         0.42171E+06
        -0.12266E+01
        -0.29649E+01
        -0.26460E+05
         0.73012E+06
         0.24533E+01
         0.16824E+01
        -0.18956E+06
        -0.24677E+00
        -0.63469E+06
         0.16232E+01
        -0.41785E+07
        -0.28636E+07
         0.10145E+02
         0.73580E+01
        -0.18420E+07
         0.53576E+01
         0.43499E+06
        -0.37061E+01
         0.13614E+07
        -0.72738E+00
         0.28859E+07
        -0.11285E+01
         0.38173E+07
         0.27098E+07
        -0.41357E+01
        -0.47298E+01
         0.23922E+07
        -0.50867E+01
         0.19016E+07
        -0.73236E+01
         0.11845E+07
        -0.46711E+01
         0.18651E+07
         0.13718E+07
        -0.19936E+01
         0.27340E+01
        -0.31355E+06
         0.32069E+01
        -0.86061E+06
         0.13465E+01
        -0.20666E+07
         0.33251E+01
        -0.30550E+07
        -0.20964E+07
         0.76669E+01
         0.80004E+01
        -0.74860E+07
        -0.82870E+07
         0.14167E+02
         0.13961E+02
        -0.74146E+07
         0.12102E+02
        -0.67557E+07
         0.90443E+01
        -0.48481E+07
         0.49703E+01
        -0.35248E+07
         0.53149E+00
        -0.13087E+07
        -0.18930E+01
         0.16868E+07
        -0.15145E+01
         0.40256E+07
        -0.14886E+01
         0.59814E+07
        -0.33569E+01
         0.80422E+07
        -0.63865E+01
         0.97649E+07
        -0.76211E+01
         0.10372E+08
        -0.71907E+01
         0.98742E+07
        -0.78193E+01
         0.90454E+07
        -0.10148E+02
         0.81328E+07
        -0.11967E+02
         0.71731E+07
        -0.11124E+02
         0.57082E+07
        -0.90409E+01
         0.33510E+07
        -0.42681E+01
         0.28732E+06
         0.81500E+00
        -0.18738E+07
         0.19787E+01
        -0.29323E+07
         0.32356E+01
        -0.44112E+07
         0.63323E+01
        -0.58161E+07
         0.10391E+02
        -0.76430E+07
         0.12484E+02
        -0.87788E+07
         0.12769E+02
        -0.83793E+06
         0.43647E+06
         0.51202E+06
        -0.10304E+07
         0.39929E+07
         0.30871E+07
         0.46638E+06
        -0.68488E+06
        -0.35306E+06
        -0.62852E+06
         0.34529E+06
         0.14951E+07
         0.31223E+07
        -0.99879E+06
        -0.12017E+07
         0.13713E+07
         0.11508E+07
        -0.53346E+06
        -0.83064E+06
        -0.89339E+06
        -0.48847E+07
        -0.52001E+07
        -0.46979E+07
        -0.14600E+07
         0.58522E+06
        -0.43611E+06
        -0.14016E+07
        -0.15716E+06
        -0.16085E+07
        -0.11055E+07
         0.12243E+07
         0.24041E+06
        -0.57693E+06
        -0.18662E+06
         0.59087E+07
         0.37635E+07
         0.34054E+07
        -0.23842E+07
        -0.13582E+07
        -0.29061E+07
        -0.59809E+07
        -0.55719E+07
        -0.54986E+07
        -0.40423E+07
        -0.29004E+07
        -0.22700E+07
         0.42619E+06
         0.17793E+07
         0.51457E+06
         0.16318E+07
         0.43602E+07
         0.36711E+07
         0.17261E+08
         0.18116E+08
         0.16193E+08
         0.13775E+08
         0.10257E+08
         0.52247E+07
        -0.31003E+06
        -0.37225E+07
        -0.56719E+07
        -0.97374E+07
        -0.15873E+08
        -0.19311E+08
        -0.17689E+08
        -0.16965E+08
        -0.17919E+08
        -0.17912E+08
        -0.16272E+08
        -0.14249E+08
        -0.72210E+07
         0.11414E+07
         0.43864E+07
         0.48899E+07
         0.82804E+07
         0.13225E+08
         0.17153E+08
         0.18027E+08
        -0.46970E+08
         0.96419E+07
        -0.18356E+08
        -0.53447E+08
         0.10963E+09
         0.93689E+08
         0.27297E+08
        -0.59589E+08
        -0.27380E+08
        -0.56651E+08
        -0.11444E+08
         0.25175E+08
         0.10762E+09
        -0.10534E+09
        -0.62965E+08
         0.92278E+08
         0.51371E+08
        -0.30769E+08
        -0.20707E+08
        -0.36364E+08
        -0.16350E+09
        -0.16561E+09
        -0.16761E+09
        -0.49080E+08
         0.27877E+08
         0.18770E+08
        -0.10179E+09
         0.13516E+08
        -0.34066E+08
        -0.46456E+08
         0.70896E+08
         0.45876E+08
        -0.45982E+08
        -0.39685E+08
         0.16801E+09
         0.10791E+09
         0.12378E+09
        -0.84742E+08
        -0.18230E+08
        -0.56621E+08
        -0.14874E+09
        -0.16800E+09
        -0.16318E+09
        -0.15075E+09
        -0.12081E+09
        -0.56072E+08
         0.76395E+08
         0.90188E+08
        -0.11922E+08
         0.14354E+08
         0.13083E+09
         0.12961E+09
         0.18092E+09
         0.17839E+09
         0.15373E+09
         0.12765E+09
         0.89797E+08
         0.38739E+08
        -0.99902E+07
        -0.36068E+08
        -0.48660E+08
        -0.83785E+08
        -0.15161E+09
        -0.18113E+09
        -0.18110E+09
        -0.18058E+09
        -0.18235E+09
        -0.17624E+09
        -0.15545E+09
        -0.13557E+09
        -0.71592E+08
         0.18155E+08
         0.44233E+08
         0.47012E+08
         0.78760E+08
         0.13925E+09
         0.17359E+09
         0.17440E+09
        -0.47059E+08
         0.96777E+07
        -0.18391E+08
        -0.53483E+08
         0.10953E+09
         0.93603E+08
         0.27470E+08
        -0.59438E+08
        -0.27410E+08
        -0.56606E+08
        -0.11213E+08
         0.25237E+08
         0.10764E+09
        -0.10508E+09
        -0.62870E+08
         0.92374E+08
         0.51484E+08
        -0.30684E+08
        -0.20697E+08
        -0.36300E+08
        -0.16347E+09
        -0.16560E+09
        -0.16761E+09
        -0.49082E+08
         0.27940E+08
         0.18801E+08
        -0.10182E+09
         0.13262E+08
        -0.34306E+08
        -0.46486E+08
         0.71000E+08
         0.45870E+08
        -0.45790E+08
        -0.39703E+08
         0.16802E+09
         0.10786E+09
         0.12374E+09
        -0.84752E+08
        -0.18365E+08
        -0.56724E+08
        -0.14874E+09
        -0.16801E+09
        -0.16317E+09
        -0.15073E+09
        -0.12077E+09
        -0.56046E+08
         0.76380E+08
         0.90218E+08
        -0.11835E+08
         0.14305E+08
         0.13081E+09
         0.12942E+09
         0.18092E+09
         0.17838E+09
         0.15371E+09
         0.12765E+09
         0.89783E+08
         0.38739E+08
        -0.10005E+08
        -0.36099E+08
        -0.48630E+08
        -0.83775E+08
        -0.15161E+09
        -0.18113E+09
        -0.18110E+09
        -0.18057E+09
        -0.18236E+09
        -0.17624E+09
        -0.15544E+09
        -0.13557E+09
        -0.71576E+08
         0.18164E+08
         0.44205E+08
         0.46996E+08
         0.78726E+08
         0.13925E+09
         0.17359E+09
         0.17441E+09
        -0.47148E+08
         0.97129E+07
        -0.18425E+08
        -0.53518E+08
         0.10942E+09
         0.93518E+08
         0.27644E+08
        -0.59287E+08
        -0.27438E+08
        -0.56558E+08
        -0.10982E+08
         0.25299E+08
         0.10767E+09
        -0.10482E+09
        -0.62776E+08
         0.92472E+08
         0.51599E+08
        -0.30598E+08
        -0.20686E+08
        -0.36239E+08
        -0.16344E+09
        -0.16559E+09
        -0.16761E+09
        -0.49085E+08
         0.28007E+08
         0.18835E+08
        -0.10185E+09
         0.13011E+08
        -0.34547E+08
        -0.46515E+08
         0.71106E+08
         0.45866E+08
        -0.45598E+08
        -0.39720E+08
         0.16803E+09
         0.10782E+09
         0.12370E+09
        -0.84762E+08
        -0.18499E+08
        -0.56828E+08
        -0.14874E+09
        -0.16803E+09
        -0.16316E+09
        -0.15071E+09
        -0.12072E+09
        -0.56020E+08
         0.76366E+08
         0.90248E+08
        -0.11746E+08
         0.14255E+08
         0.13080E+09
         0.12923E+09
         0.18092E+09
         0.17838E+09
         0.15370E+09
         0.12765E+09
         0.89769E+08
         0.38740E+08
        -0.10021E+08
        -0.36131E+08
        -0.48601E+08
        -0.83765E+08
        -0.15161E+09
        -0.18112E+09
        -0.18110E+09
        -0.18057E+09
        -0.18236E+09
        -0.17624E+09
        -0.15543E+09
        -0.13557E+09
        -0.71560E+08
         0.18174E+08
         0.44177E+08
         0.46981E+08
         0.78693E+08
         0.13925E+09
         0.17360E+09
         0.17441E+09
        -0.47237E+08
         0.97493E+07
        -0.18459E+08
        -0.53554E+08
         0.10931E+09
         0.93432E+08
         0.27817E+08
        -0.59136E+08
        -0.27463E+08
        -0.56502E+08
        -0.10751E+08
         0.25362E+08
         0.10769E+09
        -0.10456E+09
        -0.62680E+08
         0.92579E+08
         0.51719E+08
        -0.30511E+08
        -0.20677E+08
        -0.36174E+08
        -0.16341E+09
        -0.16559E+09
        -0.16761E+09
        -0.49088E+08
         0.28086E+08
         0.18877E+08
        -0.10188E+09
         0.12768E+08
        -0.34787E+08
        -0.46542E+08
         0.71220E+08
         0.45871E+08
        -0.45404E+08
        -0.39738E+08
         0.16804E+09
         0.10777E+09
         0.12366E+09
        -0.84771E+08
        -0.18632E+08
        -0.56926E+08
        -0.14873E+09
        -0.16805E+09
        -0.16315E+09
        -0.15068E+09
        -0.12068E+09
        -0.55991E+08
         0.76355E+08
         0.90279E+08
        -0.11656E+08
         0.14204E+08
         0.13078E+09
         0.12904E+09
         0.18092E+09
         0.17837E+09
         0.15369E+09
         0.12765E+09
         0.89755E+08
         0.38740E+08
        -0.10036E+08
        -0.36162E+08
        -0.48571E+08
        -0.83755E+08
        -0.15161E+09
        -0.18112E+09
        -0.18110E+09
        -0.18057E+09
        -0.18236E+09
        -0.17624E+09
        -0.15542E+09
        -0.13557E+09
        -0.71543E+08
         0.18183E+08
         0.44149E+08
         0.46965E+08
         0.78660E+08
         0.13925E+09
         0.17360E+09
         0.17442E+09
        -0.47325E+08
         0.97858E+07
        -0.18493E+08
        -0.53589E+08
         0.10921E+09
         0.93346E+08
         0.27991E+08
        -0.58983E+08
        -0.27484E+08
        -0.56438E+08
        -0.10520E+08
         0.25424E+08
         0.10772E+09
        -0.10430E+09
        -0.62585E+08
         0.92694E+08
         0.51844E+08
        -0.30425E+08
        -0.20666E+08
        -0.36109E+08
        -0.16338E+09
        -0.16558E+09
        -0.16761E+09
        -0.49091E+08
         0.28179E+08
         0.18925E+08
        -0.10190E+09
         0.12532E+08
        -0.35026E+08
        -0.46568E+08
         0.71342E+08
         0.45882E+08
        -0.45210E+08
        -0.39756E+08
         0.16806E+09
         0.10772E+09
         0.12363E+09
        -0.84779E+08
        -0.18763E+08
        -0.57022E+08
        -0.14872E+09
        -0.16807E+09
        -0.16315E+09
        -0.15064E+09
        -0.12063E+09
        -0.55956E+08
         0.76346E+08
         0.90313E+08
        -0.11567E+08
         0.14154E+08
         0.13077E+09
         0.12884E+09
         0.18092E+09
         0.17836E+09
         0.15367E+09
         0.12765E+09
         0.89741E+08
         0.38740E+08
        -0.10051E+08
        -0.36193E+08
        -0.48541E+08
        -0.83745E+08
        -0.15161E+09
        -0.18112E+09
        -0.18110E+09
        -0.18056E+09
        -0.18237E+09
        -0.17624E+09
        -0.15540E+09
        -0.13556E+09
        -0.71527E+08
         0.18192E+08
         0.44121E+08
         0.46949E+08
         0.78627E+08
         0.13925E+09
         0.17360E+09
         0.17443E+09
        -0.47410E+08
         0.98253E+07
        -0.18524E+08
        -0.53623E+08
         0.10910E+09
         0.93259E+08
         0.28166E+08
        -0.58827E+08
        -0.27504E+08
        -0.56371E+08
        -0.10289E+08
         0.25486E+08
         0.10774E+09
        -0.10404E+09
        -0.62491E+08
         0.92811E+08
         0.51970E+08
        -0.30338E+08
        -0.20654E+08
        -0.36047E+08
        -0.16335E+09
        -0.16557E+09
        -0.16760E+09
        -0.49095E+08
         0.28271E+08
         0.18974E+08
        -0.10192E+09
         0.12298E+08
        -0.35267E+08
        -0.46598E+08
         0.71464E+08
         0.45892E+08
        -0.45014E+08
        -0.39772E+08
         0.16807E+09
         0.10768E+09
         0.12359E+09
        -0.84786E+08
        -0.18892E+08
        -0.57115E+08
        -0.14872E+09
        -0.16809E+09
        -0.16315E+09
        -0.15059E+09
        -0.12058E+09
        -0.55923E+08
         0.76336E+08
         0.90346E+08
        -0.11476E+08
         0.14108E+08
         0.13076E+09
         0.12866E+09
         0.18092E+09
         0.17836E+09
         0.15366E+09
         0.12765E+09
         0.89727E+08
         0.38741E+08
        -0.10066E+08
        -0.36224E+08
        -0.48512E+08
        -0.83735E+08
        -0.15161E+09
        -0.18111E+09
        -0.18110E+09
        -0.18056E+09
        -0.18237E+09
        -0.17624E+09
        -0.15539E+09
        -0.13556E+09
        -0.71510E+08
         0.18200E+08
         0.44092E+08
         0.46934E+08
         0.78595E+08
         0.13925E+09
         0.17361E+09
         0.17444E+09
        -0.47488E+08
         0.98727E+07
        -0.18547E+08
        -0.53656E+08
         0.10900E+09
         0.93175E+08
         0.28343E+08
        -0.58669E+08
        -0.27526E+08
        -0.56309E+08
        -0.10056E+08
         0.25548E+08
         0.10776E+09
        -0.10378E+09
        -0.62394E+08
         0.92928E+08
         0.52090E+08
        -0.30250E+08
        -0.20645E+08
        -0.35986E+08
        -0.16332E+09
        -0.16557E+09
        -0.16760E+09
        -0.49101E+08
         0.28352E+08
         0.19017E+08
        -0.10194E+09
         0.12059E+08
        -0.35510E+08
        -0.46632E+08
         0.71578E+08
         0.45894E+08
        -0.44813E+08
        -0.39783E+08
         0.16808E+09
         0.10764E+09
         0.12356E+09
        -0.84792E+08
        -0.19022E+08
        -0.57212E+08
        -0.14871E+09
        -0.16811E+09
        -0.16315E+09
        -0.15055E+09
        -0.12055E+09
        -0.55891E+08
         0.76318E+08
         0.90376E+08
        -0.11377E+08
         0.14073E+08
         0.13075E+09
         0.12847E+09
         0.18091E+09
         0.17835E+09
         0.15365E+09
         0.12765E+09
         0.89713E+08
         0.38741E+08
        -0.10081E+08
        -0.36255E+08
        -0.48482E+08
        -0.83726E+08
        -0.15161E+09
        -0.18111E+09
        -0.18110E+09
        -0.18056E+09
        -0.18238E+09
        -0.17624E+09
        -0.15538E+09
        -0.13555E+09
        -0.71494E+08
         0.18208E+08
         0.44062E+08
         0.46918E+08
         0.78563E+08
         0.13925E+09
         0.17361E+09
         0.17444E+09
        -0.47562E+08
         0.99226E+07
        -0.18567E+08
        -0.53688E+08
         0.10890E+09
         0.93089E+08
         0.28523E+08
        -0.58508E+08
        -0.27548E+08
        -0.56249E+08
        -0.98235E+07
         0.25609E+08
         0.10778E+09
        -0.10352E+09
        -0.62298E+08
         0.93044E+08
         0.52208E+08
        -0.30162E+08
        -0.20634E+08
        -0.35928E+08
        -0.16329E+09
        -0.16556E+09
        -0.16760E+09
        -0.49106E+08
         0.28428E+08
         0.19058E+08
        -0.10196E+09
         0.11818E+08
        -0.35757E+08
        -0.46670E+08
         0.71690E+08
         0.45891E+08
        -0.44610E+08
        -0.39793E+08
         0.16810E+09
         0.10760E+09
         0.12353E+09
        -0.84796E+08
        -0.19152E+08
        -0.57306E+08
        -0.14870E+09
        -0.16813E+09
        -0.16315E+09
        -0.15051E+09
        -0.12051E+09
        -0.55861E+08
         0.76298E+08
         0.90404E+08
        -0.11274E+08
         0.14042E+08
         0.13074E+09
         0.12829E+09
         0.18091E+09
         0.17834E+09
         0.15363E+09
         0.12764E+09
         0.89699E+08
         0.38741E+08
        -0.10096E+08
        -0.36287E+08
        -0.48452E+08
        -0.83716E+08
        -0.15160E+09
        -0.18111E+09
        -0.18110E+09
        -0.18056E+09
        -0.18238E+09
        -0.17624E+09
        -0.15536E+09
        -0.13555E+09
        -0.71477E+08
         0.18214E+08
         0.44031E+08
         0.46902E+08
         0.78533E+08
         0.13925E+09
         0.17361E+09
         0.17445E+09
        -0.47637E+08
         0.99730E+07
        -0.18587E+08
        -0.53721E+08
         0.10879E+09
         0.93002E+08
         0.28702E+08
        -0.58348E+08
        -0.27571E+08
        -0.56189E+08
        -0.95914E+07
         0.25671E+08
         0.10780E+09
        -0.10326E+09
        -0.62202E+08
         0.93160E+08
         0.52326E+08
        -0.30075E+08
        -0.20623E+08
        -0.35869E+08
        -0.16327E+09
        -0.16556E+09
        -0.16760E+09
        -0.49112E+08
         0.28504E+08
         0.19098E+08
        -0.10199E+09
         0.11577E+08
        -0.36003E+08
        -0.46707E+08
         0.71802E+08
         0.45888E+08
        -0.44408E+08
        -0.39802E+08
         0.16811E+09
         0.10756E+09
         0.12350E+09
        -0.84799E+08
        -0.19281E+08
        -0.57401E+08
        -0.14869E+09
        -0.16815E+09
        -0.16314E+09
        -0.15047E+09
        -0.12048E+09
        -0.55832E+08
         0.76279E+08
         0.90433E+08
        -0.11172E+08
         0.14012E+08
         0.13073E+09
         0.12810E+09
         0.18091E+09
         0.17834E+09
         0.15362E+09
         0.12764E+09
         0.89685E+08
         0.38741E+08
        -0.10111E+08
        -0.36317E+08
        -0.48423E+08
        -0.83707E+08
        -0.15160E+09
        -0.18110E+09
        -0.18110E+09
        -0.18055E+09
        -0.18238E+09
        -0.17624E+09
        -0.15535E+09
        -0.13554E+09
        -0.71461E+08
         0.18221E+08
         0.44000E+08
         0.46885E+08
         0.78502E+08
         0.13925E+09
         0.17362E+09
         0.17446E+09
        -0.47711E+08
         0.10024E+08
        -0.18607E+08
        -0.53754E+08
         0.10869E+09
         0.92916E+08
         0.28881E+08
        -0.58188E+08
        -0.27594E+08
        -0.56130E+08
        -0.93592E+07
         0.25732E+08
         0.10782E+09
        -0.10300E+09
        -0.62106E+08
         0.93276E+08
         0.52443E+08
        -0.29988E+08
        -0.20612E+08
        -0.35811E+08
        -0.16324E+09
        -0.16555E+09
        -0.16759E+09
        -0.49119E+08
         0.28580E+08
         0.19138E+08
        -0.10201E+09
         0.11338E+08
        -0.36248E+08
        -0.46743E+08
         0.71913E+08
         0.45885E+08
        -0.44206E+08
        -0.39812E+08
         0.16812E+09
         0.10753E+09
         0.12347E+09
        -0.84803E+08
        -0.19410E+08
        -0.57497E+08
        -0.14868E+09
        -0.16817E+09
        -0.16314E+09
        -0.15043E+09
        -0.12044E+09
        -0.55801E+08
         0.76259E+08
         0.90462E+08
        -0.11070E+08
         0.13981E+08
         0.13072E+09
         0.12792E+09
         0.18091E+09
         0.17833E+09
         0.15361E+09
         0.12764E+09
         0.89670E+08
         0.38741E+08
        -0.10126E+08
        -0.36348E+08
        -0.48393E+08
        -0.83698E+08
        -0.15160E+09
        -0.18110E+09
        -0.18110E+09
        -0.18055E+09
        -0.18239E+09
        -0.17624E+09
        -0.15533E+09
        -0.13554E+09
        -0.71444E+08
         0.18228E+08
         0.43969E+08
         0.46869E+08
         0.78471E+08
         0.13925E+09
         0.17362E+09
         0.17447E+09
        -0.47786E+08
         0.10075E+08
        -0.18627E+08
        -0.53785E+08
         0.10859E+09
         0.92832E+08
         0.29059E+08
        -0.58027E+08
        -0.27616E+08
        -0.56071E+08
        -0.91267E+07
         0.25794E+08
         0.10784E+09
        -0.10275E+09
        -0.62009E+08
         0.93391E+08
         0.52561E+08
        -0.29902E+08
        -0.20603E+08
        -0.35751E+08
        -0.16321E+09
        -0.16555E+09
        -0.16759E+09
        -0.49126E+08
         0.28655E+08
         0.19178E+08
        -0.10203E+09
         0.11099E+08
        -0.36493E+08
        -0.46779E+08
         0.72024E+08
         0.45881E+08
        -0.44004E+08
        -0.39822E+08
         0.16813E+09
         0.10749E+09
         0.12344E+09
        -0.84806E+08
        -0.19538E+08
        -0.57592E+08
        -0.14867E+09
        -0.16819E+09
        -0.16314E+09
        -0.15039E+09
        -0.12040E+09
        -0.55772E+08
         0.76239E+08
         0.90491E+08
        -0.10968E+08
         0.13950E+08
         0.13072E+09
         0.12773E+09
         0.18091E+09
         0.17832E+09
         0.15360E+09
         0.12764E+09
         0.89656E+08
         0.38742E+08
        -0.10141E+08
        -0.36379E+08
        -0.48363E+08
        -0.83688E+08
        -0.15160E+09
        -0.18110E+09
        -0.18110E+09
        -0.18055E+09
        -0.18239E+09
        -0.17624E+09
        -0.15532E+09
        -0.13553E+09
        -0.71428E+08
         0.18235E+08
         0.43938E+08
         0.46853E+08
         0.78440E+08
         0.13925E+09
         0.17363E+09
         0.17448E+09
        -0.47860E+08
         0.10125E+08
        -0.18646E+08
        -0.53817E+08
         0.10849E+09
         0.92746E+08
         0.29239E+08
        -0.57867E+08
        -0.27639E+08
        -0.56011E+08
        -0.88948E+07
         0.25856E+08
         0.10787E+09
        -0.10249E+09
        -0.61914E+08
         0.93507E+08
         0.52678E+08
        -0.29814E+08
        -0.20592E+08
        -0.35694E+08
        -0.16318E+09
        -0.16554E+09
        -0.16759E+09
        -0.49133E+08
         0.28729E+08
         0.19219E+08
        -0.10206E+09
         0.10861E+08
        -0.36736E+08
        -0.46817E+08
         0.72136E+08
         0.45878E+08
        -0.43800E+08
        -0.39831E+08
         0.16815E+09
         0.10746E+09
         0.12341E+09
        -0.84809E+08
        -0.19667E+08
        -0.57688E+08
        -0.14866E+09
        -0.16821E+09
        -0.16314E+09
        -0.15035E+09
        -0.12037E+09
        -0.55743E+08
         0.76219E+08
         0.90520E+08
        -0.10865E+08
         0.13920E+08
         0.13071E+09
         0.12755E+09
         0.18091E+09
         0.17832E+09
         0.15358E+09
         0.12764E+09
         0.89642E+08
         0.38742E+08
        -0.10156E+08
        -0.36410E+08
        -0.48333E+08
        -0.83679E+08
        -0.15160E+09
        -0.18109E+09
        -0.18109E+09
        -0.18054E+09
        -0.18239E+09
        -0.17624E+09
        -0.15531E+09
        -0.13552E+09
        -0.71412E+08
         0.18241E+08
         0.43907E+08
         0.46837E+08
         0.78409E+08
         0.13924E+09
         0.17363E+09
         0.17448E+09
        -0.47935E+08
         0.10176E+08
        -0.18666E+08
        -0.53849E+08
         0.10839E+09
         0.92660E+08
         0.29417E+08
        -0.57707E+08
        -0.27661E+08
        -0.55951E+08
        -0.86635E+07
         0.25918E+08
         0.10789E+09
        -0.10223E+09
        -0.61817E+08
         0.93622E+08
         0.52796E+08
        -0.29727E+08
        -0.20582E+08
        -0.35634E+08
        -0.16315E+09
        -0.16554E+09
        -0.16759E+09
        -0.49141E+08
         0.28803E+08
         0.19259E+08
        -0.10208E+09
         0.10622E+08
        -0.36980E+08
        -0.46853E+08
         0.72247E+08
         0.45875E+08
        -0.43597E+08
        -0.39841E+08
         0.16816E+09
         0.10742E+09
         0.12338E+09
        -0.84812E+08
        -0.19795E+08
        -0.57782E+08
        -0.14865E+09
        -0.16823E+09
        -0.16314E+09
        -0.15031E+09
        -0.12034E+09
        -0.55712E+08
         0.76199E+08
         0.90549E+08
        -0.10762E+08
         0.13889E+08
         0.13070E+09
         0.12736E+09
         0.18091E+09
         0.17831E+09
         0.15357E+09
         0.12764E+09
         0.89628E+08
         0.38743E+08
        -0.10171E+08
        -0.36441E+08
        -0.48303E+08
        -0.83670E+08
        -0.15159E+09
        -0.18109E+09
        -0.18109E+09
        -0.18054E+09
        -0.18240E+09
        -0.17624E+09
        -0.15529E+09
        -0.13552E+09
        -0.71395E+08
         0.18248E+08
         0.43876E+08
         0.46821E+08
         0.78378E+08
         0.13924E+09
         0.17363E+09
         0.17449E+09
        -0.48009E+08
         0.10226E+08
        -0.18685E+08
        -0.53881E+08
         0.10829E+09
         0.92573E+08
         0.29594E+08
        -0.57546E+08
        -0.27683E+08
        -0.55890E+08
        -0.84327E+07
         0.25979E+08
         0.10791E+09
        -0.10197E+09
        -0.61721E+08
         0.93737E+08
         0.52913E+08
        -0.29640E+08
        -0.20574E+08
        -0.35577E+08
        -0.16312E+09
        -0.16553E+09
        -0.16758E+09
        -0.49148E+08
         0.28876E+08
         0.19299E+08
        -0.10210E+09
         0.10385E+08
        -0.37225E+08
        -0.46889E+08
         0.72358E+08
         0.45871E+08
        -0.43394E+08
        -0.39850E+08
         0.16817E+09
         0.10739E+09
         0.12335E+09
        -0.84812E+08
        -0.19922E+08
        -0.57879E+08
        -0.14864E+09
        -0.16825E+09
        -0.16314E+09
        -0.15027E+09
        -0.12030E+09
        -0.55682E+08
         0.76179E+08
         0.90577E+08
        -0.10659E+08
         0.13858E+08
         0.13069E+09
         0.12718E+09
         0.18090E+09
         0.17830E+09
         0.15356E+09
         0.12764E+09
         0.89614E+08
         0.38743E+08
        -0.10186E+08
        -0.36471E+08
        -0.48274E+08
        -0.83661E+08
        -0.15159E+09
        -0.18108E+09
        -0.18109E+09
        -0.18054E+09
        -0.18240E+09
        -0.17624E+09
        -0.15528E+09
        -0.13551E+09
        -0.71379E+08
         0.18254E+08
         0.43845E+08
         0.46805E+08
         0.78348E+08
         0.13924E+09
         0.17364E+09
         0.17450E+09
        -0.48084E+08
         0.10276E+08
        -0.18704E+08
        -0.53913E+08
         0.10818E+09
         0.92487E+08
         0.29772E+08
        -0.57386E+08
        -0.27705E+08
        -0.55831E+08
        -0.82019E+07
         0.26042E+08
         0.10793E+09
        -0.10172E+09
        -0.61624E+08
         0.93852E+08
         0.53030E+08
        -0.29553E+08
        -0.20563E+08
        -0.35517E+08
        -0.16309E+09
        -0.16553E+09
        -0.16758E+09
        -0.49155E+08
         0.28950E+08
         0.19339E+08
        -0.10213E+09
         0.10148E+08
        -0.37469E+08
        -0.46925E+08
         0.72468E+08
         0.45867E+08
        -0.43190E+08
        -0.39860E+08
         0.16818E+09
         0.10735E+09
         0.12332E+09
        -0.84812E+08
        -0.20049E+08
        -0.57974E+08
        -0.14863E+09
        -0.16827E+09
        -0.16314E+09
        -0.15023E+09
        -0.12026E+09
        -0.55653E+08
         0.76159E+08
         0.90606E+08
        -0.10554E+08
         0.13828E+08
         0.13068E+09
         0.12700E+09
         0.18090E+09
         0.17830E+09
         0.15354E+09
         0.12764E+09
         0.89600E+08
         0.38743E+08
        -0.10201E+08
        -0.36502E+08
        -0.48244E+08
        -0.83652E+08
        -0.15159E+09
        -0.18108E+09
        -0.18109E+09
        -0.18054E+09
        -0.18241E+09
        -0.17624E+09
        -0.15526E+09
        -0.13551E+09
        -0.71362E+08
         0.18260E+08
         0.43814E+08
         0.46789E+08
         0.78317E+08
         0.13924E+09
         0.17364E+09
         0.17451E+09
        -0.48159E+08
         0.10327E+08
        -0.18723E+08
        -0.53944E+08
         0.10808E+09
         0.92403E+08
         0.29949E+08
        -0.57225E+08
        -0.27727E+08
        -0.55771E+08
        -0.79711E+07
         0.26104E+08
         0.10795E+09
        -0.10146E+09
        -0.61528E+08
         0.93967E+08
         0.53147E+08
        -0.29467E+08
        -0.20553E+08
        -0.35459E+08
        -0.16306E+09
        -0.16552E+09
        -0.16758E+09
        -0.49162E+08
         0.29021E+08
         0.19380E+08
        -0.10215E+09
         0.99111E+07
        -0.37713E+08
        -0.46960E+08
         0.72579E+08
         0.45864E+08
        -0.42987E+08
        -0.39869E+08
         0.16820E+09
         0.10732E+09
         0.12329E+09
        -0.84813E+08
        -0.20177E+08
        -0.58070E+08
        -0.14862E+09
        -0.16829E+09
        -0.16314E+09
        -0.15019E+09
        -0.12023E+09
        -0.55622E+08
         0.76139E+08
         0.90635E+08
        -0.10451E+08
         0.13797E+08
         0.13067E+09
         0.12681E+09
         0.18090E+09
         0.17829E+09
         0.15353E+09
         0.12764E+09
         0.89586E+08
         0.38743E+08
        -0.10215E+08
        -0.36532E+08
        -0.48214E+08
        -0.83643E+08
        -0.15159E+09
        -0.18108E+09
        -0.18109E+09
        -0.18053E+09
        -0.18241E+09
        -0.17624E+09
        -0.15525E+09
        -0.13550E+09
        -0.71346E+08
         0.18267E+08
         0.43783E+08
         0.46773E+08
         0.78286E+08
         0.13924E+09
         0.17364E+09
         0.17452E+09
        -0.48233E+08
         0.10377E+08
        -0.18743E+08
        -0.53975E+08
         0.10798E+09
         0.92317E+08
         0.30127E+08
        -0.57065E+08
        -0.27748E+08
        -0.55708E+08
        -0.77404E+07
         0.26166E+08
         0.10797E+09
        -0.10120E+09
        -0.61431E+08
         0.94083E+08
         0.53264E+08
        -0.29381E+08
        -0.20544E+08
        -0.35400E+08
        -0.16303E+09
        -0.16552E+09
        -0.16758E+09
        -0.49170E+08
         0.29092E+08
         0.19419E+08
        -0.10217E+09
         0.96720E+07
        -0.37954E+08
        -0.46995E+08
         0.72691E+08
         0.45861E+08
        -0.42784E+08
        -0.39880E+08
         0.16821E+09
         0.10728E+09
         0.12326E+09
        -0.84811E+08
        -0.20305E+08
        -0.58167E+08
        -0.14861E+09
        -0.16831E+09
        -0.16314E+09
        -0.15014E+09
        -0.12019E+09
        -0.55593E+08
         0.76119E+08
         0.90664E+08
        -0.10348E+08
         0.13766E+08
         0.13066E+09
         0.12663E+09
         0.18090E+09
         0.17828E+09
         0.15352E+09
         0.12764E+09
         0.89571E+08
         0.38744E+08
        -0.10230E+08
        -0.36562E+08
        -0.48184E+08
        -0.83634E+08
        -0.15159E+09
        -0.18107E+09
        -0.18109E+09
        -0.18053E+09
        -0.18241E+09
        -0.17624E+09
        -0.15524E+09
        -0.13550E+09
        -0.71329E+08
         0.18273E+08
         0.43752E+08
         0.46757E+08
         0.78255E+08
         0.13924E+09
         0.17365E+09
         0.17452E+09
        -0.48308E+08
         0.10427E+08
        -0.18762E+08
        -0.54006E+08
         0.10788E+09
         0.92231E+08
         0.30303E+08
        -0.56904E+08
        -0.27767E+08
        -0.55639E+08
        -0.75100E+07
         0.26228E+08
         0.10799E+09
        -0.10094E+09
        -0.61335E+08
         0.94198E+08
         0.53381E+08
        -0.29295E+08
        -0.20537E+08
        -0.35343E+08
        -0.16300E+09
        -0.16552E+09
        -0.16757E+09
        -0.49177E+08
         0.29158E+08
         0.19461E+08
        -0.10218E+09
         0.94269E+07
        -0.38197E+08
        -0.47033E+08
         0.72802E+08
         0.45857E+08
        -0.42580E+08
        -0.39890E+08
         0.16822E+09
         0.10725E+09
         0.12323E+09
        -0.84807E+08
        -0.20438E+08
        -0.58264E+08
        -0.14860E+09
        -0.16833E+09
        -0.16313E+09
        -0.15010E+09
        -0.12016E+09
        -0.55562E+08
         0.76099E+08
         0.90694E+08
        -0.10245E+08
         0.13735E+08
         0.13065E+09
         0.12644E+09
         0.18090E+09
         0.17828E+09
         0.15351E+09
         0.12764E+09
         0.89557E+08
         0.38744E+08
        -0.10244E+08
        -0.36593E+08
        -0.48155E+08
        -0.83626E+08
        -0.15158E+09
        -0.18107E+09
        -0.18109E+09
        -0.18053E+09
        -0.18242E+09
        -0.17624E+09
        -0.15522E+09
        -0.13549E+09
        -0.71313E+08
         0.18280E+08
         0.43721E+08
         0.46741E+08
         0.78225E+08
         0.13924E+09
         0.17365E+09
         0.17453E+09
        -0.48383E+08
         0.10477E+08
        -0.18780E+08
        -0.54037E+08
         0.10778E+09
         0.92145E+08
         0.30481E+08
        -0.56743E+08
        -0.27784E+08
        -0.55563E+08
        -0.72803E+07
         0.26290E+08
         0.10801E+09
        -0.10068E+09
        -0.61236E+08
         0.94313E+08
         0.53496E+08
        -0.29208E+08
        -0.20527E+08
        -0.35284E+08
        -0.16297E+09
        -0.16551E+09
        -0.16757E+09
        -0.49185E+08
         0.29218E+08
         0.19500E+08
        -0.10218E+09
         0.91743E+07
        -0.38440E+08
        -0.47069E+08
         0.72913E+08
         0.45853E+08
        -0.42376E+08
        -0.39900E+08
         0.16823E+09
         0.10721E+09
         0.12321E+09
        -0.84799E+08
        -0.20576E+08
        -0.58363E+08
        -0.14859E+09
        -0.16835E+09
        -0.16313E+09
        -0.15006E+09
        -0.12012E+09
        -0.55533E+08
         0.76079E+08
         0.90723E+08
        -0.10141E+08
         0.13704E+08
         0.13065E+09
         0.12625E+09
         0.18090E+09
         0.17827E+09
         0.15349E+09
         0.12764E+09
         0.89543E+08
         0.38745E+08
        -0.10259E+08
        -0.36623E+08
        -0.48127E+08
        -0.83617E+08
        -0.15158E+09
        -0.18107E+09
        -0.18109E+09
        -0.18052E+09
        -0.18242E+09
        -0.17624E+09
        -0.15521E+09
        -0.13549E+09
        -0.71296E+08
         0.18286E+08
         0.43690E+08
         0.46725E+08
         0.78194E+08
         0.13924E+09
         0.17365E+09
         0.17454E+09
        -0.48458E+08
         0.10527E+08
        -0.18800E+08
        -0.54069E+08
         0.10768E+09
         0.92061E+08
         0.30656E+08
        -0.56583E+08
        -0.27800E+08
        -0.55485E+08
        -0.70522E+07
         0.26350E+08
         0.10803E+09
        -0.10042E+09
        -0.61139E+08
         0.94427E+08
         0.53611E+08
        -0.29122E+08
        -0.20517E+08
        -0.35227E+08
        -0.16294E+09
        -0.16551E+09
        -0.16757E+09
        -0.49192E+08
         0.29277E+08
         0.19540E+08
        -0.10219E+09
         0.89209E+07
        -0.38681E+08
        -0.47105E+08
         0.73024E+08
         0.45850E+08
        -0.42174E+08
        -0.39910E+08
         0.16825E+09
         0.10718E+09
         0.12318E+09
        -0.84791E+08
        -0.20715E+08
        -0.58460E+08
        -0.14857E+09
        -0.16837E+09
        -0.16313E+09
        -0.15002E+09
        -0.12009E+09
        -0.55503E+08
         0.76061E+08
         0.90754E+08
        -0.10039E+08
         0.13672E+08
         0.13064E+09
         0.12607E+09
         0.18089E+09
         0.17826E+09
         0.15348E+09
         0.12764E+09
         0.89529E+08
         0.38744E+08
        -0.10273E+08
        -0.36652E+08
        -0.48098E+08
        -0.83609E+08
        -0.15157E+09
        -0.18107E+09
        -0.18109E+09
        -0.18052E+09
        -0.18242E+09
        -0.17624E+09
        -0.15519E+09
        -0.13548E+09
        -0.71279E+08
         0.18293E+08
         0.43660E+08
         0.46709E+08
         0.78164E+08
         0.13924E+09
         0.17366E+09
         0.17455E+09
        -0.48671E+08
         0.10597E+08
        -0.18875E+08
        -0.54255E+08
         0.10785E+09
         0.92224E+08
         0.30896E+08
        -0.56598E+08
        -0.27894E+08
        -0.55575E+08
        -0.68719E+07
         0.25815E+08
         0.10482E+09
        -0.10045E+09
        -0.59808E+08
         0.94805E+08
         0.53872E+08
        -0.29129E+08
        -0.20559E+08
        -0.35259E+08
        -0.15900E+09
        -0.16089E+09
        -0.16315E+09
        -0.49335E+08
         0.29410E+08
         0.19631E+08
        -0.10247E+09
         0.87074E+07
        -0.39005E+08
        -0.47263E+08
         0.73339E+08
         0.45972E+08
        -0.42111E+08
        -0.40037E+08
         0.16198E+09
         0.10742E+09
         0.12346E+09
        -0.82528E+08
        -0.20011E+08
        -0.55872E+08
        -0.14476E+09
        -0.16369E+09
        -0.15901E+09
        -0.14497E+09
        -0.12035E+09
        -0.53669E+08
         0.76238E+08
         0.91032E+08
        -0.99743E+07
         0.13677E+08
         0.12567E+09
         0.12623E+09
         0.17965E+09
         0.17714E+09
         0.15257E+09
         0.12692E+09
         0.89043E+08
         0.38543E+08
        -0.10233E+08
        -0.36424E+08
        -0.47718E+08
        -0.83033E+08
        -0.15058E+09
        -0.17998E+09
        -0.17983E+09
        -0.17928E+09
        -0.18136E+09
        -0.17531E+09
        -0.15440E+09
        -0.13480E+09
        -0.70818E+08
         0.18194E+08
         0.43366E+08
         0.46395E+08
         0.77661E+08
         0.13836E+09
         0.17263E+09
         0.17350E+09
        -0.25312E+08
         0.56649E+07
        -0.10159E+08
        -0.32212E+08
         0.48452E+08
         0.45622E+08
         0.15725E+08
        -0.26552E+08
        -0.15569E+08
        -0.26127E+08
        -0.30950E+07
         0.15099E+08
         0.55139E+08
        -0.43770E+08
        -0.35869E+08
         0.53238E+08
         0.29536E+08
        -0.18221E+08
        -0.10752E+08
        -0.17948E+08
        -0.90054E+08
        -0.86762E+08
        -0.89316E+08
        -0.27166E+08
         0.14358E+08
         0.11363E+08
        -0.45178E+08
         0.39996E+07
        -0.18193E+08
        -0.22340E+08
         0.41461E+08
         0.25560E+08
        -0.24798E+08
        -0.22795E+08
         0.78544E+08
         0.49792E+08
         0.55539E+08
        -0.45265E+08
        -0.95265E+07
        -0.25168E+08
        -0.80616E+08
        -0.88382E+08
        -0.88828E+08
        -0.72815E+08
        -0.55041E+08
        -0.27310E+08
         0.34223E+08
         0.44182E+08
        -0.49980E+07
         0.65770E+07
         0.60533E+08
         0.59622E+08
         0.14228E+09
         0.14291E+09
         0.12442E+09
         0.10448E+09
         0.74080E+08
         0.32304E+08
        -0.84671E+07
        -0.29009E+08
        -0.37469E+08
        -0.66196E+08
        -0.12061E+09
        -0.14669E+09
        -0.14244E+09
        -0.14237E+09
        -0.14833E+09
        -0.14566E+09
        -0.12931E+09
        -0.11299E+09
        -0.57136E+08
         0.14822E+08
         0.35047E+08
         0.37273E+08
         0.62930E+08
         0.11140E+09
         0.14090E+09
         0.14113E+09
  
SCALARS                      stress_xy  double 1
LOOKUP_TABLE default
        -0.41344E+00
        -0.97079E+00
        -0.83216E+01
         0.29372E+00
        -0.84204E-10
         0.82290E-11
         0.12372E-09
         0.18847E-10
        -0.87820E+02
         0.38578E+02
         0.55073E-09
         0.43673E-09
         0.32892E+01
        -0.68251E+00
         0.48611E-10
        -0.14600E-10
         0.94401E+00
         0.16505E+02
         0.24200E-11
         0.36878E-10
        -0.12566E+02
        -0.79768E+02
        -0.78416E+02
         0.37499E-09
         0.29862E-09
        -0.43608E-09
        -0.83048E+01
        -0.69453E+02
         0.50491E-09
         0.77702E-09
        -0.25245E+01
         0.48941E+01
         0.39688E+00
        -0.26650E-10
         0.10513E-09
        -0.13447E-11
        -0.22274E+02
        -0.10363E+02
         0.28137E-09
         0.23309E-09
        -0.43671E+02
        -0.39437E+02
         0.47966E-09
         0.32326E-09
        -0.42331E+02
        -0.77690E+01
        -0.17473E-10
         0.13009E-09
         0.11320E+02
         0.38447E-10
        -0.26472E+01
        -0.86680E-12
         0.69679E+00
         0.29059E-09
         0.34511E+01
         0.44716E-10
         0.49244E+02
        -0.23953E+01
         0.10392E-11
        -0.50983E-11
         0.32690E+00
        -0.32921E+02
         0.28319E-10
         0.72640E-10
         0.14139E+01
        -0.57499E-11
         0.20331E+02
         0.46074E-10
        -0.10880E+03
        -0.39497E+02
         0.35588E-10
        -0.34080E-09
        -0.88849E+02
        -0.54490E-09
         0.36461E+02
         0.36497E-09
         0.11518E+03
         0.54374E-10
         0.20111E+03
         0.70707E-10
         0.39000E+03
         0.21241E+03
         0.16623E-09
        -0.42151E-10
         0.26205E+02
        -0.50723E-11
        -0.80225E+02
        -0.45748E-09
        -0.11815E+03
        -0.51081E-09
        -0.26002E+03
        -0.11857E+03
        -0.32335E-09
         0.35892E-09
         0.19057E+02
         0.32680E-09
         0.46926E+02
         0.14038E-09
         0.10967E+03
         0.37274E-09
         0.26979E+03
         0.15384E+03
         0.79925E-09
         0.39962E-09
        -0.44376E+03
         0.18589E+03
        -0.51928E-09
         0.63593E-09
        -0.10806E+04
        -0.14758E-08
        -0.14090E+04
        -0.16133E-08
        -0.12384E+04
        -0.10949E-08
        -0.10568E+04
        -0.11614E-09
        -0.46229E+03
         0.32734E-09
         0.60937E+03
         0.20267E-09
         0.13694E+04
         0.18528E-09
         0.18106E+04
         0.39752E-09
         0.17744E+04
         0.48332E-09
         0.14536E+04
         0.19042E-09
         0.77379E+03
         0.11609E-09
        -0.52961E+02
         0.18975E-09
        -0.64319E+03
         0.12720E-09
        -0.10371E+04
        -0.45360E-09
        -0.14156E+04
        -0.11902E-08
        -0.12686E+04
        -0.15105E-08
        -0.81515E+03
        -0.93481E-09
        -0.89310E+02
         0.17835E-09
         0.60309E+03
         0.37800E-09
         0.87198E+03
         0.60241E-09
         0.10672E+04
         0.11863E-08
         0.95663E+03
         0.15393E-08
         0.89020E+03
         0.10936E-08
         0.73508E+03
         0.86490E-09
        -0.74719E+02
         0.20141E+02
         0.20624E+02
        -0.12882E+02
         0.16481E+03
         0.13547E+03
         0.21581E+01
        -0.48706E+02
        -0.21537E+02
        -0.56262E+02
        -0.16143E+02
        -0.29820E+03
        -0.42550E+03
         0.15787E+02
         0.24213E+03
        -0.32387E+02
         0.24082E+02
         0.71861E+01
         0.14611E+02
        -0.11879E+02
         0.59635E+02
         0.52347E+02
        -0.15890E+03
         0.41622E+01
         0.35766E+02
         0.39404E+01
         0.65573E+00
         0.12855E+01
         0.15965E+02
        -0.52965E+02
        -0.28226E+02
         0.60130E+01
         0.96726E+01
        -0.76212E+00
        -0.39813E+02
        -0.13749E+03
        -0.27902E+03
         0.42220E+03
         0.21976E+03
         0.39722E+03
         0.76957E+03
         0.17819E+03
        -0.14392E+03
        -0.29020E+03
        -0.34396E+03
        -0.43946E+03
         0.54166E+02
         0.16225E+03
         0.50061E+02
         0.16859E+03
         0.52818E+03
         0.20335E+03
        -0.17977E+04
         0.22689E+04
        -0.54919E+04
        -0.64553E+04
        -0.61266E+04
        -0.37049E+04
         0.22100E+03
         0.24023E+04
         0.34831E+04
         0.56513E+04
         0.59512E+04
         0.31804E+04
         0.12823E+04
         0.54221E+03
        -0.87715E+03
        -0.34666E+04
        -0.57874E+04
        -0.66125E+04
        -0.40537E+04
         0.73473E+03
         0.26604E+04
         0.28038E+04
         0.44169E+04
         0.49055E+04
         0.37172E+04
         0.34303E+04
        -0.10706E+06
         0.13860E+05
        -0.24418E+05
        -0.16864E+05
         0.18942E+06
         0.72802E+05
         0.16820E+05
        -0.12836E+06
        -0.38677E+05
        -0.11478E+06
         0.12259E+05
        -0.10411E+06
        -0.28747E+06
         0.41575E+05
         0.25157E+06
        -0.79761E+05
         0.13456E+05
         0.76945E+04
         0.23340E+05
         0.79246E+04
         0.15326E+06
         0.11176E+06
        -0.65890E+05
         0.16566E+05
         0.38033E+05
        -0.63341E+04
         0.86199E+04
        -0.21276E+04
        -0.85661E+04
        -0.63225E+05
        -0.66042E+05
        -0.11257E+05
         0.27685E+05
         0.20747E+05
         0.41431E+05
        -0.81999E+05
        -0.17959E+06
         0.27754E+06
         0.55517E+05
         0.15267E+06
         0.27669E+06
        -0.79359E+05
        -0.15852E+06
        -0.18982E+06
        -0.19601E+06
        -0.18124E+06
         0.14733E+06
         0.11502E+06
        -0.19108E+05
         0.27161E+05
         0.25486E+06
         0.19066E+05
        -0.19118E+06
         0.26422E+06
        -0.50996E+06
        -0.55069E+06
        -0.47294E+06
        -0.23001E+06
         0.60249E+05
         0.21041E+06
         0.27816E+06
         0.44688E+06
         0.51674E+06
         0.20590E+06
         0.96391E+05
         0.85852E+05
        -0.37151E+05
        -0.28742E+06
        -0.49204E+06
        -0.55346E+06
        -0.39342E+06
         0.10810E+06
         0.25313E+06
         0.26578E+06
         0.42033E+06
         0.53348E+06
         0.33713E+06
         0.32304E+06
        -0.10732E+06
         0.13914E+05
        -0.24476E+05
        -0.16999E+05
         0.18926E+06
         0.72792E+05
         0.16948E+05
        -0.12826E+06
        -0.38789E+05
        -0.11511E+06
         0.12018E+05
        -0.10436E+06
        -0.28758E+06
         0.41474E+05
         0.25140E+06
        -0.79848E+05
         0.13608E+05
         0.76618E+04
         0.23344E+05
         0.78665E+04
         0.15361E+06
         0.11186E+06
        -0.65906E+05
         0.16559E+05
         0.38292E+05
        -0.63331E+04
         0.87241E+04
        -0.20993E+04
        -0.85694E+04
        -0.63399E+05
        -0.66150E+05
        -0.11231E+05
         0.27631E+05
         0.20790E+05
         0.41043E+05
        -0.82015E+05
        -0.17952E+06
         0.27787E+06
         0.56037E+05
         0.15311E+06
         0.27685E+06
        -0.79142E+05
        -0.15866E+06
        -0.18989E+06
        -0.19594E+06
        -0.18115E+06
         0.14731E+06
         0.11499E+06
        -0.18943E+05
         0.27032E+05
         0.25474E+06
         0.18750E+05
        -0.19106E+06
         0.26428E+06
        -0.51001E+06
        -0.55069E+06
        -0.47288E+06
        -0.23000E+06
         0.60337E+05
         0.21058E+06
         0.27799E+06
         0.44682E+06
         0.51671E+06
         0.20599E+06
         0.96390E+05
         0.86030E+05
        -0.36845E+05
        -0.28751E+06
        -0.49213E+06
        -0.55349E+06
        -0.39335E+06
         0.10815E+06
         0.25298E+06
         0.26569E+06
         0.42017E+06
         0.53339E+06
         0.33693E+06
         0.32277E+06
        -0.10760E+06
         0.13968E+05
        -0.24534E+05
        -0.17135E+05
         0.18909E+06
         0.72786E+05
         0.17077E+05
        -0.12815E+06
        -0.38899E+05
        -0.11544E+06
         0.11777E+05
        -0.10461E+06
        -0.28770E+06
         0.41367E+05
         0.25123E+06
        -0.79939E+05
         0.13763E+05
         0.76287E+04
         0.23349E+05
         0.78083E+04
         0.15397E+06
         0.11196E+06
        -0.65931E+05
         0.16550E+05
         0.38555E+05
        -0.63313E+04
         0.88353E+04
        -0.20718E+04
        -0.85670E+04
        -0.63568E+05
        -0.66259E+05
        -0.11200E+05
         0.27576E+05
         0.20833E+05
         0.40652E+05
        -0.82036E+05
        -0.17945E+06
         0.27820E+06
         0.56556E+05
         0.15356E+06
         0.27701E+06
        -0.78903E+05
        -0.15880E+06
        -0.18998E+06
        -0.19590E+06
        -0.18108E+06
         0.14730E+06
         0.11495E+06
        -0.18776E+05
         0.26900E+05
         0.25462E+06
         0.18436E+05
        -0.19094E+06
         0.26434E+06
        -0.51006E+06
        -0.55069E+06
        -0.47281E+06
        -0.22999E+06
         0.60426E+05
         0.21075E+06
         0.27782E+06
         0.44676E+06
         0.51669E+06
         0.20608E+06
         0.96391E+05
         0.86208E+05
        -0.36538E+05
        -0.28761E+06
        -0.49222E+06
        -0.55351E+06
        -0.39327E+06
         0.10820E+06
         0.25282E+06
         0.26561E+06
         0.42001E+06
         0.53330E+06
         0.33673E+06
         0.32251E+06
        -0.10787E+06
         0.14023E+05
        -0.24592E+05
        -0.17272E+05
         0.18893E+06
         0.72777E+05
         0.17206E+05
        -0.12803E+06
        -0.39005E+05
        -0.11575E+06
         0.11537E+05
        -0.10486E+06
        -0.28781E+06
         0.41266E+05
         0.25105E+06
        -0.80038E+05
         0.13922E+05
         0.75953E+04
         0.23356E+05
         0.77470E+04
         0.15432E+06
         0.11205E+06
        -0.65987E+05
         0.16534E+05
         0.38830E+05
        -0.63280E+04
         0.89496E+04
        -0.20489E+04
        -0.85485E+04
        -0.63723E+05
        -0.66371E+05
        -0.11161E+05
         0.27519E+05
         0.20876E+05
         0.40263E+05
        -0.82052E+05
        -0.17938E+06
         0.27852E+06
         0.57073E+05
         0.15401E+06
         0.27720E+06
        -0.78601E+05
        -0.15891E+06
        -0.19013E+06
        -0.19588E+06
        -0.18099E+06
         0.14730E+06
         0.11492E+06
        -0.18608E+05
         0.26768E+05
         0.25449E+06
         0.18123E+05
        -0.19082E+06
         0.26440E+06
        -0.51012E+06
        -0.55069E+06
        -0.47275E+06
        -0.22998E+06
         0.60515E+05
         0.21091E+06
         0.27766E+06
         0.44670E+06
         0.51666E+06
         0.20619E+06
         0.96398E+05
         0.86382E+05
        -0.36228E+05
        -0.28771E+06
        -0.49232E+06
        -0.55354E+06
        -0.39319E+06
         0.10826E+06
         0.25267E+06
         0.26552E+06
         0.41985E+06
         0.53322E+06
         0.33653E+06
         0.32224E+06
        -0.10813E+06
         0.14078E+05
        -0.24650E+05
        -0.17409E+05
         0.18877E+06
         0.72768E+05
         0.17335E+05
        -0.12791E+06
        -0.39105E+05
        -0.11603E+06
         0.11296E+05
        -0.10511E+06
        -0.28793E+06
         0.41166E+05
         0.25088E+06
        -0.80144E+05
         0.14084E+05
         0.75619E+04
         0.23361E+05
         0.76831E+04
         0.15469E+06
         0.11213E+06
        -0.66072E+05
         0.16512E+05
         0.39118E+05
        -0.63221E+04
         0.90764E+04
        -0.20301E+04
        -0.85128E+04
        -0.63863E+05
        -0.66485E+05
        -0.11111E+05
         0.27461E+05
         0.20919E+05
         0.39871E+05
        -0.82069E+05
        -0.17932E+06
         0.27885E+06
         0.57588E+05
         0.15447E+06
         0.27741E+06
        -0.78231E+05
        -0.15900E+06
        -0.19033E+06
        -0.19590E+06
        -0.18090E+06
         0.14732E+06
         0.11490E+06
        -0.18442E+05
         0.26638E+05
         0.25438E+06
         0.17809E+05
        -0.19069E+06
         0.26446E+06
        -0.51017E+06
        -0.55069E+06
        -0.47269E+06
        -0.22998E+06
         0.60603E+05
         0.21108E+06
         0.27749E+06
         0.44664E+06
         0.51664E+06
         0.20632E+06
         0.96410E+05
         0.86553E+05
        -0.35917E+05
        -0.28781E+06
        -0.49244E+06
        -0.55357E+06
        -0.39311E+06
         0.10831E+06
         0.25251E+06
         0.26544E+06
         0.41969E+06
         0.53313E+06
         0.33633E+06
         0.32198E+06
        -0.10839E+06
         0.14136E+05
        -0.24702E+05
        -0.17547E+05
         0.18861E+06
         0.72758E+05
         0.17462E+05
        -0.12778E+06
        -0.39205E+05
        -0.11630E+06
         0.11055E+05
        -0.10536E+06
        -0.28804E+06
         0.41070E+05
         0.25070E+06
        -0.80255E+05
         0.14250E+05
         0.75287E+04
         0.23366E+05
         0.76191E+04
         0.15505E+06
         0.11221E+06
        -0.66170E+05
         0.16488E+05
         0.39403E+05
        -0.63152E+04
         0.92125E+04
        -0.20128E+04
        -0.84696E+04
        -0.64003E+05
        -0.66594E+05
        -0.11055E+05
         0.27403E+05
         0.20963E+05
         0.39477E+05
        -0.82096E+05
        -0.17926E+06
         0.27918E+06
         0.58103E+05
         0.15492E+06
         0.27763E+06
        -0.77840E+05
        -0.15907E+06
        -0.19055E+06
        -0.19595E+06
        -0.18082E+06
         0.14734E+06
         0.11489E+06
        -0.18274E+05
         0.26516E+05
         0.25426E+06
         0.17497E+05
        -0.19057E+06
         0.26452E+06
        -0.51022E+06
        -0.55069E+06
        -0.47263E+06
        -0.22997E+06
         0.60690E+05
         0.21125E+06
         0.27732E+06
         0.44658E+06
         0.51663E+06
         0.20645E+06
         0.96426E+05
         0.86723E+05
        -0.35607E+05
        -0.28792E+06
        -0.49257E+06
        -0.55361E+06
        -0.39304E+06
         0.10836E+06
         0.25235E+06
         0.26535E+06
         0.41953E+06
         0.53304E+06
         0.33613E+06
         0.32171E+06
        -0.10863E+06
         0.14204E+05
        -0.24746E+05
        -0.17688E+05
         0.18845E+06
         0.72753E+05
         0.17588E+05
        -0.12761E+06
        -0.39308E+05
        -0.11655E+06
         0.10814E+05
        -0.10561E+06
        -0.28817E+06
         0.40999E+05
         0.25052E+06
        -0.80370E+05
         0.14419E+05
         0.74954E+04
         0.23373E+05
         0.75554E+04
         0.15542E+06
         0.11229E+06
        -0.66269E+05
         0.16465E+05
         0.39670E+05
        -0.63060E+04
         0.93729E+04
        -0.19951E+04
        -0.84236E+04
        -0.64147E+05
        -0.66695E+05
        -0.10993E+05
         0.27344E+05
         0.21006E+05
         0.39082E+05
        -0.82128E+05
        -0.17922E+06
         0.27950E+06
         0.58620E+05
         0.15539E+06
         0.27785E+06
        -0.77440E+05
        -0.15914E+06
        -0.19078E+06
        -0.19601E+06
        -0.18075E+06
         0.14736E+06
         0.11491E+06
        -0.18097E+05
         0.26416E+05
         0.25415E+06
         0.17182E+05
        -0.19045E+06
         0.26458E+06
        -0.51027E+06
        -0.55069E+06
        -0.47256E+06
        -0.22996E+06
         0.60778E+05
         0.21141E+06
         0.27715E+06
         0.44652E+06
         0.51661E+06
         0.20659E+06
         0.96442E+05
         0.86895E+05
        -0.35296E+05
        -0.28802E+06
        -0.49269E+06
        -0.55364E+06
        -0.39296E+06
         0.10840E+06
         0.25219E+06
         0.26526E+06
         0.41937E+06
         0.53296E+06
         0.33593E+06
         0.32145E+06
        -0.10885E+06
         0.14275E+05
        -0.24785E+05
        -0.17831E+05
         0.18830E+06
         0.72743E+05
         0.17711E+05
        -0.12744E+06
        -0.39413E+05
        -0.11680E+06
         0.10573E+05
        -0.10586E+06
        -0.28829E+06
         0.40933E+05
         0.25034E+06
        -0.80486E+05
         0.14589E+05
         0.74618E+04
         0.23379E+05
         0.74927E+04
         0.15578E+06
         0.11237E+06
        -0.66365E+05
         0.16443E+05
         0.39929E+05
        -0.62959E+04
         0.95397E+04
        -0.19769E+04
        -0.83767E+04
        -0.64294E+05
        -0.66792E+05
        -0.10926E+05
         0.27283E+05
         0.21050E+05
         0.38682E+05
        -0.82169E+05
        -0.17919E+06
         0.27983E+06
         0.59137E+05
         0.15585E+06
         0.27808E+06
        -0.77040E+05
        -0.15920E+06
        -0.19100E+06
        -0.19609E+06
        -0.18069E+06
         0.14739E+06
         0.11494E+06
        -0.17917E+05
         0.26325E+05
         0.25404E+06
         0.16868E+05
        -0.19033E+06
         0.26463E+06
        -0.51032E+06
        -0.55069E+06
        -0.47250E+06
        -0.22995E+06
         0.60865E+05
         0.21158E+06
         0.27699E+06
         0.44646E+06
         0.51659E+06
         0.20673E+06
         0.96458E+05
         0.87069E+05
        -0.34984E+05
        -0.28813E+06
        -0.49281E+06
        -0.55367E+06
        -0.39288E+06
         0.10844E+06
         0.25202E+06
         0.26518E+06
         0.41922E+06
         0.53287E+06
         0.33573E+06
         0.32118E+06
        -0.10908E+06
         0.14347E+05
        -0.24823E+05
        -0.17974E+05
         0.18815E+06
         0.72733E+05
         0.17834E+05
        -0.12726E+06
        -0.39519E+05
        -0.11705E+06
         0.10332E+05
        -0.10610E+06
        -0.28841E+06
         0.40872E+05
         0.25016E+06
        -0.80602E+05
         0.14761E+05
         0.74282E+04
         0.23384E+05
         0.74293E+04
         0.15615E+06
         0.11245E+06
        -0.66462E+05
         0.16421E+05
         0.40188E+05
        -0.62858E+04
         0.97108E+04
        -0.19576E+04
        -0.83284E+04
        -0.64442E+05
        -0.66889E+05
        -0.10861E+05
         0.27222E+05
         0.21093E+05
         0.38281E+05
        -0.82203E+05
        -0.17916E+06
         0.28015E+06
         0.59656E+05
         0.15631E+06
         0.27830E+06
        -0.76642E+05
        -0.15927E+06
        -0.19123E+06
        -0.19617E+06
        -0.18063E+06
         0.14742E+06
         0.11497E+06
        -0.17737E+05
         0.26237E+05
         0.25393E+06
         0.16554E+05
        -0.19021E+06
         0.26469E+06
        -0.51038E+06
        -0.55069E+06
        -0.47244E+06
        -0.22994E+06
         0.60952E+05
         0.21175E+06
         0.27682E+06
         0.44641E+06
         0.51657E+06
         0.20686E+06
         0.96477E+05
         0.87245E+05
        -0.34674E+05
        -0.28823E+06
        -0.49293E+06
        -0.55370E+06
        -0.39280E+06
         0.10848E+06
         0.25185E+06
         0.26509E+06
         0.41907E+06
         0.53278E+06
         0.33552E+06
         0.32091E+06
        -0.10931E+06
         0.14419E+05
        -0.24861E+05
        -0.18116E+05
         0.18799E+06
         0.72723E+05
         0.17958E+05
        -0.12708E+06
        -0.39625E+05
        -0.11730E+06
         0.10091E+05
        -0.10635E+06
        -0.28854E+06
         0.40806E+05
         0.24998E+06
        -0.80717E+05
         0.14933E+05
         0.73950E+04
         0.23389E+05
         0.73661E+04
         0.15651E+06
         0.11253E+06
        -0.66554E+05
         0.16399E+05
         0.40447E+05
        -0.62755E+04
         0.98773E+04
        -0.19375E+04
        -0.82788E+04
        -0.64588E+05
        -0.66984E+05
        -0.10795E+05
         0.27161E+05
         0.21136E+05
         0.37881E+05
        -0.82244E+05
        -0.17913E+06
         0.28047E+06
         0.60175E+05
         0.15677E+06
         0.27853E+06
        -0.76245E+05
        -0.15934E+06
        -0.19145E+06
        -0.19624E+06
        -0.18056E+06
         0.14745E+06
         0.11500E+06
        -0.17559E+05
         0.26144E+05
         0.25382E+06
         0.16242E+05
        -0.19008E+06
         0.26475E+06
        -0.51043E+06
        -0.55069E+06
        -0.47237E+06
        -0.22994E+06
         0.61039E+05
         0.21191E+06
         0.27665E+06
         0.44635E+06
         0.51656E+06
         0.20699E+06
         0.96495E+05
         0.87420E+05
        -0.34364E+05
        -0.28834E+06
        -0.49306E+06
        -0.55373E+06
        -0.39272E+06
         0.10852E+06
         0.25168E+06
         0.26500E+06
         0.41892E+06
         0.53269E+06
         0.33533E+06
         0.32065E+06
        -0.10953E+06
         0.14490E+05
        -0.24900E+05
        -0.18258E+05
         0.18785E+06
         0.72715E+05
         0.18082E+05
        -0.12690E+06
        -0.39731E+05
        -0.11755E+06
         0.98490E+04
        -0.10660E+06
        -0.28866E+06
         0.40743E+05
         0.24980E+06
        -0.80833E+05
         0.15107E+05
         0.73619E+04
         0.23397E+05
         0.73023E+04
         0.15687E+06
         0.11260E+06
        -0.66652E+05
         0.16378E+05
         0.40706E+05
        -0.62651E+04
         0.10047E+05
        -0.19162E+04
        -0.82278E+04
        -0.64734E+05
        -0.67080E+05
        -0.10730E+05
         0.27099E+05
         0.21180E+05
         0.37478E+05
        -0.82281E+05
        -0.17910E+06
         0.28079E+06
         0.60694E+05
         0.15723E+06
         0.27875E+06
        -0.75848E+05
        -0.15940E+06
        -0.19167E+06
        -0.19632E+06
        -0.18050E+06
         0.14748E+06
         0.11503E+06
        -0.17380E+05
         0.26054E+05
         0.25372E+06
         0.15930E+05
        -0.18996E+06
         0.26480E+06
        -0.51048E+06
        -0.55069E+06
        -0.47231E+06
        -0.22993E+06
         0.61124E+05
         0.21208E+06
         0.27648E+06
         0.44629E+06
         0.51654E+06
         0.20713E+06
         0.96513E+05
         0.87593E+05
        -0.34053E+05
        -0.28844E+06
        -0.49318E+06
        -0.55377E+06
        -0.39264E+06
         0.10856E+06
         0.25151E+06
         0.26492E+06
         0.41877E+06
         0.53260E+06
         0.33513E+06
         0.32038E+06
        -0.10976E+06
         0.14562E+05
        -0.24938E+05
        -0.18402E+05
         0.18769E+06
         0.72705E+05
         0.18206E+05
        -0.12672E+06
        -0.39837E+05
        -0.11780E+06
         0.96073E+04
        -0.10686E+06
        -0.28878E+06
         0.40680E+05
         0.24962E+06
        -0.80949E+05
         0.15281E+05
         0.73284E+04
         0.23403E+05
         0.72395E+04
         0.15723E+06
         0.11268E+06
        -0.66748E+05
         0.16357E+05
         0.40965E+05
        -0.62552E+04
         0.10213E+05
        -0.18941E+04
        -0.81748E+04
        -0.64882E+05
        -0.67176E+05
        -0.10664E+05
         0.27035E+05
         0.21224E+05
         0.37074E+05
        -0.82319E+05
        -0.17907E+06
         0.28111E+06
         0.61214E+05
         0.15769E+06
         0.27897E+06
        -0.75455E+05
        -0.15947E+06
        -0.19189E+06
        -0.19640E+06
        -0.18044E+06
         0.14751E+06
         0.11507E+06
        -0.17201E+05
         0.25966E+05
         0.25361E+06
         0.15619E+05
        -0.18984E+06
         0.26486E+06
        -0.51053E+06
        -0.55069E+06
        -0.47224E+06
        -0.22992E+06
         0.61210E+05
         0.21224E+06
         0.27632E+06
         0.44623E+06
         0.51652E+06
         0.20726E+06
         0.96530E+05
         0.87767E+05
        -0.33741E+05
        -0.28855E+06
        -0.49330E+06
        -0.55380E+06
        -0.39257E+06
         0.10860E+06
         0.25134E+06
         0.26483E+06
         0.41862E+06
         0.53251E+06
         0.33493E+06
         0.32011E+06
        -0.10998E+06
         0.14634E+05
        -0.24975E+05
        -0.18546E+05
         0.18754E+06
         0.72695E+05
         0.18329E+05
        -0.12654E+06
        -0.39942E+05
        -0.11804E+06
         0.93659E+04
        -0.10710E+06
        -0.28891E+06
         0.40612E+05
         0.24943E+06
        -0.81064E+05
         0.15456E+05
         0.72948E+04
         0.23409E+05
         0.71769E+04
         0.15760E+06
         0.11276E+06
        -0.66843E+05
         0.16336E+05
         0.41223E+05
        -0.62445E+04
         0.10384E+05
        -0.18709E+04
        -0.81212E+04
        -0.65028E+05
        -0.67272E+05
        -0.10597E+05
         0.26970E+05
         0.21267E+05
         0.36669E+05
        -0.82361E+05
        -0.17904E+06
         0.28143E+06
         0.61734E+05
         0.15815E+06
         0.27920E+06
        -0.75057E+05
        -0.15953E+06
        -0.19212E+06
        -0.19648E+06
        -0.18038E+06
         0.14754E+06
         0.11510E+06
        -0.17021E+05
         0.25876E+05
         0.25350E+06
         0.15310E+05
        -0.18971E+06
         0.26492E+06
        -0.51058E+06
        -0.55069E+06
        -0.47218E+06
        -0.22991E+06
         0.61298E+05
         0.21240E+06
         0.27615E+06
         0.44617E+06
         0.51650E+06
         0.20740E+06
         0.96547E+05
         0.87941E+05
        -0.33430E+05
        -0.28865E+06
        -0.49342E+06
        -0.55383E+06
        -0.39249E+06
         0.10863E+06
         0.25117E+06
         0.26474E+06
         0.41846E+06
         0.53243E+06
         0.33473E+06
         0.31985E+06
        -0.11021E+06
         0.14705E+05
        -0.25013E+05
        -0.18690E+05
         0.18739E+06
         0.72684E+05
         0.18453E+05
        -0.12635E+06
        -0.40048E+05
        -0.11828E+06
         0.91245E+04
        -0.10735E+06
        -0.28903E+06
         0.40548E+05
         0.24925E+06
        -0.81179E+05
         0.15633E+05
         0.72616E+04
         0.23417E+05
         0.71147E+04
         0.15796E+06
         0.11283E+06
        -0.66939E+05
         0.16315E+05
         0.41482E+05
        -0.62338E+04
         0.10550E+05
        -0.18470E+04
        -0.80665E+04
        -0.65173E+05
        -0.67367E+05
        -0.10532E+05
         0.26905E+05
         0.21311E+05
         0.36262E+05
        -0.82399E+05
        -0.17900E+06
         0.28174E+06
         0.62254E+05
         0.15861E+06
         0.27942E+06
        -0.74660E+05
        -0.15960E+06
        -0.19234E+06
        -0.19656E+06
        -0.18032E+06
         0.14757E+06
         0.11513E+06
        -0.16842E+05
         0.25786E+05
         0.25340E+06
         0.15003E+05
        -0.18959E+06
         0.26497E+06
        -0.51063E+06
        -0.55070E+06
        -0.47212E+06
        -0.22991E+06
         0.61385E+05
         0.21257E+06
         0.27598E+06
         0.44612E+06
         0.51648E+06
         0.20753E+06
         0.96564E+05
         0.88116E+05
        -0.33120E+05
        -0.28876E+06
        -0.49355E+06
        -0.55386E+06
        -0.39241E+06
         0.10867E+06
         0.25100E+06
         0.26466E+06
         0.41831E+06
         0.53234E+06
         0.33453E+06
         0.31958E+06
        -0.11044E+06
         0.14775E+05
        -0.25051E+05
        -0.18834E+05
         0.18724E+06
         0.72673E+05
         0.18577E+05
        -0.12617E+06
        -0.40154E+05
        -0.11852E+06
         0.88828E+04
        -0.10760E+06
        -0.28916E+06
         0.40479E+05
         0.24906E+06
        -0.81294E+05
         0.15810E+05
         0.72287E+04
         0.23423E+05
         0.70519E+04
         0.15832E+06
         0.11291E+06
        -0.67032E+05
         0.16295E+05
         0.41742E+05
        -0.62230E+04
         0.10719E+05
        -0.18218E+04
        -0.80108E+04
        -0.65318E+05
        -0.67462E+05
        -0.10465E+05
         0.26840E+05
         0.21355E+05
         0.35856E+05
        -0.82441E+05
        -0.17898E+06
         0.28205E+06
         0.62775E+05
         0.15907E+06
         0.27964E+06
        -0.74264E+05
        -0.15966E+06
        -0.19256E+06
        -0.19663E+06
        -0.18026E+06
         0.14759E+06
         0.11516E+06
        -0.16661E+05
         0.25697E+05
         0.25329E+06
         0.14695E+05
        -0.18946E+06
         0.26503E+06
        -0.51067E+06
        -0.55070E+06
        -0.47205E+06
        -0.22990E+06
         0.61470E+05
         0.21273E+06
         0.27581E+06
         0.44606E+06
         0.51646E+06
         0.20766E+06
         0.96581E+05
         0.88290E+05
        -0.32810E+05
        -0.28886E+06
        -0.49367E+06
        -0.55389E+06
        -0.39233E+06
         0.10871E+06
         0.25083E+06
         0.26457E+06
         0.41816E+06
         0.53225E+06
         0.33434E+06
         0.31931E+06
        -0.11066E+06
         0.14847E+05
        -0.25088E+05
        -0.18977E+05
         0.18708E+06
         0.72665E+05
         0.18701E+05
        -0.12598E+06
        -0.40261E+05
        -0.11876E+06
         0.86404E+04
        -0.10785E+06
        -0.28928E+06
         0.40414E+05
         0.24887E+06
        -0.81410E+05
         0.15989E+05
         0.71958E+04
         0.23429E+05
         0.69898E+04
         0.15869E+06
         0.11298E+06
        -0.67127E+05
         0.16275E+05
         0.41999E+05
        -0.62120E+04
         0.10884E+05
        -0.17958E+04
        -0.79539E+04
        -0.65463E+05
        -0.67557E+05
        -0.10400E+05
         0.26773E+05
         0.21399E+05
         0.35446E+05
        -0.82478E+05
        -0.17895E+06
         0.28237E+06
         0.63296E+05
         0.15953E+06
         0.27986E+06
        -0.73868E+05
        -0.15973E+06
        -0.19278E+06
        -0.19672E+06
        -0.18019E+06
         0.14762E+06
         0.11519E+06
        -0.16482E+05
         0.25607E+05
         0.25318E+06
         0.14388E+05
        -0.18934E+06
         0.26508E+06
        -0.51072E+06
        -0.55070E+06
        -0.47199E+06
        -0.22989E+06
         0.61554E+05
         0.21289E+06
         0.27564E+06
         0.44600E+06
         0.51645E+06
         0.20780E+06
         0.96597E+05
         0.88462E+05
        -0.32499E+05
        -0.28896E+06
        -0.49379E+06
        -0.55392E+06
        -0.39225E+06
         0.10874E+06
         0.25066E+06
         0.26449E+06
         0.41801E+06
         0.53216E+06
         0.33414E+06
         0.31904E+06
        -0.11089E+06
         0.14918E+05
        -0.25127E+05
        -0.19121E+05
         0.18694E+06
         0.72654E+05
         0.18825E+05
        -0.12579E+06
        -0.40366E+05
        -0.11899E+06
         0.83979E+04
        -0.10810E+06
        -0.28941E+06
         0.40343E+05
         0.24868E+06
        -0.81526E+05
         0.16169E+05
         0.71627E+04
         0.23436E+05
         0.69282E+04
         0.15905E+06
         0.11305E+06
        -0.67221E+05
         0.16255E+05
         0.42256E+05
        -0.62008E+04
         0.11053E+05
        -0.17684E+04
        -0.78950E+04
        -0.65606E+05
        -0.67652E+05
        -0.10334E+05
         0.26707E+05
         0.21444E+05
         0.35036E+05
        -0.82515E+05
        -0.17891E+06
         0.28268E+06
         0.63823E+05
         0.15999E+06
         0.28008E+06
        -0.73476E+05
        -0.15980E+06
        -0.19300E+06
        -0.19679E+06
        -0.18013E+06
         0.14766E+06
         0.11522E+06
        -0.16304E+05
         0.25516E+05
         0.25308E+06
         0.14084E+05
        -0.18921E+06
         0.26514E+06
        -0.51077E+06
        -0.55070E+06
        -0.47193E+06
        -0.22988E+06
         0.61638E+05
         0.21305E+06
         0.27548E+06
         0.44595E+06
         0.51643E+06
         0.20793E+06
         0.96610E+05
         0.88633E+05
        -0.32190E+05
        -0.28907E+06
        -0.49391E+06
        -0.55395E+06
        -0.39217E+06
         0.10878E+06
         0.25049E+06
         0.26440E+06
         0.41786E+06
         0.53207E+06
         0.33395E+06
         0.31877E+06
        -0.11111E+06
         0.14989E+05
        -0.25164E+05
        -0.19266E+05
         0.18679E+06
         0.72642E+05
         0.18949E+05
        -0.12560E+06
        -0.40469E+05
        -0.11921E+06
         0.81552E+04
        -0.10836E+06
        -0.28953E+06
         0.40276E+05
         0.24849E+06
        -0.81641E+05
         0.16351E+05
         0.71295E+04
         0.23446E+05
         0.68695E+04
         0.15941E+06
         0.11312E+06
        -0.67317E+05
         0.16234E+05
         0.42507E+05
        -0.61902E+04
         0.11219E+05
        -0.17389E+04
        -0.78354E+04
        -0.65747E+05
        -0.67747E+05
        -0.10267E+05
         0.26638E+05
         0.21488E+05
         0.34625E+05
        -0.82559E+05
        -0.17888E+06
         0.28298E+06
         0.64365E+05
         0.16045E+06
         0.28030E+06
        -0.73080E+05
        -0.15987E+06
        -0.19322E+06
        -0.19687E+06
        -0.18007E+06
         0.14768E+06
         0.11526E+06
        -0.16127E+05
         0.25427E+05
         0.25297E+06
         0.13781E+05
        -0.18909E+06
         0.26519E+06
        -0.51082E+06
        -0.55070E+06
        -0.47186E+06
        -0.22988E+06
         0.61722E+05
         0.21321E+06
         0.27531E+06
         0.44589E+06
         0.51642E+06
         0.20806E+06
         0.96615E+05
         0.88804E+05
        -0.31882E+05
        -0.28917E+06
        -0.49403E+06
        -0.55399E+06
        -0.39209E+06
         0.10882E+06
         0.25032E+06
         0.26431E+06
         0.41771E+06
         0.53198E+06
         0.33376E+06
         0.31850E+06
        -0.11134E+06
         0.15060E+05
        -0.25201E+05
        -0.19411E+05
         0.18663E+06
         0.72630E+05
         0.19073E+05
        -0.12541E+06
        -0.40571E+05
        -0.11941E+06
         0.79127E+04
        -0.10861E+06
        -0.28965E+06
         0.40208E+05
         0.24829E+06
        -0.81755E+05
         0.16536E+05
         0.70963E+04
         0.23453E+05
         0.68126E+04
         0.15977E+06
         0.11318E+06
        -0.67412E+05
         0.16214E+05
         0.42751E+05
        -0.61787E+04
         0.11392E+05
        -0.17072E+04
        -0.77746E+04
        -0.65880E+05
        -0.67841E+05
        -0.10201E+05
         0.26569E+05
         0.21532E+05
         0.34211E+05
        -0.82596E+05
        -0.17885E+06
         0.28327E+06
         0.64921E+05
         0.16090E+06
         0.28051E+06
        -0.72686E+05
        -0.15995E+06
        -0.19344E+06
        -0.19696E+06
        -0.18001E+06
         0.14771E+06
         0.11529E+06
        -0.15948E+05
         0.25338E+05
         0.25286E+06
         0.13476E+05
        -0.18896E+06
         0.26524E+06
        -0.51087E+06
        -0.55070E+06
        -0.47180E+06
        -0.22987E+06
         0.61806E+05
         0.21337E+06
         0.27515E+06
         0.44583E+06
         0.51641E+06
         0.20819E+06
         0.96612E+05
         0.88975E+05
        -0.31572E+05
        -0.28927E+06
        -0.49416E+06
        -0.55402E+06
        -0.39201E+06
         0.10885E+06
         0.25015E+06
         0.26423E+06
         0.41756E+06
         0.53190E+06
         0.33357E+06
         0.31823E+06
        -0.11157E+06
         0.15131E+05
        -0.25239E+05
        -0.19556E+05
         0.18649E+06
         0.72621E+05
         0.19197E+05
        -0.12521E+06
        -0.40671E+05
        -0.11961E+06
         0.76716E+04
        -0.10885E+06
        -0.28977E+06
         0.40135E+05
         0.24810E+06
        -0.81871E+05
         0.16723E+05
         0.70636E+04
         0.23460E+05
         0.67574E+04
         0.16013E+06
         0.11325E+06
        -0.67500E+05
         0.16196E+05
         0.42993E+05
        -0.61680E+04
         0.11561E+05
        -0.16738E+04
        -0.77134E+04
        -0.66011E+05
        -0.67937E+05
        -0.10136E+05
         0.26501E+05
         0.21578E+05
         0.33802E+05
        -0.82635E+05
        -0.17882E+06
         0.28356E+06
         0.65482E+05
         0.16134E+06
         0.28072E+06
        -0.72299E+05
        -0.16003E+06
        -0.19365E+06
        -0.19703E+06
        -0.17995E+06
         0.14775E+06
         0.11532E+06
        -0.15771E+05
         0.25247E+05
         0.25276E+06
         0.13175E+05
        -0.18884E+06
         0.26530E+06
        -0.51092E+06
        -0.55070E+06
        -0.47174E+06
        -0.22986E+06
         0.61888E+05
         0.21352E+06
         0.27499E+06
         0.44577E+06
         0.51640E+06
         0.20832E+06
         0.96601E+05
         0.89144E+05
        -0.31261E+05
        -0.28937E+06
        -0.49428E+06
        -0.55405E+06
        -0.39194E+06
         0.10889E+06
         0.24998E+06
         0.26414E+06
         0.41741E+06
         0.53181E+06
         0.33338E+06
         0.31796E+06
        -0.11253E+06
         0.15290E+05
        -0.25451E+05
        -0.19826E+05
         0.18750E+06
         0.73069E+05
         0.19437E+05
        -0.12585E+06
        -0.41033E+05
        -0.12058E+06
         0.75091E+04
        -0.10584E+06
        -0.27993E+06
         0.40322E+05
         0.24102E+06
        -0.82530E+05
         0.17010E+05
         0.70800E+04
         0.23612E+05
         0.67489E+04
         0.15604E+06
         0.10982E+06
        -0.65612E+05
         0.16293E+05
         0.43497E+05
        -0.62041E+04
         0.11789E+05
        -0.16501E+04
        -0.77167E+04
        -0.66565E+05
        -0.68490E+05
        -0.10156E+05
         0.26617E+05
         0.21766E+05
         0.32080E+05
        -0.83150E+05
        -0.17984E+06
         0.27439E+06
         0.63157E+05
         0.15426E+06
         0.27196E+06
        -0.69655E+05
        -0.15547E+06
        -0.18754E+06
        -0.19822E+06
        -0.17318E+06
         0.14864E+06
         0.11604E+06
        -0.15711E+05
         0.25314E+05
         0.24269E+06
         0.12959E+05
        -0.18633E+06
         0.26237E+06
        -0.50548E+06
        -0.54510E+06
        -0.46714E+06
        -0.22769E+06
         0.61357E+05
         0.21099E+06
         0.27119E+06
         0.44022E+06
         0.51022E+06
         0.20614E+06
         0.95381E+05
         0.88225E+05
        -0.30648E+05
        -0.28671E+06
        -0.48992E+06
        -0.54906E+06
        -0.38742E+06
         0.10777E+06
         0.24706E+06
         0.26104E+06
         0.41269E+06
         0.52567E+06
         0.32967E+06
         0.31428E+06
        -0.55838E+05
         0.79559E+04
        -0.13416E+05
        -0.12450E+05
         0.71124E+05
         0.33037E+05
         0.92772E+04
        -0.51988E+05
        -0.23059E+05
        -0.49971E+05
         0.29055E+04
        -0.46877E+05
        -0.11583E+06
         0.14522E+05
         0.10915E+06
        -0.46852E+05
         0.93124E+04
         0.48279E+04
         0.11809E+05
         0.32121E+04
         0.73213E+05
         0.48814E+05
        -0.30374E+05
         0.89292E+04
         0.19332E+05
        -0.37114E+04
         0.43783E+04
        -0.66687E+03
        -0.31294E+04
        -0.27888E+05
        -0.39325E+05
        -0.56596E+04
         0.16469E+05
         0.12673E+05
         0.11850E+05
        -0.33415E+05
        -0.68425E+05
         0.11415E+06
         0.23036E+05
         0.53845E+05
         0.11661E+06
        -0.29673E+05
        -0.70878E+05
        -0.81817E+05
        -0.77639E+05
        -0.67810E+05
         0.56255E+05
         0.50614E+05
        -0.73001E+04
         0.10877E+05
         0.93111E+05
         0.53041E+04
        -0.11916E+06
         0.17402E+06
        -0.34167E+06
        -0.37543E+06
        -0.32794E+06
        -0.16193E+06
         0.42521E+05
         0.13630E+06
         0.17064E+06
         0.28455E+06
         0.33310E+06
         0.13933E+06
         0.61569E+05
         0.57568E+05
        -0.20878E+05
        -0.20196E+06
        -0.34996E+06
        -0.39147E+06
        -0.25655E+06
         0.72614E+05
         0.16477E+06
         0.17256E+06
         0.27658E+06
         0.34831E+06
         0.22399E+06
         0.21212E+06
  
SCALARS                      strain_xx  double 1
LOOKUP_TABLE default
        -0.14651E-08
        -0.76814E-07
        -0.80976E-06
        -0.35942E-08
        -0.28977E-20
        -0.36431E-21
        -0.40733E-20
        -0.16247E-21
        -0.66408E-05
        -0.29122E-05
        -0.36442E-19
        -0.29566E-19
        -0.12969E-07
        -0.21652E-06
        -0.55433E-21
        -0.12165E-19
        -0.77537E-08
        -0.19863E-06
        -0.63471E-20
        -0.14079E-19
        -0.45050E-06
        -0.13328E-05
        -0.11190E-05
        -0.62775E-20
        -0.13348E-20
        -0.40742E-20
        -0.14847E-05
        -0.10378E-05
        -0.21996E-19
        -0.13841E-19
        -0.42577E-07
        -0.22540E-06
        -0.17922E-08
        -0.22800E-21
        -0.34049E-20
        -0.12923E-20
        -0.39049E-06
        -0.98970E-07
        -0.75054E-20
        -0.85087E-20
        -0.16066E-05
        -0.34464E-05
        -0.38189E-19
        -0.20769E-19
        -0.17353E-05
        -0.47932E-06
        -0.46056E-19
        -0.10670E-19
        -0.17043E-06
        -0.42040E-20
        -0.79391E-06
        -0.32575E-21
        -0.19936E-06
        -0.16052E-19
        -0.11332E-06
        -0.11232E-20
        -0.21687E-05
        -0.15274E-06
        -0.82424E-21
        -0.48156E-20
        -0.48616E-09
        -0.38027E-06
        -0.32972E-20
        -0.15505E-20
        -0.24528E-07
        -0.33361E-22
        -0.28402E-06
        -0.14433E-20
        -0.13366E-04
        -0.63269E-05
        -0.56385E-19
        -0.29659E-19
        -0.26651E-05
        -0.15725E-19
        -0.18097E-06
        -0.75247E-20
        -0.17898E-05
        -0.28985E-21
        -0.80051E-05
        -0.69765E-21
        -0.13636E-04
        -0.66772E-05
        -0.93700E-20
        -0.12256E-19
        -0.49045E-05
        -0.14175E-19
        -0.25555E-05
        -0.29383E-19
        -0.10236E-05
        -0.11953E-19
        -0.26035E-05
        -0.14279E-05
        -0.21773E-20
        -0.40947E-20
        -0.73328E-07
        -0.56338E-20
        -0.54569E-06
        -0.99326E-21
        -0.31818E-05
        -0.60570E-20
        -0.69814E-05
        -0.32508E-05
        -0.32202E-19
        -0.35064E-19
        -0.44538E-04
        -0.53054E-04
        -0.10994E-18
        -0.10677E-18
        -0.43936E-04
        -0.80240E-19
        -0.35302E-04
        -0.44812E-19
        -0.18778E-04
        -0.13533E-19
        -0.10642E-04
        -0.15475E-21
        -0.15654E-05
        -0.19631E-20
        -0.27000E-05
        -0.12566E-20
        -0.15436E-04
        -0.12139E-20
        -0.34036E-04
        -0.61732E-20
        -0.59075E-04
        -0.22344E-19
        -0.80505E-04
        -0.31818E-19
        -0.82903E-04
        -0.28326E-19
        -0.71041E-04
        -0.33495E-19
        -0.56293E-04
        -0.56420E-19
        -0.43766E-04
        -0.78453E-19
        -0.34098E-04
        -0.67796E-19
        -0.23692E-04
        -0.44778E-19
        -0.86830E-05
        -0.99795E-20
        -0.65191E-07
        -0.36388E-21
        -0.26847E-05
        -0.21449E-20
        -0.64620E-05
        -0.57353E-20
        -0.15046E-04
        -0.21967E-19
        -0.26138E-04
        -0.59148E-19
        -0.44182E-04
        -0.85378E-19
        -0.56660E-04
        -0.89319E-19
        -0.63593E-06
        -0.17763E-06
        -0.24350E-06
        -0.94920E-06
        -0.15281E-04
        -0.88244E-05
        -0.21010E-06
        -0.44329E-06
        -0.11214E-06
        -0.36659E-06
        -0.11783E-06
        -0.22258E-05
        -0.95281E-05
        -0.97333E-06
        -0.14269E-05
        -0.16844E-05
        -0.11949E-05
        -0.25157E-06
        -0.64534E-06
        -0.73909E-06
        -0.22421E-04
        -0.25174E-04
        -0.20903E-04
        -0.20091E-05
        -0.31742E-06
        -0.17648E-06
        -0.18758E-05
        -0.23523E-07
        -0.25157E-05
        -0.11516E-05
        -0.13475E-05
        -0.53913E-07
        -0.29929E-06
        -0.32090E-07
        -0.34924E-04
        -0.13810E-04
        -0.11169E-04
        -0.55560E-05
        -0.18060E-05
        -0.84616E-05
        -0.36446E-04
        -0.30369E-04
        -0.28398E-04
        -0.15431E-04
        -0.81126E-05
        -0.51503E-05
        -0.17608E-06
        -0.29674E-05
        -0.24876E-06
        -0.25677E-05
        -0.18819E-04
        -0.12878E-04
        -0.31679E-03
        -0.33932E-03
        -0.27251E-03
        -0.19595E-03
        -0.10890E-03
        -0.28729E-04
        -0.10272E-06
        -0.14865E-04
        -0.34426E-04
        -0.10167E-03
        -0.27183E-03
        -0.38638E-03
        -0.31870E-03
        -0.29117E-03
        -0.32159E-03
        -0.31892E-03
        -0.26340E-03
        -0.20487E-03
        -0.54952E-04
        -0.13596E-05
        -0.19770E-04
        -0.24560E-04
        -0.70618E-04
        -0.18269E-03
        -0.30095E-03
        -0.32983E-03
        -0.12086E-05
        -0.50929E-07
        -0.18459E-06
        -0.15649E-05
        -0.65847E-05
        -0.48087E-05
        -0.40819E-06
        -0.19453E-05
        -0.41068E-06
        -0.17581E-05
        -0.71751E-07
        -0.95518E-06
        -0.10337E-04
        -0.60789E-05
        -0.65225E-05
        -0.46649E-05
        -0.14457E-05
        -0.51864E-06
        -0.23489E-06
        -0.72442E-06
        -0.25506E-04
        -0.23166E-04
        -0.22558E-04
        -0.13196E-05
        -0.42572E-06
        -0.19300E-06
        -0.56764E-05
        -0.10007E-06
        -0.63576E-06
        -0.11823E-05
        -0.27535E-05
        -0.11529E-05
        -0.11583E-05
        -0.86276E-06
        -0.20943E-04
        -0.63795E-05
        -0.83941E-05
        -0.80210E-05
        -0.22483E-06
        -0.18899E-05
        -0.25509E-04
        -0.26992E-04
        -0.25790E-04
        -0.13483E-04
        -0.79955E-05
        -0.27373E-05
        -0.31972E-05
        -0.44560E-05
        -0.77862E-07
        -0.11288E-06
        -0.11860E-04
        -0.92028E-05
        -0.36626E-03
        -0.37196E-03
        -0.29975E-03
        -0.20391E-03
        -0.11354E-03
        -0.24087E-04
        -0.14847E-05
        -0.15584E-04
        -0.27044E-04
        -0.90881E-04
        -0.28672E-03
        -0.39901E-03
        -0.28053E-03
        -0.25390E-03
        -0.30820E-03
        -0.32691E-03
        -0.27235E-03
        -0.24371E-03
        -0.63263E-04
        -0.42738E-05
        -0.20903E-04
        -0.21454E-04
        -0.67822E-04
        -0.20331E-03
        -0.33311E-03
        -0.33101E-03
        -0.12132E-05
        -0.51308E-07
        -0.18528E-06
        -0.15670E-05
        -0.65721E-05
        -0.47998E-05
        -0.41339E-06
        -0.19354E-05
        -0.41158E-06
        -0.17554E-05
        -0.68875E-07
        -0.95983E-06
        -0.10350E-04
        -0.60489E-05
        -0.65155E-05
        -0.46746E-05
        -0.14521E-05
        -0.51578E-06
        -0.23466E-06
        -0.72188E-06
        -0.25501E-04
        -0.23161E-04
        -0.22555E-04
        -0.13198E-05
        -0.42764E-06
        -0.19365E-06
        -0.56798E-05
        -0.96347E-07
        -0.64473E-06
        -0.11838E-05
        -0.27616E-05
        -0.11526E-05
        -0.11487E-05
        -0.86354E-06
        -0.20965E-04
        -0.63737E-05
        -0.83888E-05
        -0.80468E-05
        -0.22916E-06
        -0.19019E-05
        -0.25541E-04
        -0.27023E-04
        -0.25792E-04
        -0.13479E-04
        -0.79897E-05
        -0.27345E-05
        -0.31960E-05
        -0.44590E-05
        -0.76729E-07
        -0.11211E-06
        -0.11845E-04
        -0.91756E-05
        -0.36601E-03
        -0.37177E-03
        -0.29970E-03
        -0.20391E-03
        -0.11347E-03
        -0.24072E-04
        -0.14881E-05
        -0.15604E-04
        -0.26998E-04
        -0.90809E-04
        -0.28663E-03
        -0.39903E-03
        -0.28048E-03
        -0.25388E-03
        -0.30828E-03
        -0.32705E-03
        -0.27244E-03
        -0.24380E-03
        -0.63228E-04
        -0.42778E-05
        -0.20873E-04
        -0.21437E-04
        -0.67722E-04
        -0.20306E-03
        -0.33278E-03
        -0.33071E-03
        -0.12178E-05
        -0.51682E-07
        -0.18598E-06
        -0.15691E-05
        -0.65590E-05
        -0.47912E-05
        -0.41866E-06
        -0.19256E-05
        -0.41242E-06
        -0.17524E-05
        -0.66065E-07
        -0.96449E-06
        -0.10362E-04
        -0.60191E-05
        -0.65086E-05
        -0.46846E-05
        -0.14586E-05
        -0.51289E-06
        -0.23443E-06
        -0.71942E-06
        -0.25497E-04
        -0.23156E-04
        -0.22552E-04
        -0.13199E-05
        -0.42970E-06
        -0.19435E-06
        -0.56831E-05
        -0.92734E-07
        -0.65382E-06
        -0.11853E-05
        -0.27698E-05
        -0.11525E-05
        -0.11390E-05
        -0.86432E-06
        -0.20986E-04
        -0.63682E-05
        -0.83833E-05
        -0.80725E-05
        -0.23353E-06
        -0.19139E-05
        -0.25574E-04
        -0.27055E-04
        -0.25796E-04
        -0.13475E-04
        -0.79842E-05
        -0.27318E-05
        -0.31948E-05
        -0.44619E-05
        -0.75577E-07
        -0.11131E-06
        -0.11830E-04
        -0.91487E-05
        -0.36576E-03
        -0.37157E-03
        -0.29964E-03
        -0.20392E-03
        -0.11340E-03
        -0.24058E-04
        -0.14915E-05
        -0.15623E-04
        -0.26953E-04
        -0.90737E-04
        -0.28654E-03
        -0.39904E-03
        -0.28043E-03
        -0.25385E-03
        -0.30836E-03
        -0.32720E-03
        -0.27254E-03
        -0.24390E-03
        -0.63193E-04
        -0.42816E-05
        -0.20842E-04
        -0.21421E-04
        -0.67622E-04
        -0.20282E-03
        -0.33245E-03
        -0.33042E-03
        -0.12224E-05
        -0.52071E-07
        -0.18666E-06
        -0.15712E-05
        -0.65461E-05
        -0.47823E-05
        -0.42389E-06
        -0.19158E-05
        -0.41317E-06
        -0.17490E-05
        -0.63320E-07
        -0.96925E-06
        -0.10375E-04
        -0.59894E-05
        -0.65016E-05
        -0.46954E-05
        -0.14654E-05
        -0.51000E-06
        -0.23423E-06
        -0.71686E-06
        -0.25494E-04
        -0.23152E-04
        -0.22553E-04
        -0.13200E-05
        -0.43215E-06
        -0.19521E-06
        -0.56858E-05
        -0.89301E-07
        -0.66294E-06
        -0.11867E-05
        -0.27788E-05
        -0.11527E-05
        -0.11294E-05
        -0.86510E-06
        -0.21006E-04
        -0.63625E-05
        -0.83779E-05
        -0.80982E-05
        -0.23793E-06
        -0.19259E-05
        -0.25607E-04
        -0.27089E-04
        -0.25803E-04
        -0.13473E-04
        -0.79780E-05
        -0.27289E-05
        -0.31939E-05
        -0.44650E-05
        -0.74431E-07
        -0.11053E-06
        -0.11814E-04
        -0.91215E-05
        -0.36550E-03
        -0.37138E-03
        -0.29959E-03
        -0.20392E-03
        -0.11333E-03
        -0.24043E-04
        -0.14949E-05
        -0.15642E-04
        -0.26908E-04
        -0.90665E-04
        -0.28645E-03
        -0.39907E-03
        -0.28039E-03
        -0.25382E-03
        -0.30845E-03
        -0.32737E-03
        -0.27265E-03
        -0.24399E-03
        -0.63157E-04
        -0.42856E-05
        -0.20812E-04
        -0.21404E-04
        -0.67523E-04
        -0.20257E-03
        -0.33211E-03
        -0.33012E-03
        -0.12270E-05
        -0.52461E-07
        -0.18736E-06
        -0.15732E-05
        -0.65335E-05
        -0.47735E-05
        -0.42923E-06
        -0.19059E-05
        -0.41381E-06
        -0.17450E-05
        -0.60627E-07
        -0.97396E-06
        -0.10387E-04
        -0.59597E-05
        -0.64946E-05
        -0.47070E-05
        -0.14725E-05
        -0.50710E-06
        -0.23397E-06
        -0.71428E-06
        -0.25492E-04
        -0.23150E-04
        -0.22554E-04
        -0.13202E-05
        -0.43500E-06
        -0.19620E-06
        -0.56882E-05
        -0.86038E-07
        -0.67209E-06
        -0.11880E-05
        -0.27883E-05
        -0.11533E-05
        -0.11197E-05
        -0.86586E-06
        -0.21028E-04
        -0.63568E-05
        -0.83726E-05
        -0.81239E-05
        -0.24235E-06
        -0.19381E-05
        -0.25642E-04
        -0.27126E-04
        -0.25813E-04
        -0.13471E-04
        -0.79716E-05
        -0.27258E-05
        -0.31932E-05
        -0.44684E-05
        -0.73302E-07
        -0.10975E-06
        -0.11800E-04
        -0.90944E-05
        -0.36525E-03
        -0.37119E-03
        -0.29953E-03
        -0.20392E-03
        -0.11326E-03
        -0.24029E-04
        -0.14983E-05
        -0.15662E-04
        -0.26862E-04
        -0.90592E-04
        -0.28636E-03
        -0.39910E-03
        -0.28037E-03
        -0.25381E-03
        -0.30855E-03
        -0.32756E-03
        -0.27277E-03
        -0.24409E-03
        -0.63122E-04
        -0.42895E-05
        -0.20781E-04
        -0.21387E-04
        -0.67423E-04
        -0.20232E-03
        -0.33178E-03
        -0.32982E-03
        -0.12314E-05
        -0.52885E-07
        -0.18797E-06
        -0.15752E-05
        -0.65207E-05
        -0.47647E-05
        -0.43459E-06
        -0.18958E-05
        -0.41442E-06
        -0.17409E-05
        -0.57991E-07
        -0.97867E-06
        -0.10400E-04
        -0.59301E-05
        -0.64875E-05
        -0.47189E-05
        -0.14796E-05
        -0.50422E-06
        -0.23370E-06
        -0.71182E-06
        -0.25492E-04
        -0.23148E-04
        -0.22558E-04
        -0.13204E-05
        -0.43784E-06
        -0.19722E-06
        -0.56903E-05
        -0.82855E-07
        -0.68137E-06
        -0.11895E-05
        -0.27978E-05
        -0.11538E-05
        -0.11100E-05
        -0.86655E-06
        -0.21049E-04
        -0.63517E-05
        -0.83677E-05
        -0.81495E-05
        -0.24681E-06
        -0.19504E-05
        -0.25677E-04
        -0.27163E-04
        -0.25825E-04
        -0.13470E-04
        -0.79658E-05
        -0.27230E-05
        -0.31923E-05
        -0.44716E-05
        -0.72147E-07
        -0.10904E-06
        -0.11785E-04
        -0.90681E-05
        -0.36500E-03
        -0.37100E-03
        -0.29948E-03
        -0.20392E-03
        -0.11319E-03
        -0.24014E-04
        -0.15016E-05
        -0.15681E-04
        -0.26817E-04
        -0.90520E-04
        -0.28627E-03
        -0.39913E-03
        -0.28035E-03
        -0.25379E-03
        -0.30865E-03
        -0.32776E-03
        -0.27289E-03
        -0.24418E-03
        -0.63087E-04
        -0.42929E-05
        -0.20750E-04
        -0.21370E-04
        -0.67324E-04
        -0.20207E-03
        -0.33145E-03
        -0.32953E-03
        -0.12354E-05
        -0.53397E-07
        -0.18845E-06
        -0.15772E-05
        -0.65083E-05
        -0.47561E-05
        -0.44009E-06
        -0.18856E-05
        -0.41508E-06
        -0.17370E-05
        -0.55402E-07
        -0.98341E-06
        -0.10413E-04
        -0.59004E-05
        -0.64803E-05
        -0.47308E-05
        -0.14865E-05
        -0.50131E-06
        -0.23349E-06
        -0.70942E-06
        -0.25491E-04
        -0.23147E-04
        -0.22562E-04
        -0.13207E-05
        -0.44036E-06
        -0.19812E-06
        -0.56927E-05
        -0.79661E-07
        -0.69079E-06
        -0.11913E-05
        -0.28068E-05
        -0.11539E-05
        -0.11002E-05
        -0.86705E-06
        -0.21071E-04
        -0.63470E-05
        -0.83632E-05
        -0.81751E-05
        -0.25135E-06
        -0.19629E-05
        -0.25712E-04
        -0.27201E-04
        -0.25837E-04
        -0.13469E-04
        -0.79606E-05
        -0.27206E-05
        -0.31908E-05
        -0.44746E-05
        -0.70906E-07
        -0.10849E-06
        -0.11772E-04
        -0.90417E-05
        -0.36475E-03
        -0.37081E-03
        -0.29942E-03
        -0.20392E-03
        -0.11312E-03
        -0.23999E-04
        -0.15049E-05
        -0.15700E-04
        -0.26771E-04
        -0.90448E-04
        -0.28618E-03
        -0.39917E-03
        -0.28033E-03
        -0.25377E-03
        -0.30875E-03
        -0.32796E-03
        -0.27302E-03
        -0.24426E-03
        -0.63050E-04
        -0.42959E-05
        -0.20718E-04
        -0.21354E-04
        -0.67228E-04
        -0.20183E-03
        -0.33113E-03
        -0.32924E-03
        -0.12393E-05
        -0.53938E-07
        -0.18886E-06
        -0.15791E-05
        -0.64963E-05
        -0.47472E-05
        -0.44569E-06
        -0.18753E-05
        -0.41575E-06
        -0.17333E-05
        -0.52865E-07
        -0.98816E-06
        -0.10426E-04
        -0.58709E-05
        -0.64731E-05
        -0.47427E-05
        -0.14932E-05
        -0.49840E-06
        -0.23325E-06
        -0.70716E-06
        -0.25491E-04
        -0.23145E-04
        -0.22566E-04
        -0.13210E-05
        -0.44273E-06
        -0.19897E-06
        -0.56952E-05
        -0.76510E-07
        -0.70042E-06
        -0.11932E-05
        -0.28155E-05
        -0.11537E-05
        -0.10902E-05
        -0.86746E-06
        -0.21094E-04
        -0.63429E-05
        -0.83592E-05
        -0.82006E-05
        -0.25593E-06
        -0.19754E-05
        -0.25748E-04
        -0.27240E-04
        -0.25849E-04
        -0.13469E-04
        -0.79558E-05
        -0.27186E-05
        -0.31892E-05
        -0.44774E-05
        -0.69636E-07
        -0.10802E-06
        -0.11760E-04
        -0.90161E-05
        -0.36450E-03
        -0.37062E-03
        -0.29937E-03
        -0.20392E-03
        -0.11305E-03
        -0.23985E-04
        -0.15082E-05
        -0.15719E-04
        -0.26726E-04
        -0.90377E-04
        -0.28608E-03
        -0.39920E-03
        -0.28030E-03
        -0.25376E-03
        -0.30884E-03
        -0.32816E-03
        -0.27314E-03
        -0.24435E-03
        -0.63013E-04
        -0.42986E-05
        -0.20686E-04
        -0.21337E-04
        -0.67133E-04
        -0.20158E-03
        -0.33080E-03
        -0.32894E-03
        -0.12432E-05
        -0.54488E-07
        -0.18926E-06
        -0.15810E-05
        -0.64840E-05
        -0.47384E-05
        -0.45129E-06
        -0.18651E-05
        -0.41644E-06
        -0.17296E-05
        -0.50397E-07
        -0.99292E-06
        -0.10439E-04
        -0.58415E-05
        -0.64659E-05
        -0.47545E-05
        -0.14999E-05
        -0.49552E-06
        -0.23299E-06
        -0.70482E-06
        -0.25490E-04
        -0.23144E-04
        -0.22570E-04
        -0.13214E-05
        -0.44509E-06
        -0.19981E-06
        -0.56979E-05
        -0.73429E-07
        -0.71009E-06
        -0.11951E-05
        -0.28243E-05
        -0.11536E-05
        -0.10803E-05
        -0.86788E-06
        -0.21118E-04
        -0.63383E-05
        -0.83552E-05
        -0.82262E-05
        -0.26057E-06
        -0.19879E-05
        -0.25783E-04
        -0.27278E-04
        -0.25862E-04
        -0.13469E-04
        -0.79513E-05
        -0.27165E-05
        -0.31875E-05
        -0.44802E-05
        -0.68377E-07
        -0.10757E-06
        -0.11748E-04
        -0.89901E-05
        -0.36425E-03
        -0.37043E-03
        -0.29931E-03
        -0.20393E-03
        -0.11298E-03
        -0.23970E-04
        -0.15115E-05
        -0.15738E-04
        -0.26681E-04
        -0.90305E-04
        -0.28599E-03
        -0.39923E-03
        -0.28028E-03
        -0.25374E-03
        -0.30894E-03
        -0.32837E-03
        -0.27327E-03
        -0.24443E-03
        -0.62976E-04
        -0.43014E-05
        -0.20653E-04
        -0.21321E-04
        -0.67037E-04
        -0.20134E-03
        -0.33047E-03
        -0.32865E-03
        -0.12471E-05
        -0.55047E-07
        -0.18966E-06
        -0.15829E-05
        -0.64718E-05
        -0.47296E-05
        -0.45696E-06
        -0.18548E-05
        -0.41713E-06
        -0.17260E-05
        -0.47986E-07
        -0.99768E-06
        -0.10452E-04
        -0.58123E-05
        -0.64587E-05
        -0.47663E-05
        -0.15067E-05
        -0.49267E-06
        -0.23274E-06
        -0.70256E-06
        -0.25489E-04
        -0.23142E-04
        -0.22574E-04
        -0.13217E-05
        -0.44746E-06
        -0.20066E-06
        -0.57005E-05
        -0.70428E-07
        -0.71980E-06
        -0.11970E-05
        -0.28331E-05
        -0.11534E-05
        -0.10705E-05
        -0.86831E-06
        -0.21140E-04
        -0.63343E-05
        -0.83512E-05
        -0.82518E-05
        -0.26526E-06
        -0.20006E-05
        -0.25819E-04
        -0.27316E-04
        -0.25874E-04
        -0.13469E-04
        -0.79466E-05
        -0.27143E-05
        -0.31859E-05
        -0.44831E-05
        -0.67139E-07
        -0.10708E-06
        -0.11736E-04
        -0.89641E-05
        -0.36400E-03
        -0.37024E-03
        -0.29925E-03
        -0.20393E-03
        -0.11291E-03
        -0.23955E-04
        -0.15148E-05
        -0.15757E-04
        -0.26636E-04
        -0.90234E-04
        -0.28590E-03
        -0.39926E-03
        -0.28026E-03
        -0.25372E-03
        -0.30904E-03
        -0.32857E-03
        -0.27339E-03
        -0.24452E-03
        -0.62940E-04
        -0.43040E-05
        -0.20621E-04
        -0.21304E-04
        -0.66941E-04
        -0.20109E-03
        -0.33015E-03
        -0.32836E-03
        -0.12510E-05
        -0.55603E-07
        -0.19008E-06
        -0.15848E-05
        -0.64599E-05
        -0.47211E-05
        -0.46261E-06
        -0.18446E-05
        -0.41781E-06
        -0.17223E-05
        -0.45632E-07
        -0.10025E-05
        -0.10465E-04
        -0.57832E-05
        -0.64514E-05
        -0.47781E-05
        -0.15135E-05
        -0.48982E-06
        -0.23254E-06
        -0.70020E-06
        -0.25488E-04
        -0.23141E-04
        -0.22578E-04
        -0.13221E-05
        -0.44981E-06
        -0.20149E-06
        -0.57033E-05
        -0.67487E-07
        -0.72956E-06
        -0.11988E-05
        -0.28418E-05
        -0.11532E-05
        -0.10608E-05
        -0.86873E-06
        -0.21163E-04
        -0.63299E-05
        -0.83473E-05
        -0.82774E-05
        -0.26999E-06
        -0.20131E-05
        -0.25855E-04
        -0.27354E-04
        -0.25887E-04
        -0.13469E-04
        -0.79419E-05
        -0.27124E-05
        -0.31842E-05
        -0.44859E-05
        -0.65900E-07
        -0.10660E-06
        -0.11724E-04
        -0.89385E-05
        -0.36374E-03
        -0.37005E-03
        -0.29919E-03
        -0.20392E-03
        -0.11284E-03
        -0.23941E-04
        -0.15180E-05
        -0.15776E-04
        -0.26591E-04
        -0.90162E-04
        -0.28580E-03
        -0.39929E-03
        -0.28024E-03
        -0.25371E-03
        -0.30914E-03
        -0.32877E-03
        -0.27351E-03
        -0.24460E-03
        -0.62903E-04
        -0.43066E-05
        -0.20588E-04
        -0.21288E-04
        -0.66845E-04
        -0.20085E-03
        -0.32982E-03
        -0.32806E-03
        -0.12548E-05
        -0.56161E-07
        -0.19047E-06
        -0.15867E-05
        -0.64477E-05
        -0.47123E-05
        -0.46833E-06
        -0.18345E-05
        -0.41849E-06
        -0.17187E-05
        -0.43342E-07
        -0.10074E-05
        -0.10478E-04
        -0.57542E-05
        -0.64441E-05
        -0.47899E-05
        -0.15202E-05
        -0.48696E-06
        -0.23230E-06
        -0.69795E-06
        -0.25487E-04
        -0.23139E-04
        -0.22582E-04
        -0.13225E-05
        -0.45215E-06
        -0.20236E-06
        -0.57059E-05
        -0.64622E-07
        -0.73929E-06
        -0.12007E-05
        -0.28507E-05
        -0.11531E-05
        -0.10510E-05
        -0.86915E-06
        -0.21187E-04
        -0.63256E-05
        -0.83432E-05
        -0.83029E-05
        -0.27479E-06
        -0.20260E-05
        -0.25890E-04
        -0.27392E-04
        -0.25899E-04
        -0.13469E-04
        -0.79372E-05
        -0.27104E-05
        -0.31825E-05
        -0.44888E-05
        -0.64671E-07
        -0.10616E-06
        -0.11711E-04
        -0.89126E-05
        -0.36349E-03
        -0.36986E-03
        -0.29914E-03
        -0.20392E-03
        -0.11277E-03
        -0.23926E-04
        -0.15213E-05
        -0.15795E-04
        -0.26546E-04
        -0.90090E-04
        -0.28571E-03
        -0.39933E-03
        -0.28021E-03
        -0.25369E-03
        -0.30924E-03
        -0.32897E-03
        -0.27364E-03
        -0.24469E-03
        -0.62866E-04
        -0.43092E-05
        -0.20556E-04
        -0.21271E-04
        -0.66750E-04
        -0.20061E-03
        -0.32949E-03
        -0.32777E-03
        -0.12588E-05
        -0.56728E-07
        -0.19087E-06
        -0.15886E-05
        -0.64356E-05
        -0.47036E-05
        -0.47407E-06
        -0.18243E-05
        -0.41915E-06
        -0.17150E-05
        -0.41118E-07
        -0.10122E-05
        -0.10491E-04
        -0.57253E-05
        -0.64368E-05
        -0.48018E-05
        -0.15270E-05
        -0.48411E-06
        -0.23207E-06
        -0.69563E-06
        -0.25486E-04
        -0.23138E-04
        -0.22586E-04
        -0.13229E-05
        -0.45447E-06
        -0.20320E-06
        -0.57085E-05
        -0.61813E-07
        -0.74917E-06
        -0.12026E-05
        -0.28594E-05
        -0.11529E-05
        -0.10413E-05
        -0.86957E-06
        -0.21209E-04
        -0.63217E-05
        -0.83393E-05
        -0.83284E-05
        -0.27963E-06
        -0.20387E-05
        -0.25927E-04
        -0.27430E-04
        -0.25912E-04
        -0.13469E-04
        -0.79329E-05
        -0.27081E-05
        -0.31809E-05
        -0.44917E-05
        -0.63448E-07
        -0.10568E-06
        -0.11699E-04
        -0.88867E-05
        -0.36324E-03
        -0.36968E-03
        -0.29908E-03
        -0.20393E-03
        -0.11270E-03
        -0.23911E-04
        -0.15246E-05
        -0.15814E-04
        -0.26501E-04
        -0.90017E-04
        -0.28562E-03
        -0.39936E-03
        -0.28019E-03
        -0.25367E-03
        -0.30934E-03
        -0.32917E-03
        -0.27376E-03
        -0.24477E-03
        -0.62830E-04
        -0.43119E-05
        -0.20523E-04
        -0.21255E-04
        -0.66655E-04
        -0.20036E-03
        -0.32917E-03
        -0.32748E-03
        -0.12627E-05
        -0.57287E-07
        -0.19126E-06
        -0.15904E-05
        -0.64238E-05
        -0.46948E-05
        -0.47978E-06
        -0.18142E-05
        -0.41982E-06
        -0.17113E-05
        -0.38956E-07
        -0.10170E-05
        -0.10504E-04
        -0.56965E-05
        -0.64294E-05
        -0.48136E-05
        -0.15338E-05
        -0.48129E-06
        -0.23188E-06
        -0.69339E-06
        -0.25486E-04
        -0.23137E-04
        -0.22590E-04
        -0.13233E-05
        -0.45680E-06
        -0.20405E-06
        -0.57110E-05
        -0.59084E-07
        -0.75911E-06
        -0.12044E-05
        -0.28682E-05
        -0.11527E-05
        -0.10316E-05
        -0.86998E-06
        -0.21233E-04
        -0.63174E-05
        -0.83354E-05
        -0.83537E-05
        -0.28452E-06
        -0.20516E-05
        -0.25962E-04
        -0.27468E-04
        -0.25924E-04
        -0.13469E-04
        -0.79281E-05
        -0.27061E-05
        -0.31792E-05
        -0.44945E-05
        -0.62241E-07
        -0.10521E-06
        -0.11687E-04
        -0.88612E-05
        -0.36299E-03
        -0.36949E-03
        -0.29902E-03
        -0.20393E-03
        -0.11263E-03
        -0.23896E-04
        -0.15279E-05
        -0.15832E-04
        -0.26456E-04
        -0.89945E-04
        -0.28552E-03
        -0.39939E-03
        -0.28017E-03
        -0.25366E-03
        -0.30944E-03
        -0.32937E-03
        -0.27389E-03
        -0.24486E-03
        -0.62793E-04
        -0.43143E-05
        -0.20491E-04
        -0.21239E-04
        -0.66559E-04
        -0.20012E-03
        -0.32884E-03
        -0.32719E-03
        -0.12666E-05
        -0.57847E-07
        -0.19165E-06
        -0.15923E-05
        -0.64117E-05
        -0.46860E-05
        -0.48558E-06
        -0.18041E-05
        -0.42049E-06
        -0.17076E-05
        -0.36853E-07
        -0.10219E-05
        -0.10518E-04
        -0.56678E-05
        -0.64220E-05
        -0.48254E-05
        -0.15406E-05
        -0.47847E-06
        -0.23165E-06
        -0.69106E-06
        -0.25485E-04
        -0.23135E-04
        -0.22593E-04
        -0.13237E-05
        -0.45912E-06
        -0.20489E-06
        -0.57135E-05
        -0.56416E-07
        -0.76910E-06
        -0.12063E-05
        -0.28770E-05
        -0.11525E-05
        -0.10219E-05
        -0.87039E-06
        -0.21256E-04
        -0.63135E-05
        -0.83315E-05
        -0.83789E-05
        -0.28945E-06
        -0.20645E-05
        -0.25998E-04
        -0.27506E-04
        -0.25937E-04
        -0.13469E-04
        -0.79234E-05
        -0.27041E-05
        -0.31775E-05
        -0.44974E-05
        -0.61026E-07
        -0.10476E-06
        -0.11675E-04
        -0.88353E-05
        -0.36274E-03
        -0.36930E-03
        -0.29896E-03
        -0.20393E-03
        -0.11256E-03
        -0.23882E-04
        -0.15311E-05
        -0.15850E-04
        -0.26411E-04
        -0.89874E-04
        -0.28543E-03
        -0.39942E-03
        -0.28014E-03
        -0.25364E-03
        -0.30954E-03
        -0.32957E-03
        -0.27401E-03
        -0.24494E-03
        -0.62756E-04
        -0.43169E-05
        -0.20459E-04
        -0.21223E-04
        -0.66464E-04
        -0.19988E-03
        -0.32852E-03
        -0.32689E-03
        -0.12706E-05
        -0.58423E-07
        -0.19205E-06
        -0.15941E-05
        -0.63996E-05
        -0.46776E-05
        -0.49137E-06
        -0.17940E-05
        -0.42116E-06
        -0.17040E-05
        -0.34808E-07
        -0.10268E-05
        -0.10531E-04
        -0.56392E-05
        -0.64145E-05
        -0.48373E-05
        -0.15474E-05
        -0.47569E-06
        -0.23142E-06
        -0.68881E-06
        -0.25484E-04
        -0.23134E-04
        -0.22598E-04
        -0.13240E-05
        -0.46140E-06
        -0.20574E-06
        -0.57161E-05
        -0.53813E-07
        -0.77913E-06
        -0.12081E-05
        -0.28858E-05
        -0.11524E-05
        -0.10123E-05
        -0.87081E-06
        -0.21279E-04
        -0.63092E-05
        -0.83276E-05
        -0.84042E-05
        -0.29445E-06
        -0.20773E-05
        -0.26033E-04
        -0.27544E-04
        -0.25949E-04
        -0.13468E-04
        -0.79190E-05
        -0.27019E-05
        -0.31758E-05
        -0.45002E-05
        -0.59837E-07
        -0.10428E-06
        -0.11663E-04
        -0.88095E-05
        -0.36248E-03
        -0.36911E-03
        -0.29891E-03
        -0.20393E-03
        -0.11249E-03
        -0.23867E-04
        -0.15343E-05
        -0.15869E-04
        -0.26366E-04
        -0.89802E-04
        -0.28534E-03
        -0.39946E-03
        -0.28012E-03
        -0.25362E-03
        -0.30964E-03
        -0.32978E-03
        -0.27414E-03
        -0.24502E-03
        -0.62719E-04
        -0.43194E-05
        -0.20426E-04
        -0.21206E-04
        -0.66369E-04
        -0.19963E-03
        -0.32819E-03
        -0.32660E-03
        -0.12745E-05
        -0.58993E-07
        -0.19245E-06
        -0.15960E-05
        -0.63879E-05
        -0.46688E-05
        -0.49722E-06
        -0.17839E-05
        -0.42180E-06
        -0.17001E-05
        -0.32822E-07
        -0.10317E-05
        -0.10544E-04
        -0.56106E-05
        -0.64069E-05
        -0.48492E-05
        -0.15542E-05
        -0.47292E-06
        -0.23120E-06
        -0.68650E-06
        -0.25483E-04
        -0.23132E-04
        -0.22601E-04
        -0.13245E-05
        -0.46364E-06
        -0.20659E-06
        -0.57183E-05
        -0.51247E-07
        -0.78914E-06
        -0.12099E-05
        -0.28947E-05
        -0.11522E-05
        -0.10028E-05
        -0.87128E-06
        -0.21303E-04
        -0.63050E-05
        -0.83235E-05
        -0.84292E-05
        -0.29955E-06
        -0.20904E-05
        -0.26068E-04
        -0.27582E-04
        -0.25961E-04
        -0.13469E-04
        -0.79142E-05
        -0.26999E-05
        -0.31742E-05
        -0.45032E-05
        -0.58663E-07
        -0.10381E-06
        -0.11650E-04
        -0.87842E-05
        -0.36223E-03
        -0.36893E-03
        -0.29885E-03
        -0.20393E-03
        -0.11242E-03
        -0.23852E-04
        -0.15374E-05
        -0.15887E-04
        -0.26322E-04
        -0.89729E-04
        -0.28525E-03
        -0.39950E-03
        -0.28010E-03
        -0.25360E-03
        -0.30974E-03
        -0.32997E-03
        -0.27426E-03
        -0.24511E-03
        -0.62682E-04
        -0.43219E-05
        -0.20394E-04
        -0.21190E-04
        -0.66274E-04
        -0.19939E-03
        -0.32787E-03
        -0.32631E-03
        -0.12785E-05
        -0.59565E-07
        -0.19284E-06
        -0.15978E-05
        -0.63759E-05
        -0.46601E-05
        -0.50307E-06
        -0.17739E-05
        -0.42238E-06
        -0.16959E-05
        -0.30897E-07
        -0.10366E-05
        -0.10557E-04
        -0.55819E-05
        -0.63992E-05
        -0.48610E-05
        -0.15610E-05
        -0.47013E-06
        -0.23105E-06
        -0.68430E-06
        -0.25482E-04
        -0.23130E-04
        -0.22606E-04
        -0.13248E-05
        -0.46575E-06
        -0.20747E-06
        -0.57196E-05
        -0.48683E-07
        -0.79928E-06
        -0.12119E-05
        -0.29035E-05
        -0.11520E-05
        -0.99324E-06
        -0.87170E-06
        -0.21326E-04
        -0.63011E-05
        -0.83197E-05
        -0.84538E-05
        -0.30483E-06
        -0.21032E-05
        -0.26100E-04
        -0.27616E-04
        -0.25971E-04
        -0.13469E-04
        -0.79096E-05
        -0.26978E-05
        -0.31725E-05
        -0.45061E-05
        -0.57504E-07
        -0.10335E-06
        -0.11638E-04
        -0.87584E-05
        -0.36198E-03
        -0.36874E-03
        -0.29879E-03
        -0.20393E-03
        -0.11235E-03
        -0.23838E-04
        -0.15405E-05
        -0.15905E-04
        -0.26278E-04
        -0.89655E-04
        -0.28515E-03
        -0.39956E-03
        -0.28010E-03
        -0.25359E-03
        -0.30984E-03
        -0.33017E-03
        -0.27439E-03
        -0.24519E-03
        -0.62646E-04
        -0.43244E-05
        -0.20362E-04
        -0.21173E-04
        -0.66179E-04
        -0.19915E-03
        -0.32754E-03
        -0.32602E-03
        -0.12824E-05
        -0.60136E-07
        -0.19322E-06
        -0.15997E-05
        -0.63638E-05
        -0.46514E-05
        -0.50898E-06
        -0.17639E-05
        -0.42290E-06
        -0.16913E-05
        -0.29036E-07
        -0.10415E-05
        -0.10570E-04
        -0.55531E-05
        -0.63912E-05
        -0.48729E-05
        -0.15678E-05
        -0.46736E-06
        -0.23084E-06
        -0.68203E-06
        -0.25482E-04
        -0.23128E-04
        -0.22610E-04
        -0.13253E-05
        -0.46769E-06
        -0.20831E-06
        -0.57201E-05
        -0.46109E-07
        -0.80947E-06
        -0.12137E-05
        -0.29124E-05
        -0.11518E-05
        -0.98374E-06
        -0.87213E-06
        -0.21349E-04
        -0.62969E-05
        -0.83159E-05
        -0.84779E-05
        -0.31031E-06
        -0.21162E-05
        -0.26130E-04
        -0.27647E-04
        -0.25980E-04
        -0.13469E-04
        -0.79051E-05
        -0.26958E-05
        -0.31709E-05
        -0.45090E-05
        -0.56343E-07
        -0.10289E-06
        -0.11626E-04
        -0.87325E-05
        -0.36173E-03
        -0.36856E-03
        -0.29873E-03
        -0.20393E-03
        -0.11228E-03
        -0.23823E-04
        -0.15436E-05
        -0.15924E-04
        -0.26235E-04
        -0.89579E-04
        -0.28505E-03
        -0.39964E-03
        -0.28010E-03
        -0.25358E-03
        -0.30994E-03
        -0.33038E-03
        -0.27451E-03
        -0.24527E-03
        -0.62609E-04
        -0.43269E-05
        -0.20330E-04
        -0.21157E-04
        -0.66084E-04
        -0.19891E-03
        -0.32722E-03
        -0.32573E-03
        -0.12864E-05
        -0.60714E-07
        -0.19362E-06
        -0.16015E-05
        -0.63522E-05
        -0.46430E-05
        -0.51484E-06
        -0.17540E-05
        -0.42339E-06
        -0.16865E-05
        -0.27245E-07
        -0.10463E-05
        -0.10583E-04
        -0.55245E-05
        -0.63833E-05
        -0.48847E-05
        -0.15745E-05
        -0.46462E-06
        -0.23061E-06
        -0.67983E-06
        -0.25481E-04
        -0.23126E-04
        -0.22613E-04
        -0.13257E-05
        -0.46957E-06
        -0.20916E-06
        -0.57204E-05
        -0.43597E-07
        -0.81965E-06
        -0.12156E-05
        -0.29213E-05
        -0.11516E-05
        -0.97437E-06
        -0.87259E-06
        -0.21373E-04
        -0.62931E-05
        -0.83120E-05
        -0.85017E-05
        -0.31589E-06
        -0.21289E-05
        -0.26158E-04
        -0.27678E-04
        -0.25989E-04
        -0.13469E-04
        -0.79004E-05
        -0.26938E-05
        -0.31693E-05
        -0.45121E-05
        -0.55207E-07
        -0.10241E-06
        -0.11614E-04
        -0.87073E-05
        -0.36148E-03
        -0.36837E-03
        -0.29868E-03
        -0.20393E-03
        -0.11221E-03
        -0.23808E-04
        -0.15467E-05
        -0.15941E-04
        -0.26191E-04
        -0.89500E-04
        -0.28495E-03
        -0.39973E-03
        -0.28010E-03
        -0.25356E-03
        -0.31004E-03
        -0.33058E-03
        -0.27464E-03
        -0.24535E-03
        -0.62573E-04
        -0.43296E-05
        -0.20298E-04
        -0.21141E-04
        -0.65990E-04
        -0.19867E-03
        -0.32690E-03
        -0.32544E-03
        -0.12990E-05
        -0.61589E-07
        -0.19537E-06
        -0.16141E-05
        -0.63801E-05
        -0.46647E-05
        -0.52353E-06
        -0.17569E-05
        -0.42667E-06
        -0.16940E-05
        -0.25903E-07
        -0.10564E-05
        -0.10660E-04
        -0.55346E-05
        -0.64167E-05
        -0.49287E-05
        -0.15916E-05
        -0.46526E-06
        -0.23181E-06
        -0.68182E-06
        -0.25634E-04
        -0.23267E-04
        -0.22753E-04
        -0.13347E-05
        -0.47440E-06
        -0.21132E-06
        -0.57595E-05
        -0.41587E-07
        -0.83449E-06
        -0.12252E-05
        -0.29495E-05
        -0.11590E-05
        -0.97242E-06
        -0.87905E-06
        -0.21527E-04
        -0.63293E-05
        -0.83604E-05
        -0.85793E-05
        -0.32308E-06
        -0.21542E-05
        -0.26352E-04
        -0.27885E-04
        -0.26163E-04
        -0.13550E-04
        -0.79445E-05
        -0.27073E-05
        -0.31880E-05
        -0.45450E-05
        -0.54562E-07
        -0.10259E-06
        -0.11675E-04
        -0.87390E-05
        -0.36310E-03
        -0.37005E-03
        -0.30016E-03
        -0.20497E-03
        -0.11272E-03
        -0.23911E-04
        -0.15590E-05
        -0.16040E-04
        -0.26291E-04
        -0.89909E-04
        -0.28641E-03
        -0.40191E-03
        -0.28155E-03
        -0.25484E-03
        -0.31166E-03
        -0.33235E-03
        -0.27606E-03
        -0.24663E-03
        -0.62855E-04
        -0.43563E-05
        -0.20376E-04
        -0.21231E-04
        -0.66239E-04
        -0.19945E-03
        -0.32823E-03
        -0.32678E-03
        -0.28614E-05
        -0.13744E-06
        -0.42853E-06
        -0.35680E-05
        -0.12996E-04
        -0.96879E-05
        -0.11611E-05
        -0.38147E-05
        -0.93400E-06
        -0.36656E-05
        -0.53598E-07
        -0.20763E-05
        -0.21595E-04
        -0.11653E-04
        -0.12726E-04
        -0.10877E-04
        -0.34922E-05
        -0.10247E-05
        -0.49698E-06
        -0.14677E-05
        -0.51887E-04
        -0.48305E-04
        -0.46327E-04
        -0.29081E-05
        -0.10473E-05
        -0.46882E-06
        -0.12344E-04
        -0.88496E-07
        -0.18626E-05
        -0.26967E-05
        -0.65146E-05
        -0.25428E-05
        -0.21392E-05
        -0.19427E-05
        -0.42245E-04
        -0.13125E-04
        -0.17353E-04
        -0.17829E-04
        -0.69521E-06
        -0.46433E-05
        -0.55134E-04
        -0.59228E-04
        -0.55511E-04
        -0.27992E-04
        -0.16295E-04
        -0.52361E-05
        -0.64929E-05
        -0.95114E-05
        -0.11377E-06
        -0.21416E-06
        -0.23228E-04
        -0.18034E-04
        -0.55856E-03
        -0.56750E-03
        -0.46072E-03
        -0.31655E-03
        -0.17376E-03
        -0.37010E-04
        -0.24753E-05
        -0.25831E-04
        -0.42117E-04
        -0.14240E-03
        -0.45502E-03
        -0.63671E-03
        -0.45626E-03
        -0.41575E-03
        -0.49561E-03
        -0.51659E-03
        -0.42646E-03
        -0.37659E-03
        -0.95730E-04
        -0.66624E-05
        -0.31778E-04
        -0.33413E-04
        -0.10346E-03
        -0.31374E-03
        -0.51322E-03
        -0.50729E-03
  
SCALARS                      strain_yy  double 1
LOOKUP_TABLE default
        -0.53802E-07
        -0.62752E-08
        -0.40975E-07
        -0.10194E-07
        -0.27048E-20
        -0.20548E-21
        -0.41543E-20
        -0.24168E-20
        -0.59629E-06
        -0.25341E-06
        -0.92006E-20
        -0.71311E-20
        -0.49295E-06
        -0.12780E-08
        -0.47122E-20
        -0.19370E-22
        -0.49699E-07
        -0.80848E-06
        -0.10200E-23
        -0.10679E-21
        -0.22989E-06
        -0.33944E-05
        -0.34341E-05
        -0.24762E-19
        -0.73851E-19
        -0.51598E-19
        -0.32924E-07
        -0.36928E-05
        -0.12812E-19
        -0.48220E-19
        -0.65106E-07
        -0.53073E-07
        -0.33239E-07
        -0.34434E-20
        -0.35884E-20
        -0.15467E-23
        -0.59913E-06
        -0.60698E-06
        -0.11660E-19
        -0.70584E-20
        -0.59960E-06
        -0.25959E-06
        -0.66597E-20
        -0.55619E-20
        -0.46532E-06
        -0.53864E-07
        -0.73283E-23
        -0.17533E-20
        -0.47821E-06
        -0.38867E-21
        -0.38146E-08
        -0.25496E-23
        -0.17844E-08
        -0.58155E-20
        -0.79829E-07
        -0.19680E-20
        -0.84891E-06
        -0.25048E-07
        -0.14484E-23
        -0.59665E-23
        -0.95888E-07
        -0.13121E-05
        -0.26888E-21
        -0.37619E-20
        -0.34364E-07
        -0.10955E-20
        -0.65450E-06
        -0.16258E-20
        -0.46939E-06
        -0.13275E-06
        -0.24830E-22
        -0.43288E-20
        -0.16527E-05
        -0.20873E-19
        -0.60721E-05
        -0.19568E-19
        -0.62461E-05
        -0.11276E-19
        -0.42178E-05
        -0.79218E-20
        -0.88273E-05
        -0.50496E-05
        -0.32600E-20
        -0.16025E-21
        -0.92982E-07
        -0.20064E-23
        -0.11380E-05
        -0.78737E-20
        -0.65652E-05
        -0.24130E-19
        -0.13159E-04
        -0.51267E-05
        -0.53083E-19
        -0.34777E-19
        -0.24921E-05
        -0.20956E-19
        -0.19815E-05
        -0.21934E-19
        -0.18978E-05
        -0.25357E-19
        -0.52766E-05
        -0.36026E-05
        -0.21929E-19
        -0.50346E-20
        -0.25256E-05
        -0.35157E-06
        -0.27112E-20
        -0.41868E-20
        -0.15350E-04
        -0.30006E-19
        -0.30429E-04
        -0.64202E-19
        -0.47140E-04
        -0.97923E-19
        -0.69606E-04
        -0.96348E-19
        -0.10307E-03
        -0.60338E-19
        -0.11191E-03
        -0.36136E-19
        -0.99608E-04
        -0.31260E-19
        -0.78773E-04
        -0.28297E-19
        -0.40189E-04
        -0.11557E-19
        -0.16916E-04
        -0.12598E-20
        -0.38795E-05
        -0.52599E-21
        -0.18961E-07
        -0.11883E-20
        -0.31474E-05
        -0.31699E-21
        -0.97364E-05
        -0.28991E-20
        -0.23355E-04
        -0.23098E-19
        -0.32489E-04
        -0.56322E-19
        -0.41383E-04
        -0.96800E-19
        -0.69000E-04
        -0.96632E-19
        -0.71638E-04
        -0.73640E-19
        -0.60110E-04
        -0.69945E-19
        -0.40928E-04
        -0.70819E-19
        -0.18906E-04
        -0.44284E-19
        -0.92805E-05
        -0.15485E-19
        -0.46628E-05
        -0.92580E-20
        -0.66311E-05
        -0.18281E-05
        -0.13875E-05
        -0.12867E-06
        -0.15033E-05
        -0.16416E-05
        -0.19040E-07
        -0.44004E-05
        -0.30824E-05
        -0.68461E-05
        -0.19886E-05
        -0.36458E-04
        -0.16709E-04
        -0.22440E-06
        -0.36924E-04
        -0.46006E-06
        -0.36377E-06
        -0.14771E-06
        -0.26644E-06
        -0.15072E-06
        -0.12895E-06
        -0.86853E-07
        -0.99759E-06
        -0.70533E-08
        -0.31872E-05
        -0.69743E-07
        -0.19240E-09
        -0.58664E-07
        -0.88170E-07
        -0.19911E-05
        -0.43992E-06
        -0.53725E-06
        -0.23272E-06
        -0.14148E-07
        -0.41805E-07
        -0.11979E-05
        -0.59522E-05
        -0.28216E-04
        -0.23597E-04
        -0.17231E-04
        -0.15527E-04
        -0.92087E-06
        -0.59242E-06
        -0.44810E-05
        -0.12485E-04
        -0.34480E-04
        -0.14415E-04
        -0.71748E-05
        -0.81862E-05
        -0.94765E-05
        -0.13371E-04
        -0.26991E-05
        -0.10614E-04
        -0.14925E-04
        -0.11003E-03
        -0.20872E-03
        -0.33995E-03
        -0.48703E-03
        -0.49973E-03
        -0.41116E-03
        -0.37140E-03
        -0.33238E-03
        -0.13956E-03
        -0.25866E-04
        -0.49261E-05
        -0.95130E-06
        -0.22093E-05
        -0.34269E-04
        -0.11584E-03
        -0.20001E-03
        -0.30566E-03
        -0.39806E-03
        -0.34789E-03
        -0.31081E-03
        -0.26973E-03
        -0.13227E-03
        -0.44216E-04
        -0.33829E-04
        -0.10482E-04
        -0.41698E-05
        -0.35707E-05
        -0.20089E-06
        -0.60235E-05
        -0.12184E-05
        -0.76614E-06
        -0.93636E-05
        -0.40267E-05
        -0.82830E-05
        -0.23153E-05
        -0.43369E-04
        -0.15221E-04
        -0.31432E-06
        -0.42098E-04
        -0.15076E-05
        -0.13845E-06
        -0.12619E-06
        -0.25637E-05
        -0.95827E-07
        -0.19047E-05
        -0.96012E-06
        -0.32270E-06
        -0.22989E-06
        -0.37560E-05
        -0.22979E-06
        -0.14470E-07
        -0.50004E-07
        -0.12759E-06
        -0.37375E-05
        -0.17510E-05
        -0.12150E-06
        -0.73151E-06
        -0.55149E-06
        -0.12539E-06
        -0.11651E-05
        -0.42473E-05
        -0.24315E-04
        -0.18908E-04
        -0.14685E-04
        -0.79257E-05
        -0.48393E-06
        -0.20531E-05
        -0.32034E-05
        -0.53116E-05
        -0.22165E-04
        -0.75046E-05
        -0.32818E-05
        -0.51838E-05
        -0.72245E-05
        -0.77566E-05
        -0.43666E-07
        -0.12062E-04
        -0.24680E-04
        -0.13366E-03
        -0.22323E-03
        -0.37187E-03
        -0.53555E-03
        -0.51380E-03
        -0.39178E-03
        -0.35980E-03
        -0.35224E-03
        -0.13890E-03
        -0.15088E-04
        -0.23951E-05
        -0.17585E-05
        -0.37724E-06
        -0.27149E-04
        -0.10897E-03
        -0.21109E-03
        -0.35752E-03
        -0.43961E-03
        -0.33895E-03
        -0.30294E-03
        -0.30115E-03
        -0.14930E-03
        -0.40290E-04
        -0.36122E-04
        -0.10495E-04
        -0.41713E-05
        -0.35742E-05
        -0.20384E-06
        -0.60249E-05
        -0.12203E-05
        -0.76807E-06
        -0.93953E-05
        -0.40411E-05
        -0.83450E-05
        -0.23180E-05
        -0.43361E-04
        -0.15229E-04
        -0.31434E-06
        -0.42206E-04
        -0.15077E-05
        -0.14098E-06
        -0.12581E-06
        -0.25672E-05
        -0.94761E-07
        -0.19141E-05
        -0.96196E-06
        -0.32285E-06
        -0.22967E-06
        -0.37902E-05
        -0.22896E-06
        -0.14813E-07
        -0.50565E-07
        -0.12591E-06
        -0.37534E-05
        -0.17516E-05
        -0.12097E-06
        -0.73475E-06
        -0.55330E-06
        -0.12304E-06
        -0.11666E-05
        -0.42469E-05
        -0.24390E-04
        -0.18990E-04
        -0.14719E-04
        -0.79379E-05
        -0.48133E-06
        -0.20574E-05
        -0.32067E-05
        -0.53120E-05
        -0.22165E-04
        -0.75062E-05
        -0.32778E-05
        -0.51700E-05
        -0.72052E-05
        -0.77499E-05
        -0.42353E-07
        -0.12039E-04
        -0.24683E-04
        -0.13371E-03
        -0.22323E-03
        -0.37178E-03
        -0.53518E-03
        -0.51337E-03
        -0.39154E-03
        -0.35965E-03
        -0.35205E-03
        -0.13884E-03
        -0.15102E-04
        -0.23948E-05
        -0.17657E-05
        -0.37112E-06
        -0.27178E-04
        -0.10906E-03
        -0.21118E-03
        -0.35750E-03
        -0.43955E-03
        -0.33890E-03
        -0.30292E-03
        -0.30100E-03
        -0.14908E-03
        -0.40201E-04
        -0.36027E-04
        -0.10509E-04
        -0.41729E-05
        -0.35778E-05
        -0.20686E-06
        -0.60263E-05
        -0.12223E-05
        -0.76999E-06
        -0.94270E-05
        -0.40557E-05
        -0.84069E-05
        -0.23208E-05
        -0.43354E-04
        -0.15236E-04
        -0.31428E-06
        -0.42313E-04
        -0.15079E-05
        -0.14356E-06
        -0.12543E-06
        -0.25707E-05
        -0.93683E-07
        -0.19237E-05
        -0.96376E-06
        -0.32310E-06
        -0.22939E-06
        -0.38240E-05
        -0.22801E-06
        -0.15184E-07
        -0.51165E-07
        -0.12409E-06
        -0.37687E-05
        -0.17521E-05
        -0.12033E-06
        -0.73802E-06
        -0.55508E-06
        -0.12071E-06
        -0.11682E-05
        -0.42463E-05
        -0.24465E-04
        -0.19072E-04
        -0.14753E-04
        -0.79508E-05
        -0.47847E-06
        -0.20613E-05
        -0.32109E-05
        -0.53132E-05
        -0.22167E-04
        -0.75075E-05
        -0.32738E-05
        -0.51563E-05
        -0.71858E-05
        -0.77435E-05
        -0.41066E-07
        -0.12017E-04
        -0.24686E-04
        -0.13376E-03
        -0.22323E-03
        -0.37170E-03
        -0.53482E-03
        -0.51294E-03
        -0.39131E-03
        -0.35950E-03
        -0.35185E-03
        -0.13878E-03
        -0.15117E-04
        -0.23945E-05
        -0.17730E-05
        -0.36501E-06
        -0.27208E-04
        -0.10917E-03
        -0.21128E-03
        -0.35749E-03
        -0.43950E-03
        -0.33885E-03
        -0.30289E-03
        -0.30085E-03
        -0.14887E-03
        -0.40113E-04
        -0.35932E-04
        -0.10522E-04
        -0.41745E-05
        -0.35815E-05
        -0.20990E-06
        -0.60277E-05
        -0.12243E-05
        -0.77203E-06
        -0.94584E-05
        -0.40704E-05
        -0.84682E-05
        -0.23236E-05
        -0.43347E-04
        -0.15245E-04
        -0.31429E-06
        -0.42421E-04
        -0.15082E-05
        -0.14621E-06
        -0.12504E-06
        -0.25745E-05
        -0.92547E-07
        -0.19334E-05
        -0.96539E-06
        -0.32366E-06
        -0.22893E-06
        -0.38569E-05
        -0.22676E-06
        -0.15572E-07
        -0.51964E-07
        -0.12185E-06
        -0.37826E-05
        -0.17524E-05
        -0.11946E-06
        -0.74126E-06
        -0.55688E-06
        -0.11841E-06
        -0.11697E-05
        -0.42458E-05
        -0.24541E-04
        -0.19156E-04
        -0.14790E-04
        -0.79656E-05
        -0.47483E-06
        -0.20646E-05
        -0.32172E-05
        -0.53164E-05
        -0.22169E-04
        -0.75101E-05
        -0.32698E-05
        -0.51426E-05
        -0.71664E-05
        -0.77365E-05
        -0.39802E-07
        -0.11994E-04
        -0.24688E-04
        -0.13381E-03
        -0.22324E-03
        -0.37161E-03
        -0.53446E-03
        -0.51250E-03
        -0.39107E-03
        -0.35935E-03
        -0.35166E-03
        -0.13873E-03
        -0.15135E-04
        -0.23946E-05
        -0.17801E-05
        -0.35892E-06
        -0.27240E-04
        -0.10929E-03
        -0.21140E-03
        -0.35748E-03
        -0.43944E-03
        -0.33881E-03
        -0.30287E-03
        -0.30069E-03
        -0.14866E-03
        -0.40025E-04
        -0.35838E-04
        -0.10535E-04
        -0.41760E-05
        -0.35850E-05
        -0.21295E-06
        -0.60291E-05
        -0.12263E-05
        -0.77393E-06
        -0.94898E-05
        -0.40850E-05
        -0.85290E-05
        -0.23264E-05
        -0.43339E-04
        -0.15252E-04
        -0.31433E-06
        -0.42530E-04
        -0.15085E-05
        -0.14892E-06
        -0.12465E-06
        -0.25785E-05
        -0.91356E-07
        -0.19434E-05
        -0.96683E-06
        -0.32451E-06
        -0.22829E-06
        -0.38887E-05
        -0.22520E-06
        -0.16010E-07
        -0.52950E-07
        -0.11919E-06
        -0.37950E-05
        -0.17524E-05
        -0.11834E-06
        -0.74451E-06
        -0.55869E-06
        -0.11611E-06
        -0.11713E-05
        -0.42454E-05
        -0.24618E-04
        -0.19241E-04
        -0.14829E-04
        -0.79825E-05
        -0.47040E-06
        -0.20671E-05
        -0.32258E-05
        -0.53217E-05
        -0.22174E-04
        -0.75134E-05
        -0.32663E-05
        -0.51291E-05
        -0.71469E-05
        -0.77301E-05
        -0.38550E-07
        -0.11972E-04
        -0.24691E-04
        -0.13386E-03
        -0.22324E-03
        -0.37151E-03
        -0.53410E-03
        -0.51207E-03
        -0.39083E-03
        -0.35920E-03
        -0.35146E-03
        -0.13868E-03
        -0.15156E-04
        -0.23950E-05
        -0.17872E-05
        -0.35285E-06
        -0.27274E-04
        -0.10942E-03
        -0.21153E-03
        -0.35748E-03
        -0.43939E-03
        -0.33876E-03
        -0.30285E-03
        -0.30054E-03
        -0.14845E-03
        -0.39938E-04
        -0.35743E-04
        -0.10547E-04
        -0.41770E-05
        -0.35886E-05
        -0.21607E-06
        -0.60305E-05
        -0.12282E-05
        -0.77563E-06
        -0.95198E-05
        -0.40999E-05
        -0.85884E-05
        -0.23295E-05
        -0.43333E-04
        -0.15260E-04
        -0.31443E-06
        -0.42637E-04
        -0.15088E-05
        -0.15172E-06
        -0.12427E-06
        -0.25824E-05
        -0.90150E-07
        -0.19534E-05
        -0.96821E-06
        -0.32549E-06
        -0.22759E-06
        -0.39198E-05
        -0.22354E-06
        -0.16487E-07
        -0.54052E-07
        -0.11638E-06
        -0.38068E-05
        -0.17522E-05
        -0.11709E-06
        -0.74783E-06
        -0.56058E-06
        -0.11382E-06
        -0.11730E-05
        -0.42453E-05
        -0.24695E-04
        -0.19328E-04
        -0.14870E-04
        -0.79999E-05
        -0.46573E-06
        -0.20692E-05
        -0.32351E-05
        -0.53282E-05
        -0.22182E-04
        -0.75174E-05
        -0.32634E-05
        -0.51164E-05
        -0.71280E-05
        -0.77235E-05
        -0.37318E-07
        -0.11949E-04
        -0.24694E-04
        -0.13391E-03
        -0.22324E-03
        -0.37142E-03
        -0.53373E-03
        -0.51163E-03
        -0.39060E-03
        -0.35905E-03
        -0.35127E-03
        -0.13864E-03
        -0.15179E-04
        -0.23957E-05
        -0.17942E-05
        -0.34685E-06
        -0.27310E-04
        -0.10956E-03
        -0.21166E-03
        -0.35747E-03
        -0.43933E-03
        -0.33872E-03
        -0.30282E-03
        -0.30039E-03
        -0.14824E-03
        -0.39850E-04
        -0.35649E-04
        -0.10558E-04
        -0.41767E-05
        -0.35921E-05
        -0.21928E-06
        -0.60320E-05
        -0.12302E-05
        -0.77697E-06
        -0.95471E-05
        -0.41150E-05
        -0.86453E-05
        -0.23333E-05
        -0.43329E-04
        -0.15270E-04
        -0.31492E-06
        -0.42747E-04
        -0.15093E-05
        -0.15462E-06
        -0.12388E-06
        -0.25864E-05
        -0.88949E-07
        -0.19634E-05
        -0.96964E-06
        -0.32649E-06
        -0.22690E-06
        -0.39504E-05
        -0.22187E-06
        -0.17059E-07
        -0.55236E-07
        -0.11355E-06
        -0.38183E-05
        -0.17519E-05
        -0.11577E-06
        -0.75127E-06
        -0.56257E-06
        -0.11155E-06
        -0.11748E-05
        -0.42455E-05
        -0.24773E-04
        -0.19416E-04
        -0.14910E-04
        -0.80180E-05
        -0.46097E-06
        -0.20713E-05
        -0.32445E-05
        -0.53352E-05
        -0.22190E-04
        -0.75235E-05
        -0.32623E-05
        -0.51057E-05
        -0.71098E-05
        -0.77170E-05
        -0.36092E-07
        -0.11927E-04
        -0.24697E-04
        -0.13396E-03
        -0.22325E-03
        -0.37133E-03
        -0.53337E-03
        -0.51120E-03
        -0.39036E-03
        -0.35890E-03
        -0.35107E-03
        -0.13860E-03
        -0.15201E-04
        -0.23964E-05
        -0.18013E-05
        -0.34089E-06
        -0.27346E-04
        -0.10970E-03
        -0.21179E-03
        -0.35745E-03
        -0.43927E-03
        -0.33868E-03
        -0.30281E-03
        -0.30023E-03
        -0.14802E-03
        -0.39763E-04
        -0.35554E-04
        -0.10569E-04
        -0.41762E-05
        -0.35955E-05
        -0.22257E-06
        -0.60337E-05
        -0.12322E-05
        -0.77801E-06
        -0.95730E-05
        -0.41303E-05
        -0.87012E-05
        -0.23375E-05
        -0.43324E-04
        -0.15280E-04
        -0.31548E-06
        -0.42857E-04
        -0.15099E-05
        -0.15757E-06
        -0.12349E-06
        -0.25904E-05
        -0.87758E-07
        -0.19735E-05
        -0.97109E-06
        -0.32746E-06
        -0.22624E-06
        -0.39807E-05
        -0.22022E-06
        -0.17664E-07
        -0.56464E-07
        -0.11074E-06
        -0.38297E-05
        -0.17516E-05
        -0.11439E-06
        -0.75477E-06
        -0.56464E-06
        -0.10928E-06
        -0.11767E-05
        -0.42462E-05
        -0.24853E-04
        -0.19504E-04
        -0.14951E-04
        -0.80360E-05
        -0.45624E-06
        -0.20733E-05
        -0.32540E-05
        -0.53425E-05
        -0.22201E-04
        -0.75304E-05
        -0.32618E-05
        -0.50959E-05
        -0.70919E-05
        -0.77107E-05
        -0.34887E-07
        -0.11904E-04
        -0.24699E-04
        -0.13400E-03
        -0.22325E-03
        -0.37124E-03
        -0.53300E-03
        -0.51076E-03
        -0.39012E-03
        -0.35875E-03
        -0.35087E-03
        -0.13855E-03
        -0.15223E-04
        -0.23971E-05
        -0.18085E-05
        -0.33497E-06
        -0.27381E-04
        -0.10984E-03
        -0.21192E-03
        -0.35743E-03
        -0.43922E-03
        -0.33865E-03
        -0.30280E-03
        -0.30007E-03
        -0.14781E-03
        -0.39675E-04
        -0.35460E-04
        -0.10580E-04
        -0.41757E-05
        -0.35990E-05
        -0.22588E-06
        -0.60352E-05
        -0.12341E-05
        -0.77907E-06
        -0.95990E-05
        -0.41456E-05
        -0.87570E-05
        -0.23415E-05
        -0.43320E-04
        -0.15290E-04
        -0.31613E-06
        -0.42968E-04
        -0.15105E-05
        -0.16057E-06
        -0.12310E-06
        -0.25944E-05
        -0.86565E-07
        -0.19836E-05
        -0.97255E-06
        -0.32844E-06
        -0.22558E-06
        -0.40111E-05
        -0.21859E-06
        -0.18295E-07
        -0.57691E-07
        -0.10798E-06
        -0.38412E-05
        -0.17511E-05
        -0.11304E-06
        -0.75827E-06
        -0.56668E-06
        -0.10702E-06
        -0.11785E-05
        -0.42467E-05
        -0.24932E-04
        -0.19593E-04
        -0.14992E-04
        -0.80541E-05
        -0.45156E-06
        -0.20753E-05
        -0.32636E-05
        -0.53499E-05
        -0.22211E-04
        -0.75370E-05
        -0.32614E-05
        -0.50863E-05
        -0.70743E-05
        -0.77047E-05
        -0.33697E-07
        -0.11882E-04
        -0.24702E-04
        -0.13405E-03
        -0.22325E-03
        -0.37115E-03
        -0.53264E-03
        -0.51032E-03
        -0.38988E-03
        -0.35860E-03
        -0.35067E-03
        -0.13851E-03
        -0.15246E-04
        -0.23978E-05
        -0.18159E-05
        -0.32912E-06
        -0.27417E-04
        -0.10998E-03
        -0.21204E-03
        -0.35741E-03
        -0.43916E-03
        -0.33862E-03
        -0.30278E-03
        -0.29991E-03
        -0.14760E-03
        -0.39588E-04
        -0.35366E-04
        -0.10591E-04
        -0.41750E-05
        -0.36024E-05
        -0.22919E-06
        -0.60367E-05
        -0.12361E-05
        -0.78012E-06
        -0.96249E-05
        -0.41610E-05
        -0.88129E-05
        -0.23457E-05
        -0.43315E-04
        -0.15301E-04
        -0.31669E-06
        -0.43078E-04
        -0.15111E-05
        -0.16362E-06
        -0.12270E-06
        -0.25983E-05
        -0.85374E-07
        -0.19937E-05
        -0.97397E-06
        -0.32937E-06
        -0.22492E-06
        -0.40416E-05
        -0.21696E-06
        -0.18919E-07
        -0.58920E-07
        -0.10526E-06
        -0.38526E-05
        -0.17507E-05
        -0.11169E-06
        -0.76174E-06
        -0.56874E-06
        -0.10479E-06
        -0.11804E-05
        -0.42473E-05
        -0.25012E-04
        -0.19681E-04
        -0.15033E-04
        -0.80721E-05
        -0.44692E-06
        -0.20774E-05
        -0.32730E-05
        -0.53572E-05
        -0.22221E-04
        -0.75440E-05
        -0.32612E-05
        -0.50765E-05
        -0.70564E-05
        -0.76982E-05
        -0.32532E-07
        -0.11859E-04
        -0.24704E-04
        -0.13410E-03
        -0.22326E-03
        -0.37107E-03
        -0.53227E-03
        -0.50988E-03
        -0.38965E-03
        -0.35846E-03
        -0.35047E-03
        -0.13846E-03
        -0.15268E-04
        -0.23986E-05
        -0.18232E-05
        -0.32334E-06
        -0.27453E-04
        -0.11012E-03
        -0.21217E-03
        -0.35739E-03
        -0.43910E-03
        -0.33858E-03
        -0.30277E-03
        -0.29975E-03
        -0.14739E-03
        -0.39502E-04
        -0.35272E-04
        -0.10601E-04
        -0.41743E-05
        -0.36058E-05
        -0.23253E-06
        -0.60382E-05
        -0.12381E-05
        -0.78129E-06
        -0.96506E-05
        -0.41765E-05
        -0.88690E-05
        -0.23499E-05
        -0.43311E-04
        -0.15311E-04
        -0.31730E-06
        -0.43189E-04
        -0.15117E-05
        -0.16669E-06
        -0.12231E-06
        -0.26023E-05
        -0.84183E-07
        -0.20039E-05
        -0.97534E-06
        -0.33036E-06
        -0.22427E-06
        -0.40721E-05
        -0.21534E-06
        -0.19565E-07
        -0.60142E-07
        -0.10258E-06
        -0.38641E-05
        -0.17504E-05
        -0.11035E-06
        -0.76525E-06
        -0.57081E-06
        -0.10258E-06
        -0.11823E-05
        -0.42480E-05
        -0.25092E-04
        -0.19771E-04
        -0.15073E-04
        -0.80901E-05
        -0.44230E-06
        -0.20794E-05
        -0.32824E-05
        -0.53645E-05
        -0.22231E-04
        -0.75511E-05
        -0.32607E-05
        -0.50669E-05
        -0.70387E-05
        -0.76922E-05
        -0.31384E-07
        -0.11836E-04
        -0.24707E-04
        -0.13414E-03
        -0.22326E-03
        -0.37097E-03
        -0.53191E-03
        -0.50944E-03
        -0.38941E-03
        -0.35831E-03
        -0.35026E-03
        -0.13842E-03
        -0.15290E-04
        -0.23994E-05
        -0.18304E-05
        -0.31758E-06
        -0.27488E-04
        -0.11026E-03
        -0.21230E-03
        -0.35737E-03
        -0.43904E-03
        -0.33855E-03
        -0.30276E-03
        -0.29959E-03
        -0.14717E-03
        -0.39416E-04
        -0.35178E-04
        -0.10612E-04
        -0.41737E-05
        -0.36092E-05
        -0.23592E-06
        -0.60397E-05
        -0.12400E-05
        -0.78233E-06
        -0.96765E-05
        -0.41920E-05
        -0.89250E-05
        -0.23541E-05
        -0.43306E-04
        -0.15321E-04
        -0.31791E-06
        -0.43299E-04
        -0.15123E-05
        -0.16980E-06
        -0.12191E-06
        -0.26063E-05
        -0.83011E-07
        -0.20141E-05
        -0.97671E-06
        -0.33134E-06
        -0.22364E-06
        -0.41027E-05
        -0.21374E-06
        -0.20207E-07
        -0.61371E-07
        -0.99925E-07
        -0.38755E-05
        -0.17499E-05
        -0.10902E-06
        -0.76875E-06
        -0.57290E-06
        -0.10037E-06
        -0.11842E-05
        -0.42485E-05
        -0.25173E-04
        -0.19860E-04
        -0.15114E-04
        -0.81082E-05
        -0.43775E-06
        -0.20814E-05
        -0.32918E-05
        -0.53719E-05
        -0.22241E-04
        -0.75577E-05
        -0.32606E-05
        -0.50572E-05
        -0.70211E-05
        -0.76860E-05
        -0.30258E-07
        -0.11814E-04
        -0.24709E-04
        -0.13419E-03
        -0.22326E-03
        -0.37089E-03
        -0.53154E-03
        -0.50900E-03
        -0.38917E-03
        -0.35816E-03
        -0.35006E-03
        -0.13837E-03
        -0.15312E-04
        -0.24001E-05
        -0.18377E-05
        -0.31185E-06
        -0.27524E-04
        -0.11040E-03
        -0.21242E-03
        -0.35735E-03
        -0.43898E-03
        -0.33852E-03
        -0.30274E-03
        -0.29943E-03
        -0.14696E-03
        -0.39330E-04
        -0.35084E-04
        -0.10623E-04
        -0.41730E-05
        -0.36127E-05
        -0.23935E-06
        -0.60413E-05
        -0.12420E-05
        -0.78339E-06
        -0.97023E-05
        -0.42075E-05
        -0.89811E-05
        -0.23583E-05
        -0.43302E-04
        -0.15332E-04
        -0.31845E-06
        -0.43411E-04
        -0.15128E-05
        -0.17295E-06
        -0.12151E-06
        -0.26102E-05
        -0.81852E-07
        -0.20243E-05
        -0.97811E-06
        -0.33230E-06
        -0.22300E-06
        -0.41334E-05
        -0.21213E-06
        -0.20879E-07
        -0.62598E-07
        -0.97318E-07
        -0.38869E-05
        -0.17495E-05
        -0.10768E-06
        -0.77223E-06
        -0.57497E-06
        -0.98194E-07
        -0.11862E-05
        -0.42491E-05
        -0.25253E-04
        -0.19950E-04
        -0.15155E-04
        -0.81264E-05
        -0.43317E-06
        -0.20834E-05
        -0.33014E-05
        -0.53794E-05
        -0.22250E-04
        -0.75648E-05
        -0.32602E-05
        -0.50477E-05
        -0.70035E-05
        -0.76794E-05
        -0.29156E-07
        -0.11791E-04
        -0.24711E-04
        -0.13423E-03
        -0.22327E-03
        -0.37080E-03
        -0.53118E-03
        -0.50856E-03
        -0.38893E-03
        -0.35801E-03
        -0.34985E-03
        -0.13832E-03
        -0.15334E-04
        -0.24008E-05
        -0.18450E-05
        -0.30620E-06
        -0.27559E-04
        -0.11054E-03
        -0.21255E-03
        -0.35733E-03
        -0.43893E-03
        -0.33849E-03
        -0.30273E-03
        -0.29927E-03
        -0.14675E-03
        -0.39245E-04
        -0.34991E-04
        -0.10633E-04
        -0.41725E-05
        -0.36161E-05
        -0.24279E-06
        -0.60429E-05
        -0.12439E-05
        -0.78458E-06
        -0.97279E-05
        -0.42231E-05
        -0.90374E-05
        -0.23625E-05
        -0.43298E-04
        -0.15342E-04
        -0.31906E-06
        -0.43522E-04
        -0.15134E-05
        -0.17613E-06
        -0.12111E-06
        -0.26142E-05
        -0.80701E-07
        -0.20345E-05
        -0.97949E-06
        -0.33328E-06
        -0.22237E-06
        -0.41642E-05
        -0.21052E-06
        -0.21543E-07
        -0.63823E-07
        -0.94754E-07
        -0.38983E-05
        -0.17491E-05
        -0.10637E-06
        -0.77574E-06
        -0.57707E-06
        -0.96027E-07
        -0.11880E-05
        -0.42495E-05
        -0.25334E-04
        -0.20040E-04
        -0.15195E-04
        -0.81446E-05
        -0.42862E-06
        -0.20854E-05
        -0.33109E-05
        -0.53869E-05
        -0.22261E-04
        -0.75720E-05
        -0.32598E-05
        -0.50379E-05
        -0.69859E-05
        -0.76735E-05
        -0.28081E-07
        -0.11769E-04
        -0.24714E-04
        -0.13428E-03
        -0.22327E-03
        -0.37071E-03
        -0.53081E-03
        -0.50812E-03
        -0.38869E-03
        -0.35787E-03
        -0.34965E-03
        -0.13828E-03
        -0.15356E-04
        -0.24015E-05
        -0.18523E-05
        -0.30061E-06
        -0.27595E-04
        -0.11068E-03
        -0.21268E-03
        -0.35731E-03
        -0.43887E-03
        -0.33846E-03
        -0.30272E-03
        -0.29911E-03
        -0.14654E-03
        -0.39160E-04
        -0.34897E-04
        -0.10644E-04
        -0.41719E-05
        -0.36196E-05
        -0.24625E-06
        -0.60444E-05
        -0.12459E-05
        -0.78565E-06
        -0.97537E-05
        -0.42388E-05
        -0.90936E-05
        -0.23668E-05
        -0.43294E-04
        -0.15352E-04
        -0.31958E-06
        -0.43634E-04
        -0.15140E-05
        -0.17936E-06
        -0.12072E-06
        -0.26181E-05
        -0.79548E-07
        -0.20448E-05
        -0.98085E-06
        -0.33423E-06
        -0.22175E-06
        -0.41951E-05
        -0.20893E-06
        -0.22230E-07
        -0.65035E-07
        -0.92236E-07
        -0.39098E-05
        -0.17487E-05
        -0.10505E-06
        -0.77925E-06
        -0.57917E-06
        -0.93887E-07
        -0.11900E-05
        -0.42501E-05
        -0.25416E-04
        -0.20130E-04
        -0.15236E-04
        -0.81627E-05
        -0.42411E-06
        -0.20874E-05
        -0.33203E-05
        -0.53943E-05
        -0.22271E-04
        -0.75786E-05
        -0.32597E-05
        -0.50283E-05
        -0.69682E-05
        -0.76673E-05
        -0.27019E-07
        -0.11746E-04
        -0.24716E-04
        -0.13432E-03
        -0.22327E-03
        -0.37062E-03
        -0.53045E-03
        -0.50767E-03
        -0.38845E-03
        -0.35772E-03
        -0.34944E-03
        -0.13823E-03
        -0.15378E-04
        -0.24023E-05
        -0.18596E-05
        -0.29507E-06
        -0.27630E-04
        -0.11082E-03
        -0.21281E-03
        -0.35729E-03
        -0.43881E-03
        -0.33843E-03
        -0.30270E-03
        -0.29895E-03
        -0.14633E-03
        -0.39075E-04
        -0.34804E-04
        -0.10654E-04
        -0.41711E-05
        -0.36230E-05
        -0.24973E-06
        -0.60458E-05
        -0.12479E-05
        -0.78675E-06
        -0.97794E-05
        -0.42545E-05
        -0.91501E-05
        -0.23710E-05
        -0.43289E-04
        -0.15363E-04
        -0.32017E-06
        -0.43744E-04
        -0.15146E-05
        -0.18263E-06
        -0.12033E-06
        -0.26221E-05
        -0.78409E-07
        -0.20550E-05
        -0.98216E-06
        -0.33520E-06
        -0.22113E-06
        -0.42261E-05
        -0.20734E-06
        -0.22908E-07
        -0.66246E-07
        -0.89760E-07
        -0.39213E-05
        -0.17483E-05
        -0.10375E-06
        -0.78275E-06
        -0.58129E-06
        -0.91753E-07
        -0.11919E-05
        -0.42507E-05
        -0.25497E-04
        -0.20220E-04
        -0.15275E-04
        -0.81809E-05
        -0.41963E-06
        -0.20895E-05
        -0.33297E-05
        -0.54018E-05
        -0.22281E-04
        -0.75857E-05
        -0.32593E-05
        -0.50188E-05
        -0.69506E-05
        -0.76610E-05
        -0.25977E-07
        -0.11723E-04
        -0.24718E-04
        -0.13437E-03
        -0.22328E-03
        -0.37053E-03
        -0.53008E-03
        -0.50722E-03
        -0.38821E-03
        -0.35757E-03
        -0.34923E-03
        -0.13819E-03
        -0.15401E-04
        -0.24029E-05
        -0.18669E-05
        -0.28957E-06
        -0.27666E-04
        -0.11096E-03
        -0.21293E-03
        -0.35727E-03
        -0.43876E-03
        -0.33840E-03
        -0.30269E-03
        -0.29879E-03
        -0.14612E-03
        -0.38991E-04
        -0.34710E-04
        -0.10665E-04
        -0.41704E-05
        -0.36264E-05
        -0.25325E-06
        -0.60474E-05
        -0.12498E-05
        -0.78790E-06
        -0.98050E-05
        -0.42704E-05
        -0.92066E-05
        -0.23752E-05
        -0.43285E-04
        -0.15373E-04
        -0.32068E-06
        -0.43856E-04
        -0.15152E-05
        -0.18595E-06
        -0.11992E-06
        -0.26261E-05
        -0.77291E-07
        -0.20653E-05
        -0.98342E-06
        -0.33617E-06
        -0.22052E-06
        -0.42572E-05
        -0.20574E-06
        -0.23616E-07
        -0.67453E-07
        -0.87313E-07
        -0.39325E-05
        -0.17478E-05
        -0.10245E-06
        -0.78626E-06
        -0.58341E-06
        -0.89640E-07
        -0.11938E-05
        -0.42511E-05
        -0.25580E-04
        -0.20311E-04
        -0.15315E-04
        -0.81989E-05
        -0.41521E-06
        -0.20916E-05
        -0.33393E-05
        -0.54093E-05
        -0.22291E-04
        -0.75928E-05
        -0.32591E-05
        -0.50093E-05
        -0.69331E-05
        -0.76548E-05
        -0.24964E-07
        -0.11701E-04
        -0.24720E-04
        -0.13441E-03
        -0.22328E-03
        -0.37044E-03
        -0.52971E-03
        -0.50678E-03
        -0.38797E-03
        -0.35742E-03
        -0.34902E-03
        -0.13814E-03
        -0.15423E-04
        -0.24034E-05
        -0.18741E-05
        -0.28415E-06
        -0.27701E-04
        -0.11110E-03
        -0.21306E-03
        -0.35725E-03
        -0.43870E-03
        -0.33836E-03
        -0.30267E-03
        -0.29863E-03
        -0.14591E-03
        -0.38907E-04
        -0.34617E-04
        -0.10675E-04
        -0.41698E-05
        -0.36298E-05
        -0.25681E-06
        -0.60489E-05
        -0.12517E-05
        -0.78900E-06
        -0.98304E-05
        -0.42863E-05
        -0.92633E-05
        -0.23794E-05
        -0.43281E-04
        -0.15383E-04
        -0.32125E-06
        -0.43967E-04
        -0.15157E-05
        -0.18934E-06
        -0.11952E-06
        -0.26300E-05
        -0.76231E-07
        -0.20756E-05
        -0.98466E-06
        -0.33715E-06
        -0.21990E-06
        -0.42885E-05
        -0.20417E-06
        -0.24328E-07
        -0.68663E-07
        -0.84908E-07
        -0.39430E-05
        -0.17474E-05
        -0.10115E-06
        -0.78976E-06
        -0.58554E-06
        -0.87551E-07
        -0.11957E-05
        -0.42517E-05
        -0.25663E-04
        -0.20401E-04
        -0.15353E-04
        -0.82168E-05
        -0.41077E-06
        -0.20937E-05
        -0.33488E-05
        -0.54169E-05
        -0.22302E-04
        -0.75995E-05
        -0.32588E-05
        -0.49996E-05
        -0.69155E-05
        -0.76489E-05
        -0.23970E-07
        -0.11678E-04
        -0.24722E-04
        -0.13445E-03
        -0.22328E-03
        -0.37035E-03
        -0.52934E-03
        -0.50633E-03
        -0.38773E-03
        -0.35728E-03
        -0.34880E-03
        -0.13811E-03
        -0.15446E-04
        -0.24037E-05
        -0.18814E-05
        -0.27879E-06
        -0.27736E-04
        -0.11124E-03
        -0.21319E-03
        -0.35724E-03
        -0.43864E-03
        -0.33833E-03
        -0.30266E-03
        -0.29847E-03
        -0.14570E-03
        -0.38824E-04
        -0.34524E-04
        -0.10686E-04
        -0.41692E-05
        -0.36333E-05
        -0.26038E-06
        -0.60504E-05
        -0.12536E-05
        -0.79009E-06
        -0.98558E-05
        -0.43025E-05
        -0.93201E-05
        -0.23837E-05
        -0.43277E-04
        -0.15394E-04
        -0.32182E-06
        -0.44080E-04
        -0.15163E-05
        -0.19281E-06
        -0.11911E-06
        -0.26340E-05
        -0.75223E-07
        -0.20860E-05
        -0.98586E-06
        -0.33812E-06
        -0.21930E-06
        -0.43198E-05
        -0.20259E-06
        -0.25081E-07
        -0.69871E-07
        -0.82544E-07
        -0.39530E-05
        -0.17469E-05
        -0.99866E-07
        -0.79325E-06
        -0.58766E-06
        -0.85472E-07
        -0.11976E-05
        -0.42522E-05
        -0.25748E-04
        -0.20491E-04
        -0.15390E-04
        -0.82343E-05
        -0.40635E-06
        -0.20960E-05
        -0.33583E-05
        -0.54245E-05
        -0.22312E-04
        -0.76067E-05
        -0.32585E-05
        -0.49901E-05
        -0.68978E-05
        -0.76425E-05
        -0.22989E-07
        -0.11656E-04
        -0.24723E-04
        -0.13450E-03
        -0.22329E-03
        -0.37026E-03
        -0.52898E-03
        -0.50589E-03
        -0.38749E-03
        -0.35712E-03
        -0.34856E-03
        -0.13807E-03
        -0.15469E-04
        -0.24035E-05
        -0.18886E-05
        -0.27344E-06
        -0.27772E-04
        -0.11138E-03
        -0.21331E-03
        -0.35722E-03
        -0.43858E-03
        -0.33830E-03
        -0.30265E-03
        -0.29830E-03
        -0.14549E-03
        -0.38741E-04
        -0.34431E-04
        -0.10696E-04
        -0.41686E-05
        -0.36369E-05
        -0.26397E-06
        -0.60522E-05
        -0.12556E-05
        -0.79131E-06
        -0.98811E-05
        -0.43188E-05
        -0.93769E-05
        -0.23879E-05
        -0.43273E-04
        -0.15404E-04
        -0.32231E-06
        -0.44192E-04
        -0.15169E-05
        -0.19633E-06
        -0.11871E-06
        -0.26381E-05
        -0.74248E-07
        -0.20964E-05
        -0.98706E-06
        -0.33903E-06
        -0.21873E-06
        -0.43513E-05
        -0.20107E-06
        -0.25826E-07
        -0.71037E-07
        -0.80242E-07
        -0.39627E-05
        -0.17465E-05
        -0.98618E-07
        -0.79677E-06
        -0.58984E-06
        -0.83437E-07
        -0.11995E-05
        -0.42524E-05
        -0.25832E-04
        -0.20581E-04
        -0.15426E-04
        -0.82516E-05
        -0.40205E-06
        -0.20985E-05
        -0.33676E-05
        -0.54318E-05
        -0.22322E-04
        -0.76136E-05
        -0.32582E-05
        -0.49806E-05
        -0.68804E-05
        -0.76366E-05
        -0.22035E-07
        -0.11633E-04
        -0.24726E-04
        -0.13454E-03
        -0.22329E-03
        -0.37017E-03
        -0.52861E-03
        -0.50544E-03
        -0.38726E-03
        -0.35697E-03
        -0.34832E-03
        -0.13804E-03
        -0.15491E-04
        -0.24030E-05
        -0.18959E-05
        -0.26816E-06
        -0.27806E-04
        -0.11152E-03
        -0.21344E-03
        -0.35720E-03
        -0.43853E-03
        -0.33827E-03
        -0.30263E-03
        -0.29814E-03
        -0.14528E-03
        -0.38659E-04
        -0.34339E-04
        -0.10780E-04
        -0.41978E-05
        -0.36667E-05
        -0.26930E-06
        -0.60943E-05
        -0.12658E-05
        -0.79809E-06
        -0.99706E-05
        -0.43638E-05
        -0.94924E-05
        -0.24076E-05
        -0.43531E-04
        -0.15509E-04
        -0.32490E-06
        -0.44574E-04
        -0.15283E-05
        -0.20103E-06
        -0.11914E-06
        -0.26597E-05
        -0.73880E-07
        -0.21193E-05
        -0.99449E-06
        -0.34153E-06
        -0.21995E-06
        -0.44107E-05
        -0.20143E-06
        -0.26690E-07
        -0.72410E-07
        -0.78922E-07
        -0.39997E-05
        -0.17588E-05
        -0.98417E-07
        -0.80569E-06
        -0.59602E-06
        -0.82141E-07
        -0.12081E-05
        -0.42785E-05
        -0.26074E-04
        -0.20798E-04
        -0.15559E-04
        -0.83193E-05
        -0.40136E-06
        -0.21154E-05
        -0.33949E-05
        -0.54699E-05
        -0.22460E-04
        -0.76646E-05
        -0.32768E-05
        -0.50029E-05
        -0.69081E-05
        -0.76788E-05
        -0.21252E-07
        -0.11666E-04
        -0.24860E-04
        -0.13526E-03
        -0.22443E-03
        -0.37200E-03
        -0.53106E-03
        -0.50776E-03
        -0.38916E-03
        -0.35878E-03
        -0.35002E-03
        -0.13875E-03
        -0.15588E-04
        -0.24138E-05
        -0.19122E-05
        -0.26450E-06
        -0.27968E-04
        -0.11217E-03
        -0.21460E-03
        -0.35900E-03
        -0.44071E-03
        -0.33993E-03
        -0.30412E-03
        -0.29947E-03
        -0.14582E-03
        -0.38776E-04
        -0.34424E-04
        -0.23723E-04
        -0.93088E-05
        -0.80418E-05
        -0.60131E-06
        -0.12441E-04
        -0.26374E-05
        -0.17619E-05
        -0.21728E-04
        -0.95745E-05
        -0.20606E-04
        -0.51303E-05
        -0.85504E-04
        -0.31420E-04
        -0.68655E-06
        -0.88553E-04
        -0.33710E-05
        -0.44604E-06
        -0.26251E-06
        -0.57081E-05
        -0.15840E-06
        -0.43054E-05
        -0.20669E-05
        -0.69480E-06
        -0.47918E-06
        -0.97655E-05
        -0.44603E-06
        -0.58297E-07
        -0.16032E-06
        -0.17303E-06
        -0.88198E-05
        -0.38798E-05
        -0.21552E-06
        -0.17896E-05
        -0.13197E-05
        -0.15702E-06
        -0.25074E-05
        -0.88799E-05
        -0.54134E-04
        -0.44445E-04
        -0.33479E-04
        -0.17412E-04
        -0.84941E-06
        -0.44968E-05
        -0.70176E-05
        -0.11224E-04
        -0.43453E-04
        -0.15617E-04
        -0.68410E-05
        -0.10551E-04
        -0.14435E-04
        -0.15286E-04
        -0.42594E-07
        -0.17919E-04
        -0.38161E-04
        -0.20765E-03
        -0.34659E-03
        -0.57355E-03
        -0.82244E-03
        -0.80376E-03
        -0.62637E-03
        -0.57529E-03
        -0.55456E-03
        -0.22045E-03
        -0.24697E-04
        -0.39075E-05
        -0.31267E-05
        -0.41521E-06
        -0.43476E-04
        -0.17333E-03
        -0.32771E-03
        -0.54699E-03
        -0.67305E-03
        -0.53031E-03
        -0.47878E-03
        -0.46791E-03
        -0.22931E-03
        -0.60588E-04
        -0.53383E-04
  
SCALARS                      strain_zz  double 1
LOOKUP_TABLE default
        -0.26474E+00
        -0.27065E+00
        -0.26691E+00
        -0.26016E+00
        -0.95503E-09
        -0.10709E-08
        -0.10254E-08
        -0.93157E-09
        -0.27085E+00
        -0.26886E+00
        -0.96303E-09
        -0.93197E-09
        -0.27914E+00
        -0.27946E+00
        -0.11443E-08
        -0.10759E-08
        -0.26115E+00
        -0.27900E+00
        -0.84550E-09
        -0.93779E-09
        -0.28548E+00
        -0.29047E+00
        -0.28251E+00
        -0.11341E-08
        -0.99043E-09
        -0.10227E-08
        -0.29028E+00
        -0.29753E+00
        -0.10880E-08
        -0.91755E-09
        -0.26148E+00
        -0.26928E+00
        -0.25387E+00
        -0.92846E-09
        -0.86315E-09
        -0.83920E-09
        -0.26600E+00
        -0.27588E+00
        -0.98227E-09
        -0.89633E-09
        -0.26992E+00
        -0.27753E+00
        -0.84896E-09
        -0.75157E-09
        -0.26344E+00
        -0.26055E+00
        -0.93035E-09
        -0.10395E-08
        -0.28359E+00
        -0.90887E-09
        -0.26112E+00
        -0.10680E-08
        -0.29238E+00
        -0.95980E-09
        -0.29466E+00
        -0.92064E-09
        -0.29462E+00
        -0.28649E+00
        -0.93802E-09
        -0.91353E-09
        -0.26164E+00
        -0.26464E+00
        -0.94060E-09
        -0.10633E-08
        -0.25976E+00
        -0.90762E-09
        -0.26333E+00
        -0.99055E-09
        -0.27268E+00
        -0.27361E+00
        -0.95350E-09
        -0.99910E-09
        -0.27572E+00
        -0.10075E-08
        -0.30010E+00
        -0.79598E-09
        -0.30136E+00
        -0.77262E-09
        -0.30072E+00
        -0.81466E-09
        -0.29723E+00
        -0.29360E+00
        -0.77618E-09
        -0.80921E-09
        -0.28623E+00
        -0.75367E-09
        -0.26359E+00
        -0.98834E-09
        -0.26715E+00
        -0.10115E-08
        -0.27006E+00
        -0.27166E+00
        -0.97141E-09
        -0.98275E-09
        -0.26970E+00
        -0.89262E-09
        -0.26830E+00
        -0.87988E-09
        -0.26956E+00
        -0.94193E-09
        -0.27000E+00
        -0.26873E+00
        -0.92370E-09
        -0.95080E-09
        -0.27697E+00
        -0.27361E+00
        -0.71716E-09
        -0.67453E-09
        -0.27759E+00
        -0.68480E-09
        -0.27372E+00
        -0.65660E-09
        -0.27754E+00
        -0.64746E-09
        -0.28592E+00
        -0.61185E-09
        -0.29397E+00
        -0.54356E-09
        -0.29876E+00
        -0.48945E-09
        -0.29924E+00
        -0.48605E-09
        -0.29909E+00
        -0.52709E-09
        -0.29390E+00
        -0.55396E-09
        -0.28410E+00
        -0.50582E-09
        -0.27322E+00
        -0.45595E-09
        -0.26681E+00
        -0.45543E-09
        -0.26043E+00
        -0.50905E-09
        -0.25619E+00
        -0.58044E-09
        -0.25634E+00
        -0.62357E-09
        -0.26662E+00
        -0.67345E-09
        -0.27373E+00
        -0.72150E-09
        -0.27615E+00
        -0.66095E-09
        -0.27235E+00
        -0.57983E-09
        -0.27037E+00
        -0.57804E-09
        -0.27371E+00
        -0.63244E-09
        -0.27366E+00
        -0.67423E-09
        -0.27115E+00
        -0.63984E-09
        -0.26786E+00
        -0.61857E-09
        -0.26357E+00
        -0.26778E+00
        -0.26722E+00
        -0.26175E+00
        -0.27175E+00
        -0.26673E+00
        -0.27295E+00
        -0.26973E+00
        -0.26262E+00
        -0.26707E+00
        -0.27635E+00
        -0.27734E+00
        -0.27461E+00
        -0.27444E+00
        -0.27618E+00
        -0.26201E+00
        -0.26304E+00
        -0.26015E+00
        -0.26823E+00
        -0.26678E+00
        -0.26883E+00
        -0.26746E+00
        -0.26998E+00
        -0.26935E+00
        -0.26690E+00
        -0.26708E+00
        -0.27125E+00
        -0.27087E+00
        -0.27392E+00
        -0.26929E+00
        -0.26252E+00
        -0.26784E+00
        -0.26256E+00
        -0.26606E+00
        -0.27805E+00
        -0.27429E+00
        -0.27247E+00
        -0.27459E+00
        -0.27487E+00
        -0.27833E+00
        -0.28078E+00
        -0.27471E+00
        -0.26874E+00
        -0.26957E+00
        -0.27264E+00
        -0.27791E+00
        -0.27343E+00
        -0.26850E+00
        -0.26885E+00
        -0.27267E+00
        -0.27648E+00
        -0.27131E+00
        -0.28639E+00
        -0.28195E+00
        -0.28266E+00
        -0.28160E+00
        -0.28182E+00
        -0.28414E+00
        -0.28659E+00
        -0.28744E+00
        -0.28713E+00
        -0.28734E+00
        -0.28838E+00
        -0.28209E+00
        -0.27977E+00
        -0.27886E+00
        -0.27723E+00
        -0.27597E+00
        -0.27600E+00
        -0.27806E+00
        -0.28489E+00
        -0.28326E+00
        -0.28096E+00
        -0.28102E+00
        -0.28142E+00
        -0.28367E+00
        -0.28035E+00
        -0.27910E+00
         0.17652E-04
         0.69021E-05
         0.73125E-05
         0.82929E-05
         0.16885E-04
         0.13200E-04
        -0.49479E-06
         0.77850E-05
         0.12212E-04
         0.60544E-05
        -0.36645E-05
         0.44241E-04
         0.27261E-04
        -0.64427E-05
         0.44513E-04
         0.82004E-05
         0.57751E-05
         0.61250E-05
         0.30047E-05
         0.16669E-05
         0.26629E-04
         0.26333E-04
         0.19913E-04
         0.33732E-06
        -0.11041E-05
        -0.13867E-06
        -0.11910E-04
        -0.14006E-04
        -0.64563E-05
         0.41419E-06
         0.63067E-05
         0.11447E-05
         0.74142E-05
         0.99379E-05
         0.21385E-04
         0.79480E-05
         0.14278E-04
         0.27446E-04
         0.15085E-04
         0.14541E-04
         0.33838E-04
         0.26257E-04
         0.27295E-04
         0.14090E-04
         0.11198E-04
         0.23334E-04
         0.11104E-04
         0.91515E-05
         0.84312E-05
         0.12417E-04
         0.24427E-04
         0.16312E-04
         0.37184E-03
         0.40000E-03
         0.43051E-03
         0.43188E-03
         0.49630E-03
         0.57476E-03
         0.52759E-03
         0.42099E-03
         0.39792E-03
         0.45007E-03
         0.43124E-03
         0.41819E-03
         0.28392E-03
         0.26063E-03
         0.30677E-03
         0.34740E-03
         0.37543E-03
         0.44913E-03
         0.41689E-03
         0.44657E-03
         0.36282E-03
         0.32504E-03
         0.36611E-03
         0.34975E-03
         0.37475E-03
         0.37241E-03
         0.17334E-04
         0.65550E-05
         0.69718E-05
         0.79880E-05
         0.16474E-04
         0.12820E-04
        -0.86903E-06
         0.74196E-05
         0.11870E-04
         0.56908E-05
        -0.40929E-05
         0.43737E-04
         0.26842E-04
        -0.68975E-05
         0.44117E-04
         0.78450E-05
         0.53832E-05
         0.58132E-05
         0.25994E-05
         0.12355E-05
         0.26198E-04
         0.25904E-04
         0.19461E-04
        -0.79358E-07
        -0.15320E-05
        -0.53597E-06
        -0.12317E-04
        -0.14439E-04
        -0.69084E-05
        -0.46839E-07
         0.59621E-05
         0.76781E-06
         0.70884E-05
         0.96245E-05
         0.20957E-04
         0.75496E-05
         0.13878E-04
         0.27041E-04
         0.14695E-04
         0.14117E-04
         0.33385E-04
         0.25797E-04
         0.26837E-04
         0.13654E-04
         0.10779E-04
         0.22882E-04
         0.10686E-04
         0.87545E-05
         0.80533E-05
         0.12034E-04
         0.23992E-04
         0.15901E-04
         0.37079E-03
         0.39905E-03
         0.42976E-03
         0.43117E-03
         0.49538E-03
         0.57354E-03
         0.52632E-03
         0.41992E-03
         0.39686E-03
         0.44892E-03
         0.43021E-03
         0.41740E-03
         0.28319E-03
         0.25997E-03
         0.30617E-03
         0.34686E-03
         0.37490E-03
         0.44857E-03
         0.41608E-03
         0.44571E-03
         0.36198E-03
         0.32431E-03
         0.36517E-03
         0.34858E-03
         0.37362E-03
         0.37130E-03
         0.17430E-04
         0.66257E-05
         0.70495E-05
         0.80767E-05
         0.16567E-04
         0.12914E-04
        -0.78355E-06
         0.75285E-05
         0.11944E-04
         0.57660E-05
        -0.40061E-05
         0.43830E-04
         0.26946E-04
        -0.68220E-05
         0.44338E-04
         0.77815E-05
         0.53712E-05
         0.58931E-05
         0.25020E-05
         0.11508E-05
         0.26131E-04
         0.25873E-04
         0.19164E-04
        -0.38008E-06
        -0.16955E-05
        -0.81441E-06
        -0.12232E-04
        -0.14499E-04
        -0.70857E-05
        -0.36437E-06
         0.59712E-05
         0.68169E-06
         0.71680E-05
         0.97312E-05
         0.21092E-04
         0.76453E-05
         0.13959E-04
         0.27229E-04
         0.14858E-04
         0.14189E-04
         0.33417E-04
         0.25649E-04
         0.26595E-04
         0.13363E-04
         0.10704E-04
         0.22943E-04
         0.10762E-04
         0.88429E-05
         0.81382E-05
         0.12126E-04
         0.24088E-04
         0.15982E-04
         0.37075E-03
         0.39907E-03
         0.42998E-03
         0.43136E-03
         0.49536E-03
         0.57329E-03
         0.52606E-03
         0.41987E-03
         0.39684E-03
         0.44883E-03
         0.43017E-03
         0.41743E-03
         0.28315E-03
         0.26007E-03
         0.30632E-03
         0.34689E-03
         0.37495E-03
         0.44881E-03
         0.41624E-03
         0.44590E-03
         0.36212E-03
         0.32449E-03
         0.36516E-03
         0.34833E-03
         0.37337E-03
         0.37107E-03
         0.17400E-04
         0.65981E-05
         0.70251E-05
         0.80331E-05
         0.16518E-04
         0.12876E-04
        -0.80893E-06
         0.74992E-05
         0.11856E-04
         0.56420E-05
        -0.40502E-05
         0.43776E-04
         0.26932E-04
        -0.69013E-05
         0.44377E-04
         0.75019E-05
         0.51445E-05
         0.58344E-05
         0.21485E-05
         0.78703E-06
         0.25808E-04
         0.25578E-04
         0.18479E-04
        -0.10526E-05
        -0.22108E-05
        -0.14485E-05
        -0.12340E-04
        -0.14849E-04
        -0.76437E-05
        -0.11504E-05
         0.58086E-05
         0.34224E-06
         0.71124E-05
         0.96827E-05
         0.21052E-04
         0.76016E-05
         0.13922E-04
         0.27236E-04
         0.14828E-04
         0.14024E-04
         0.33184E-04
         0.25127E-04
         0.25927E-04
         0.12679E-04
         0.10358E-04
         0.22761E-04
         0.10629E-04
         0.87685E-05
         0.80619E-05
         0.12038E-04
         0.24004E-04
         0.15912E-04
         0.37036E-03
         0.39881E-03
         0.42986E-03
         0.43126E-03
         0.49513E-03
         0.57284E-03
         0.52550E-03
         0.41951E-03
         0.39650E-03
         0.44839E-03
         0.42976E-03
         0.41704E-03
         0.28270E-03
         0.25985E-03
         0.30619E-03
         0.34649E-03
         0.37454E-03
         0.44872E-03
         0.41605E-03
         0.44572E-03
         0.36194E-03
         0.32432E-03
         0.36479E-03
         0.34778E-03
         0.37288E-03
         0.37062E-03
         0.17331E-04
         0.65401E-05
         0.69792E-05
         0.79879E-05
         0.16464E-04
         0.12825E-04
        -0.85267E-06
         0.74365E-05
         0.11748E-04
         0.55093E-05
        -0.40972E-05
         0.43741E-04
         0.26913E-04
        -0.69858E-05
         0.44449E-04
         0.73171E-05
         0.49674E-05
         0.57798E-05
         0.19172E-05
         0.52394E-06
         0.25604E-04
         0.25366E-04
         0.18060E-04
        -0.14695E-05
        -0.25728E-05
        -0.18547E-05
        -0.12435E-04
        -0.15102E-04
        -0.80265E-05
        -0.16690E-05
         0.56389E-05
         0.95699E-07
         0.70097E-05
         0.96138E-05
         0.21012E-04
         0.75468E-05
         0.13869E-04
         0.27268E-04
         0.14821E-04
         0.13913E-04
         0.33036E-04
         0.24787E-04
         0.25495E-04
         0.12249E-04
         0.10131E-04
         0.22644E-04
         0.10513E-04
         0.86505E-05
         0.79400E-05
         0.11916E-04
         0.23885E-04
         0.15816E-04
         0.36999E-03
         0.39855E-03
         0.42975E-03
         0.43118E-03
         0.49493E-03
         0.57244E-03
         0.52501E-03
         0.41920E-03
         0.39618E-03
         0.44802E-03
         0.42946E-03
         0.41679E-03
         0.28239E-03
         0.25969E-03
         0.30612E-03
         0.34633E-03
         0.37434E-03
         0.44873E-03
         0.41595E-03
         0.44554E-03
         0.36172E-03
         0.32414E-03
         0.36437E-03
         0.34718E-03
         0.37238E-03
         0.37016E-03
         0.17137E-04
         0.64264E-05
         0.69338E-05
         0.80364E-05
         0.16507E-04
         0.12888E-04
        -0.88105E-06
         0.73096E-05
         0.11589E-04
         0.53092E-05
        -0.40601E-05
         0.43851E-04
         0.26977E-04
        -0.69971E-05
         0.44689E-04
         0.73646E-05
         0.49335E-05
         0.58617E-05
         0.19688E-05
         0.55810E-06
         0.25675E-04
         0.25440E-04
         0.18074E-04
        -0.14781E-05
        -0.27082E-05
        -0.19117E-05
        -0.12454E-04
        -0.15131E-04
        -0.79975E-05
        -0.16748E-05
         0.54340E-05
        -0.34482E-07
         0.68420E-05
         0.95991E-05
         0.21082E-04
         0.75489E-05
         0.13855E-04
         0.27459E-04
         0.14989E-04
         0.14052E-04
         0.33185E-04
         0.24878E-04
         0.25556E-04
         0.12229E-04
         0.10103E-04
         0.22628E-04
         0.10412E-04
         0.84131E-05
         0.76627E-05
         0.11759E-04
         0.23832E-04
         0.15821E-04
         0.36991E-03
         0.39856E-03
         0.42991E-03
         0.43130E-03
         0.49489E-03
         0.57221E-03
         0.52475E-03
         0.41915E-03
         0.39618E-03
         0.44800E-03
         0.42955E-03
         0.41698E-03
         0.28252E-03
         0.25984E-03
         0.30637E-03
         0.34668E-03
         0.37469E-03
         0.44903E-03
         0.41600E-03
         0.44556E-03
         0.36163E-03
         0.32401E-03
         0.36405E-03
         0.34675E-03
         0.37206E-03
         0.36991E-03
         0.16832E-04
         0.62231E-05
         0.68189E-05
         0.80114E-05
         0.16453E-04
         0.12878E-04
        -0.10283E-05
         0.70406E-05
         0.11312E-04
         0.49862E-05
        -0.41616E-05
         0.43809E-04
         0.26929E-04
        -0.71616E-05
         0.44761E-04
         0.73176E-05
         0.47897E-05
         0.58429E-05
         0.19313E-05
         0.49446E-06
         0.25654E-04
         0.25419E-04
         0.18046E-04
        -0.15287E-05
        -0.29148E-05
        -0.20144E-05
        -0.12618E-04
        -0.15261E-04
        -0.80323E-05
        -0.17254E-05
         0.51433E-05
        -0.24821E-06
         0.65894E-05
         0.95058E-05
         0.21032E-04
         0.74637E-05
         0.13758E-04
         0.27489E-04
         0.15010E-04
         0.14067E-04
         0.33221E-04
         0.24903E-04
         0.25566E-04
         0.12171E-04
         0.99793E-05
         0.22466E-04
         0.10179E-04
         0.80576E-05
         0.72747E-05
         0.11499E-04
         0.23683E-04
         0.15748E-04
         0.36956E-03
         0.39831E-03
         0.42985E-03
         0.43125E-03
         0.49465E-03
         0.57174E-03
         0.52424E-03
         0.41886E-03
         0.39592E-03
         0.44768E-03
         0.42937E-03
         0.41698E-03
         0.28249E-03
         0.25981E-03
         0.30643E-03
         0.34690E-03
         0.37492E-03
         0.44911E-03
         0.41575E-03
         0.44529E-03
         0.36131E-03
         0.32367E-03
         0.36353E-03
         0.34615E-03
         0.37156E-03
         0.36946E-03
         0.16753E-04
         0.61477E-05
         0.67740E-05
         0.79754E-05
         0.16397E-04
         0.12829E-04
        -0.11000E-05
         0.69574E-05
         0.11242E-04
         0.49245E-05
        -0.42331E-05
         0.43749E-04
         0.26882E-04
        -0.72647E-05
         0.44811E-04
         0.72765E-05
         0.47371E-05
         0.57996E-05
         0.18972E-05
         0.44408E-06
         0.25617E-04
         0.25370E-04
         0.18007E-04
        -0.15675E-05
        -0.29675E-05
        -0.20730E-05
        -0.12685E-04
        -0.15330E-04
        -0.80969E-05
        -0.17728E-05
         0.50537E-05
        -0.33360E-06
         0.65039E-05
         0.94548E-05
         0.20994E-04
         0.74171E-05
         0.13698E-04
         0.27501E-04
         0.15021E-04
         0.14039E-04
         0.33191E-04
         0.24870E-04
         0.25538E-04
         0.12121E-04
         0.99069E-05
         0.22395E-04
         0.10105E-04
         0.79710E-05
         0.71707E-05
         0.11397E-04
         0.23584E-04
         0.15664E-04
         0.36917E-03
         0.39802E-03
         0.42977E-03
         0.43118E-03
         0.49440E-03
         0.57128E-03
         0.52372E-03
         0.41853E-03
         0.39558E-03
         0.44725E-03
         0.42909E-03
         0.41697E-03
         0.28242E-03
         0.25969E-03
         0.30640E-03
         0.34703E-03
         0.37504E-03
         0.44919E-03
         0.41557E-03
         0.44514E-03
         0.36117E-03
         0.32353E-03
         0.36314E-03
         0.34557E-03
         0.37104E-03
         0.36897E-03
         0.16827E-04
         0.61989E-05
         0.68152E-05
         0.79945E-05
         0.16437E-04
         0.12835E-04
        -0.10407E-05
         0.70453E-05
         0.11314E-04
         0.50465E-05
        -0.41802E-05
         0.43810E-04
         0.26950E-04
        -0.72150E-05
         0.45010E-04
         0.73572E-05
         0.48055E-05
         0.58355E-05
         0.19715E-05
         0.50212E-06
         0.25689E-04
         0.25430E-04
         0.18076E-04
        -0.14988E-05
        -0.28742E-05
        -0.20088E-05
        -0.12580E-04
        -0.15251E-04
        -0.80311E-05
        -0.17018E-05
         0.51188E-05
        -0.28624E-06
         0.65374E-05
         0.94762E-05
         0.21081E-04
         0.74657E-05
         0.13739E-04
         0.27671E-04
         0.15167E-04
         0.14139E-04
         0.33302E-04
         0.24966E-04
         0.25616E-04
         0.12188E-04
         0.99583E-05
         0.22453E-04
         0.10161E-04
         0.80350E-05
         0.72214E-05
         0.11427E-04
         0.23601E-04
         0.15651E-04
         0.36906E-03
         0.39799E-03
         0.42985E-03
         0.43122E-03
         0.49432E-03
         0.57103E-03
         0.52342E-03
         0.41841E-03
         0.39542E-03
         0.44704E-03
         0.42905E-03
         0.41717E-03
         0.28253E-03
         0.25977E-03
         0.30658E-03
         0.34736E-03
         0.37539E-03
         0.44952E-03
         0.41563E-03
         0.44521E-03
         0.36124E-03
         0.32362E-03
         0.36298E-03
         0.34520E-03
         0.37072E-03
         0.36868E-03
         0.16826E-04
         0.61944E-05
         0.68092E-05
         0.79727E-05
         0.16417E-04
         0.12806E-04
        -0.10440E-05
         0.70347E-05
         0.11287E-04
         0.50539E-05
        -0.42098E-05
         0.43774E-04
         0.26963E-04
        -0.72803E-05
         0.45058E-04
         0.73363E-05
         0.47748E-05
         0.57895E-05
         0.19439E-05
         0.46215E-06
         0.25674E-04
         0.25399E-04
         0.18058E-04
        -0.15243E-05
        -0.28668E-05
        -0.20330E-05
        -0.12599E-04
        -0.15259E-04
        -0.80428E-05
        -0.17169E-05
         0.50965E-05
        -0.31309E-06
         0.64882E-05
         0.94394E-05
         0.21080E-04
         0.74437E-05
         0.13722E-04
         0.27697E-04
         0.15214E-04
         0.14151E-04
         0.33315E-04
         0.24974E-04
         0.25594E-04
         0.12180E-04
         0.99433E-05
         0.22435E-04
         0.10130E-04
         0.79971E-05
         0.71739E-05
         0.11376E-04
         0.23551E-04
         0.15591E-04
         0.36874E-03
         0.39777E-03
         0.42977E-03
         0.43116E-03
         0.49415E-03
         0.57060E-03
         0.52288E-03
         0.41807E-03
         0.39516E-03
         0.44666E-03
         0.42880E-03
         0.41717E-03
         0.28244E-03
         0.25972E-03
         0.30664E-03
         0.34756E-03
         0.37565E-03
         0.44971E-03
         0.41554E-03
         0.44507E-03
         0.36107E-03
         0.32351E-03
         0.36269E-03
         0.34473E-03
         0.37026E-03
         0.36822E-03
         0.16798E-04
         0.61557E-05
         0.67850E-05
         0.79627E-05
         0.16374E-04
         0.12785E-04
        -0.10696E-05
         0.70111E-05
         0.11264E-04
         0.50616E-05
        -0.42431E-05
         0.43726E-04
         0.26954E-04
        -0.73368E-05
         0.45107E-04
         0.73025E-05
         0.47526E-05
         0.57618E-05
         0.19092E-05
         0.43107E-06
         0.25652E-04
         0.25367E-04
         0.18029E-04
        -0.15639E-05
        -0.28589E-05
        -0.20788E-05
        -0.12611E-04
        -0.15277E-04
        -0.80572E-05
        -0.17246E-05
         0.50608E-05
        -0.35648E-06
         0.64578E-05
         0.94353E-05
         0.21048E-04
         0.74063E-05
         0.13689E-04
         0.27725E-04
         0.15256E-04
         0.14167E-04
         0.33345E-04
         0.24985E-04
         0.25575E-04
         0.12157E-04
         0.99147E-05
         0.22410E-04
         0.10101E-04
         0.79643E-05
         0.71282E-05
         0.11329E-04
         0.23503E-04
         0.15550E-04
         0.36837E-03
         0.39750E-03
         0.42969E-03
         0.43114E-03
         0.49396E-03
         0.57012E-03
         0.52231E-03
         0.41775E-03
         0.39489E-03
         0.44631E-03
         0.42861E-03
         0.41717E-03
         0.28234E-03
         0.25966E-03
         0.30667E-03
         0.34773E-03
         0.37587E-03
         0.44986E-03
         0.41542E-03
         0.44494E-03
         0.36092E-03
         0.32339E-03
         0.36237E-03
         0.34421E-03
         0.36977E-03
         0.36776E-03
         0.16841E-04
         0.61718E-05
         0.68026E-05
         0.79926E-05
         0.16398E-04
         0.12811E-04
        -0.10291E-05
         0.70770E-05
         0.11306E-04
         0.51427E-05
        -0.41927E-05
         0.43768E-04
         0.26991E-04
        -0.72931E-05
         0.45298E-04
         0.73530E-05
         0.47856E-05
         0.57975E-05
         0.19554E-05
         0.47696E-06
         0.25711E-04
         0.25420E-04
         0.18077E-04
        -0.15217E-05
        -0.27978E-05
        -0.20380E-05
        -0.12542E-04
        -0.15226E-04
        -0.79841E-05
        -0.16481E-05
         0.51139E-05
        -0.32454E-06
         0.64998E-05
         0.94835E-05
         0.21111E-04
         0.74369E-05
         0.13704E-04
         0.27883E-04
         0.15402E-04
         0.14290E-04
         0.33462E-04
         0.25066E-04
         0.25641E-04
         0.12202E-04
         0.99467E-05
         0.22446E-04
         0.10137E-04
         0.80043E-05
         0.71581E-05
         0.11352E-04
         0.23521E-04
         0.15563E-04
         0.36821E-03
         0.39744E-03
         0.42980E-03
         0.43121E-03
         0.49378E-03
         0.56975E-03
         0.52197E-03
         0.41763E-03
         0.39477E-03
         0.44614E-03
         0.42858E-03
         0.41727E-03
         0.28240E-03
         0.25974E-03
         0.30685E-03
         0.34803E-03
         0.37618E-03
         0.45013E-03
         0.41541E-03
         0.44496E-03
         0.36095E-03
         0.32345E-03
         0.36219E-03
         0.34382E-03
         0.36946E-03
         0.36749E-03
         0.16835E-04
         0.61408E-05
         0.67793E-05
         0.79672E-05
         0.16354E-04
         0.12772E-04
        -0.10631E-05
         0.70573E-05
         0.11291E-04
         0.51406E-05
        -0.42412E-05
         0.43708E-04
         0.26950E-04
        -0.73689E-05
         0.45362E-04
         0.73280E-05
         0.47543E-05
         0.57486E-05
         0.19120E-05
         0.43044E-06
         0.25664E-04
         0.25364E-04
         0.18023E-04
        -0.15675E-05
        -0.28156E-05
        -0.20782E-05
        -0.12599E-04
        -0.15291E-04
        -0.80304E-05
        -0.16720E-05
         0.50813E-05
        -0.36560E-06
         0.64416E-05
         0.94506E-05
         0.21081E-04
         0.73941E-05
         0.13650E-04
         0.27904E-04
         0.15415E-04
         0.14273E-04
         0.33438E-04
         0.25027E-04
         0.25599E-04
         0.12146E-04
         0.98927E-05
         0.22403E-04
         0.10093E-04
         0.79516E-05
         0.71022E-05
         0.11302E-04
         0.23462E-04
         0.15498E-04
         0.36785E-03
         0.39718E-03
         0.42970E-03
         0.43110E-03
         0.49350E-03
         0.56925E-03
         0.52146E-03
         0.41732E-03
         0.39446E-03
         0.44574E-03
         0.42829E-03
         0.41718E-03
         0.28228E-03
         0.25963E-03
         0.30686E-03
         0.34817E-03
         0.37629E-03
         0.45020E-03
         0.41529E-03
         0.44482E-03
         0.36079E-03
         0.32337E-03
         0.36190E-03
         0.34330E-03
         0.36895E-03
         0.36700E-03
         0.16846E-04
         0.61307E-05
         0.67749E-05
         0.79636E-05
         0.16340E-04
         0.12756E-04
        -0.10636E-05
         0.70704E-05
         0.11309E-04
         0.51902E-05
        -0.42471E-05
         0.43700E-04
         0.26963E-04
        -0.73911E-05
         0.45468E-04
         0.73328E-05
         0.47656E-05
         0.57359E-05
         0.19111E-05
         0.42363E-06
         0.25661E-04
         0.25354E-04
         0.18015E-04
        -0.15760E-05
        -0.27878E-05
        -0.20898E-05
        -0.12583E-04
        -0.15300E-04
        -0.80370E-05
        -0.16669E-05
         0.50677E-05
        -0.38239E-06
         0.64147E-05
         0.94463E-05
         0.21090E-04
         0.73789E-05
         0.13632E-04
         0.27970E-04
         0.15462E-04
         0.14298E-04
         0.33483E-04
         0.25053E-04
         0.25605E-04
         0.12144E-04
         0.98848E-05
         0.22400E-04
         0.10083E-04
         0.79324E-05
         0.70738E-05
         0.11278E-04
         0.23437E-04
         0.15463E-04
         0.36757E-03
         0.39700E-03
         0.42966E-03
         0.43107E-03
         0.49334E-03
         0.56887E-03
         0.52099E-03
         0.41702E-03
         0.39418E-03
         0.44542E-03
         0.42815E-03
         0.41722E-03
         0.28224E-03
         0.25958E-03
         0.30691E-03
         0.34837E-03
         0.37653E-03
         0.45040E-03
         0.41521E-03
         0.44473E-03
         0.36068E-03
         0.32331E-03
         0.36164E-03
         0.34283E-03
         0.36849E-03
         0.36658E-03
         0.16949E-04
         0.62280E-05
         0.68602E-05
         0.80319E-05
         0.16429E-04
         0.12825E-04
        -0.94346E-06
         0.71916E-05
         0.11392E-04
         0.53234E-05
        -0.41286E-05
         0.43833E-04
         0.27101E-04
        -0.72975E-05
         0.45704E-04
         0.74280E-05
         0.48559E-05
         0.58054E-05
         0.20080E-05
         0.52154E-06
         0.25782E-04
         0.25460E-04
         0.18125E-04
        -0.14845E-05
        -0.26545E-05
        -0.19991E-05
        -0.12451E-04
        -0.15164E-04
        -0.79000E-05
        -0.15371E-05
         0.51664E-05
        -0.29085E-06
         0.64828E-05
         0.95095E-05
         0.21221E-04
         0.74722E-05
         0.13725E-04
         0.28159E-04
         0.15661E-04
         0.14464E-04
         0.33643E-04
         0.25194E-04
         0.25715E-04
         0.12263E-04
         0.99977E-05
         0.22519E-04
         0.10187E-04
         0.80298E-05
         0.71450E-05
         0.11333E-04
         0.23493E-04
         0.15505E-04
         0.36751E-03
         0.39703E-03
         0.42983E-03
         0.43120E-03
         0.49334E-03
         0.56869E-03
         0.52072E-03
         0.41693E-03
         0.39413E-03
         0.44530E-03
         0.42815E-03
         0.41745E-03
         0.28235E-03
         0.25972E-03
         0.30717E-03
         0.34879E-03
         0.37700E-03
         0.45082E-03
         0.41534E-03
         0.44486E-03
         0.36078E-03
         0.32341E-03
         0.36152E-03
         0.34254E-03
         0.36826E-03
         0.36637E-03
         0.16927E-04
         0.62000E-05
         0.68388E-05
         0.79992E-05
         0.16377E-04
         0.12785E-04
        -0.97299E-06
         0.71614E-05
         0.11364E-04
         0.53085E-05
        -0.41760E-05
         0.43787E-04
         0.27097E-04
        -0.73759E-05
         0.45750E-04
         0.73925E-05
         0.48142E-05
         0.57650E-05
         0.19496E-05
         0.46523E-06
         0.25753E-04
         0.25407E-04
         0.18094E-04
        -0.15398E-05
        -0.26809E-05
        -0.20558E-05
        -0.12501E-04
        -0.15209E-04
        -0.79033E-05
        -0.15500E-05
         0.51448E-05
        -0.33724E-06
         0.64411E-05
         0.94687E-05
         0.21179E-04
         0.74329E-05
         0.13698E-04
         0.28170E-04
         0.15689E-04
         0.14485E-04
         0.33647E-04
         0.25171E-04
         0.25664E-04
         0.12223E-04
         0.99511E-05
         0.22480E-04
         0.10152E-04
         0.80013E-05
         0.70965E-05
         0.11266E-04
         0.23427E-04
         0.15439E-04
         0.36710E-03
         0.39672E-03
         0.42971E-03
         0.43115E-03
         0.49316E-03
         0.56826E-03
         0.52016E-03
         0.41657E-03
         0.39380E-03
         0.44490E-03
         0.42788E-03
         0.41734E-03
         0.28221E-03
         0.25965E-03
         0.30724E-03
         0.34901E-03
         0.37721E-03
         0.45094E-03
         0.41521E-03
         0.44472E-03
         0.36064E-03
         0.32329E-03
         0.36117E-03
         0.34203E-03
         0.36779E-03
         0.36589E-03
         0.16879E-04
         0.61290E-05
         0.67735E-05
         0.79533E-05
         0.16301E-04
         0.12714E-04
        -0.10262E-05
         0.71224E-05
         0.11317E-04
         0.52421E-05
        -0.42341E-05
         0.43713E-04
         0.27057E-04
        -0.74556E-05
         0.45783E-04
         0.73463E-05
         0.47457E-05
         0.57188E-05
         0.19024E-05
         0.43658E-06
         0.25716E-04
         0.25346E-04
         0.18055E-04
        -0.15872E-05
        -0.27537E-05
        -0.21115E-05
        -0.12623E-04
        -0.15282E-04
        -0.77437E-05
        -0.14541E-05
         0.50991E-05
        -0.40207E-06
         0.63998E-05
         0.94417E-05
         0.21128E-04
         0.73694E-05
         0.13635E-04
         0.28137E-04
         0.15719E-04
         0.14643E-04
         0.33695E-04
         0.25143E-04
         0.25591E-04
         0.12180E-04
         0.98906E-05
         0.22414E-04
         0.10086E-04
         0.79489E-05
         0.70422E-05
         0.11210E-04
         0.23366E-04
         0.15366E-04
         0.36673E-03
         0.39645E-03
         0.42962E-03
         0.43109E-03
         0.49291E-03
         0.56773E-03
         0.51955E-03
         0.41619E-03
         0.39348E-03
         0.44458E-03
         0.42749E-03
         0.41701E-03
         0.28203E-03
         0.25955E-03
         0.30725E-03
         0.34917E-03
         0.37738E-03
         0.45105E-03
         0.41504E-03
         0.44453E-03
         0.36048E-03
         0.32317E-03
         0.36082E-03
         0.34150E-03
         0.36727E-03
         0.36538E-03
         0.16978E-04
         0.62184E-05
         0.68657E-05
         0.80350E-05
         0.16396E-04
         0.12789E-04
        -0.91999E-06
         0.72417E-05
         0.11379E-04
         0.52738E-05
        -0.41272E-05
         0.43811E-04
         0.27165E-04
        -0.73684E-05
         0.46004E-04
         0.74424E-05
         0.48107E-05
         0.57838E-05
         0.20137E-05
         0.59971E-06
         0.25818E-04
         0.25438E-04
         0.18146E-04
        -0.14885E-05
        -0.26959E-05
        -0.20127E-05
        -0.12642E-04
        -0.15197E-04
        -0.72638E-05
        -0.10818E-05
         0.51847E-05
        -0.30900E-06
         0.64663E-05
         0.95246E-05
         0.21267E-04
         0.74737E-05
         0.13724E-04
         0.28252E-04
         0.15933E-04
         0.15086E-04
         0.33950E-04
         0.25281E-04
         0.25659E-04
         0.12284E-04
         0.10001E-04
         0.22545E-04
         0.10195E-04
         0.80382E-05
         0.71213E-05
         0.11291E-04
         0.23448E-04
         0.15420E-04
         0.36668E-03
         0.39649E-03
         0.42983E-03
         0.43125E-03
         0.49285E-03
         0.56747E-03
         0.51927E-03
         0.41613E-03
         0.39346E-03
         0.44463E-03
         0.42728E-03
         0.41678E-03
         0.28203E-03
         0.25967E-03
         0.30744E-03
         0.34949E-03
         0.37775E-03
         0.45143E-03
         0.41520E-03
         0.44468E-03
         0.36060E-03
         0.32333E-03
         0.36076E-03
         0.34124E-03
         0.36702E-03
         0.36516E-03
         0.16679E-04
         0.58901E-05
         0.65508E-05
         0.77358E-05
         0.16010E-04
         0.12426E-04
        -0.12737E-05
         0.68896E-05
         0.11050E-04
         0.48682E-05
        -0.45295E-05
         0.43347E-04
         0.26751E-04
        -0.78156E-05
         0.45635E-04
         0.71374E-05
         0.44509E-05
         0.54732E-05
         0.16560E-05
         0.25491E-06
         0.25419E-04
         0.25034E-04
         0.17753E-04
        -0.18365E-05
        -0.30974E-05
        -0.23430E-05
        -0.13139E-04
        -0.15611E-04
        -0.74424E-05
        -0.13140E-05
         0.48771E-05
        -0.65273E-06
         0.61387E-05
         0.91882E-05
         0.20853E-04
         0.70828E-05
         0.13316E-04
         0.27811E-04
         0.15593E-04
         0.14879E-04
         0.33596E-04
         0.24874E-04
         0.25235E-04
         0.11904E-04
         0.95962E-05
         0.22090E-04
         0.97959E-05
         0.76733E-05
         0.67497E-05
         0.10883E-04
         0.22984E-04
         0.15000E-04
         0.36563E-03
         0.39555E-03
         0.42903E-03
         0.43045E-03
         0.49190E-03
         0.56632E-03
         0.51805E-03
         0.41507E-03
         0.39248E-03
         0.44360E-03
         0.42614E-03
         0.41580E-03
         0.28126E-03
         0.25902E-03
         0.30687E-03
         0.34903E-03
         0.37730E-03
         0.45084E-03
         0.41432E-03
         0.44384E-03
         0.35980E-03
         0.32259E-03
         0.35979E-03
         0.34005E-03
         0.36590E-03
         0.36407E-03
         0.16873E-04
         0.59129E-05
         0.66143E-05
         0.78580E-05
         0.16127E-04
         0.12536E-04
        -0.12154E-05
         0.71291E-05
         0.11292E-04
         0.52476E-05
        -0.44163E-05
         0.43357E-04
         0.26662E-04
        -0.75718E-05
         0.45952E-04
         0.73961E-05
         0.47012E-05
         0.56369E-05
         0.18547E-05
         0.45484E-06
         0.25613E-04
         0.25171E-04
         0.18043E-04
        -0.15755E-05
        -0.26849E-05
        -0.21001E-05
        -0.12712E-04
        -0.15135E-04
        -0.70403E-05
        -0.93896E-06
         0.50800E-05
        -0.50271E-06
         0.62241E-05
         0.91419E-05
         0.20941E-04
         0.70516E-05
         0.13198E-04
         0.28172E-04
         0.15998E-04
         0.15199E-04
         0.33822E-04
         0.25146E-04
         0.25506E-04
         0.12177E-04
         0.97470E-05
         0.22169E-04
         0.98619E-05
         0.78331E-05
         0.68604E-05
         0.10872E-04
         0.22996E-04
         0.14982E-04
         0.36565E-03
         0.39576E-03
         0.42912E-03
         0.43029E-03
         0.49138E-03
         0.56572E-03
         0.51796E-03
         0.41522E-03
         0.39257E-03
         0.44346E-03
         0.42606E-03
         0.41606E-03
         0.28156E-03
         0.25916E-03
         0.30727E-03
         0.34970E-03
         0.37793E-03
         0.45133E-03
         0.41439E-03
         0.44377E-03
         0.35990E-03
         0.32279E-03
         0.35990E-03
         0.34005E-03
         0.36586E-03
         0.36406E-03
         0.12414E-02
         0.12832E-02
         0.12741E-02
         0.11645E-02
         0.14821E-02
         0.13809E-02
         0.13813E-02
         0.14071E-02
         0.12149E-02
         0.14093E-02
         0.15351E-02
         0.18217E-02
         0.16221E-02
         0.15820E-02
         0.18760E-02
         0.11840E-02
         0.12706E-02
         0.11118E-02
         0.13215E-02
         0.13808E-02
         0.14928E-02
         0.15040E-02
         0.14263E-02
         0.12611E-02
         0.14060E-02
         0.12076E-02
         0.15614E-02
         0.15110E-02
         0.15203E-02
         0.14561E-02
         0.11942E-02
         0.12506E-02
         0.11705E-02
         0.12245E-02
         0.16513E-02
         0.14687E-02
         0.14769E-02
         0.17655E-02
         0.16887E-02
         0.16619E-02
         0.17287E-02
         0.16273E-02
         0.15442E-02
         0.13794E-02
         0.14362E-02
         0.16624E-02
         0.14946E-02
         0.13906E-02
         0.13566E-02
         0.14134E-02
         0.15768E-02
         0.14293E-02
         0.32153E-02
         0.31768E-02
         0.32651E-02
         0.31698E-02
         0.33090E-02
         0.35145E-02
         0.34830E-02
         0.33517E-02
         0.33557E-02
         0.34892E-02
         0.33833E-02
         0.32072E-02
         0.27677E-02
         0.26043E-02
         0.26893E-02
         0.27894E-02
         0.28472E-02
         0.31359E-02
         0.32878E-02
         0.33228E-02
         0.30049E-02
         0.28785E-02
         0.30069E-02
         0.29603E-02
         0.29634E-02
         0.29634E-02
         0.13109E-01
         0.13712E-01
         0.13524E-01
         0.12394E-01
         0.15112E-01
         0.14234E-01
         0.14786E-01
         0.14891E-01
         0.12839E-01
         0.14884E-01
         0.16169E-01
         0.18048E-01
         0.16416E-01
         0.16618E-01
         0.18659E-01
         0.12590E-01
         0.13495E-01
         0.11853E-01
         0.13916E-01
         0.14610E-01
         0.15087E-01
         0.15404E-01
         0.14505E-01
         0.13409E-01
         0.15053E-01
         0.12961E-01
         0.16560E-01
         0.16294E-01
         0.16364E-01
         0.15562E-01
         0.12722E-01
         0.13353E-01
         0.12488E-01
         0.13034E-01
         0.16485E-01
         0.15180E-01
         0.15226E-01
         0.18080E-01
         0.17629E-01
         0.17425E-01
         0.17728E-01
         0.16866E-01
         0.15986E-01
         0.14175E-01
         0.14737E-01
         0.16479E-01
         0.15287E-01
         0.14413E-01
         0.14142E-01
         0.14638E-01
         0.15836E-01
         0.14679E-01
         0.26029E-01
         0.25419E-01
         0.25974E-01
         0.25199E-01
         0.25979E-01
         0.27332E-01
         0.27700E-01
         0.27512E-01
         0.27667E-01
         0.28333E-01
         0.27540E-01
         0.25968E-01
         0.23253E-01
         0.22004E-01
         0.22122E-01
         0.22442E-01
         0.22682E-01
         0.24580E-01
         0.26186E-01
         0.26318E-01
         0.24363E-01
         0.23607E-01
         0.24397E-01
         0.24209E-01
         0.23973E-01
         0.23899E-01
  
SCALARS                      strain_yz  double 1
LOOKUP_TABLE default
        -0.35613E-03
         0.12144E-03
         0.31061E-03
         0.15522E-03
        -0.73878E-10
        -0.20362E-10
        -0.91557E-10
        -0.69834E-10
         0.11838E-02
        -0.77208E-03
        -0.13625E-09
        -0.11996E-09
         0.10744E-02
         0.54704E-04
         0.97512E-10
        -0.62519E-11
        -0.34262E-03
        -0.13760E-02
         0.14346E-11
         0.14679E-10
         0.73292E-03
         0.28140E-02
         0.28341E-02
         0.22353E-09
         0.38603E-09
         0.32267E-09
         0.27715E-03
         0.29324E-02
         0.16079E-09
         0.31193E-09
        -0.39211E-03
        -0.35330E-03
         0.28083E-03
         0.83356E-10
         0.85093E-10
        -0.17666E-11
        -0.11880E-02
        -0.11930E-02
         0.15339E-09
         0.11934E-09
        -0.11873E-02
        -0.77994E-03
         0.11592E-09
         0.10594E-09
        -0.10477E-02
        -0.35675E-03
        -0.38455E-11
         0.59481E-10
        -0.10574E-02
         0.28005E-10
        -0.94921E-04
        -0.22682E-11
        -0.64503E-04
         0.10833E-09
         0.43130E-03
         0.63016E-10
         0.14065E-02
        -0.24189E-03
         0.17096E-11
        -0.34698E-11
        -0.47583E-03
        -0.17587E-02
        -0.23293E-10
        -0.87126E-10
        -0.28501E-03
        -0.47017E-10
        -0.12426E-02
        -0.57278E-10
         0.10499E-02
         0.55820E-03
        -0.70784E-11
         0.93460E-10
         0.19687E-02
         0.20523E-09
         0.37591E-02
         0.19871E-09
         0.38120E-02
         0.15084E-09
         0.31327E-02
         0.12643E-09
         0.45339E-02
         0.34308E-02
         0.81106E-10
        -0.17982E-10
         0.46606E-03
        -0.20121E-11
        -0.16384E-02
        -0.12605E-09
        -0.39315E-02
        -0.22066E-09
        -0.55619E-02
        -0.34704E-02
        -0.32728E-09
        -0.26491E-09
        -0.24207E-02
        -0.20564E-09
        -0.21593E-02
        -0.21038E-09
        -0.21125E-02
        -0.22620E-09
        -0.35221E-02
        -0.29112E-02
        -0.21036E-09
        -0.10079E-09
         0.24330E-02
        -0.90838E-03
         0.73965E-10
        -0.91915E-10
         0.59974E-02
         0.24606E-09
         0.84508E-02
         0.35993E-09
         0.10510E-01
         0.44452E-09
         0.12752E-01
         0.44093E-09
         0.15499E-01
         0.34893E-09
         0.16140E-01
         0.27003E-09
         0.15226E-01
         0.25115E-09
         0.13541E-01
         0.23896E-09
         0.96779E-02
         0.15271E-09
         0.62881E-02
         0.50418E-10
         0.30177E-02
         0.32579E-10
        -0.21129E-03
         0.48968E-10
        -0.27270E-02
         0.25291E-10
        -0.48025E-02
        -0.76486E-10
        -0.74377E-02
        -0.21589E-09
        -0.87467E-02
        -0.33712E-09
        -0.98552E-02
        -0.44196E-09
        -0.12719E-01
        -0.44158E-09
        -0.12970E-01
        -0.38548E-09
        -0.11886E-01
        -0.37569E-09
        -0.98009E-02
        -0.37802E-09
        -0.66613E-02
        -0.29893E-09
        -0.46697E-02
        -0.17677E-09
        -0.33126E-02
        -0.13668E-09
        -0.38146E-02
        -0.20041E-02
        -0.17459E-02
        -0.53122E-03
        -0.18185E-02
        -0.18989E-02
        -0.20470E-03
        -0.31104E-02
        -0.26004E-02
        -0.38780E-02
         0.20930E-02
         0.89633E-02
         0.60654E-02
         0.70289E-03
         0.90188E-02
         0.10045E-02
        -0.89337E-03
         0.56902E-03
         0.76518E-03
        -0.57537E-03
         0.53237E-03
         0.43682E-03
        -0.14810E-02
         0.12452E-03
        -0.26460E-02
         0.39142E-03
         0.20571E-04
         0.35919E-03
         0.44056E-03
        -0.20921E-02
         0.98236E-03
        -0.10865E-02
         0.71450E-03
        -0.17627E-03
         0.30355E-03
         0.16240E-02
         0.36190E-02
         0.78819E-02
         0.72084E-02
         0.61630E-02
         0.58526E-02
         0.14239E-02
        -0.11411E-02
        -0.31386E-02
        -0.52415E-02
        -0.87175E-02
        -0.56327E-02
        -0.39709E-02
        -0.42418E-02
        -0.45665E-02
        -0.54275E-02
        -0.24366E-02
         0.48428E-02
        -0.57389E-02
         0.15584E-01
         0.21460E-01
         0.27388E-01
         0.32793E-01
         0.33231E-01
         0.30146E-01
         0.28650E-01
         0.27104E-01
         0.17566E-01
         0.75551E-02
         0.32959E-02
         0.14482E-02
        -0.22064E-02
        -0.86879E-02
        -0.15973E-01
        -0.20996E-01
        -0.25983E-01
        -0.29643E-01
        -0.27703E-01
        -0.26185E-01
        -0.24395E-01
        -0.17089E-01
        -0.98753E-02
        -0.86361E-02
        -0.45991E-02
        -0.29007E-02
        -0.26842E-02
        -0.63668E-03
        -0.34863E-02
        -0.15680E-02
        -0.12434E-02
        -0.43468E-02
        -0.28505E-02
        -0.40883E-02
         0.21615E-02
         0.93547E-02
         0.55420E-02
         0.79640E-03
         0.92166E-02
         0.17441E-02
        -0.52856E-03
         0.50462E-03
         0.22745E-02
         0.43973E-03
         0.19604E-02
         0.13919E-02
        -0.80694E-03
         0.68109E-03
        -0.27530E-02
         0.68094E-03
         0.17087E-03
         0.31765E-03
        -0.50740E-03
        -0.27462E-02
         0.18797E-02
         0.49514E-03
         0.12149E-02
         0.10549E-02
        -0.50300E-03
         0.15333E-02
         0.29275E-02
         0.70046E-02
         0.61769E-02
         0.54435E-02
         0.39991E-02
        -0.98817E-03
        -0.20354E-02
        -0.25424E-02
        -0.32738E-02
        -0.66877E-02
        -0.38914E-02
        -0.25733E-02
        -0.32342E-02
        -0.38181E-02
        -0.39562E-02
        -0.29683E-03
         0.49330E-02
        -0.70563E-02
         0.16421E-01
         0.21221E-01
         0.27390E-01
         0.32869E-01
         0.32195E-01
         0.28114E-01
         0.26942E-01
         0.26657E-01
         0.16740E-01
         0.55172E-02
         0.21983E-02
         0.18836E-02
        -0.87241E-03
        -0.74009E-02
        -0.14827E-01
        -0.20636E-01
        -0.26856E-01
        -0.29780E-01
        -0.26150E-01
        -0.24722E-01
        -0.24649E-01
        -0.17355E-01
        -0.90158E-02
        -0.85367E-02
        -0.46020E-02
        -0.29012E-02
        -0.26856E-02
        -0.64135E-03
        -0.34867E-02
        -0.15692E-02
        -0.12449E-02
        -0.43541E-02
        -0.28556E-02
        -0.41035E-02
         0.21627E-02
         0.93539E-02
         0.55434E-02
         0.79642E-03
         0.92284E-02
         0.17442E-02
        -0.53336E-03
         0.50386E-03
         0.22760E-02
         0.43728E-03
         0.19653E-02
         0.13932E-02
        -0.80714E-03
         0.68076E-03
        -0.27655E-02
         0.67971E-03
         0.17289E-03
         0.31943E-03
        -0.50405E-03
        -0.27520E-02
         0.18800E-02
         0.49406E-03
         0.12176E-02
         0.10566E-02
        -0.49828E-03
         0.15343E-02
         0.29274E-02
         0.70153E-02
         0.61902E-02
         0.54498E-02
         0.40022E-02
        -0.98551E-03
        -0.20375E-02
        -0.25437E-02
        -0.32739E-02
        -0.66877E-02
        -0.38918E-02
        -0.25718E-02
        -0.32299E-02
        -0.38130E-02
        -0.39545E-02
        -0.29234E-03
         0.49284E-02
        -0.70567E-02
         0.16424E-01
         0.21221E-01
         0.27387E-01
         0.32858E-01
         0.32181E-01
         0.28105E-01
         0.26937E-01
         0.26650E-01
         0.16736E-01
         0.55198E-02
         0.21981E-02
         0.18875E-02
        -0.86530E-03
        -0.74048E-02
        -0.14834E-01
        -0.20641E-01
        -0.26856E-01
        -0.29778E-01
        -0.26148E-01
        -0.24721E-01
        -0.24643E-01
        -0.17343E-01
        -0.90059E-02
        -0.85255E-02
        -0.46049E-02
        -0.29018E-02
        -0.26869E-02
        -0.64607E-03
        -0.34871E-02
        -0.15705E-02
        -0.12465E-02
        -0.43615E-02
        -0.28607E-02
        -0.41187E-02
         0.21640E-02
         0.93531E-02
         0.55447E-02
         0.79634E-03
         0.92401E-02
         0.17444E-02
        -0.53822E-03
         0.50310E-03
         0.22776E-02
         0.43479E-03
         0.19702E-02
         0.13945E-02
        -0.80744E-03
         0.68035E-03
        -0.27778E-02
         0.67829E-03
         0.17504E-03
         0.32132E-03
        -0.50040E-03
        -0.27577E-02
         0.18803E-02
         0.49275E-03
         0.12203E-02
         0.10583E-02
        -0.49353E-03
         0.15353E-02
         0.29272E-02
         0.70262E-02
         0.62036E-02
         0.54562E-02
         0.40054E-02
        -0.98258E-03
        -0.20395E-02
        -0.25454E-02
        -0.32743E-02
        -0.66879E-02
        -0.38922E-02
        -0.25702E-02
        -0.32256E-02
        -0.38079E-02
        -0.39529E-02
        -0.28786E-03
         0.49238E-02
        -0.70571E-02
         0.16427E-01
         0.21222E-01
         0.27383E-01
         0.32846E-01
         0.32168E-01
         0.28097E-01
         0.26931E-01
         0.26643E-01
         0.16733E-01
         0.55225E-02
         0.21980E-02
         0.18913E-02
        -0.85816E-03
        -0.74089E-02
        -0.14841E-01
        -0.20646E-01
        -0.26856E-01
        -0.29777E-01
        -0.26146E-01
        -0.24720E-01
        -0.24636E-01
        -0.17331E-01
        -0.89960E-02
        -0.85143E-02
        -0.46078E-02
        -0.29023E-02
        -0.26883E-02
        -0.65081E-03
        -0.34875E-02
        -0.15718E-02
        -0.12481E-02
        -0.43687E-02
        -0.28659E-02
        -0.41337E-02
         0.21653E-02
         0.93523E-02
         0.55462E-02
         0.79636E-03
         0.92519E-02
         0.17445E-02
        -0.54316E-03
         0.50231E-03
         0.22793E-02
         0.43214E-03
         0.19752E-02
         0.13957E-02
        -0.80814E-03
         0.67967E-03
        -0.27897E-02
         0.67644E-03
         0.17726E-03
         0.32381E-03
        -0.49586E-03
        -0.27627E-02
         0.18804E-02
         0.49098E-03
         0.12230E-02
         0.10600E-02
        -0.48880E-03
         0.15363E-02
         0.29270E-02
         0.70371E-02
         0.62172E-02
         0.54630E-02
         0.40091E-02
        -0.97884E-03
        -0.20411E-02
        -0.25479E-02
        -0.32753E-02
        -0.66883E-02
        -0.38928E-02
        -0.25687E-02
        -0.32213E-02
        -0.38027E-02
        -0.39511E-02
        -0.28340E-03
         0.49192E-02
        -0.70575E-02
         0.16430E-01
         0.21222E-01
         0.27380E-01
         0.32835E-01
         0.32154E-01
         0.28088E-01
         0.26925E-01
         0.26635E-01
         0.16730E-01
         0.55258E-02
         0.21980E-02
         0.18952E-02
        -0.85096E-03
        -0.74132E-02
        -0.14849E-01
        -0.20651E-01
        -0.26855E-01
        -0.29775E-01
        -0.26145E-01
        -0.24719E-01
        -0.24630E-01
        -0.17318E-01
        -0.89861E-02
        -0.85030E-02
        -0.46106E-02
        -0.29028E-02
        -0.26896E-02
        -0.65552E-03
        -0.34879E-02
        -0.15730E-02
        -0.12497E-02
        -0.43760E-02
        -0.28711E-02
        -0.41485E-02
         0.21666E-02
         0.93515E-02
         0.55476E-02
         0.79641E-03
         0.92637E-02
         0.17447E-02
        -0.54818E-03
         0.50152E-03
         0.22810E-02
         0.42935E-03
         0.19803E-02
         0.13967E-02
        -0.80920E-03
         0.67872E-03
        -0.28012E-02
         0.67410E-03
         0.17974E-03
         0.32687E-03
        -0.49042E-03
        -0.27673E-02
         0.18805E-02
         0.48866E-03
         0.12257E-02
         0.10618E-02
        -0.48404E-03
         0.15374E-02
         0.29269E-02
         0.70480E-02
         0.62310E-02
         0.54702E-02
         0.40134E-02
        -0.97426E-03
        -0.20423E-02
        -0.25513E-02
        -0.32769E-02
        -0.66891E-02
        -0.38937E-02
        -0.25673E-02
        -0.32171E-02
        -0.37975E-02
        -0.39494E-02
        -0.27890E-03
         0.49145E-02
        -0.70579E-02
         0.16433E-01
         0.21222E-01
         0.27377E-01
         0.32824E-01
         0.32141E-01
         0.28080E-01
         0.26920E-01
         0.26628E-01
         0.16727E-01
         0.55296E-02
         0.21982E-02
         0.18989E-02
        -0.84374E-03
        -0.74180E-02
        -0.14858E-01
        -0.20658E-01
        -0.26855E-01
        -0.29773E-01
        -0.26143E-01
        -0.24718E-01
        -0.24624E-01
        -0.17306E-01
        -0.89763E-02
        -0.84918E-02
        -0.46133E-02
        -0.29032E-02
        -0.26909E-02
        -0.66030E-03
        -0.34884E-02
        -0.15743E-02
        -0.12510E-02
        -0.43829E-02
        -0.28763E-02
        -0.41629E-02
         0.21681E-02
         0.93508E-02
         0.55491E-02
         0.79655E-03
         0.92754E-02
         0.17449E-02
        -0.55331E-03
         0.50076E-03
         0.22827E-02
         0.42651E-03
         0.19853E-02
         0.13977E-02
        -0.81043E-03
         0.67768E-03
        -0.28124E-02
         0.67161E-03
         0.18240E-03
         0.33026E-03
        -0.48460E-03
        -0.27716E-02
         0.18804E-02
         0.48608E-03
         0.12284E-02
         0.10636E-02
        -0.47924E-03
         0.15385E-02
         0.29268E-02
         0.70590E-02
         0.62451E-02
         0.54777E-02
         0.40178E-02
        -0.96941E-03
        -0.20434E-02
        -0.25550E-02
        -0.32789E-02
        -0.66902E-02
        -0.38947E-02
        -0.25661E-02
        -0.32131E-02
        -0.37925E-02
        -0.39478E-02
        -0.27441E-03
         0.49099E-02
        -0.70583E-02
         0.16436E-01
         0.21222E-01
         0.27373E-01
         0.32813E-01
         0.32127E-01
         0.28071E-01
         0.26914E-01
         0.26620E-01
         0.16724E-01
         0.55337E-02
         0.21985E-02
         0.19026E-02
        -0.83653E-03
        -0.74228E-02
        -0.14867E-01
        -0.20664E-01
        -0.26854E-01
        -0.29771E-01
        -0.26141E-01
        -0.24718E-01
        -0.24618E-01
        -0.17294E-01
        -0.89664E-02
        -0.84806E-02
        -0.46158E-02
        -0.29031E-02
        -0.26923E-02
        -0.66519E-03
        -0.34888E-02
        -0.15756E-02
        -0.12521E-02
        -0.43892E-02
        -0.28816E-02
        -0.41767E-02
         0.21699E-02
         0.93503E-02
         0.55510E-02
         0.79716E-03
         0.92874E-02
         0.17452E-02
        -0.55856E-03
         0.49998E-03
         0.22845E-02
         0.42366E-03
         0.19905E-02
         0.13988E-02
        -0.81166E-03
         0.67665E-03
        -0.28234E-02
         0.66911E-03
         0.18554E-03
         0.33386E-03
        -0.47867E-03
        -0.27758E-02
         0.18802E-02
         0.48332E-03
         0.12312E-02
         0.10654E-02
        -0.47444E-03
         0.15396E-02
         0.29269E-02
         0.70702E-02
         0.62592E-02
         0.54851E-02
         0.40223E-02
        -0.96445E-03
        -0.20444E-02
        -0.25587E-02
        -0.32811E-02
        -0.66915E-02
        -0.38963E-02
        -0.25657E-02
        -0.32098E-02
        -0.37877E-02
        -0.39461E-02
        -0.26987E-03
         0.49053E-02
        -0.70587E-02
         0.16439E-01
         0.21222E-01
         0.27370E-01
         0.32802E-01
         0.32113E-01
         0.28063E-01
         0.26908E-01
         0.26613E-01
         0.16721E-01
         0.55378E-02
         0.21988E-02
         0.19064E-02
        -0.82931E-03
        -0.74277E-02
        -0.14877E-01
        -0.20670E-01
        -0.26854E-01
        -0.29769E-01
        -0.26140E-01
        -0.24717E-01
        -0.24611E-01
        -0.17281E-01
        -0.89566E-02
        -0.84694E-02
        -0.46182E-02
        -0.29029E-02
        -0.26936E-02
        -0.67016E-03
        -0.34893E-02
        -0.15768E-02
        -0.12530E-02
        -0.43951E-02
        -0.28869E-02
        -0.41902E-02
         0.21718E-02
         0.93498E-02
         0.55528E-02
         0.79787E-03
         0.92993E-02
         0.17455E-02
        -0.56388E-03
         0.49919E-03
         0.22863E-02
         0.42081E-03
         0.19956E-02
         0.13998E-02
        -0.81287E-03
         0.67566E-03
        -0.28342E-02
         0.66661E-03
         0.18879E-03
         0.33754E-03
        -0.47272E-03
        -0.27799E-02
         0.18800E-02
         0.48044E-03
         0.12341E-02
         0.10674E-02
        -0.46959E-03
         0.15409E-02
         0.29271E-02
         0.70815E-02
         0.62734E-02
         0.54927E-02
         0.40268E-02
        -0.95949E-03
        -0.20454E-02
        -0.25624E-02
        -0.32833E-02
        -0.66931E-02
        -0.38981E-02
        -0.25655E-02
        -0.32067E-02
        -0.37829E-02
        -0.39445E-02
        -0.26532E-03
         0.49007E-02
        -0.70590E-02
         0.16442E-01
         0.21222E-01
         0.27367E-01
         0.32791E-01
         0.32099E-01
         0.28054E-01
         0.26903E-01
         0.26605E-01
         0.16719E-01
         0.55419E-02
         0.21991E-02
         0.19102E-02
        -0.82208E-03
        -0.74325E-02
        -0.14886E-01
        -0.20677E-01
        -0.26853E-01
        -0.29767E-01
        -0.26139E-01
        -0.24716E-01
        -0.24605E-01
        -0.17269E-01
        -0.89467E-02
        -0.84581E-02
        -0.46205E-02
        -0.29027E-02
        -0.26948E-02
        -0.67512E-03
        -0.34897E-02
        -0.15781E-02
        -0.12538E-02
        -0.44011E-02
        -0.28923E-02
        -0.42036E-02
         0.21737E-02
         0.93494E-02
         0.55546E-02
         0.79869E-03
         0.93113E-02
         0.17458E-02
        -0.56922E-03
         0.49839E-03
         0.22880E-02
         0.41794E-03
         0.20007E-02
         0.14009E-02
        -0.81409E-03
         0.67468E-03
        -0.28450E-02
         0.66414E-03
         0.19214E-03
         0.34119E-03
        -0.46678E-03
        -0.27841E-02
         0.18798E-02
         0.47760E-03
         0.12370E-02
         0.10693E-02
        -0.46471E-03
         0.15421E-02
         0.29273E-02
         0.70929E-02
         0.62877E-02
         0.55001E-02
         0.40313E-02
        -0.95456E-03
        -0.20464E-02
        -0.25662E-02
        -0.32856E-02
        -0.66946E-02
        -0.38998E-02
        -0.25653E-02
        -0.32037E-02
        -0.37782E-02
        -0.39429E-02
        -0.26076E-03
         0.48960E-02
        -0.70594E-02
         0.16445E-01
         0.21223E-01
         0.27363E-01
         0.32779E-01
         0.32086E-01
         0.28046E-01
         0.26897E-01
         0.26598E-01
         0.16716E-01
         0.55459E-02
         0.21995E-02
         0.19141E-02
        -0.81487E-03
        -0.74373E-02
        -0.14896E-01
        -0.20683E-01
        -0.26852E-01
        -0.29765E-01
        -0.26137E-01
        -0.24716E-01
        -0.24598E-01
        -0.17256E-01
        -0.89369E-02
        -0.84469E-02
        -0.46228E-02
        -0.29025E-02
        -0.26961E-02
        -0.68006E-03
        -0.34901E-02
        -0.15793E-02
        -0.12547E-02
        -0.44070E-02
        -0.28976E-02
        -0.42170E-02
         0.21756E-02
         0.93489E-02
         0.55566E-02
         0.79939E-03
         0.93232E-02
         0.17462E-02
        -0.57459E-03
         0.49759E-03
         0.22898E-02
         0.41506E-03
         0.20057E-02
         0.14019E-02
        -0.81524E-03
         0.67369E-03
        -0.28558E-02
         0.66166E-03
         0.19539E-03
         0.34481E-03
        -0.46086E-03
        -0.27882E-02
         0.18796E-02
         0.47473E-03
         0.12398E-02
         0.10713E-02
        -0.45985E-03
         0.15434E-02
         0.29275E-02
         0.71042E-02
         0.63019E-02
         0.55076E-02
         0.40359E-02
        -0.94963E-03
        -0.20474E-02
        -0.25699E-02
        -0.32879E-02
        -0.66961E-02
        -0.39016E-02
        -0.25653E-02
        -0.32006E-02
        -0.37734E-02
        -0.39413E-02
        -0.25621E-03
         0.48914E-02
        -0.70598E-02
         0.16448E-01
         0.21223E-01
         0.27360E-01
         0.32768E-01
         0.32072E-01
         0.28037E-01
         0.26892E-01
         0.26590E-01
         0.16713E-01
         0.55499E-02
         0.21999E-02
         0.19179E-02
        -0.80768E-03
        -0.74422E-02
        -0.14905E-01
        -0.20689E-01
        -0.26852E-01
        -0.29763E-01
        -0.26136E-01
        -0.24715E-01
        -0.24592E-01
        -0.17244E-01
        -0.89272E-02
        -0.84357E-02
        -0.46252E-02
        -0.29023E-02
        -0.26974E-02
        -0.68499E-03
        -0.34906E-02
        -0.15806E-02
        -0.12556E-02
        -0.44129E-02
        -0.29030E-02
        -0.42304E-02
         0.21776E-02
         0.93484E-02
         0.55584E-02
         0.80017E-03
         0.93353E-02
         0.17465E-02
        -0.57997E-03
         0.49680E-03
         0.22915E-02
         0.41215E-03
         0.20108E-02
         0.14029E-02
        -0.81646E-03
         0.67272E-03
        -0.28665E-02
         0.65919E-03
         0.19869E-03
         0.34837E-03
        -0.45495E-03
        -0.27923E-02
         0.18794E-02
         0.47188E-03
         0.12426E-02
         0.10732E-02
        -0.45496E-03
         0.15446E-02
         0.29278E-02
         0.71156E-02
         0.63162E-02
         0.55150E-02
         0.40404E-02
        -0.94471E-03
        -0.20484E-02
        -0.25736E-02
        -0.32901E-02
        -0.66976E-02
        -0.39034E-02
        -0.25651E-02
        -0.31975E-02
        -0.37687E-02
        -0.39397E-02
        -0.25165E-03
         0.48867E-02
        -0.70601E-02
         0.16451E-01
         0.21223E-01
         0.27357E-01
         0.32757E-01
         0.32058E-01
         0.28029E-01
         0.26886E-01
         0.26582E-01
         0.16711E-01
         0.55539E-02
         0.22002E-02
         0.19217E-02
        -0.80046E-03
        -0.74470E-02
        -0.14914E-01
        -0.20695E-01
        -0.26851E-01
        -0.29761E-01
        -0.26135E-01
        -0.24715E-01
        -0.24585E-01
        -0.17232E-01
        -0.89175E-02
        -0.84244E-02
        -0.46275E-02
        -0.29020E-02
        -0.26987E-02
        -0.68996E-03
        -0.34910E-02
        -0.15818E-02
        -0.12564E-02
        -0.44188E-02
        -0.29084E-02
        -0.42437E-02
         0.21795E-02
         0.93479E-02
         0.55602E-02
         0.80094E-03
         0.93472E-02
         0.17469E-02
        -0.58536E-03
         0.49599E-03
         0.22933E-02
         0.40927E-03
         0.20159E-02
         0.14039E-02
        -0.81767E-03
         0.67176E-03
        -0.28773E-02
         0.65674E-03
         0.20193E-03
         0.35191E-03
        -0.44904E-03
        -0.27965E-02
         0.18791E-02
         0.46903E-03
         0.12455E-02
         0.10752E-02
        -0.45004E-03
         0.15458E-02
         0.29279E-02
         0.71270E-02
         0.63304E-02
         0.55225E-02
         0.40449E-02
        -0.93984E-03
        -0.20494E-02
        -0.25773E-02
        -0.32924E-02
        -0.66992E-02
        -0.39052E-02
        -0.25650E-02
        -0.31945E-02
        -0.37640E-02
        -0.39381E-02
        -0.24710E-03
         0.48820E-02
        -0.70604E-02
         0.16453E-01
         0.21223E-01
         0.27353E-01
         0.32746E-01
         0.32044E-01
         0.28020E-01
         0.26881E-01
         0.26575E-01
         0.16708E-01
         0.55580E-02
         0.22005E-02
         0.19255E-02
        -0.79321E-03
        -0.74518E-02
        -0.14924E-01
        -0.20701E-01
        -0.26850E-01
        -0.29759E-01
        -0.26134E-01
        -0.24714E-01
        -0.24579E-01
        -0.17219E-01
        -0.89078E-02
        -0.84132E-02
        -0.46298E-02
        -0.29018E-02
        -0.27000E-02
        -0.69496E-03
        -0.34915E-02
        -0.15831E-02
        -0.12573E-02
        -0.44247E-02
        -0.29138E-02
        -0.42571E-02
         0.21815E-02
         0.93475E-02
         0.55621E-02
         0.80162E-03
         0.93592E-02
         0.17472E-02
        -0.59074E-03
         0.49517E-03
         0.22950E-02
         0.40641E-03
         0.20210E-02
         0.14049E-02
        -0.81886E-03
         0.67080E-03
        -0.28880E-02
         0.65425E-03
         0.20526E-03
         0.35541E-03
        -0.44314E-03
        -0.28006E-02
         0.18789E-02
         0.46614E-03
         0.12483E-02
         0.10771E-02
        -0.44513E-03
         0.15471E-02
         0.29281E-02
         0.71383E-02
         0.63447E-02
         0.55299E-02
         0.40494E-02
        -0.93491E-03
        -0.20503E-02
        -0.25810E-02
        -0.32947E-02
        -0.67005E-02
        -0.39070E-02
        -0.25649E-02
        -0.31915E-02
        -0.37593E-02
        -0.39365E-02
        -0.24255E-03
         0.48774E-02
        -0.70608E-02
         0.16456E-01
         0.21223E-01
         0.27350E-01
         0.32734E-01
         0.32030E-01
         0.28012E-01
         0.26875E-01
         0.26567E-01
         0.16705E-01
         0.55620E-02
         0.22009E-02
         0.19294E-02
        -0.78598E-03
        -0.74566E-02
        -0.14933E-01
        -0.20708E-01
        -0.26849E-01
        -0.29757E-01
        -0.26132E-01
        -0.24714E-01
        -0.24572E-01
        -0.17207E-01
        -0.88981E-02
        -0.84020E-02
        -0.46321E-02
        -0.29016E-02
        -0.27013E-02
        -0.69994E-03
        -0.34919E-02
        -0.15843E-02
        -0.12582E-02
        -0.44305E-02
        -0.29192E-02
        -0.42704E-02
         0.21834E-02
         0.93470E-02
         0.55640E-02
         0.80239E-03
         0.93711E-02
         0.17475E-02
        -0.59616E-03
         0.49436E-03
         0.22967E-02
         0.40354E-03
         0.20261E-02
         0.14059E-02
        -0.82006E-03
         0.66985E-03
        -0.28987E-02
         0.65177E-03
         0.20850E-03
         0.35887E-03
        -0.43727E-03
        -0.28047E-02
         0.18787E-02
         0.46329E-03
         0.12511E-02
         0.10791E-02
        -0.44019E-03
         0.15483E-02
         0.29283E-02
         0.71498E-02
         0.63590E-02
         0.55372E-02
         0.40539E-02
        -0.92999E-03
        -0.20513E-02
        -0.25847E-02
        -0.32969E-02
        -0.67021E-02
        -0.39088E-02
        -0.25647E-02
        -0.31884E-02
        -0.37545E-02
        -0.39349E-02
        -0.23804E-03
         0.48727E-02
        -0.70611E-02
         0.16459E-01
         0.21223E-01
         0.27347E-01
         0.32723E-01
         0.32016E-01
         0.28003E-01
         0.26870E-01
         0.26559E-01
         0.16702E-01
         0.55660E-02
         0.22012E-02
         0.19332E-02
        -0.77878E-03
        -0.74614E-02
        -0.14943E-01
        -0.20714E-01
        -0.26849E-01
        -0.29755E-01
        -0.26131E-01
        -0.24713E-01
        -0.24565E-01
        -0.17194E-01
        -0.88885E-02
        -0.83908E-02
        -0.46344E-02
        -0.29014E-02
        -0.27025E-02
        -0.70491E-03
        -0.34924E-02
        -0.15856E-02
        -0.12591E-02
        -0.44364E-02
        -0.29246E-02
        -0.42836E-02
         0.21854E-02
         0.93466E-02
         0.55658E-02
         0.80304E-03
         0.93832E-02
         0.17479E-02
        -0.60159E-03
         0.49356E-03
         0.22985E-02
         0.40065E-03
         0.20312E-02
         0.14068E-02
        -0.82124E-03
         0.66892E-03
        -0.29095E-02
         0.64930E-03
         0.21179E-03
         0.36226E-03
        -0.43142E-03
        -0.28088E-02
         0.18784E-02
         0.46041E-03
         0.12540E-02
         0.10811E-02
        -0.43526E-03
         0.15496E-02
         0.29285E-02
         0.71613E-02
         0.63733E-02
         0.55446E-02
         0.40584E-02
        -0.92509E-03
        -0.20523E-02
        -0.25884E-02
        -0.32992E-02
        -0.67037E-02
        -0.39106E-02
        -0.25647E-02
        -0.31853E-02
        -0.37498E-02
        -0.39334E-02
        -0.23349E-03
         0.48680E-02
        -0.70614E-02
         0.16462E-01
         0.21224E-01
         0.27344E-01
         0.32712E-01
         0.32002E-01
         0.27994E-01
         0.26864E-01
         0.26551E-01
         0.16700E-01
         0.55700E-02
         0.22015E-02
         0.19370E-02
        -0.77157E-03
        -0.74662E-02
        -0.14952E-01
        -0.20720E-01
        -0.26848E-01
        -0.29753E-01
        -0.26130E-01
        -0.24713E-01
        -0.24559E-01
        -0.17182E-01
        -0.88788E-02
        -0.83795E-02
        -0.46367E-02
        -0.29011E-02
        -0.27038E-02
        -0.70987E-03
        -0.34928E-02
        -0.15868E-02
        -0.12600E-02
        -0.44422E-02
        -0.29300E-02
        -0.42969E-02
         0.21873E-02
         0.93461E-02
         0.55677E-02
         0.80378E-03
         0.93951E-02
         0.17482E-02
        -0.60706E-03
         0.49275E-03
         0.23002E-02
         0.39777E-03
         0.20364E-02
         0.14078E-02
        -0.82242E-03
         0.66799E-03
        -0.29202E-02
         0.64682E-03
         0.21500E-03
         0.36562E-03
        -0.42558E-03
        -0.28129E-02
         0.18782E-02
         0.45756E-03
         0.12568E-02
         0.10830E-02
        -0.43028E-03
         0.15508E-02
         0.29287E-02
         0.71728E-02
         0.63876E-02
         0.55519E-02
         0.40629E-02
        -0.92019E-03
        -0.20533E-02
        -0.25921E-02
        -0.33015E-02
        -0.67052E-02
        -0.39124E-02
        -0.25645E-02
        -0.31823E-02
        -0.37450E-02
        -0.39317E-02
        -0.22895E-03
         0.48633E-02
        -0.70616E-02
         0.16464E-01
         0.21224E-01
         0.27340E-01
         0.32701E-01
         0.31988E-01
         0.27986E-01
         0.26859E-01
         0.26543E-01
         0.16697E-01
         0.55740E-02
         0.22018E-02
         0.19408E-02
        -0.76434E-03
        -0.74710E-02
        -0.14962E-01
        -0.20726E-01
        -0.26847E-01
        -0.29751E-01
        -0.26129E-01
        -0.24712E-01
        -0.24552E-01
        -0.17170E-01
        -0.88693E-02
        -0.83683E-02
        -0.46389E-02
        -0.29009E-02
        -0.27051E-02
        -0.71485E-03
        -0.34932E-02
        -0.15881E-02
        -0.12609E-02
        -0.44480E-02
        -0.29355E-02
        -0.43102E-02
         0.21893E-02
         0.93457E-02
         0.55696E-02
         0.80441E-03
         0.94071E-02
         0.17485E-02
        -0.61255E-03
         0.49192E-03
         0.23020E-02
         0.39492E-03
         0.20414E-02
         0.14087E-02
        -0.82361E-03
         0.66707E-03
        -0.29309E-02
         0.64432E-03
         0.21830E-03
         0.36893E-03
        -0.41975E-03
        -0.28170E-02
         0.18780E-02
         0.45468E-03
         0.12596E-02
         0.10850E-02
        -0.42530E-03
         0.15520E-02
         0.29288E-02
         0.71844E-02
         0.64019E-02
         0.55591E-02
         0.40674E-02
        -0.91533E-03
        -0.20544E-02
        -0.25958E-02
        -0.33038E-02
        -0.67067E-02
        -0.39142E-02
        -0.25645E-02
        -0.31793E-02
        -0.37403E-02
        -0.39302E-02
        -0.22444E-03
         0.48586E-02
        -0.70619E-02
         0.16467E-01
         0.21224E-01
         0.27337E-01
         0.32689E-01
         0.31974E-01
         0.27977E-01
         0.26853E-01
         0.26535E-01
         0.16694E-01
         0.55781E-02
         0.22021E-02
         0.19445E-02
        -0.75715E-03
        -0.74758E-02
        -0.14971E-01
        -0.20732E-01
        -0.26847E-01
        -0.29750E-01
        -0.26127E-01
        -0.24711E-01
        -0.24546E-01
        -0.17157E-01
        -0.88597E-02
        -0.83571E-02
        -0.46412E-02
        -0.29007E-02
        -0.27064E-02
        -0.71986E-03
        -0.34937E-02
        -0.15893E-02
        -0.12618E-02
        -0.44538E-02
        -0.29409E-02
        -0.43234E-02
         0.21912E-02
         0.93452E-02
         0.55714E-02
         0.80513E-03
         0.94190E-02
         0.17489E-02
        -0.61810E-03
         0.49109E-03
         0.23037E-02
         0.39220E-03
         0.20465E-02
         0.14096E-02
        -0.82481E-03
         0.66612E-03
        -0.29417E-02
         0.64186E-03
         0.22156E-03
         0.37223E-03
        -0.41392E-03
        -0.28207E-02
         0.18777E-02
         0.45177E-03
         0.12624E-02
         0.10870E-02
        -0.42031E-03
         0.15533E-02
         0.29290E-02
         0.71961E-02
         0.64161E-02
         0.55660E-02
         0.40719E-02
        -0.91041E-03
        -0.20554E-02
        -0.25995E-02
        -0.33061E-02
        -0.67083E-02
        -0.39160E-02
        -0.25643E-02
        -0.31762E-02
        -0.37356E-02
        -0.39286E-02
        -0.21993E-03
         0.48539E-02
        -0.70622E-02
         0.16470E-01
         0.21224E-01
         0.27334E-01
         0.32678E-01
         0.31960E-01
         0.27968E-01
         0.26848E-01
         0.26527E-01
         0.16692E-01
         0.55822E-02
         0.22022E-02
         0.19483E-02
        -0.74998E-03
        -0.74805E-02
        -0.14981E-01
        -0.20738E-01
        -0.26846E-01
        -0.29748E-01
        -0.26126E-01
        -0.24711E-01
        -0.24539E-01
        -0.17145E-01
        -0.88503E-02
        -0.83458E-02
        -0.46435E-02
        -0.29005E-02
        -0.27077E-02
        -0.72485E-03
        -0.34941E-02
        -0.15905E-02
        -0.12627E-02
        -0.44595E-02
        -0.29465E-02
        -0.43366E-02
         0.21931E-02
         0.93448E-02
         0.55733E-02
         0.80585E-03
         0.94311E-02
         0.17492E-02
        -0.62375E-03
         0.49025E-03
         0.23055E-02
         0.38960E-03
         0.20516E-02
         0.14104E-02
        -0.82600E-03
         0.66521E-03
        -0.29524E-02
         0.63937E-03
         0.22497E-03
         0.37549E-03
        -0.40812E-03
        -0.28243E-02
         0.18775E-02
         0.44890E-03
         0.12652E-02
         0.10889E-02
        -0.41529E-03
         0.15546E-02
         0.29292E-02
         0.72079E-02
         0.64302E-02
         0.55727E-02
         0.40762E-02
        -0.90551E-03
        -0.20566E-02
        -0.26032E-02
        -0.33085E-02
        -0.67098E-02
        -0.39178E-02
        -0.25642E-02
        -0.31732E-02
        -0.37308E-02
        -0.39270E-02
        -0.21538E-03
         0.48492E-02
        -0.70625E-02
         0.16472E-01
         0.21224E-01
         0.27330E-01
         0.32667E-01
         0.31946E-01
         0.27960E-01
         0.26842E-01
         0.26518E-01
         0.16690E-01
         0.55864E-02
         0.22021E-02
         0.19520E-02
        -0.74276E-03
        -0.74853E-02
        -0.14990E-01
        -0.20745E-01
        -0.26845E-01
        -0.29746E-01
        -0.26125E-01
        -0.24710E-01
        -0.24532E-01
        -0.17132E-01
        -0.88408E-02
        -0.83346E-02
        -0.46458E-02
        -0.29003E-02
        -0.27090E-02
        -0.72983E-03
        -0.34946E-02
        -0.15917E-02
        -0.12636E-02
        -0.44653E-02
        -0.29521E-02
        -0.43498E-02
         0.21951E-02
         0.93443E-02
         0.55752E-02
         0.80646E-03
         0.94430E-02
         0.17495E-02
        -0.62942E-03
         0.48943E-03
         0.23072E-02
         0.38707E-03
         0.20567E-02
         0.14113E-02
        -0.82711E-03
         0.66436E-03
        -0.29632E-02
         0.63696E-03
         0.22829E-03
         0.37861E-03
        -0.40239E-03
        -0.28278E-02
         0.18773E-02
         0.44609E-03
         0.12680E-02
         0.10910E-02
        -0.41032E-03
         0.15558E-02
         0.29293E-02
         0.72198E-02
         0.64443E-02
         0.55791E-02
         0.40805E-02
        -0.90070E-03
        -0.20577E-02
        -0.26068E-02
        -0.33107E-02
        -0.67114E-02
        -0.39196E-02
        -0.25641E-02
        -0.31702E-02
        -0.37261E-02
        -0.39255E-02
        -0.21087E-03
         0.48445E-02
        -0.70628E-02
         0.16475E-01
         0.21224E-01
         0.27327E-01
         0.32655E-01
         0.31932E-01
         0.27951E-01
         0.26836E-01
         0.26509E-01
         0.16688E-01
         0.55904E-02
         0.22019E-02
         0.19558E-02
        -0.73554E-03
        -0.74900E-02
        -0.15000E-01
        -0.20751E-01
        -0.26845E-01
        -0.29744E-01
        -0.26124E-01
        -0.24710E-01
        -0.24525E-01
        -0.17120E-01
        -0.88315E-02
        -0.83234E-02
        -0.46630E-02
        -0.29098E-02
        -0.27195E-02
        -0.73702E-03
        -0.35059E-02
        -0.15978E-02
        -0.12687E-02
        -0.44844E-02
        -0.29668E-02
        -0.43755E-02
         0.22036E-02
         0.93694E-02
         0.55927E-02
         0.80948E-03
         0.94809E-02
         0.17557E-02
        -0.63678E-03
         0.49023E-03
         0.23162E-02
         0.38602E-03
         0.20674E-02
         0.14162E-02
        -0.82996E-03
         0.66607E-03
        -0.29826E-02
         0.63741E-03
         0.23201E-03
         0.38215E-03
        -0.39896E-03
        -0.28403E-02
         0.18835E-02
         0.44554E-03
         0.12748E-02
         0.10965E-02
        -0.40701E-03
         0.15610E-02
         0.29375E-02
         0.72514E-02
         0.64764E-02
         0.56017E-02
         0.40960E-02
        -0.89969E-03
        -0.20655E-02
        -0.26167E-02
        -0.33215E-02
        -0.67302E-02
        -0.39317E-02
        -0.25708E-02
        -0.31766E-02
        -0.37327E-02
        -0.39353E-02
        -0.20703E-03
         0.48492E-02
        -0.70787E-02
         0.16511E-01
         0.21269E-01
         0.27382E-01
         0.32715E-01
         0.31989E-01
         0.28006E-01
         0.26891E-01
         0.26560E-01
         0.16723E-01
         0.56053E-02
         0.22059E-02
         0.19634E-02
        -0.73022E-03
        -0.75087E-02
        -0.15037E-01
        -0.20798E-01
        -0.26899E-01
        -0.29803E-01
        -0.26177E-01
        -0.24760E-01
        -0.24570E-01
        -0.17145E-01
        -0.88410E-02
        -0.83301E-02
        -0.69037E-02
        -0.43242E-02
        -0.40193E-02
        -0.10993E-02
        -0.49980E-02
        -0.23015E-02
        -0.18809E-02
        -0.66051E-02
        -0.43861E-02
        -0.64324E-02
         0.32089E-02
         0.13096E-01
         0.79409E-02
         0.11738E-02
         0.13326E-01
         0.26027E-02
        -0.94659E-03
         0.72639E-03
         0.33860E-02
         0.56399E-03
         0.29402E-02
         0.20370E-02
        -0.11812E-02
         0.98115E-03
        -0.44281E-02
         0.94666E-03
         0.34204E-03
         0.56724E-03
        -0.58930E-03
        -0.42078E-02
         0.27921E-02
         0.65800E-03
         0.18964E-02
         0.16284E-02
        -0.56136E-03
         0.22437E-02
         0.42224E-02
         0.10420E-01
         0.94425E-02
         0.81956E-02
         0.59101E-02
        -0.13055E-02
        -0.30043E-02
        -0.37542E-02
        -0.47475E-02
        -0.93384E-02
        -0.55995E-02
        -0.37066E-02
        -0.46034E-02
        -0.53839E-02
        -0.55392E-02
        -0.29246E-03
         0.59870E-02
        -0.87379E-02
         0.20381E-01
         0.26334E-01
         0.33872E-01
         0.40551E-01
         0.40086E-01
         0.35388E-01
         0.33914E-01
         0.33294E-01
         0.20994E-01
         0.70288E-02
         0.27971E-02
         0.25026E-02
        -0.91195E-03
        -0.93312E-02
        -0.18631E-01
        -0.25609E-01
        -0.33077E-01
        -0.36690E-01
        -0.32579E-01
        -0.30960E-01
        -0.30602E-01
        -0.21424E-01
        -0.11013E-01
        -0.10337E-01
  
SCALARS                      strain_xz  double 1
LOOKUP_TABLE default
        -0.58767E-04
         0.42490E-03
         0.13808E-02
        -0.92164E-04
        -0.76467E-10
         0.27113E-10
         0.90661E-10
         0.18106E-10
         0.39505E-02
         0.26173E-02
         0.27117E-09
         0.24426E-09
        -0.17428E-03
         0.71203E-03
        -0.33445E-10
        -0.15667E-09
         0.13533E-03
         0.68205E-03
        -0.11317E-09
        -0.16855E-09
         0.10260E-02
         0.17633E-02
         0.16178E-02
        -0.11255E-09
        -0.51899E-10
         0.90671E-10
         0.18612E-02
         0.15545E-02
        -0.21068E-09
        -0.16712E-09
        -0.31709E-03
         0.72809E-03
        -0.65209E-04
         0.21450E-10
        -0.82890E-10
        -0.51066E-10
        -0.95911E-03
        -0.48174E-03
        -0.12306E-09
        -0.13103E-09
        -0.19436E-02
        -0.28419E-02
        -0.27760E-09
        -0.20472E-09
        -0.20232E-02
        -0.10642E-02
        -0.30485E-09
        -0.14673E-09
         0.63125E-03
        -0.92104E-10
        -0.13694E-02
        -0.25638E-10
         0.68180E-03
        -0.17997E-09
        -0.51387E-03
        -0.47607E-10
        -0.22480E-02
        -0.59730E-03
        -0.40782E-10
        -0.98576E-10
         0.33881E-04
        -0.94681E-03
         0.81568E-10
         0.55935E-10
         0.24079E-03
        -0.82047E-11
         0.81854E-03
         0.53967E-10
         0.56023E-02
         0.38536E-02
         0.33731E-09
         0.24464E-09
         0.25000E-02
         0.17813E-09
        -0.64896E-03
        -0.12322E-09
        -0.20406E-02
        -0.24184E-10
        -0.43159E-02
        -0.37520E-10
        -0.56350E-02
        -0.39451E-02
        -0.13750E-09
        -0.15726E-09
        -0.33848E-02
        -0.16912E-09
        -0.24552E-02
        -0.24350E-09
        -0.15524E-02
        -0.15531E-09
        -0.24740E-02
        -0.18315E-02
        -0.66284E-10
         0.90899E-10
         0.41524E-03
         0.10662E-09
         0.11331E-02
         0.44769E-10
         0.27353E-02
         0.11055E-09
         0.40513E-02
         0.27654E-02
         0.25491E-09
         0.26600E-09
         0.10217E-01
         0.11159E-01
         0.47101E-09
         0.46417E-09
         0.10146E-01
         0.40238E-09
         0.91023E-02
         0.30071E-09
         0.66334E-02
         0.16525E-09
         0.49861E-02
         0.17671E-10
         0.19100E-02
        -0.62938E-10
        -0.25070E-02
        -0.50355E-10
        -0.59939E-02
        -0.49493E-10
        -0.89006E-02
        -0.11161E-09
        -0.11734E-01
        -0.21234E-09
        -0.13718E-01
        -0.25339E-09
        -0.13950E-01
        -0.23908E-09
        -0.12933E-01
        -0.25998E-09
        -0.11533E-01
        -0.33741E-09
        -0.10182E-01
        -0.39788E-09
        -0.89870E-02
        -0.36987E-09
        -0.74693E-02
        -0.30059E-09
        -0.45143E-02
        -0.14191E-09
        -0.39095E-03
         0.27097E-10
         0.25109E-02
         0.65788E-10
         0.38973E-02
         0.10758E-09
         0.59424E-02
         0.21054E-09
         0.78324E-02
         0.34547E-09
         0.10189E-01
         0.41507E-09
         0.11547E-01
         0.42454E-09
        -0.11813E-02
         0.62474E-03
         0.73139E-03
        -0.14428E-02
         0.57980E-02
         0.44026E-02
         0.67998E-03
        -0.98720E-03
        -0.49598E-03
        -0.89738E-03
         0.50949E-03
         0.22147E-02
         0.45803E-02
        -0.14639E-02
        -0.17729E-02
         0.19221E-02
         0.16191E-02
        -0.74260E-03
        -0.11909E-02
        -0.12741E-02
        -0.70199E-02
        -0.74368E-02
        -0.67793E-02
        -0.21015E-02
         0.83502E-03
        -0.62263E-03
        -0.20312E-02
        -0.22745E-03
        -0.23533E-02
        -0.15910E-02
         0.17193E-02
         0.34418E-03
        -0.81027E-03
        -0.26546E-03
         0.87736E-02
         0.55140E-02
         0.49574E-02
        -0.34976E-02
        -0.19942E-02
        -0.43188E-02
        -0.89666E-02
        -0.81773E-02
        -0.79002E-02
        -0.58244E-02
        -0.42251E-02
        -0.33692E-02
         0.62253E-03
         0.25537E-02
         0.73943E-03
         0.23770E-02
         0.64388E-02
         0.53223E-02
         0.26458E-01
         0.27363E-01
         0.24525E-01
         0.20793E-01
         0.15502E-01
         0.79647E-02
        -0.47643E-03
        -0.57322E-02
        -0.87228E-02
        -0.14990E-01
        -0.24515E-01
        -0.29200E-01
        -0.26510E-01
        -0.25336E-01
        -0.26620E-01
        -0.26504E-01
        -0.24087E-01
        -0.21249E-01
        -0.11017E-01
         0.17325E-02
         0.66039E-02
         0.73606E-02
         0.12482E-01
         0.20083E-01
         0.25764E-01
         0.26966E-01
        -0.15617E-02
         0.32057E-03
        -0.61030E-03
        -0.17770E-02
         0.36451E-02
         0.31150E-02
         0.90756E-03
        -0.19812E-02
        -0.91032E-03
        -0.18835E-02
        -0.38050E-03
         0.13883E-02
         0.45671E-02
        -0.35023E-02
        -0.36278E-02
         0.30681E-02
         0.17080E-02
        -0.10230E-02
        -0.68846E-03
        -0.12090E-02
        -0.71740E-02
        -0.68370E-02
        -0.67468E-02
        -0.16318E-02
         0.92685E-03
         0.62406E-03
        -0.33844E-02
         0.44937E-03
        -0.11326E-02
        -0.15446E-02
         0.23572E-02
         0.15253E-02
        -0.15288E-02
        -0.13194E-02
         0.65008E-02
         0.35879E-02
         0.41156E-02
        -0.40231E-02
        -0.67356E-03
        -0.19528E-02
        -0.71745E-02
        -0.73800E-02
        -0.72138E-02
        -0.52159E-02
        -0.40167E-02
        -0.23502E-02
         0.25400E-02
         0.29986E-02
        -0.39638E-03
         0.47725E-03
         0.48919E-02
         0.43093E-02
         0.27183E-01
         0.27394E-01
         0.24591E-01
         0.20282E-01
         0.15134E-01
         0.69706E-02
        -0.17306E-02
        -0.56072E-02
        -0.73865E-02
        -0.13540E-01
        -0.24051E-01
        -0.28372E-01
        -0.23791E-01
        -0.22634E-01
        -0.24936E-01
        -0.25682E-01
        -0.23440E-01
        -0.22173E-01
        -0.11297E-01
         0.29363E-02
         0.64940E-02
         0.65791E-02
         0.11697E-01
         0.20253E-01
         0.25924E-01
         0.25842E-01
        -0.15646E-02
         0.32176E-03
        -0.61145E-03
        -0.17782E-02
         0.36416E-02
         0.31121E-02
         0.91333E-03
        -0.19762E-02
        -0.91132E-03
        -0.18820E-02
        -0.37280E-03
         0.13917E-02
         0.45699E-02
        -0.34937E-02
        -0.36259E-02
         0.30713E-02
         0.17118E-02
        -0.10202E-02
        -0.68812E-03
        -0.12069E-02
        -0.71733E-02
        -0.68362E-02
        -0.67463E-02
        -0.16319E-02
         0.92894E-03
         0.62511E-03
        -0.33854E-02
         0.44093E-03
        -0.11406E-02
        -0.15456E-02
         0.23606E-02
         0.15251E-02
        -0.15224E-02
        -0.13200E-02
         0.65041E-02
         0.35862E-02
         0.41143E-02
        -0.40295E-02
        -0.68001E-03
        -0.19590E-02
        -0.71790E-02
        -0.73843E-02
        -0.72141E-02
        -0.52151E-02
        -0.40152E-02
        -0.23490E-02
         0.25395E-02
         0.29996E-02
        -0.39348E-03
         0.47562E-03
         0.48888E-02
         0.43029E-02
         0.27174E-01
         0.27387E-01
         0.24589E-01
         0.20282E-01
         0.15130E-01
         0.69685E-02
        -0.17326E-02
        -0.56107E-02
        -0.73803E-02
        -0.13535E-01
        -0.24047E-01
        -0.28373E-01
        -0.23788E-01
        -0.22632E-01
        -0.24939E-01
        -0.25687E-01
        -0.23445E-01
        -0.22178E-01
        -0.11294E-01
         0.29377E-02
         0.64892E-02
         0.65765E-02
         0.11689E-01
         0.20241E-01
         0.25911E-01
         0.25830E-01
        -0.15676E-02
         0.32293E-03
        -0.61260E-03
        -0.17794E-02
         0.36380E-02
         0.31093E-02
         0.91913E-03
        -0.19712E-02
        -0.91226E-03
        -0.18804E-02
        -0.36512E-03
         0.13950E-02
         0.45726E-02
        -0.34851E-02
        -0.36240E-02
         0.30745E-02
         0.17156E-02
        -0.10173E-02
        -0.68778E-03
        -0.12049E-02
        -0.71727E-02
        -0.68355E-02
        -0.67459E-02
        -0.16320E-02
         0.93117E-03
         0.62623E-03
        -0.33864E-02
         0.43258E-03
        -0.11486E-02
        -0.15465E-02
         0.23641E-02
         0.15250E-02
        -0.15160E-02
        -0.13206E-02
         0.65074E-02
         0.35847E-02
         0.41129E-02
        -0.40359E-02
        -0.68646E-03
        -0.19652E-02
        -0.71836E-02
        -0.73887E-02
        -0.72147E-02
        -0.52145E-02
        -0.40138E-02
        -0.23479E-02
         0.25390E-02
         0.30006E-02
        -0.39052E-03
         0.47394E-03
         0.48857E-02
         0.42966E-02
         0.27164E-01
         0.27379E-01
         0.24587E-01
         0.20283E-01
         0.15125E-01
         0.69664E-02
        -0.17346E-02
        -0.56141E-02
        -0.73741E-02
        -0.13530E-01
        -0.24043E-01
        -0.28373E-01
        -0.23786E-01
        -0.22631E-01
        -0.24943E-01
        -0.25693E-01
        -0.23449E-01
        -0.22182E-01
        -0.11291E-01
         0.29390E-02
         0.64845E-02
         0.65739E-02
         0.11680E-01
         0.20228E-01
         0.25898E-01
         0.25819E-01
        -0.15705E-02
         0.32415E-03
        -0.61373E-03
        -0.17806E-02
         0.36344E-02
         0.31064E-02
         0.92485E-03
        -0.19661E-02
        -0.91308E-03
        -0.18786E-02
        -0.35745E-03
         0.13985E-02
         0.45754E-02
        -0.34765E-02
        -0.36220E-02
         0.30781E-02
         0.17196E-02
        -0.10144E-02
        -0.68748E-03
        -0.12027E-02
        -0.71723E-02
        -0.68350E-02
        -0.67459E-02
        -0.16321E-02
         0.93382E-03
         0.62762E-03
        -0.33872E-02
         0.42450E-03
        -0.11566E-02
        -0.15474E-02
         0.23679E-02
         0.15251E-02
        -0.15096E-02
        -0.13212E-02
         0.65106E-02
         0.35831E-02
         0.41116E-02
        -0.40424E-02
        -0.69289E-03
        -0.19714E-02
        -0.71883E-02
        -0.73933E-02
        -0.72156E-02
        -0.52140E-02
        -0.40123E-02
        -0.23466E-02
         0.25387E-02
         0.30016E-02
        -0.38754E-03
         0.47226E-03
         0.48825E-02
         0.42902E-02
         0.27155E-01
         0.27372E-01
         0.24585E-01
         0.20283E-01
         0.15120E-01
         0.69643E-02
        -0.17366E-02
        -0.56176E-02
        -0.73678E-02
        -0.13524E-01
        -0.24040E-01
        -0.28374E-01
        -0.23785E-01
        -0.22630E-01
        -0.24946E-01
        -0.25700E-01
        -0.23453E-01
        -0.22186E-01
        -0.11288E-01
         0.29404E-02
         0.64797E-02
         0.65714E-02
         0.11672E-01
         0.20216E-01
         0.25885E-01
         0.25807E-01
        -0.15735E-02
         0.32536E-03
        -0.61487E-03
        -0.17817E-02
         0.36309E-02
         0.31036E-02
         0.93066E-03
        -0.19611E-02
        -0.91379E-03
        -0.18764E-02
        -0.34977E-03
         0.14019E-02
         0.45782E-02
        -0.34678E-02
        -0.36201E-02
         0.30819E-02
         0.17237E-02
        -0.10116E-02
        -0.68711E-03
        -0.12005E-02
        -0.71721E-02
        -0.68346E-02
        -0.67462E-02
        -0.16322E-02
         0.93689E-03
         0.62921E-03
        -0.33879E-02
         0.41667E-03
        -0.11646E-02
        -0.15483E-02
         0.23720E-02
         0.15255E-02
        -0.15031E-02
        -0.13218E-02
         0.65139E-02
         0.35815E-02
         0.41103E-02
        -0.40488E-02
        -0.69930E-03
        -0.19776E-02
        -0.71931E-02
        -0.73983E-02
        -0.72171E-02
        -0.52137E-02
        -0.40107E-02
        -0.23452E-02
         0.25384E-02
         0.30027E-02
        -0.38459E-03
         0.47059E-03
         0.48795E-02
         0.42838E-02
         0.27146E-01
         0.27365E-01
         0.24582E-01
         0.20283E-01
         0.15116E-01
         0.69622E-02
        -0.17385E-02
        -0.56211E-02
        -0.73616E-02
        -0.13519E-01
        -0.24036E-01
        -0.28375E-01
        -0.23784E-01
        -0.22629E-01
        -0.24950E-01
        -0.25707E-01
        -0.23459E-01
        -0.22191E-01
        -0.11285E-01
         0.29417E-02
         0.64750E-02
         0.65688E-02
         0.11663E-01
         0.20203E-01
         0.25872E-01
         0.25796E-01
        -0.15763E-02
         0.32667E-03
        -0.61587E-03
        -0.17829E-02
         0.36274E-02
         0.31007E-02
         0.93645E-03
        -0.19559E-02
        -0.91446E-03
        -0.18742E-02
        -0.34208E-03
         0.14053E-02
         0.45809E-02
        -0.34592E-02
        -0.36181E-02
         0.30858E-02
         0.17279E-02
        -0.10087E-02
        -0.68672E-03
        -0.11985E-02
        -0.71721E-02
        -0.68344E-02
        -0.67468E-02
        -0.16323E-02
         0.93995E-03
         0.63084E-03
        -0.33885E-02
         0.40889E-03
        -0.11726E-02
        -0.15493E-02
         0.23760E-02
         0.15258E-02
        -0.14966E-02
        -0.13223E-02
         0.65172E-02
         0.35800E-02
         0.41091E-02
        -0.40552E-02
        -0.70571E-03
        -0.19838E-02
        -0.71980E-02
        -0.74034E-02
        -0.72187E-02
        -0.52135E-02
        -0.40092E-02
        -0.23441E-02
         0.25380E-02
         0.30038E-02
        -0.38155E-03
         0.46907E-03
         0.48765E-02
         0.42776E-02
         0.27136E-01
         0.27358E-01
         0.24580E-01
         0.20283E-01
         0.15111E-01
         0.69601E-02
        -0.17405E-02
        -0.56245E-02
        -0.73554E-02
        -0.13514E-01
        -0.24032E-01
        -0.28377E-01
        -0.23783E-01
        -0.22628E-01
        -0.24954E-01
        -0.25715E-01
        -0.23464E-01
        -0.22195E-01
        -0.11282E-01
         0.29429E-02
         0.64702E-02
         0.65662E-02
         0.11654E-01
         0.20191E-01
         0.25859E-01
         0.25784E-01
        -0.15789E-02
         0.32825E-03
        -0.61665E-03
        -0.17840E-02
         0.36239E-02
         0.30979E-02
         0.94236E-03
        -0.19506E-02
        -0.91518E-03
        -0.18722E-02
        -0.33436E-03
         0.14087E-02
         0.45838E-02
        -0.34505E-02
        -0.36161E-02
         0.30897E-02
         0.17319E-02
        -0.10058E-02
        -0.68641E-03
        -0.11965E-02
        -0.71720E-02
        -0.68342E-02
        -0.67474E-02
        -0.16325E-02
         0.94265E-03
         0.63229E-03
        -0.33893E-02
         0.40093E-03
        -0.11806E-02
        -0.15504E-02
         0.23798E-02
         0.15259E-02
        -0.14899E-02
        -0.13227E-02
         0.65206E-02
         0.35787E-02
         0.41080E-02
        -0.40615E-02
        -0.71217E-03
        -0.19902E-02
        -0.72030E-02
        -0.74085E-02
        -0.72204E-02
        -0.52133E-02
        -0.40079E-02
        -0.23430E-02
         0.25374E-02
         0.30048E-02
        -0.37826E-03
         0.46789E-03
         0.48739E-02
         0.42714E-02
         0.27127E-01
         0.27351E-01
         0.24578E-01
         0.20283E-01
         0.15106E-01
         0.69580E-02
        -0.17424E-02
        -0.56280E-02
        -0.73492E-02
        -0.13508E-01
        -0.24028E-01
        -0.28378E-01
        -0.23782E-01
        -0.22628E-01
        -0.24958E-01
        -0.25723E-01
        -0.23469E-01
        -0.22199E-01
        -0.11278E-01
         0.29439E-02
         0.64652E-02
         0.65637E-02
         0.11646E-01
         0.20179E-01
         0.25846E-01
         0.25773E-01
        -0.15814E-02
         0.32991E-03
        -0.61732E-03
        -0.17850E-02
         0.36206E-02
         0.30950E-02
         0.94834E-03
        -0.19453E-02
        -0.91593E-03
        -0.18702E-02
        -0.32661E-03
         0.14121E-02
         0.45867E-02
        -0.34419E-02
        -0.36141E-02
         0.30935E-02
         0.17358E-02
        -0.10028E-02
        -0.68604E-03
        -0.11946E-02
        -0.71719E-02
        -0.68340E-02
        -0.67479E-02
        -0.16327E-02
         0.94518E-03
         0.63364E-03
        -0.33900E-02
         0.39292E-03
        -0.11888E-02
        -0.15517E-02
         0.23836E-02
         0.15258E-02
        -0.14832E-02
        -0.13230E-02
         0.65242E-02
         0.35776E-02
         0.41070E-02
        -0.40679E-02
        -0.71863E-03
        -0.19965E-02
        -0.72080E-02
        -0.74138E-02
        -0.72222E-02
        -0.52133E-02
        -0.40067E-02
        -0.23421E-02
         0.25368E-02
         0.30058E-02
        -0.37485E-03
         0.46686E-03
         0.48713E-02
         0.42653E-02
         0.27118E-01
         0.27344E-01
         0.24575E-01
         0.20283E-01
         0.15102E-01
         0.69559E-02
        -0.17443E-02
        -0.56314E-02
        -0.73430E-02
        -0.13503E-01
        -0.24024E-01
        -0.28379E-01
        -0.23781E-01
        -0.22627E-01
        -0.24962E-01
        -0.25731E-01
        -0.23475E-01
        -0.22202E-01
        -0.11275E-01
         0.29448E-02
         0.64601E-02
         0.65612E-02
         0.11638E-01
         0.20167E-01
         0.25834E-01
         0.25761E-01
        -0.15838E-02
         0.33158E-03
        -0.61798E-03
        -0.17861E-02
         0.36172E-02
         0.30921E-02
         0.95427E-03
        -0.19400E-02
        -0.91669E-03
        -0.18682E-02
        -0.31889E-03
         0.14155E-02
         0.45895E-02
        -0.34333E-02
        -0.36121E-02
         0.30974E-02
         0.17397E-02
        -0.99994E-03
        -0.68567E-03
        -0.11926E-02
        -0.71717E-02
        -0.68338E-02
        -0.67486E-02
        -0.16329E-02
         0.94770E-03
         0.63498E-03
        -0.33908E-02
         0.38493E-03
        -0.11970E-02
        -0.15529E-02
         0.23873E-02
         0.15257E-02
        -0.14765E-02
        -0.13233E-02
         0.65278E-02
         0.35763E-02
         0.41060E-02
        -0.40742E-02
        -0.72512E-03
        -0.20028E-02
        -0.72129E-02
        -0.74190E-02
        -0.72239E-02
        -0.52133E-02
        -0.40056E-02
        -0.23413E-02
         0.25361E-02
         0.30067E-02
        -0.37145E-03
         0.46589E-03
         0.48689E-02
         0.42592E-02
         0.27108E-01
         0.27337E-01
         0.24573E-01
         0.20283E-01
         0.15097E-01
         0.69537E-02
        -0.17462E-02
        -0.56348E-02
        -0.73368E-02
        -0.13498E-01
        -0.24020E-01
        -0.28380E-01
        -0.23780E-01
        -0.22626E-01
        -0.24966E-01
        -0.25739E-01
        -0.23480E-01
        -0.22206E-01
        -0.11272E-01
         0.29458E-02
         0.64551E-02
         0.65586E-02
         0.11630E-01
         0.20154E-01
         0.25821E-01
         0.25750E-01
        -0.15863E-02
         0.33328E-03
        -0.61864E-03
        -0.17872E-02
         0.36137E-02
         0.30893E-02
         0.96025E-03
        -0.19346E-02
        -0.91744E-03
        -0.18662E-02
        -0.31117E-03
         0.14189E-02
         0.45924E-02
        -0.34247E-02
        -0.36101E-02
         0.31012E-02
         0.17436E-02
        -0.99706E-03
        -0.68530E-03
        -0.11907E-02
        -0.71717E-02
        -0.68335E-02
        -0.67491E-02
        -0.16331E-02
         0.95022E-03
         0.63632E-03
        -0.33916E-02
         0.37698E-03
        -0.12052E-02
        -0.15541E-02
         0.23910E-02
         0.15256E-02
        -0.14698E-02
        -0.13237E-02
         0.65312E-02
         0.35751E-02
         0.41051E-02
        -0.40805E-02
        -0.73161E-03
        -0.20092E-02
        -0.72179E-02
        -0.74242E-02
        -0.72256E-02
        -0.52133E-02
        -0.40044E-02
        -0.23403E-02
         0.25355E-02
         0.30077E-02
        -0.36807E-03
         0.46483E-03
         0.48663E-02
         0.42530E-02
         0.27099E-01
         0.27330E-01
         0.24571E-01
         0.20283E-01
         0.15092E-01
         0.69515E-02
        -0.17481E-02
        -0.56382E-02
        -0.73306E-02
        -0.13492E-01
        -0.24016E-01
        -0.28381E-01
        -0.23779E-01
        -0.22625E-01
        -0.24970E-01
        -0.25747E-01
        -0.23485E-01
        -0.22210E-01
        -0.11268E-01
         0.29467E-02
         0.64500E-02
         0.65560E-02
         0.11621E-01
         0.20142E-01
         0.25808E-01
         0.25738E-01
        -0.15888E-02
         0.33496E-03
        -0.61932E-03
        -0.17883E-02
         0.36104E-02
         0.30865E-02
         0.96617E-03
        -0.19293E-02
        -0.91819E-03
        -0.18642E-02
        -0.30344E-03
         0.14223E-02
         0.45953E-02
        -0.34161E-02
        -0.36080E-02
         0.31051E-02
         0.17476E-02
        -0.99418E-03
        -0.68500E-03
        -0.11887E-02
        -0.71715E-02
        -0.68334E-02
        -0.67497E-02
        -0.16333E-02
         0.95271E-03
         0.63764E-03
        -0.33924E-02
         0.36903E-03
        -0.12133E-02
        -0.15553E-02
         0.23947E-02
         0.15255E-02
        -0.14630E-02
        -0.13240E-02
         0.65348E-02
         0.35739E-02
         0.41041E-02
        -0.40868E-02
        -0.73811E-03
        -0.20155E-02
        -0.72229E-02
        -0.74294E-02
        -0.72274E-02
        -0.52133E-02
        -0.40032E-02
        -0.23395E-02
         0.25348E-02
         0.30086E-02
        -0.36466E-03
         0.46380E-03
         0.48638E-02
         0.42469E-02
         0.27090E-01
         0.27323E-01
         0.24568E-01
         0.20283E-01
         0.15088E-01
         0.69495E-02
        -0.17500E-02
        -0.56416E-02
        -0.73244E-02
        -0.13487E-01
        -0.24012E-01
        -0.28382E-01
        -0.23778E-01
        -0.22625E-01
        -0.24974E-01
        -0.25754E-01
        -0.23491E-01
        -0.22214E-01
        -0.11265E-01
         0.29476E-02
         0.64449E-02
         0.65535E-02
         0.11613E-01
         0.20130E-01
         0.25795E-01
         0.25727E-01
        -0.15912E-02
         0.33664E-03
        -0.61996E-03
        -0.17893E-02
         0.36070E-02
         0.30836E-02
         0.97212E-03
        -0.19240E-02
        -0.91894E-03
        -0.18623E-02
        -0.29573E-03
         0.14257E-02
         0.45982E-02
        -0.34075E-02
        -0.36060E-02
         0.31089E-02
         0.17515E-02
        -0.99127E-03
        -0.68465E-03
        -0.11867E-02
        -0.71714E-02
        -0.68331E-02
        -0.67503E-02
        -0.16336E-02
         0.95519E-03
         0.63901E-03
        -0.33932E-02
         0.36111E-03
        -0.12214E-02
        -0.15566E-02
         0.23984E-02
         0.15254E-02
        -0.14563E-02
        -0.13243E-02
         0.65385E-02
         0.35727E-02
         0.41031E-02
        -0.40932E-02
        -0.74463E-03
        -0.20219E-02
        -0.72279E-02
        -0.74346E-02
        -0.72291E-02
        -0.52133E-02
        -0.40020E-02
        -0.23386E-02
         0.25341E-02
         0.30096E-02
        -0.36124E-03
         0.46282E-03
         0.48613E-02
         0.42408E-02
         0.27080E-01
         0.27316E-01
         0.24566E-01
         0.20283E-01
         0.15083E-01
         0.69474E-02
        -0.17519E-02
        -0.56450E-02
        -0.73182E-02
        -0.13481E-01
        -0.24008E-01
        -0.28383E-01
        -0.23777E-01
        -0.22624E-01
        -0.24978E-01
        -0.25762E-01
        -0.23496E-01
        -0.22218E-01
        -0.11262E-01
         0.29485E-02
         0.64398E-02
         0.65510E-02
         0.11605E-01
         0.20118E-01
         0.25783E-01
         0.25715E-01
        -0.15937E-02
         0.33833E-03
        -0.62060E-03
        -0.17904E-02
         0.36036E-02
         0.30808E-02
         0.97806E-03
        -0.19186E-02
        -0.91966E-03
        -0.18603E-02
        -0.28805E-03
         0.14291E-02
         0.46011E-02
        -0.33989E-02
        -0.36039E-02
         0.31128E-02
         0.17554E-02
        -0.98837E-03
        -0.68431E-03
        -0.11848E-02
        -0.71713E-02
        -0.68329E-02
        -0.67509E-02
        -0.16338E-02
         0.95763E-03
         0.64034E-03
        -0.33940E-02
         0.35317E-03
        -0.12295E-02
        -0.15578E-02
         0.24021E-02
         0.15252E-02
        -0.14495E-02
        -0.13246E-02
         0.65419E-02
         0.35716E-02
         0.41021E-02
        -0.40994E-02
        -0.75117E-03
        -0.20282E-02
        -0.72330E-02
        -0.74397E-02
        -0.72309E-02
        -0.52133E-02
        -0.40009E-02
        -0.23376E-02
         0.25335E-02
         0.30106E-02
        -0.35781E-03
         0.46179E-03
         0.48586E-02
         0.42346E-02
         0.27071E-01
         0.27309E-01
         0.24564E-01
         0.20283E-01
         0.15078E-01
         0.69452E-02
        -0.17538E-02
        -0.56483E-02
        -0.73120E-02
        -0.13476E-01
        -0.24004E-01
        -0.28385E-01
        -0.23776E-01
        -0.22623E-01
        -0.24982E-01
        -0.25770E-01
        -0.23501E-01
        -0.22222E-01
        -0.11259E-01
         0.29494E-02
         0.64347E-02
         0.65485E-02
         0.11596E-01
         0.20106E-01
         0.25770E-01
         0.25704E-01
        -0.15962E-02
         0.34000E-03
        -0.62123E-03
        -0.17914E-02
         0.36003E-02
         0.30779E-02
         0.98394E-03
        -0.19133E-02
        -0.92040E-03
        -0.18582E-02
        -0.28037E-03
         0.14325E-02
         0.46039E-02
        -0.33904E-02
        -0.36019E-02
         0.31166E-02
         0.17593E-02
        -0.98548E-03
        -0.68404E-03
        -0.11829E-02
        -0.71712E-02
        -0.68327E-02
        -0.67515E-02
        -0.16341E-02
         0.96008E-03
         0.64167E-03
        -0.33947E-02
         0.34529E-03
        -0.12376E-02
        -0.15590E-02
         0.24057E-02
         0.15251E-02
        -0.14428E-02
        -0.13250E-02
         0.65456E-02
         0.35704E-02
         0.41012E-02
        -0.41056E-02
        -0.75770E-03
        -0.20347E-02
        -0.72379E-02
        -0.74449E-02
        -0.72326E-02
        -0.52133E-02
        -0.39997E-02
        -0.23368E-02
         0.25328E-02
         0.30115E-02
        -0.35439E-03
         0.46076E-03
         0.48562E-02
         0.42285E-02
         0.27061E-01
         0.27303E-01
         0.24561E-01
         0.20283E-01
         0.15074E-01
         0.69431E-02
        -0.17557E-02
        -0.56516E-02
        -0.73057E-02
        -0.13471E-01
        -0.24000E-01
        -0.28386E-01
        -0.23775E-01
        -0.22622E-01
        -0.24986E-01
        -0.25778E-01
        -0.23507E-01
        -0.22225E-01
        -0.11255E-01
         0.29502E-02
         0.64296E-02
         0.65460E-02
         0.11588E-01
         0.20093E-01
         0.25757E-01
         0.25692E-01
        -0.15987E-02
         0.34165E-03
        -0.62188E-03
        -0.17925E-02
         0.35969E-02
         0.30750E-02
         0.98986E-03
        -0.19080E-02
        -0.92113E-03
        -0.18563E-02
        -0.27270E-03
         0.14360E-02
         0.46068E-02
        -0.33818E-02
        -0.35998E-02
         0.31204E-02
         0.17632E-02
        -0.98259E-03
        -0.68369E-03
        -0.11809E-02
        -0.71711E-02
        -0.68325E-02
        -0.67520E-02
        -0.16343E-02
         0.96251E-03
         0.64300E-03
        -0.33955E-02
         0.33740E-03
        -0.12458E-02
        -0.15602E-02
         0.24094E-02
         0.15250E-02
        -0.14360E-02
        -0.13253E-02
         0.65491E-02
         0.35693E-02
         0.41002E-02
        -0.41118E-02
        -0.76424E-03
        -0.20410E-02
        -0.72429E-02
        -0.74500E-02
        -0.72343E-02
        -0.52133E-02
        -0.39985E-02
        -0.23359E-02
         0.25321E-02
         0.30125E-02
        -0.35092E-03
         0.45976E-03
         0.48536E-02
         0.42224E-02
         0.27052E-01
         0.27296E-01
         0.24559E-01
         0.20283E-01
         0.15069E-01
         0.69409E-02
        -0.17575E-02
        -0.56548E-02
        -0.72996E-02
        -0.13465E-01
        -0.23997E-01
        -0.28387E-01
        -0.23774E-01
        -0.22622E-01
        -0.24990E-01
        -0.25786E-01
        -0.23512E-01
        -0.22229E-01
        -0.11252E-01
         0.29511E-02
         0.64246E-02
         0.65435E-02
         0.11580E-01
         0.20081E-01
         0.25745E-01
         0.25681E-01
        -0.16012E-02
         0.34335E-03
        -0.62252E-03
        -0.17935E-02
         0.35935E-02
         0.30722E-02
         0.99575E-03
        -0.19026E-02
        -0.92186E-03
        -0.18543E-02
        -0.26502E-03
         0.14394E-02
         0.46097E-02
        -0.33733E-02
        -0.35977E-02
         0.31242E-02
         0.17670E-02
        -0.97974E-03
        -0.68335E-03
        -0.11790E-02
        -0.71710E-02
        -0.68323E-02
        -0.67526E-02
        -0.16345E-02
         0.96490E-03
         0.64433E-03
        -0.33962E-02
         0.32952E-03
        -0.12539E-02
        -0.15613E-02
         0.24131E-02
         0.15249E-02
        -0.14292E-02
        -0.13256E-02
         0.65527E-02
         0.35681E-02
         0.40992E-02
        -0.41180E-02
        -0.77082E-03
        -0.20474E-02
        -0.72478E-02
        -0.74551E-02
        -0.72360E-02
        -0.52132E-02
        -0.39974E-02
        -0.23350E-02
         0.25315E-02
         0.30134E-02
        -0.34748E-03
         0.45872E-03
         0.48511E-02
         0.42162E-02
         0.27043E-01
         0.27289E-01
         0.24557E-01
         0.20283E-01
         0.15064E-01
         0.69387E-02
        -0.17593E-02
        -0.56581E-02
        -0.72934E-02
        -0.13460E-01
        -0.23993E-01
        -0.28388E-01
        -0.23773E-01
        -0.22621E-01
        -0.24994E-01
        -0.25794E-01
        -0.23517E-01
        -0.22233E-01
        -0.11249E-01
         0.29519E-02
         0.64194E-02
         0.65410E-02
         0.11571E-01
         0.20069E-01
         0.25732E-01
         0.25669E-01
        -0.16037E-02
         0.34502E-03
        -0.62317E-03
        -0.17946E-02
         0.35902E-02
         0.30694E-02
         0.10017E-02
        -0.18973E-02
        -0.92257E-03
        -0.18522E-02
        -0.25735E-03
         0.14428E-02
         0.46126E-02
        -0.33647E-02
        -0.35955E-02
         0.31281E-02
         0.17709E-02
        -0.97687E-03
        -0.68303E-03
        -0.11770E-02
        -0.71708E-02
        -0.68320E-02
        -0.67532E-02
        -0.16348E-02
         0.96724E-03
         0.64565E-03
        -0.33969E-02
         0.32157E-03
        -0.12619E-02
        -0.15625E-02
         0.24168E-02
         0.15248E-02
        -0.14225E-02
        -0.13259E-02
         0.65563E-02
         0.35669E-02
         0.40982E-02
        -0.41242E-02
        -0.77746E-03
        -0.20538E-02
        -0.72526E-02
        -0.74602E-02
        -0.72377E-02
        -0.52132E-02
        -0.39962E-02
        -0.23341E-02
         0.25308E-02
         0.30144E-02
        -0.34405E-03
         0.45769E-03
         0.48485E-02
         0.42101E-02
         0.27033E-01
         0.27282E-01
         0.24554E-01
         0.20283E-01
         0.15060E-01
         0.69366E-02
        -0.17611E-02
        -0.56614E-02
        -0.72872E-02
        -0.13454E-01
        -0.23989E-01
        -0.28390E-01
        -0.23772E-01
        -0.22620E-01
        -0.24998E-01
        -0.25802E-01
        -0.23523E-01
        -0.22237E-01
        -0.11245E-01
         0.29528E-02
         0.64144E-02
         0.65384E-02
         0.11563E-01
         0.20057E-01
         0.25719E-01
         0.25658E-01
        -0.16062E-02
         0.34669E-03
        -0.62379E-03
        -0.17956E-02
         0.35869E-02
         0.30665E-02
         0.10075E-02
        -0.18920E-02
        -0.92320E-03
        -0.18499E-02
        -0.24969E-03
         0.14462E-02
         0.46154E-02
        -0.33561E-02
        -0.35934E-02
         0.31319E-02
         0.17748E-02
        -0.97399E-03
        -0.68280E-03
        -0.11751E-02
        -0.71707E-02
        -0.68318E-02
        -0.67539E-02
        -0.16350E-02
         0.96944E-03
         0.64703E-03
        -0.33973E-02
         0.31342E-03
        -0.12700E-02
        -0.15638E-02
         0.24205E-02
         0.15247E-02
        -0.14157E-02
        -0.13263E-02
         0.65599E-02
         0.35658E-02
         0.40973E-02
        -0.41302E-02
        -0.78429E-03
        -0.20601E-02
        -0.72571E-02
        -0.74649E-02
        -0.72392E-02
        -0.52132E-02
        -0.39950E-02
        -0.23332E-02
         0.25302E-02
         0.30154E-02
        -0.34064E-03
         0.45666E-03
         0.48461E-02
         0.42039E-02
         0.27024E-01
         0.27275E-01
         0.24552E-01
         0.20283E-01
         0.15055E-01
         0.69345E-02
        -0.17629E-02
        -0.56646E-02
        -0.72811E-02
        -0.13449E-01
        -0.23985E-01
        -0.28392E-01
        -0.23772E-01
        -0.22619E-01
        -0.25002E-01
        -0.25809E-01
        -0.23528E-01
        -0.22241E-01
        -0.11242E-01
         0.29537E-02
         0.64093E-02
         0.65359E-02
         0.11555E-01
         0.20045E-01
         0.25706E-01
         0.25646E-01
        -0.16086E-02
         0.34835E-03
        -0.62441E-03
        -0.17966E-02
         0.35835E-02
         0.30636E-02
         0.10134E-02
        -0.18866E-02
        -0.92377E-03
        -0.18474E-02
        -0.24205E-03
         0.14497E-02
         0.46183E-02
        -0.33475E-02
        -0.35911E-02
         0.31357E-02
         0.17786E-02
        -0.97111E-03
        -0.68249E-03
        -0.11731E-02
        -0.71707E-02
        -0.68314E-02
        -0.67545E-02
        -0.16353E-02
         0.97146E-03
         0.64834E-03
        -0.33974E-02
         0.30503E-03
        -0.12780E-02
        -0.15650E-02
         0.24242E-02
         0.15245E-02
        -0.14089E-02
        -0.13266E-02
         0.65635E-02
         0.35646E-02
         0.40964E-02
        -0.41361E-02
        -0.79130E-03
        -0.20664E-02
        -0.72613E-02
        -0.74691E-02
        -0.72404E-02
        -0.52132E-02
        -0.39939E-02
        -0.23323E-02
         0.25295E-02
         0.30164E-02
        -0.33718E-03
         0.45564E-03
         0.48435E-02
         0.41977E-02
         0.27014E-01
         0.27268E-01
         0.24549E-01
         0.20283E-01
         0.15050E-01
         0.69324E-02
        -0.17647E-02
        -0.56679E-02
        -0.72751E-02
        -0.13443E-01
        -0.23981E-01
        -0.28395E-01
        -0.23772E-01
        -0.22619E-01
        -0.25006E-01
        -0.25817E-01
        -0.23533E-01
        -0.22244E-01
        -0.11239E-01
         0.29545E-02
         0.64043E-02
         0.65334E-02
         0.11547E-01
         0.20032E-01
         0.25694E-01
         0.25635E-01
        -0.16111E-02
         0.35002E-03
        -0.62506E-03
        -0.17977E-02
         0.35802E-02
         0.30609E-02
         0.10193E-02
        -0.18813E-02
        -0.92430E-03
        -0.18448E-02
        -0.23447E-03
         0.14530E-02
         0.46211E-02
        -0.33388E-02
        -0.35889E-02
         0.31395E-02
         0.17825E-02
        -0.96827E-03
        -0.68216E-03
        -0.11712E-02
        -0.71705E-02
        -0.68311E-02
        -0.67550E-02
        -0.16356E-02
         0.97341E-03
         0.64966E-03
        -0.33975E-02
         0.29660E-03
        -0.12861E-02
        -0.15661E-02
         0.24279E-02
         0.15244E-02
        -0.14022E-02
        -0.13269E-02
         0.65672E-02
         0.35635E-02
         0.40954E-02
        -0.41418E-02
        -0.79838E-03
        -0.20726E-02
        -0.72652E-02
        -0.74732E-02
        -0.72416E-02
        -0.52132E-02
        -0.39927E-02
        -0.23314E-02
         0.25289E-02
         0.30174E-02
        -0.33376E-03
         0.45458E-03
         0.48410E-02
         0.41917E-02
         0.27005E-01
         0.27261E-01
         0.24547E-01
         0.20283E-01
         0.15046E-01
         0.69302E-02
        -0.17664E-02
        -0.56710E-02
        -0.72691E-02
        -0.13437E-01
        -0.23977E-01
        -0.28398E-01
        -0.23772E-01
        -0.22618E-01
        -0.25010E-01
        -0.25825E-01
        -0.23539E-01
        -0.22248E-01
        -0.11236E-01
         0.29554E-02
         0.63993E-02
         0.65309E-02
         0.11538E-01
         0.20020E-01
         0.25681E-01
         0.25624E-01
        -0.16187E-02
         0.35246E-03
        -0.62775E-03
        -0.18044E-02
         0.35872E-02
         0.30673E-02
         0.10276E-02
        -0.18824E-02
        -0.92769E-03
        -0.18484E-02
        -0.22856E-03
         0.14596E-02
         0.46366E-02
        -0.33410E-02
        -0.35972E-02
         0.31530E-02
         0.17917E-02
        -0.96875E-03
        -0.68379E-03
        -0.11727E-02
        -0.71902E-02
        -0.68503E-02
        -0.67743E-02
        -0.16408E-02
         0.97818E-03
         0.65288E-03
        -0.34082E-02
         0.28961E-03
        -0.12973E-02
        -0.15720E-02
         0.24391E-02
         0.15289E-02
        -0.14005E-02
        -0.13316E-02
         0.65889E-02
         0.35729E-02
         0.41063E-02
        -0.41595E-02
        -0.80720E-03
        -0.20843E-02
        -0.72899E-02
        -0.74991E-02
        -0.72640E-02
        -0.52278E-02
        -0.40029E-02
        -0.23367E-02
         0.25357E-02
         0.30277E-02
        -0.33174E-03
         0.45488E-03
         0.48525E-02
         0.41983E-02
         0.27053E-01
         0.27311E-01
         0.24596E-01
         0.20326E-01
         0.15073E-01
         0.69419E-02
        -0.17725E-02
        -0.56858E-02
        -0.72794E-02
        -0.13461E-01
        -0.24026E-01
        -0.28462E-01
        -0.23824E-01
        -0.22667E-01
        -0.25066E-01
        -0.25884E-01
        -0.23590E-01
        -0.22296E-01
        -0.11255E-01
         0.29631E-02
         0.64088E-02
         0.65421E-02
         0.11555E-01
         0.20051E-01
         0.25722E-01
         0.25665E-01
        -0.23977E-02
         0.52543E-03
        -0.92783E-03
        -0.26777E-02
         0.51081E-02
         0.44110E-02
         0.15269E-02
        -0.27676E-02
        -0.13699E-02
        -0.27130E-02
        -0.32799E-03
         0.20407E-02
         0.65833E-02
        -0.48359E-02
        -0.50518E-02
         0.46751E-02
         0.26487E-02
        -0.14351E-02
        -0.99912E-03
        -0.17168E-02
        -0.10207E-01
        -0.98477E-02
        -0.96454E-02
        -0.24170E-02
         0.14501E-02
         0.97056E-03
        -0.49771E-02
         0.42144E-03
        -0.19334E-02
        -0.23267E-02
         0.36181E-02
         0.22602E-02
        -0.20734E-02
        -0.19757E-02
         0.92076E-02
         0.51334E-02
         0.59025E-02
        -0.59800E-02
        -0.11810E-02
        -0.30522E-02
        -0.10517E-01
        -0.10902E-01
        -0.10556E-01
        -0.74979E-02
        -0.57203E-02
        -0.32417E-02
         0.36105E-02
         0.43705E-02
        -0.47802E-03
         0.65579E-03
         0.68284E-02
         0.60179E-02
         0.33426E-01
         0.33696E-01
         0.30358E-01
         0.25167E-01
         0.18643E-01
         0.86022E-02
        -0.22245E-02
        -0.71865E-02
        -0.91762E-02
        -0.16871E-01
        -0.30162E-01
        -0.35688E-01
        -0.30225E-01
        -0.28858E-01
        -0.31507E-01
        -0.32165E-01
        -0.29224E-01
        -0.27453E-01
        -0.13838E-01
         0.36504E-02
         0.79751E-02
         0.81787E-02
         0.14390E-01
         0.25059E-01
         0.32052E-01
         0.31867E-01
  
SCALARS                      strain_xy  double 1
LOOKUP_TABLE default
        -0.88783E-08
        -0.21955E-07
        -0.18215E-06
         0.60531E-08
        -0.27996E-20
         0.27360E-21
         0.41136E-20
         0.62663E-21
        -0.19899E-05
         0.85906E-06
         0.18311E-19
         0.14520E-19
         0.79958E-07
        -0.16634E-07
         0.16162E-20
        -0.48541E-21
         0.19630E-07
         0.40073E-06
         0.80461E-22
         0.12261E-20
        -0.32182E-06
        -0.21270E-05
        -0.19603E-05
         0.12468E-19
         0.99287E-20
        -0.14499E-19
        -0.22109E-06
        -0.19576E-05
         0.16787E-19
         0.25834E-19
        -0.52650E-07
         0.10938E-06
         0.77181E-08
        -0.88606E-21
         0.34955E-20
        -0.44708E-22
        -0.48369E-06
        -0.24510E-06
         0.93550E-20
         0.77497E-20
        -0.98150E-06
        -0.94586E-06
         0.15948E-19
         0.10748E-19
        -0.89859E-06
        -0.16068E-06
        -0.58096E-21
         0.43252E-20
         0.28548E-06
         0.12783E-20
        -0.55031E-07
        -0.28819E-22
         0.18861E-07
         0.96617E-20
         0.95111E-07
         0.14867E-20
         0.13568E-05
        -0.61853E-07
         0.34552E-22
        -0.16951E-21
         0.68276E-08
        -0.70635E-06
         0.94157E-21
         0.24151E-20
         0.29033E-07
        -0.19117E-21
         0.43115E-06
         0.15319E-20
        -0.25048E-05
        -0.91646E-06
         0.11832E-20
        -0.11331E-19
        -0.20987E-05
        -0.18117E-19
         0.10483E-05
         0.12134E-19
         0.33436E-05
         0.18078E-20
         0.58107E-05
         0.23509E-20
         0.10971E-04
         0.58067E-05
         0.55268E-20
        -0.14014E-20
         0.67530E-06
        -0.16864E-21
        -0.17054E-05
        -0.15210E-19
        -0.25923E-05
        -0.16984E-19
        -0.58530E-05
        -0.27056E-05
        -0.10751E-19
         0.11933E-19
         0.42748E-06
         0.10866E-19
         0.10399E-05
         0.46675E-20
         0.24573E-05
         0.12393E-19
         0.60694E-05
         0.34222E-05
         0.26573E-19
         0.13287E-19
        -0.10606E-04
         0.43188E-05
        -0.17265E-19
         0.21143E-19
        -0.25970E-04
        -0.49068E-19
        -0.32775E-04
        -0.53638E-19
        -0.29753E-04
        -0.36403E-19
        -0.27217E-04
        -0.38613E-20
        -0.12702E-04
         0.10883E-19
         0.17383E-04
         0.67385E-20
         0.39212E-04
         0.61601E-20
         0.51780E-04
         0.13217E-19
         0.48725E-04
         0.16070E-19
         0.36902E-04
         0.63312E-20
         0.17934E-04
         0.38599E-20
        -0.11606E-05
         0.63090E-20
        -0.13311E-04
         0.42290E-20
        -0.20643E-04
        -0.15081E-19
        -0.28220E-04
        -0.39572E-19
        -0.27744E-04
        -0.50220E-19
        -0.18956E-04
        -0.31081E-19
        -0.21209E-05
         0.59298E-20
         0.13868E-04
         0.12568E-19
         0.19709E-04
         0.20029E-19
         0.24815E-04
         0.39442E-19
         0.22230E-04
         0.51179E-19
         0.20249E-04
         0.36361E-19
         0.16254E-04
         0.28756E-19
        -0.20535E-05
         0.56985E-06
         0.58126E-06
        -0.34948E-06
         0.47929E-05
         0.38061E-05
         0.63249E-07
        -0.13967E-05
        -0.58792E-06
        -0.15842E-05
        -0.48406E-06
        -0.90082E-05
        -0.12618E-04
         0.46735E-06
         0.72585E-05
        -0.88029E-06
         0.65930E-06
         0.19277E-06
         0.41466E-06
        -0.33376E-06
         0.17003E-05
         0.14786E-05
        -0.45665E-05
         0.11904E-06
         0.10058E-05
         0.11094E-06
         0.18997E-07
         0.37148E-07
         0.47097E-06
        -0.15142E-05
        -0.76992E-06
         0.17019E-06
         0.26391E-06
        -0.21307E-07
        -0.12083E-05
        -0.40674E-05
        -0.81536E-05
         0.12521E-04
         0.65282E-05
         0.12075E-04
         0.23789E-04
         0.52882E-05
        -0.41016E-05
        -0.83155E-05
        -0.10064E-04
        -0.13326E-04
         0.15931E-05
         0.46142E-05
         0.14270E-05
         0.49328E-05
         0.15863E-04
         0.58958E-05
        -0.57985E-04
         0.71165E-04
        -0.17316E-03
        -0.20224E-03
        -0.19241E-03
        -0.11829E-03
         0.71646E-05
         0.78180E-04
         0.11307E-03
         0.18383E-03
         0.19477E-03
         0.99971E-04
         0.39622E-04
         0.16643E-04
        -0.26655E-04
        -0.10454E-03
        -0.17467E-03
        -0.20242E-03
        -0.12960E-03
         0.23264E-04
         0.82932E-04
         0.87369E-04
         0.13801E-03
         0.15545E-03
         0.11536E-03
         0.10563E-03
        -0.35594E-05
         0.46083E-06
        -0.81185E-06
        -0.56069E-06
         0.62979E-05
         0.24205E-05
         0.55922E-06
        -0.42679E-05
        -0.12860E-05
        -0.38161E-05
         0.40758E-06
        -0.64363E-05
        -0.12544E-04
         0.13823E-05
         0.16571E-04
        -0.26519E-05
         0.44739E-06
         0.25583E-06
         0.77601E-06
         0.26348E-06
         0.69700E-05
         0.47161E-05
        -0.26981E-05
         0.55078E-06
         0.12645E-05
        -0.21060E-06
         0.28659E-06
        -0.70740E-07
        -0.28480E-06
        -0.21021E-05
        -0.21958E-05
        -0.37427E-06
         0.92049E-06
         0.68979E-06
         0.16205E-05
        -0.27263E-05
        -0.59709E-05
         0.13965E-04
         0.20618E-05
         0.52682E-05
         0.14219E-04
        -0.36142E-05
        -0.72766E-05
        -0.65719E-05
        -0.65168E-05
        -0.77893E-05
         0.48983E-05
         0.38241E-05
        -0.63532E-06
         0.90304E-06
         0.95912E-05
         0.63392E-06
        -0.66466E-04
         0.95812E-04
        -0.20016E-03
        -0.21335E-03
        -0.20548E-03
        -0.11358E-03
         0.27620E-04
         0.78138E-04
         0.98643E-04
         0.17892E-03
         0.19956E-03
         0.77591E-04
         0.25921E-04
         0.21130E-04
        -0.10783E-04
        -0.94209E-04
        -0.17227E-03
        -0.22681E-03
        -0.15039E-03
         0.43345E-04
         0.84173E-04
         0.80619E-04
         0.14291E-03
         0.17422E-03
         0.11585E-03
         0.10935E-03
        -0.35683E-05
         0.46263E-06
        -0.81378E-06
        -0.56518E-06
         0.62925E-05
         0.24202E-05
         0.56348E-06
        -0.42643E-05
        -0.12897E-05
        -0.38273E-05
         0.39957E-06
        -0.64513E-05
        -0.12554E-04
         0.13789E-05
         0.16583E-04
        -0.26548E-05
         0.45245E-06
         0.25474E-06
         0.77615E-06
         0.26155E-06
         0.69865E-05
         0.47201E-05
        -0.26985E-05
         0.55055E-06
         0.12731E-05
        -0.21056E-06
         0.29006E-06
        -0.69798E-07
        -0.28492E-06
        -0.21079E-05
        -0.21994E-05
        -0.37341E-06
         0.91868E-06
         0.69123E-06
         0.16061E-05
        -0.27268E-05
        -0.59688E-05
         0.14009E-04
         0.20861E-05
         0.52909E-05
         0.14239E-04
        -0.36065E-05
        -0.72845E-05
        -0.65743E-05
        -0.65147E-05
        -0.77853E-05
         0.48979E-05
         0.38231E-05
        -0.62983E-06
         0.89875E-06
         0.95809E-05
         0.62339E-06
        -0.66381E-04
         0.95793E-04
        -0.20018E-03
        -0.21335E-03
        -0.20539E-03
        -0.11350E-03
         0.27639E-04
         0.78163E-04
         0.98539E-04
         0.17880E-03
         0.19949E-03
         0.77629E-04
         0.25917E-04
         0.21172E-04
        -0.10696E-04
        -0.94279E-04
        -0.17238E-03
        -0.22691E-03
        -0.15035E-03
         0.43362E-04
         0.84106E-04
         0.80584E-04
         0.14277E-03
         0.17399E-03
         0.11566E-03
         0.10915E-03
        -0.35773E-05
         0.46440E-06
        -0.81572E-06
        -0.56972E-06
         0.62870E-05
         0.24200E-05
         0.56777E-06
        -0.42606E-05
        -0.12933E-05
        -0.38383E-05
         0.39157E-06
        -0.64664E-05
        -0.12565E-04
         0.13754E-05
         0.16595E-04
        -0.26578E-05
         0.45759E-06
         0.25364E-06
         0.77630E-06
         0.25961E-06
         0.70033E-05
         0.47240E-05
        -0.26994E-05
         0.55024E-06
         0.12819E-05
        -0.21051E-06
         0.29375E-06
        -0.68882E-07
        -0.28484E-06
        -0.21135E-05
        -0.22030E-05
        -0.37239E-06
         0.91685E-06
         0.69265E-06
         0.15916E-05
        -0.27275E-05
        -0.59664E-05
         0.14053E-04
         0.21104E-05
         0.53138E-05
         0.14259E-04
        -0.35979E-05
        -0.72920E-05
        -0.65778E-05
        -0.65132E-05
        -0.77818E-05
         0.48975E-05
         0.38219E-05
        -0.62426E-06
         0.89436E-06
         0.95710E-05
         0.61295E-06
        -0.66296E-04
         0.95774E-04
        -0.20020E-03
        -0.21336E-03
        -0.20530E-03
        -0.11343E-03
         0.27659E-04
         0.78188E-04
         0.98436E-04
         0.17868E-03
         0.19942E-03
         0.77669E-04
         0.25913E-04
         0.21215E-04
        -0.10609E-04
        -0.94352E-04
        -0.17249E-03
        -0.22701E-03
        -0.15030E-03
         0.43379E-04
         0.84038E-04
         0.80549E-04
         0.14263E-03
         0.17376E-03
         0.11548E-03
         0.10896E-03
        -0.35863E-05
         0.46623E-06
        -0.81764E-06
        -0.57428E-06
         0.62815E-05
         0.24197E-05
         0.57206E-06
        -0.42568E-05
        -0.12968E-05
        -0.38484E-05
         0.38357E-06
        -0.64818E-05
        -0.12576E-04
         0.13720E-05
         0.16607E-04
        -0.26611E-05
         0.46287E-06
         0.25253E-06
         0.77654E-06
         0.25757E-06
         0.70207E-05
         0.47277E-05
        -0.27017E-05
         0.54973E-06
         0.12910E-05
        -0.21039E-06
         0.29756E-06
        -0.68120E-07
        -0.28422E-06
        -0.21187E-05
        -0.22067E-05
        -0.37108E-06
         0.91496E-06
         0.69409E-06
         0.15771E-05
        -0.27281E-05
        -0.59641E-05
         0.14098E-04
         0.21349E-05
         0.53372E-05
         0.14282E-04
        -0.35865E-05
        -0.72987E-05
        -0.65836E-05
        -0.65126E-05
        -0.77780E-05
         0.48976E-05
         0.38210E-05
        -0.61868E-06
         0.88999E-06
         0.95604E-05
         0.60254E-06
        -0.66211E-04
         0.95754E-04
        -0.20022E-03
        -0.21336E-03
        -0.20522E-03
        -0.11336E-03
         0.27679E-04
         0.78213E-04
         0.98332E-04
         0.17856E-03
         0.19935E-03
         0.77717E-04
         0.25912E-04
         0.21257E-04
        -0.10522E-04
        -0.94432E-04
        -0.17262E-03
        -0.22711E-03
        -0.15026E-03
         0.43397E-04
         0.83971E-04
         0.80515E-04
         0.14249E-03
         0.17353E-03
         0.11530E-03
         0.10877E-03
        -0.35953E-05
         0.46806E-06
        -0.81957E-06
        -0.57881E-06
         0.62762E-05
         0.24194E-05
         0.57636E-06
        -0.42528E-05
        -0.13002E-05
        -0.38578E-05
         0.37555E-06
        -0.64970E-05
        -0.12587E-04
         0.13687E-05
         0.16620E-04
        -0.26646E-05
         0.46828E-06
         0.25142E-06
         0.77671E-06
         0.25545E-06
         0.70386E-05
         0.47309E-05
        -0.27054E-05
         0.54900E-06
         0.13006E-05
        -0.21020E-06
         0.30177E-06
        -0.67496E-07
        -0.28303E-06
        -0.21233E-05
        -0.22105E-05
        -0.36942E-06
         0.91304E-06
         0.69552E-06
         0.15625E-05
        -0.27286E-05
        -0.59620E-05
         0.14142E-04
         0.21594E-05
         0.53611E-05
         0.14307E-04
        -0.35721E-05
        -0.73046E-05
        -0.65920E-05
        -0.65132E-05
        -0.77744E-05
         0.48981E-05
         0.38203E-05
        -0.61317E-06
         0.88565E-06
         0.95505E-05
         0.59211E-06
        -0.66126E-04
         0.95735E-04
        -0.20024E-03
        -0.21336E-03
        -0.20513E-03
        -0.11329E-03
         0.27699E-04
         0.78237E-04
         0.98228E-04
         0.17844E-03
         0.19928E-03
         0.77774E-04
         0.25913E-04
         0.21298E-04
        -0.10434E-04
        -0.94520E-04
        -0.17276E-03
        -0.22722E-03
        -0.15022E-03
         0.43414E-04
         0.83903E-04
         0.80480E-04
         0.14235E-03
         0.17330E-03
         0.11511E-03
         0.10858E-03
        -0.36038E-05
         0.47000E-06
        -0.82131E-06
        -0.58340E-06
         0.62708E-05
         0.24191E-05
         0.58059E-06
        -0.42483E-05
        -0.13035E-05
        -0.38667E-05
         0.36755E-06
        -0.65122E-05
        -0.12598E-04
         0.13655E-05
         0.16632E-04
        -0.26683E-05
         0.47380E-06
         0.25032E-06
         0.77687E-06
         0.25332E-06
         0.70566E-05
         0.47341E-05
        -0.27097E-05
         0.54819E-06
         0.13101E-05
        -0.20997E-06
         0.30630E-06
        -0.66921E-07
        -0.28160E-06
        -0.21280E-05
        -0.22141E-05
        -0.36756E-06
         0.91110E-06
         0.69697E-06
         0.15479E-05
        -0.27295E-05
        -0.59602E-05
         0.14186E-04
         0.21841E-05
         0.53853E-05
         0.14332E-04
        -0.35567E-05
        -0.73100E-05
        -0.66013E-05
        -0.65149E-05
        -0.77718E-05
         0.48987E-05
         0.38200E-05
        -0.60756E-06
         0.88161E-06
         0.95406E-05
         0.58173E-06
        -0.66041E-04
         0.95716E-04
        -0.20026E-03
        -0.21336E-03
        -0.20504E-03
        -0.11321E-03
         0.27718E-04
         0.78262E-04
         0.98125E-04
         0.17832E-03
         0.19922E-03
         0.77835E-04
         0.25916E-04
         0.21339E-04
        -0.10347E-04
        -0.94610E-04
        -0.17291E-03
        -0.22734E-03
        -0.15017E-03
         0.43428E-04
         0.83836E-04
         0.80445E-04
         0.14221E-03
         0.17307E-03
         0.11493E-03
         0.10838E-03
        -0.36117E-05
         0.47225E-06
        -0.82275E-06
        -0.58809E-06
         0.62656E-05
         0.24189E-05
         0.58476E-06
        -0.42429E-05
        -0.13069E-05
        -0.38752E-05
         0.35954E-06
        -0.65276E-05
        -0.12610E-04
         0.13631E-05
         0.16644E-04
        -0.26722E-05
         0.47940E-06
         0.24921E-06
         0.77712E-06
         0.25120E-06
         0.70746E-05
         0.47375E-05
        -0.27141E-05
         0.54743E-06
         0.13189E-05
        -0.20966E-06
         0.31163E-06
        -0.66334E-07
        -0.28007E-06
        -0.21328E-05
        -0.22175E-05
        -0.36548E-06
         0.90913E-06
         0.69841E-06
         0.15331E-05
        -0.27306E-05
        -0.59587E-05
         0.14231E-04
         0.22091E-05
         0.54099E-05
         0.14358E-04
        -0.35410E-05
        -0.73154E-05
        -0.66107E-05
        -0.65170E-05
        -0.77699E-05
         0.48996E-05
         0.38206E-05
        -0.60169E-06
         0.87827E-06
         0.95314E-05
         0.57126E-06
        -0.65956E-04
         0.95696E-04
        -0.20028E-03
        -0.21337E-03
        -0.20495E-03
        -0.11314E-03
         0.27736E-04
         0.78286E-04
         0.98022E-04
         0.17820E-03
         0.19916E-03
         0.77896E-04
         0.25918E-04
         0.21380E-04
        -0.10259E-04
        -0.94701E-04
        -0.17306E-03
        -0.22745E-03
        -0.15012E-03
         0.43440E-04
         0.83766E-04
         0.80412E-04
         0.14207E-03
         0.17284E-03
         0.11474E-03
         0.10819E-03
        -0.36192E-05
         0.47461E-06
        -0.82404E-06
        -0.59284E-06
         0.62607E-05
         0.24186E-05
         0.58886E-06
        -0.42370E-05
        -0.13104E-05
        -0.38835E-05
         0.35153E-06
        -0.65430E-05
        -0.12622E-04
         0.13609E-05
         0.16656E-04
        -0.26760E-05
         0.48506E-06
         0.24809E-06
         0.77731E-06
         0.24912E-06
         0.70927E-05
         0.47409E-05
        -0.27184E-05
         0.54668E-06
         0.13276E-05
        -0.20933E-06
         0.31718E-06
        -0.65727E-07
        -0.27851E-06
        -0.21377E-05
        -0.22207E-05
        -0.36328E-06
         0.90712E-06
         0.69986E-06
         0.15183E-05
        -0.27320E-05
        -0.59577E-05
         0.14276E-04
         0.22342E-05
         0.54346E-05
         0.14384E-04
        -0.35253E-05
        -0.73207E-05
        -0.66203E-05
        -0.65195E-05
        -0.77687E-05
         0.49006E-05
         0.38215E-05
        -0.59570E-06
         0.87524E-06
         0.95225E-05
         0.56084E-06
        -0.65872E-04
         0.95677E-04
        -0.20029E-03
        -0.21337E-03
        -0.20486E-03
        -0.11307E-03
         0.27755E-04
         0.78310E-04
         0.97919E-04
         0.17807E-03
         0.19909E-03
         0.77956E-04
         0.25921E-04
         0.21423E-04
        -0.10171E-04
        -0.94792E-04
        -0.17321E-03
        -0.22755E-03
        -0.15008E-03
         0.43451E-04
         0.83697E-04
         0.80380E-04
         0.14193E-03
         0.17261E-03
         0.11456E-03
         0.10800E-03
        -0.36267E-05
         0.47699E-06
        -0.82531E-06
        -0.59759E-06
         0.62556E-05
         0.24182E-05
         0.59295E-06
        -0.42312E-05
        -0.13139E-05
        -0.38918E-05
         0.34352E-06
        -0.65584E-05
        -0.12634E-04
         0.13589E-05
         0.16668E-04
        -0.26799E-05
         0.49077E-06
         0.24697E-06
         0.77748E-06
         0.24701E-06
         0.71107E-05
         0.47443E-05
        -0.27227E-05
         0.54596E-06
         0.13362E-05
        -0.20899E-06
         0.32286E-06
        -0.65086E-07
        -0.27690E-06
        -0.21426E-05
        -0.22239E-05
        -0.36111E-06
         0.90510E-06
         0.70129E-06
         0.15034E-05
        -0.27331E-05
        -0.59567E-05
         0.14321E-04
         0.22595E-05
         0.54591E-05
         0.14411E-04
        -0.35096E-05
        -0.73261E-05
        -0.66301E-05
        -0.65222E-05
        -0.77676E-05
         0.49015E-05
         0.38225E-05
        -0.58973E-06
         0.87233E-06
         0.95140E-05
         0.55039E-06
        -0.65787E-04
         0.95658E-04
        -0.20031E-03
        -0.21337E-03
        -0.20477E-03
        -0.11299E-03
         0.27774E-04
         0.78333E-04
         0.97816E-04
         0.17795E-03
         0.19903E-03
         0.78016E-04
         0.25924E-04
         0.21465E-04
        -0.10084E-04
        -0.94883E-04
        -0.17336E-03
        -0.22766E-03
        -0.15003E-03
         0.43462E-04
         0.83627E-04
         0.80347E-04
         0.14179E-03
         0.17239E-03
         0.11438E-03
         0.10781E-03
        -0.36342E-05
         0.47939E-06
        -0.82658E-06
        -0.60232E-06
         0.62505E-05
         0.24179E-05
         0.59706E-06
        -0.42253E-05
        -0.13175E-05
        -0.39001E-05
         0.33550E-06
        -0.65738E-05
        -0.12646E-04
         0.13567E-05
         0.16680E-04
        -0.26837E-05
         0.49651E-06
         0.24587E-06
         0.77765E-06
         0.24491E-06
         0.71287E-05
         0.47476E-05
        -0.27268E-05
         0.54524E-06
         0.13448E-05
        -0.20865E-06
         0.32840E-06
        -0.64417E-07
        -0.27525E-06
        -0.21474E-05
        -0.22271E-05
        -0.35892E-06
         0.90304E-06
         0.70274E-06
         0.14884E-05
        -0.27345E-05
        -0.59557E-05
         0.14366E-04
         0.22849E-05
         0.54840E-05
         0.14437E-04
        -0.34940E-05
        -0.73314E-05
        -0.66397E-05
        -0.65247E-05
        -0.77662E-05
         0.49025E-05
         0.38236E-05
        -0.58381E-06
         0.86924E-06
         0.95049E-05
         0.54002E-06
        -0.65701E-04
         0.95638E-04
        -0.20032E-03
        -0.21337E-03
        -0.20469E-03
        -0.11292E-03
         0.27792E-04
         0.78356E-04
         0.97713E-04
         0.17783E-03
         0.19896E-03
         0.78075E-04
         0.25927E-04
         0.21508E-04
        -0.99963E-05
        -0.94974E-04
        -0.17351E-03
        -0.22777E-03
        -0.14998E-03
         0.43473E-04
         0.83557E-04
         0.80314E-04
         0.14165E-03
         0.17216E-03
         0.11420E-03
         0.10762E-03
        -0.36417E-05
         0.48177E-06
        -0.82789E-06
        -0.60705E-06
         0.62455E-05
         0.24176E-05
         0.60119E-06
        -0.42192E-05
        -0.13210E-05
        -0.39084E-05
         0.32746E-06
        -0.65894E-05
        -0.12658E-04
         0.13546E-05
         0.16692E-04
        -0.26875E-05
         0.50228E-06
         0.24477E-06
         0.77790E-06
         0.24279E-06
         0.71467E-05
         0.47508E-05
        -0.27311E-05
         0.54453E-06
         0.13534E-05
        -0.20830E-06
         0.33404E-06
        -0.63709E-07
        -0.27356E-06
        -0.21523E-05
        -0.22303E-05
        -0.35674E-06
         0.90097E-06
         0.70419E-06
         0.14734E-05
        -0.27357E-05
        -0.59548E-05
         0.14412E-04
         0.23104E-05
         0.55086E-05
         0.14463E-04
        -0.34783E-05
        -0.73368E-05
        -0.66490E-05
        -0.65272E-05
        -0.77652E-05
         0.49035E-05
         0.38246E-05
        -0.57785E-06
         0.86623E-06
         0.94964E-05
         0.52965E-06
        -0.65616E-04
         0.95618E-04
        -0.20034E-03
        -0.21337E-03
        -0.20460E-03
        -0.11285E-03
         0.27809E-04
         0.78380E-04
         0.97611E-04
         0.17771E-03
         0.19890E-03
         0.78135E-04
         0.25930E-04
         0.21549E-04
        -0.99085E-05
        -0.95065E-04
        -0.17366E-03
        -0.22788E-03
        -0.14993E-03
         0.43483E-04
         0.83487E-04
         0.80280E-04
         0.14151E-03
         0.17193E-03
         0.11402E-03
         0.10743E-03
        -0.36492E-05
         0.48415E-06
        -0.82913E-06
        -0.61183E-06
         0.62404E-05
         0.24173E-05
         0.60530E-06
        -0.42132E-05
        -0.13245E-05
        -0.39165E-05
         0.31943E-06
        -0.66049E-05
        -0.12670E-04
         0.13525E-05
         0.16704E-04
        -0.26914E-05
         0.50808E-06
         0.24365E-06
         0.77810E-06
         0.24070E-06
         0.71647E-05
         0.47540E-05
        -0.27354E-05
         0.54384E-06
         0.13620E-05
        -0.20797E-06
         0.33956E-06
        -0.62975E-07
        -0.27180E-06
        -0.21572E-05
        -0.22335E-05
        -0.35455E-06
         0.89886E-06
         0.70565E-06
         0.14583E-05
        -0.27370E-05
        -0.59536E-05
         0.14457E-04
         0.23361E-05
         0.55336E-05
         0.14489E-04
        -0.34628E-05
        -0.73421E-05
        -0.66586E-05
        -0.65298E-05
        -0.77642E-05
         0.49043E-05
         0.38257E-05
        -0.57189E-06
         0.86333E-06
         0.94876E-05
         0.51931E-06
        -0.65530E-04
         0.95598E-04
        -0.20035E-03
        -0.21338E-03
        -0.20451E-03
        -0.11277E-03
         0.27827E-04
         0.78403E-04
         0.97508E-04
         0.17759E-03
         0.19883E-03
         0.78195E-04
         0.25933E-04
         0.21591E-04
        -0.98203E-05
        -0.95155E-04
        -0.17381E-03
        -0.22799E-03
        -0.14988E-03
         0.43494E-04
         0.83417E-04
         0.80248E-04
         0.14138E-03
         0.17170E-03
         0.11384E-03
         0.10724E-03
        -0.36567E-05
         0.48654E-06
        -0.83038E-06
        -0.61662E-06
         0.62353E-05
         0.24170E-05
         0.60941E-06
        -0.42071E-05
        -0.13280E-05
        -0.39246E-05
         0.31140E-06
        -0.66203E-05
        -0.12683E-04
         0.13503E-05
         0.16716E-04
        -0.26952E-05
         0.51390E-06
         0.24254E-06
         0.77830E-06
         0.23862E-06
         0.71827E-05
         0.47573E-05
        -0.27396E-05
         0.54314E-06
         0.13706E-05
        -0.20762E-06
         0.34523E-06
        -0.62204E-07
        -0.27001E-06
        -0.21620E-05
        -0.22367E-05
        -0.35235E-06
         0.89671E-06
         0.70709E-06
         0.14431E-05
        -0.27384E-05
        -0.59527E-05
         0.14502E-04
         0.23619E-05
         0.55584E-05
         0.14515E-04
        -0.34470E-05
        -0.73474E-05
        -0.66684E-05
        -0.65326E-05
        -0.77624E-05
         0.49054E-05
         0.38267E-05
        -0.56592E-06
         0.86032E-06
         0.94784E-05
         0.50902E-06
        -0.65445E-04
         0.95579E-04
        -0.20037E-03
        -0.21338E-03
        -0.20442E-03
        -0.11270E-03
         0.27845E-04
         0.78425E-04
         0.97405E-04
         0.17746E-03
         0.19876E-03
         0.78254E-04
         0.25936E-04
         0.21634E-04
        -0.97324E-05
        -0.95246E-04
        -0.17396E-03
        -0.22809E-03
        -0.14984E-03
         0.43504E-04
         0.83348E-04
         0.80215E-04
         0.14124E-03
         0.17147E-03
         0.11366E-03
         0.10705E-03
        -0.36643E-05
         0.48891E-06
        -0.83164E-06
        -0.62140E-06
         0.62304E-05
         0.24166E-05
         0.61353E-06
        -0.42010E-05
        -0.13315E-05
        -0.39326E-05
         0.30337E-06
        -0.66357E-05
        -0.12695E-04
         0.13482E-05
         0.16728E-04
        -0.26990E-05
         0.51975E-06
         0.24144E-06
         0.77858E-06
         0.23655E-06
         0.72007E-05
         0.47605E-05
        -0.27439E-05
         0.54245E-06
         0.13792E-05
        -0.20726E-06
         0.35076E-06
        -0.61407E-07
        -0.26820E-06
        -0.21669E-05
        -0.22398E-05
        -0.35016E-06
         0.89455E-06
         0.70855E-06
         0.14279E-05
        -0.27396E-05
        -0.59516E-05
         0.14548E-04
         0.23878E-05
         0.55834E-05
         0.14541E-04
        -0.34312E-05
        -0.73527E-05
        -0.66779E-05
        -0.65351E-05
        -0.77614E-05
         0.49064E-05
         0.38277E-05
        -0.55997E-06
         0.85733E-06
         0.94699E-05
         0.49883E-06
        -0.65360E-04
         0.95558E-04
        -0.20038E-03
        -0.21338E-03
        -0.20433E-03
        -0.11263E-03
         0.27863E-04
         0.78446E-04
         0.97302E-04
         0.17734E-03
         0.19870E-03
         0.78314E-04
         0.25939E-04
         0.21676E-04
        -0.96449E-05
        -0.95336E-04
        -0.17411E-03
        -0.22820E-03
        -0.14979E-03
         0.43514E-04
         0.83278E-04
         0.80183E-04
         0.14110E-03
         0.17125E-03
         0.11348E-03
         0.10685E-03
        -0.36718E-05
         0.49125E-06
        -0.83289E-06
        -0.62619E-06
         0.62253E-05
         0.24162E-05
         0.61765E-06
        -0.41948E-05
        -0.13350E-05
        -0.39406E-05
         0.29533E-06
        -0.66515E-05
        -0.12707E-04
         0.13458E-05
         0.16740E-04
        -0.27029E-05
         0.52566E-06
         0.24034E-06
         0.77877E-06
         0.23446E-06
         0.72188E-05
         0.47636E-05
        -0.27480E-05
         0.54177E-06
         0.13878E-05
        -0.20690E-06
         0.35638E-06
        -0.60573E-07
        -0.26634E-06
        -0.21717E-05
        -0.22430E-05
        -0.34796E-06
         0.89237E-06
         0.71000E-06
         0.14127E-05
        -0.27410E-05
        -0.59506E-05
         0.14593E-04
         0.24138E-05
         0.56083E-05
         0.14568E-04
        -0.34155E-05
        -0.73580E-05
        -0.66874E-05
        -0.65376E-05
        -0.77604E-05
         0.49072E-05
         0.38288E-05
        -0.55395E-06
         0.85437E-06
         0.94611E-05
         0.48859E-06
        -0.65274E-04
         0.95538E-04
        -0.20039E-03
        -0.21338E-03
        -0.20425E-03
        -0.11255E-03
         0.27880E-04
         0.78467E-04
         0.97199E-04
         0.17722E-03
         0.19864E-03
         0.78374E-04
         0.25942E-04
         0.21718E-04
        -0.95570E-05
        -0.95427E-04
        -0.17426E-03
        -0.22831E-03
        -0.14974E-03
         0.43524E-04
         0.83209E-04
         0.80151E-04
         0.14096E-03
         0.17102E-03
         0.11330E-03
         0.10666E-03
        -0.36793E-05
         0.49365E-06
        -0.83414E-06
        -0.63096E-06
         0.62202E-05
         0.24160E-05
         0.62176E-06
        -0.41886E-05
        -0.13386E-05
        -0.39486E-05
         0.28728E-06
        -0.66669E-05
        -0.12719E-04
         0.13437E-05
         0.16751E-04
        -0.27067E-05
         0.53160E-06
         0.23925E-06
         0.77898E-06
         0.23240E-06
         0.72368E-05
         0.47667E-05
        -0.27522E-05
         0.54110E-06
         0.13964E-05
        -0.20654E-06
         0.36186E-06
        -0.59706E-07
        -0.26445E-06
        -0.21765E-05
        -0.22461E-05
        -0.34577E-06
         0.89016E-06
         0.71148E-06
         0.13973E-05
        -0.27422E-05
        -0.59496E-05
         0.14638E-04
         0.24401E-05
         0.56331E-05
         0.14594E-04
        -0.33998E-05
        -0.73634E-05
        -0.66967E-05
        -0.65404E-05
        -0.77589E-05
         0.49082E-05
         0.38298E-05
        -0.54800E-06
         0.85137E-06
         0.94524E-05
         0.47838E-06
        -0.65189E-04
         0.95518E-04
        -0.20041E-03
        -0.21338E-03
        -0.20416E-03
        -0.11248E-03
         0.27896E-04
         0.78488E-04
         0.97098E-04
         0.17709E-03
         0.19857E-03
         0.78434E-04
         0.25944E-04
         0.21760E-04
        -0.94690E-05
        -0.95517E-04
        -0.17441E-03
        -0.22842E-03
        -0.14969E-03
         0.43533E-04
         0.83139E-04
         0.80118E-04
         0.14082E-03
         0.17079E-03
         0.11312E-03
         0.10647E-03
        -0.36868E-05
         0.49601E-06
        -0.83541E-06
        -0.63575E-06
         0.62153E-05
         0.24156E-05
         0.62591E-06
        -0.41823E-05
        -0.13421E-05
        -0.39563E-05
         0.27921E-06
        -0.66825E-05
        -0.12732E-04
         0.13413E-05
         0.16763E-04
        -0.27106E-05
         0.53760E-06
         0.23815E-06
         0.77920E-06
         0.23035E-06
         0.72547E-05
         0.47695E-05
        -0.27564E-05
         0.54044E-06
         0.14049E-05
        -0.20616E-06
         0.36749E-06
        -0.58794E-07
        -0.26249E-06
        -0.21813E-05
        -0.22493E-05
        -0.34358E-06
         0.88795E-06
         0.71296E-06
         0.13819E-05
        -0.27435E-05
        -0.59484E-05
         0.14684E-04
         0.24666E-05
         0.56582E-05
         0.14620E-04
        -0.33841E-05
        -0.73687E-05
        -0.67064E-05
        -0.65430E-05
        -0.77579E-05
         0.49093E-05
         0.38310E-05
        -0.54209E-06
         0.84837E-06
         0.94435E-05
         0.46828E-06
        -0.65103E-04
         0.95497E-04
        -0.20042E-03
        -0.21338E-03
        -0.20407E-03
        -0.11240E-03
         0.27912E-04
         0.78509E-04
         0.96996E-04
         0.17697E-03
         0.19851E-03
         0.78495E-04
         0.25946E-04
         0.21801E-04
        -0.93815E-05
        -0.95607E-04
        -0.17456E-03
        -0.22852E-03
        -0.14964E-03
         0.43543E-04
         0.83069E-04
         0.80085E-04
         0.14068E-03
         0.17056E-03
         0.11294E-03
         0.10628E-03
        -0.36943E-05
         0.49837E-06
        -0.83664E-06
        -0.64057E-06
         0.62103E-05
         0.24152E-05
         0.63002E-06
        -0.41759E-05
        -0.13455E-05
        -0.39635E-05
         0.27114E-06
        -0.66981E-05
        -0.12743E-04
         0.13391E-05
         0.16774E-04
        -0.27144E-05
         0.54365E-06
         0.23704E-06
         0.77953E-06
         0.22840E-06
         0.72727E-05
         0.47724E-05
        -0.27607E-05
         0.53975E-06
         0.14133E-05
        -0.20581E-06
         0.37302E-06
        -0.57816E-07
        -0.26051E-06
        -0.21860E-05
        -0.22525E-05
        -0.34135E-06
         0.88567E-06
         0.71443E-06
         0.13664E-05
        -0.27449E-05
        -0.59475E-05
         0.14729E-04
         0.24938E-05
         0.56826E-05
         0.14644E-04
        -0.33680E-05
        -0.73740E-05
        -0.67159E-05
        -0.65456E-05
        -0.77566E-05
         0.49102E-05
         0.38320E-05
        -0.53619E-06
         0.84539E-06
         0.94351E-05
         0.45819E-06
        -0.65017E-04
         0.95477E-04
        -0.20043E-03
        -0.21339E-03
        -0.20398E-03
        -0.11233E-03
         0.27929E-04
         0.78530E-04
         0.96894E-04
         0.17684E-03
         0.19845E-03
         0.78559E-04
         0.25947E-04
         0.21842E-04
        -0.92940E-05
        -0.95697E-04
        -0.17471E-03
        -0.22863E-03
        -0.14960E-03
         0.43553E-04
         0.83000E-04
         0.80052E-04
         0.14054E-03
         0.17034E-03
         0.11277E-03
         0.10609E-03
        -0.37018E-05
         0.50072E-06
        -0.83787E-06
        -0.64539E-06
         0.62052E-05
         0.24148E-05
         0.63414E-06
        -0.41695E-05
        -0.13489E-05
        -0.39702E-05
         0.26308E-06
        -0.67136E-05
        -0.12756E-04
         0.13368E-05
         0.16785E-04
        -0.27182E-05
         0.54980E-06
         0.23594E-06
         0.77976E-06
         0.22651E-06
         0.72907E-05
         0.47750E-05
        -0.27649E-05
         0.53910E-06
         0.14214E-05
        -0.20543E-06
         0.37877E-06
        -0.56760E-07
        -0.25849E-06
        -0.21904E-05
        -0.22556E-05
        -0.33916E-06
         0.88338E-06
         0.71590E-06
         0.13508E-05
        -0.27462E-05
        -0.59465E-05
         0.14774E-04
         0.25216E-05
         0.57069E-05
         0.14668E-04
        -0.33518E-05
        -0.73794E-05
        -0.67254E-05
        -0.65484E-05
        -0.77556E-05
         0.49112E-05
         0.38331E-05
        -0.53024E-06
         0.84244E-06
         0.94260E-05
         0.44805E-06
        -0.64932E-04
         0.95456E-04
        -0.20045E-03
        -0.21339E-03
        -0.20389E-03
        -0.11226E-03
         0.27945E-04
         0.78551E-04
         0.96794E-04
         0.17670E-03
         0.19839E-03
         0.78625E-04
         0.25946E-04
         0.21884E-04
        -0.92060E-05
        -0.95787E-04
        -0.17486E-03
        -0.22874E-03
        -0.14955E-03
         0.43562E-04
         0.82931E-04
         0.80020E-04
         0.14040E-03
         0.17011E-03
         0.11259E-03
         0.10590E-03
        -0.37094E-05
         0.50308E-06
        -0.83916E-06
        -0.65019E-06
         0.62004E-05
         0.24145E-05
         0.63828E-06
        -0.41631E-05
        -0.13522E-05
        -0.39768E-05
         0.25507E-06
        -0.67289E-05
        -0.12768E-04
         0.13344E-05
         0.16795E-04
        -0.27221E-05
         0.55599E-06
         0.23485E-06
         0.77999E-06
         0.22467E-06
         0.73087E-05
         0.47777E-05
        -0.27689E-05
         0.53849E-06
         0.14294E-05
        -0.20507E-06
         0.38437E-06
        -0.55651E-07
        -0.25646E-06
        -0.21948E-05
        -0.22588E-05
        -0.33700E-06
         0.88111E-06
         0.71741E-06
         0.13354E-05
        -0.27475E-05
        -0.59453E-05
         0.14819E-04
         0.25498E-05
         0.57305E-05
         0.14692E-04
        -0.33358E-05
        -0.73849E-05
        -0.67348E-05
        -0.65508E-05
        -0.77544E-05
         0.49122E-05
         0.38342E-05
        -0.52437E-06
         0.83941E-06
         0.94177E-05
         0.43803E-06
        -0.64845E-04
         0.95437E-04
        -0.20046E-03
        -0.21339E-03
        -0.20381E-03
        -0.11218E-03
         0.27960E-04
         0.78570E-04
         0.96693E-04
         0.17656E-03
         0.19833E-03
         0.78691E-04
         0.25944E-04
         0.21925E-04
        -0.91180E-05
        -0.95876E-04
        -0.17501E-03
        -0.22884E-03
        -0.14950E-03
         0.43573E-04
         0.82862E-04
         0.79986E-04
         0.14027E-03
         0.16989E-03
         0.11242E-03
         0.10571E-03
        -0.37422E-05
         0.50847E-06
        -0.84639E-06
        -0.65930E-06
         0.62356E-05
         0.24299E-05
         0.64639E-06
        -0.41854E-05
        -0.13645E-05
        -0.40100E-05
         0.24973E-06
        -0.67813E-05
        -0.12858E-04
         0.13410E-05
         0.16912E-04
        -0.27445E-05
         0.56566E-06
         0.23544E-06
         0.78521E-06
         0.22444E-06
         0.73705E-05
         0.48103E-05
        -0.27876E-05
         0.54183E-06
         0.14465E-05
        -0.20632E-06
         0.39208E-06
        -0.54875E-07
        -0.25663E-06
        -0.22137E-05
        -0.22776E-05
        -0.33773E-06
         0.88513E-06
         0.72383E-06
         0.13297E-05
        -0.27652E-05
        -0.59808E-05
         0.14956E-04
         0.25922E-05
         0.57895E-05
         0.14806E-04
        -0.33454E-05
        -0.74394E-05
        -0.67825E-05
        -0.65921E-05
        -0.77978E-05
         0.49432E-05
         0.38591E-05
        -0.52247E-06
         0.84184E-06
         0.94685E-05
         0.43096E-06
        -0.65084E-04
         0.95914E-04
        -0.20149E-03
        -0.21448E-03
        -0.20478E-03
        -0.11269E-03
         0.28135E-04
         0.79007E-04
         0.97122E-04
         0.17740E-03
         0.19935E-03
         0.79153E-04
         0.26069E-04
         0.22075E-04
        -0.90794E-05
        -0.96411E-04
        -0.17597E-03
        -0.23006E-03
        -0.15022E-03
         0.43816E-04
         0.83225E-04
         0.80354E-04
         0.14084E-03
         0.17054E-03
         0.11282E-03
         0.10606E-03
        -0.82390E-05
         0.11311E-05
        -0.18564E-05
        -0.14647E-05
         0.12715E-04
         0.50548E-05
         0.14303E-05
        -0.91041E-05
        -0.29904E-05
        -0.86910E-05
         0.52438E-06
        -0.13324E-04
        -0.26048E-04
         0.28285E-05
         0.33569E-04
        -0.60552E-05
         0.12481E-05
         0.51865E-06
         0.16843E-05
         0.48216E-06
         0.14946E-04
         0.99920E-05
        -0.56734E-05
         0.11805E-05
         0.31980E-05
        -0.45728E-06
         0.84829E-06
        -0.11911E-06
        -0.56771E-06
        -0.48769E-05
        -0.50274E-05
        -0.74029E-06
         0.19566E-05
         0.16012E-05
         0.25755E-05
        -0.57367E-05
        -0.12413E-04
         0.31067E-04
         0.55587E-05
         0.12468E-04
         0.30984E-04
        -0.70929E-05
        -0.15799E-04
        -0.14016E-04
        -0.13524E-04
        -0.15084E-04
         0.10070E-04
         0.80664E-05
        -0.10956E-05
         0.17582E-05
         0.18843E-04
         0.87645E-06
        -0.10004E-03
         0.14716E-03
        -0.30930E-03
        -0.33123E-03
        -0.31568E-03
        -0.17447E-03
         0.44604E-04
         0.12720E-03
         0.15566E-03
         0.28102E-03
         0.31672E-03
         0.12540E-03
         0.42224E-04
         0.36055E-04
        -0.14345E-04
        -0.14987E-03
        -0.27188E-03
        -0.35130E-03
        -0.22883E-03
         0.66963E-04
         0.12982E-03
         0.12648E-03
         0.22002E-03
         0.26822E-03
         0.17634E-03
         0.16456E-03
  
SCALARS                      strain_eq  double 1
LOOKUP_TABLE default
         0.21616E+00
         0.22099E+00
         0.21793E+00
         0.21242E+00
         0.78939E-09
         0.87528E-09
         0.85039E-09
         0.76517E-09
         0.22120E+00
         0.21954E+00
         0.86086E-09
         0.82327E-09
         0.22792E+00
         0.22818E+00
         0.94185E-09
         0.89694E-09
         0.21323E+00
         0.22781E+00
         0.70261E-09
         0.79023E-09
         0.23310E+00
         0.23720E+00
         0.23070E+00
         0.97004E-09
         0.92534E-09
         0.92039E-09
         0.23703E+00
         0.24297E+00
         0.93959E-09
         0.85337E-09
         0.21350E+00
         0.21987E+00
         0.20728E+00
         0.76458E-09
         0.71798E-09
         0.68774E-09
         0.21719E+00
         0.22526E+00
         0.83355E-09
         0.75993E-09
         0.22041E+00
         0.22663E+00
         0.77534E-09
         0.66889E-09
         0.21511E+00
         0.21275E+00
         0.83724E-09
         0.86824E-09
         0.23155E+00
         0.75037E-09
         0.21321E+00
         0.87249E-09
         0.23873E+00
         0.82035E-09
         0.24059E+00
         0.75721E-09
         0.24058E+00
         0.23392E+00
         0.76734E-09
         0.75454E-09
         0.21363E+00
         0.21609E+00
         0.77422E-09
         0.87641E-09
         0.21209E+00
         0.74311E-09
         0.21502E+00
         0.81387E-09
         0.22274E+00
         0.22345E+00
         0.87056E-09
         0.87000E-09
         0.22515E+00
         0.88042E-09
         0.24507E+00
         0.70376E-09
         0.24611E+00
         0.65504E-09
         0.24562E+00
         0.68237E-09
         0.24283E+00
         0.23980E+00
         0.66001E-09
         0.68553E-09
         0.23374E+00
         0.64562E-09
         0.21525E+00
         0.86686E-09
         0.21818E+00
         0.88274E-09
         0.22061E+00
         0.22186E+00
         0.88191E-09
         0.86513E-09
         0.22023E+00
         0.77635E-09
         0.21908E+00
         0.76014E-09
         0.22013E+00
         0.82219E-09
         0.22054E+00
         0.21946E+00
         0.84525E-09
         0.84295E-09
         0.22647E+00
         0.22378E+00
         0.80373E-09
         0.77580E-09
         0.22706E+00
         0.78054E-09
         0.22395E+00
         0.76205E-09
         0.22706E+00
         0.76114E-09
         0.23399E+00
         0.71359E-09
         0.24070E+00
         0.60382E-09
         0.24466E+00
         0.51021E-09
         0.24506E+00
         0.49484E-09
         0.24493E+00
         0.52722E-09
         0.24061E+00
         0.54387E-09
         0.23262E+00
         0.50948E-09
         0.22369E+00
         0.46499E-09
         0.21836E+00
         0.48124E-09
         0.21308E+00
         0.57044E-09
         0.20958E+00
         0.66594E-09
         0.20974E+00
         0.70977E-09
         0.21810E+00
         0.75787E-09
         0.22385E+00
         0.79645E-09
         0.22595E+00
         0.74310E-09
         0.22289E+00
         0.65424E-09
         0.22123E+00
         0.65297E-09
         0.22387E+00
         0.71853E-09
         0.22376E+00
         0.76245E-09
         0.22177E+00
         0.73777E-09
         0.21915E+00
         0.72132E-09
         0.21526E+00
         0.21866E+00
         0.21819E+00
         0.21373E+00
         0.22199E+00
         0.21786E+00
         0.22287E+00
         0.22026E+00
         0.21445E+00
         0.21811E+00
         0.22565E+00
         0.22670E+00
         0.22439E+00
         0.22409E+00
         0.22575E+00
         0.21395E+00
         0.21478E+00
         0.21242E+00
         0.21902E+00
         0.21783E+00
         0.21965E+00
         0.21855E+00
         0.22059E+00
         0.21994E+00
         0.21795E+00
         0.21807E+00
         0.22148E+00
         0.22117E+00
         0.22367E+00
         0.21990E+00
         0.21436E+00
         0.21870E+00
         0.21438E+00
         0.21724E+00
         0.22726E+00
         0.22405E+00
         0.22258E+00
         0.22442E+00
         0.22460E+00
         0.22742E+00
         0.22959E+00
         0.22451E+00
         0.21962E+00
         0.22023E+00
         0.22275E+00
         0.22717E+00
         0.22335E+00
         0.21930E+00
         0.21957E+00
         0.22271E+00
         0.22596E+00
         0.22163E+00
         0.23589E+00
         0.23247E+00
         0.23322E+00
         0.23250E+00
         0.23296E+00
         0.23525E+00
         0.23712E+00
         0.23736E+00
         0.23698E+00
         0.23732E+00
         0.23802E+00
         0.23294E+00
         0.23050E+00
         0.22957E+00
         0.22845E+00
         0.22762E+00
         0.22781E+00
         0.22964E+00
         0.23489E+00
         0.23381E+00
         0.23175E+00
         0.23159E+00
         0.23195E+00
         0.23361E+00
         0.23111E+00
         0.23022E+00
         0.56084E-02
         0.33698E-02
         0.31786E-02
         0.21796E-02
         0.58243E-02
         0.40269E-02
         0.17775E-02
         0.55160E-02
         0.34552E-02
         0.51976E-02
         0.25342E-02
         0.10920E-01
         0.82924E-02
         0.41474E-02
         0.11437E-01
         0.40752E-02
         0.20645E-02
         0.13172E-02
         0.27440E-02
         0.14856E-02
         0.85876E-02
         0.80567E-02
         0.78461E-02
         0.20418E-02
         0.33542E-02
         0.10665E-02
         0.39130E-02
         0.63554E-03
         0.14331E-02
         0.36382E-02
         0.34813E-02
         0.18517E-02
         0.22549E-02
         0.19507E-02
         0.75290E-02
         0.45054E-02
         0.58319E-02
         0.93274E-02
         0.71748E-02
         0.66779E-02
         0.94845E-02
         0.85978E-02
         0.86551E-02
         0.67002E-02
         0.59835E-02
         0.81853E-02
         0.53659E-02
         0.45627E-02
         0.37625E-02
         0.44431E-02
         0.72648E-02
         0.49877E-02
         0.31904E-01
         0.32667E-01
         0.34148E-01
         0.33900E-01
         0.36138E-01
         0.38803E-01
         0.37234E-01
         0.33106E-01
         0.32261E-01
         0.34528E-01
         0.33839E-01
         0.33379E-01
         0.27590E-01
         0.26227E-01
         0.28814E-01
         0.30864E-01
         0.32030E-01
         0.34980E-01
         0.33647E-01
         0.34558E-01
         0.31115E-01
         0.29543E-01
         0.31507E-01
         0.30801E-01
         0.31696E-01
         0.31428E-01
         0.56127E-02
         0.33706E-02
         0.31804E-02
         0.21828E-02
         0.58217E-02
         0.40246E-02
         0.17829E-02
         0.55213E-02
         0.34612E-02
         0.52129E-02
         0.25342E-02
         0.10920E-01
         0.82956E-02
         0.41377E-02
         0.11449E-01
         0.40784E-02
         0.20703E-02
         0.13139E-02
         0.27456E-02
         0.14823E-02
         0.85883E-02
         0.80561E-02
         0.78456E-02
         0.20417E-02
         0.33687E-02
         0.10663E-02
         0.39143E-02
         0.62881E-03
         0.14399E-02
         0.36446E-02
         0.34846E-02
         0.18511E-02
         0.22511E-02
         0.19524E-02
         0.75323E-02
         0.45041E-02
         0.58306E-02
         0.93419E-02
         0.71908E-02
         0.66872E-02
         0.94908E-02
         0.86023E-02
         0.86561E-02
         0.67001E-02
         0.59823E-02
         0.81849E-02
         0.53660E-02
         0.45624E-02
         0.37571E-02
         0.44370E-02
         0.72608E-02
         0.49800E-02
         0.31892E-01
         0.32659E-01
         0.34148E-01
         0.33900E-01
         0.36133E-01
         0.38790E-01
         0.37218E-01
         0.33097E-01
         0.32253E-01
         0.34518E-01
         0.33834E-01
         0.33380E-01
         0.27587E-01
         0.26226E-01
         0.28817E-01
         0.30871E-01
         0.32038E-01
         0.34988E-01
         0.33645E-01
         0.34556E-01
         0.31112E-01
         0.29541E-01
         0.31497E-01
         0.30781E-01
         0.31678E-01
         0.31412E-01
         0.56169E-02
         0.33714E-02
         0.31822E-02
         0.21859E-02
         0.58190E-02
         0.40223E-02
         0.17883E-02
         0.55267E-02
         0.34672E-02
         0.52281E-02
         0.25341E-02
         0.10920E-01
         0.82989E-02
         0.41280E-02
         0.11461E-01
         0.40818E-02
         0.20762E-02
         0.13105E-02
         0.27472E-02
         0.14791E-02
         0.85892E-02
         0.80556E-02
         0.78451E-02
         0.20416E-02
         0.33830E-02
         0.10660E-02
         0.39155E-02
         0.62233E-03
         0.14467E-02
         0.36508E-02
         0.34880E-02
         0.18505E-02
         0.22473E-02
         0.19542E-02
         0.75357E-02
         0.45030E-02
         0.58292E-02
         0.93564E-02
         0.72070E-02
         0.66965E-02
         0.94972E-02
         0.86069E-02
         0.86573E-02
         0.67003E-02
         0.59813E-02
         0.81847E-02
         0.53660E-02
         0.45621E-02
         0.37518E-02
         0.44309E-02
         0.72568E-02
         0.49724E-02
         0.31881E-01
         0.32652E-01
         0.34148E-01
         0.33900E-01
         0.36127E-01
         0.38777E-01
         0.37203E-01
         0.33088E-01
         0.32245E-01
         0.34508E-01
         0.33828E-01
         0.33381E-01
         0.27585E-01
         0.26225E-01
         0.28820E-01
         0.30879E-01
         0.32046E-01
         0.34995E-01
         0.33643E-01
         0.34554E-01
         0.31109E-01
         0.29539E-01
         0.31486E-01
         0.30760E-01
         0.31660E-01
         0.31395E-01
         0.56212E-02
         0.33722E-02
         0.31840E-02
         0.21891E-02
         0.58163E-02
         0.40200E-02
         0.17938E-02
         0.55319E-02
         0.34732E-02
         0.52430E-02
         0.25341E-02
         0.10919E-01
         0.83023E-02
         0.41183E-02
         0.11473E-01
         0.40854E-02
         0.20823E-02
         0.13071E-02
         0.27490E-02
         0.14757E-02
         0.85902E-02
         0.80553E-02
         0.78452E-02
         0.20414E-02
         0.33970E-02
         0.10655E-02
         0.39166E-02
         0.61662E-03
         0.14531E-02
         0.36565E-02
         0.34916E-02
         0.18501E-02
         0.22434E-02
         0.19560E-02
         0.75389E-02
         0.45017E-02
         0.58278E-02
         0.93710E-02
         0.72235E-02
         0.67063E-02
         0.95041E-02
         0.86116E-02
         0.86589E-02
         0.67010E-02
         0.59806E-02
         0.81845E-02
         0.53665E-02
         0.45618E-02
         0.37465E-02
         0.44248E-02
         0.72527E-02
         0.49647E-02
         0.31869E-01
         0.32644E-01
         0.34148E-01
         0.33901E-01
         0.36121E-01
         0.38764E-01
         0.37187E-01
         0.33079E-01
         0.32237E-01
         0.34497E-01
         0.33822E-01
         0.33383E-01
         0.27583E-01
         0.26224E-01
         0.28824E-01
         0.30888E-01
         0.32056E-01
         0.35003E-01
         0.33641E-01
         0.34552E-01
         0.31105E-01
         0.29537E-01
         0.31475E-01
         0.30740E-01
         0.31642E-01
         0.31378E-01
         0.56254E-02
         0.33729E-02
         0.31858E-02
         0.21922E-02
         0.58137E-02
         0.40177E-02
         0.17992E-02
         0.55371E-02
         0.34791E-02
         0.52575E-02
         0.25342E-02
         0.10919E-01
         0.83056E-02
         0.41086E-02
         0.11485E-01
         0.40893E-02
         0.20886E-02
         0.13037E-02
         0.27508E-02
         0.14723E-02
         0.85916E-02
         0.80551E-02
         0.78457E-02
         0.20411E-02
         0.34107E-02
         0.10648E-02
         0.39175E-02
         0.61164E-03
         0.14591E-02
         0.36615E-02
         0.34952E-02
         0.18496E-02
         0.22396E-02
         0.19577E-02
         0.75423E-02
         0.45004E-02
         0.58265E-02
         0.93856E-02
         0.72402E-02
         0.67166E-02
         0.95113E-02
         0.86166E-02
         0.86609E-02
         0.67024E-02
         0.59804E-02
         0.81849E-02
         0.53671E-02
         0.45618E-02
         0.37413E-02
         0.44186E-02
         0.72487E-02
         0.49570E-02
         0.31858E-01
         0.32636E-01
         0.34147E-01
         0.33901E-01
         0.36115E-01
         0.38751E-01
         0.37172E-01
         0.33071E-01
         0.32229E-01
         0.34487E-01
         0.33817E-01
         0.33385E-01
         0.27582E-01
         0.26223E-01
         0.28829E-01
         0.30898E-01
         0.32067E-01
         0.35012E-01
         0.33639E-01
         0.34550E-01
         0.31102E-01
         0.29535E-01
         0.31464E-01
         0.30720E-01
         0.31624E-01
         0.31362E-01
         0.56294E-02
         0.33735E-02
         0.31876E-02
         0.21953E-02
         0.58111E-02
         0.40154E-02
         0.18045E-02
         0.55420E-02
         0.34851E-02
         0.52717E-02
         0.25345E-02
         0.10919E-01
         0.83089E-02
         0.40989E-02
         0.11496E-01
         0.40934E-02
         0.20950E-02
         0.13004E-02
         0.27526E-02
         0.14689E-02
         0.85931E-02
         0.80551E-02
         0.78465E-02
         0.20408E-02
         0.34241E-02
         0.10640E-02
         0.39184E-02
         0.60704E-03
         0.14651E-02
         0.36664E-02
         0.34988E-02
         0.18491E-02
         0.22357E-02
         0.19595E-02
         0.75458E-02
         0.44994E-02
         0.58254E-02
         0.94004E-02
         0.72571E-02
         0.67272E-02
         0.95187E-02
         0.86217E-02
         0.86630E-02
         0.67041E-02
         0.59806E-02
         0.81857E-02
         0.53679E-02
         0.45619E-02
         0.37363E-02
         0.44126E-02
         0.72448E-02
         0.49495E-02
         0.31846E-01
         0.32628E-01
         0.34147E-01
         0.33901E-01
         0.36109E-01
         0.38738E-01
         0.37156E-01
         0.33062E-01
         0.32221E-01
         0.34476E-01
         0.33811E-01
         0.33387E-01
         0.27581E-01
         0.26223E-01
         0.28833E-01
         0.30908E-01
         0.32078E-01
         0.35020E-01
         0.33638E-01
         0.34548E-01
         0.31099E-01
         0.29534E-01
         0.31453E-01
         0.30700E-01
         0.31607E-01
         0.31345E-01
         0.56330E-02
         0.33736E-02
         0.31893E-02
         0.21985E-02
         0.58086E-02
         0.40132E-02
         0.18096E-02
         0.55461E-02
         0.34911E-02
         0.52852E-02
         0.25351E-02
         0.10919E-01
         0.83126E-02
         0.40893E-02
         0.11508E-01
         0.40974E-02
         0.21013E-02
         0.12970E-02
         0.27544E-02
         0.14656E-02
         0.85945E-02
         0.80551E-02
         0.78474E-02
         0.20406E-02
         0.34370E-02
         0.10630E-02
         0.39195E-02
         0.60257E-03
         0.14711E-02
         0.36713E-02
         0.35022E-02
         0.18482E-02
         0.22319E-02
         0.19612E-02
         0.75493E-02
         0.44986E-02
         0.58244E-02
         0.94152E-02
         0.72742E-02
         0.67377E-02
         0.95263E-02
         0.86269E-02
         0.86652E-02
         0.67058E-02
         0.59810E-02
         0.81867E-02
         0.53690E-02
         0.45624E-02
         0.37320E-02
         0.44069E-02
         0.72413E-02
         0.49420E-02
         0.31835E-01
         0.32621E-01
         0.34147E-01
         0.33901E-01
         0.36103E-01
         0.38724E-01
         0.37140E-01
         0.33053E-01
         0.32212E-01
         0.34466E-01
         0.33806E-01
         0.33389E-01
         0.27580E-01
         0.26222E-01
         0.28837E-01
         0.30918E-01
         0.32089E-01
         0.35028E-01
         0.33635E-01
         0.34546E-01
         0.31096E-01
         0.29532E-01
         0.31443E-01
         0.30680E-01
         0.31589E-01
         0.31328E-01
         0.56366E-02
         0.33736E-02
         0.31909E-02
         0.22017E-02
         0.58062E-02
         0.40109E-02
         0.18145E-02
         0.55499E-02
         0.34973E-02
         0.52985E-02
         0.25360E-02
         0.10919E-01
         0.83164E-02
         0.40797E-02
         0.11520E-01
         0.41015E-02
         0.21074E-02
         0.12935E-02
         0.27563E-02
         0.14624E-02
         0.85960E-02
         0.80551E-02
         0.78482E-02
         0.20403E-02
         0.34498E-02
         0.10620E-02
         0.39205E-02
         0.59827E-03
         0.14773E-02
         0.36761E-02
         0.35054E-02
         0.18471E-02
         0.22280E-02
         0.19629E-02
         0.75530E-02
         0.44979E-02
         0.58236E-02
         0.94302E-02
         0.72913E-02
         0.67484E-02
         0.95339E-02
         0.86322E-02
         0.86675E-02
         0.67077E-02
         0.59815E-02
         0.81881E-02
         0.53704E-02
         0.45631E-02
         0.37280E-02
         0.44013E-02
         0.72378E-02
         0.49347E-02
         0.31823E-01
         0.32613E-01
         0.34146E-01
         0.33901E-01
         0.36097E-01
         0.38711E-01
         0.37125E-01
         0.33044E-01
         0.32204E-01
         0.34455E-01
         0.33800E-01
         0.33391E-01
         0.27579E-01
         0.26222E-01
         0.28842E-01
         0.30929E-01
         0.32100E-01
         0.35037E-01
         0.33633E-01
         0.34544E-01
         0.31093E-01
         0.29531E-01
         0.31432E-01
         0.30660E-01
         0.31571E-01
         0.31312E-01
         0.56401E-02
         0.33736E-02
         0.31925E-02
         0.22048E-02
         0.58037E-02
         0.40086E-02
         0.18194E-02
         0.55537E-02
         0.35035E-02
         0.53117E-02
         0.25368E-02
         0.10919E-01
         0.83201E-02
         0.40703E-02
         0.11533E-01
         0.41056E-02
         0.21137E-02
         0.12901E-02
         0.27581E-02
         0.14592E-02
         0.85974E-02
         0.80551E-02
         0.78491E-02
         0.20401E-02
         0.34626E-02
         0.10610E-02
         0.39217E-02
         0.59408E-03
         0.14836E-02
         0.36810E-02
         0.35086E-02
         0.18460E-02
         0.22241E-02
         0.19646E-02
         0.75568E-02
         0.44971E-02
         0.58228E-02
         0.94452E-02
         0.73085E-02
         0.67590E-02
         0.95414E-02
         0.86374E-02
         0.86698E-02
         0.67096E-02
         0.59822E-02
         0.81894E-02
         0.53716E-02
         0.45638E-02
         0.37240E-02
         0.43958E-02
         0.72345E-02
         0.49273E-02
         0.31811E-01
         0.32605E-01
         0.34146E-01
         0.33902E-01
         0.36091E-01
         0.38698E-01
         0.37109E-01
         0.33035E-01
         0.32196E-01
         0.34445E-01
         0.33795E-01
         0.33394E-01
         0.27578E-01
         0.26221E-01
         0.28846E-01
         0.30939E-01
         0.32111E-01
         0.35045E-01
         0.33631E-01
         0.34542E-01
         0.31090E-01
         0.29530E-01
         0.31421E-01
         0.30640E-01
         0.31554E-01
         0.31295E-01
         0.56436E-02
         0.33736E-02
         0.31941E-02
         0.22081E-02
         0.58012E-02
         0.40063E-02
         0.18244E-02
         0.55575E-02
         0.35096E-02
         0.53249E-02
         0.25378E-02
         0.10919E-01
         0.83240E-02
         0.40608E-02
         0.11545E-01
         0.41096E-02
         0.21199E-02
         0.12867E-02
         0.27599E-02
         0.14560E-02
         0.85990E-02
         0.80551E-02
         0.78498E-02
         0.20399E-02
         0.34753E-02
         0.10600E-02
         0.39228E-02
         0.59005E-03
         0.14899E-02
         0.36859E-02
         0.35118E-02
         0.18449E-02
         0.22203E-02
         0.19663E-02
         0.75603E-02
         0.44965E-02
         0.58220E-02
         0.94602E-02
         0.73257E-02
         0.67696E-02
         0.95490E-02
         0.86427E-02
         0.86720E-02
         0.67115E-02
         0.59828E-02
         0.81907E-02
         0.53729E-02
         0.45646E-02
         0.37201E-02
         0.43901E-02
         0.72309E-02
         0.49199E-02
         0.31800E-01
         0.32597E-01
         0.34146E-01
         0.33902E-01
         0.36085E-01
         0.38685E-01
         0.37093E-01
         0.33026E-01
         0.32188E-01
         0.34434E-01
         0.33789E-01
         0.33396E-01
         0.27577E-01
         0.26221E-01
         0.28850E-01
         0.30949E-01
         0.32122E-01
         0.35053E-01
         0.33628E-01
         0.34539E-01
         0.31087E-01
         0.29528E-01
         0.31410E-01
         0.30620E-01
         0.31536E-01
         0.31278E-01
         0.56470E-02
         0.33735E-02
         0.31957E-02
         0.22112E-02
         0.57988E-02
         0.40041E-02
         0.18294E-02
         0.55613E-02
         0.35158E-02
         0.53381E-02
         0.25387E-02
         0.10919E-01
         0.83277E-02
         0.40513E-02
         0.11557E-01
         0.41137E-02
         0.21261E-02
         0.12833E-02
         0.27617E-02
         0.14527E-02
         0.86004E-02
         0.80551E-02
         0.78507E-02
         0.20397E-02
         0.34880E-02
         0.10590E-02
         0.39239E-02
         0.58612E-03
         0.14963E-02
         0.36908E-02
         0.35150E-02
         0.18438E-02
         0.22165E-02
         0.19680E-02
         0.75641E-02
         0.44957E-02
         0.58213E-02
         0.94752E-02
         0.73429E-02
         0.67801E-02
         0.95566E-02
         0.86479E-02
         0.86742E-02
         0.67133E-02
         0.59834E-02
         0.81920E-02
         0.53743E-02
         0.45653E-02
         0.37161E-02
         0.43846E-02
         0.72276E-02
         0.49126E-02
         0.31788E-01
         0.32590E-01
         0.34145E-01
         0.33902E-01
         0.36079E-01
         0.38672E-01
         0.37077E-01
         0.33017E-01
         0.32180E-01
         0.34423E-01
         0.33784E-01
         0.33398E-01
         0.27576E-01
         0.26220E-01
         0.28855E-01
         0.30960E-01
         0.32133E-01
         0.35061E-01
         0.33626E-01
         0.34537E-01
         0.31085E-01
         0.29527E-01
         0.31399E-01
         0.30600E-01
         0.31518E-01
         0.31262E-01
         0.56505E-02
         0.33735E-02
         0.31973E-02
         0.22144E-02
         0.57963E-02
         0.40018E-02
         0.18344E-02
         0.55651E-02
         0.35220E-02
         0.53513E-02
         0.25397E-02
         0.10919E-01
         0.83314E-02
         0.40419E-02
         0.11569E-01
         0.41178E-02
         0.21324E-02
         0.12799E-02
         0.27635E-02
         0.14495E-02
         0.86018E-02
         0.80550E-02
         0.78516E-02
         0.20396E-02
         0.35007E-02
         0.10581E-02
         0.39251E-02
         0.58235E-03
         0.15026E-02
         0.36956E-02
         0.35182E-02
         0.18427E-02
         0.22127E-02
         0.19697E-02
         0.75679E-02
         0.44950E-02
         0.58204E-02
         0.94903E-02
         0.73602E-02
         0.67908E-02
         0.95641E-02
         0.86531E-02
         0.86765E-02
         0.67152E-02
         0.59840E-02
         0.81934E-02
         0.53755E-02
         0.45661E-02
         0.37122E-02
         0.43790E-02
         0.72242E-02
         0.49052E-02
         0.31777E-01
         0.32582E-01
         0.34145E-01
         0.33902E-01
         0.36073E-01
         0.38658E-01
         0.37061E-01
         0.33008E-01
         0.32172E-01
         0.34412E-01
         0.33778E-01
         0.33400E-01
         0.27575E-01
         0.26220E-01
         0.28859E-01
         0.30970E-01
         0.32144E-01
         0.35069E-01
         0.33624E-01
         0.34535E-01
         0.31082E-01
         0.29525E-01
         0.31388E-01
         0.30580E-01
         0.31501E-01
         0.31245E-01
         0.56539E-02
         0.33734E-02
         0.31990E-02
         0.22176E-02
         0.57939E-02
         0.39995E-02
         0.18393E-02
         0.55688E-02
         0.35282E-02
         0.53645E-02
         0.25408E-02
         0.10919E-01
         0.83353E-02
         0.40324E-02
         0.11581E-01
         0.41218E-02
         0.21386E-02
         0.12765E-02
         0.27653E-02
         0.14463E-02
         0.86033E-02
         0.80551E-02
         0.78524E-02
         0.20394E-02
         0.35133E-02
         0.10571E-02
         0.39262E-02
         0.57869E-03
         0.15091E-02
         0.37004E-02
         0.35214E-02
         0.18416E-02
         0.22089E-02
         0.19714E-02
         0.75715E-02
         0.44944E-02
         0.58197E-02
         0.95052E-02
         0.73774E-02
         0.68014E-02
         0.95718E-02
         0.86583E-02
         0.86787E-02
         0.67172E-02
         0.59847E-02
         0.81945E-02
         0.53769E-02
         0.45669E-02
         0.37083E-02
         0.43735E-02
         0.72206E-02
         0.48977E-02
         0.31765E-01
         0.32574E-01
         0.34144E-01
         0.33902E-01
         0.36067E-01
         0.38645E-01
         0.37046E-01
         0.32999E-01
         0.32164E-01
         0.34402E-01
         0.33773E-01
         0.33402E-01
         0.27574E-01
         0.26219E-01
         0.28864E-01
         0.30980E-01
         0.32155E-01
         0.35077E-01
         0.33622E-01
         0.34533E-01
         0.31079E-01
         0.29524E-01
         0.31377E-01
         0.30560E-01
         0.31483E-01
         0.31228E-01
         0.56574E-02
         0.33734E-02
         0.32006E-02
         0.22209E-02
         0.57915E-02
         0.39972E-02
         0.18444E-02
         0.55726E-02
         0.35344E-02
         0.53776E-02
         0.25419E-02
         0.10919E-01
         0.83390E-02
         0.40230E-02
         0.11593E-01
         0.41258E-02
         0.21449E-02
         0.12731E-02
         0.27672E-02
         0.14431E-02
         0.86048E-02
         0.80550E-02
         0.78533E-02
         0.20392E-02
         0.35260E-02
         0.10561E-02
         0.39273E-02
         0.57518E-03
         0.15157E-02
         0.37053E-02
         0.35246E-02
         0.18405E-02
         0.22051E-02
         0.19731E-02
         0.75753E-02
         0.44937E-02
         0.58189E-02
         0.95203E-02
         0.73947E-02
         0.68119E-02
         0.95794E-02
         0.86635E-02
         0.86810E-02
         0.67191E-02
         0.59853E-02
         0.81959E-02
         0.53783E-02
         0.45676E-02
         0.37043E-02
         0.43679E-02
         0.72173E-02
         0.48904E-02
         0.31753E-01
         0.32567E-01
         0.34144E-01
         0.33902E-01
         0.36061E-01
         0.38632E-01
         0.37030E-01
         0.32990E-01
         0.32156E-01
         0.34391E-01
         0.33767E-01
         0.33405E-01
         0.27573E-01
         0.26219E-01
         0.28868E-01
         0.30990E-01
         0.32166E-01
         0.35085E-01
         0.33620E-01
         0.34531E-01
         0.31076E-01
         0.29523E-01
         0.31366E-01
         0.30540E-01
         0.31466E-01
         0.31212E-01
         0.56608E-02
         0.33734E-02
         0.32022E-02
         0.22241E-02
         0.57890E-02
         0.39950E-02
         0.18494E-02
         0.55764E-02
         0.35406E-02
         0.53908E-02
         0.25430E-02
         0.10919E-01
         0.83428E-02
         0.40136E-02
         0.11605E-01
         0.41299E-02
         0.21512E-02
         0.12697E-02
         0.27690E-02
         0.14399E-02
         0.86063E-02
         0.80550E-02
         0.78541E-02
         0.20391E-02
         0.35387E-02
         0.10552E-02
         0.39284E-02
         0.57177E-03
         0.15223E-02
         0.37101E-02
         0.35278E-02
         0.18394E-02
         0.22014E-02
         0.19749E-02
         0.75789E-02
         0.44931E-02
         0.58181E-02
         0.95354E-02
         0.74120E-02
         0.68224E-02
         0.95869E-02
         0.86687E-02
         0.86832E-02
         0.67209E-02
         0.59859E-02
         0.81972E-02
         0.53795E-02
         0.45684E-02
         0.37004E-02
         0.43623E-02
         0.72138E-02
         0.48830E-02
         0.31742E-01
         0.32559E-01
         0.34143E-01
         0.33902E-01
         0.36055E-01
         0.38619E-01
         0.37013E-01
         0.32981E-01
         0.32148E-01
         0.34380E-01
         0.33762E-01
         0.33407E-01
         0.27571E-01
         0.26219E-01
         0.28872E-01
         0.31001E-01
         0.32177E-01
         0.35094E-01
         0.33617E-01
         0.34529E-01
         0.31074E-01
         0.29521E-01
         0.31355E-01
         0.30520E-01
         0.31448E-01
         0.31195E-01
         0.56642E-02
         0.33733E-02
         0.32038E-02
         0.22273E-02
         0.57866E-02
         0.39928E-02
         0.18544E-02
         0.55801E-02
         0.35468E-02
         0.54039E-02
         0.25442E-02
         0.10919E-01
         0.83466E-02
         0.40042E-02
         0.11617E-01
         0.41339E-02
         0.21575E-02
         0.12663E-02
         0.27708E-02
         0.14367E-02
         0.86077E-02
         0.80550E-02
         0.78549E-02
         0.20389E-02
         0.35513E-02
         0.10542E-02
         0.39295E-02
         0.56848E-03
         0.15290E-02
         0.37149E-02
         0.35310E-02
         0.18384E-02
         0.21976E-02
         0.19766E-02
         0.75827E-02
         0.44924E-02
         0.58173E-02
         0.95505E-02
         0.74293E-02
         0.68328E-02
         0.95944E-02
         0.86738E-02
         0.86854E-02
         0.67227E-02
         0.59866E-02
         0.81985E-02
         0.53809E-02
         0.45691E-02
         0.36965E-02
         0.43567E-02
         0.72104E-02
         0.48756E-02
         0.31730E-01
         0.32551E-01
         0.34143E-01
         0.33903E-01
         0.36049E-01
         0.38605E-01
         0.36997E-01
         0.32972E-01
         0.32140E-01
         0.34369E-01
         0.33756E-01
         0.33409E-01
         0.27570E-01
         0.26218E-01
         0.28877E-01
         0.31011E-01
         0.32188E-01
         0.35102E-01
         0.33615E-01
         0.34527E-01
         0.31071E-01
         0.29520E-01
         0.31344E-01
         0.30500E-01
         0.31431E-01
         0.31179E-01
         0.56677E-02
         0.33733E-02
         0.32054E-02
         0.22306E-02
         0.57842E-02
         0.39905E-02
         0.18595E-02
         0.55839E-02
         0.35531E-02
         0.54170E-02
         0.25454E-02
         0.10919E-01
         0.83504E-02
         0.39947E-02
         0.11629E-01
         0.41380E-02
         0.21638E-02
         0.12630E-02
         0.27726E-02
         0.14335E-02
         0.86092E-02
         0.80549E-02
         0.78558E-02
         0.20388E-02
         0.35639E-02
         0.10533E-02
         0.39305E-02
         0.56526E-03
         0.15356E-02
         0.37196E-02
         0.35342E-02
         0.18373E-02
         0.21939E-02
         0.19783E-02
         0.75866E-02
         0.44917E-02
         0.58165E-02
         0.95656E-02
         0.74466E-02
         0.68432E-02
         0.96018E-02
         0.86790E-02
         0.86876E-02
         0.67247E-02
         0.59872E-02
         0.81999E-02
         0.53822E-02
         0.45699E-02
         0.36926E-02
         0.43512E-02
         0.72069E-02
         0.48684E-02
         0.31718E-01
         0.32544E-01
         0.34142E-01
         0.33903E-01
         0.36043E-01
         0.38592E-01
         0.36981E-01
         0.32963E-01
         0.32132E-01
         0.34358E-01
         0.33751E-01
         0.33412E-01
         0.27570E-01
         0.26218E-01
         0.28881E-01
         0.31021E-01
         0.32199E-01
         0.35110E-01
         0.33613E-01
         0.34524E-01
         0.31068E-01
         0.29519E-01
         0.31333E-01
         0.30480E-01
         0.31413E-01
         0.31162E-01
         0.56711E-02
         0.33733E-02
         0.32070E-02
         0.22338E-02
         0.57818E-02
         0.39882E-02
         0.18645E-02
         0.55876E-02
         0.35593E-02
         0.54300E-02
         0.25466E-02
         0.10920E-01
         0.83541E-02
         0.39853E-02
         0.11641E-01
         0.41420E-02
         0.21701E-02
         0.12595E-02
         0.27745E-02
         0.14305E-02
         0.86107E-02
         0.80549E-02
         0.78567E-02
         0.20387E-02
         0.35765E-02
         0.10524E-02
         0.39312E-02
         0.56202E-03
         0.15424E-02
         0.37241E-02
         0.35374E-02
         0.18362E-02
         0.21902E-02
         0.19801E-02
         0.75902E-02
         0.44911E-02
         0.58158E-02
         0.95807E-02
         0.74639E-02
         0.68532E-02
         0.96088E-02
         0.86836E-02
         0.86895E-02
         0.67266E-02
         0.59879E-02
         0.82012E-02
         0.53835E-02
         0.45707E-02
         0.36886E-02
         0.43456E-02
         0.72036E-02
         0.48609E-02
         0.31707E-01
         0.32536E-01
         0.34141E-01
         0.33903E-01
         0.36037E-01
         0.38579E-01
         0.36965E-01
         0.32954E-01
         0.32124E-01
         0.34346E-01
         0.33746E-01
         0.33415E-01
         0.27569E-01
         0.26217E-01
         0.28885E-01
         0.31031E-01
         0.32210E-01
         0.35118E-01
         0.33611E-01
         0.34522E-01
         0.31065E-01
         0.29517E-01
         0.31322E-01
         0.30460E-01
         0.31396E-01
         0.31145E-01
         0.56745E-02
         0.33733E-02
         0.32086E-02
         0.22371E-02
         0.57793E-02
         0.39859E-02
         0.18695E-02
         0.55913E-02
         0.35656E-02
         0.54429E-02
         0.25478E-02
         0.10920E-01
         0.83579E-02
         0.39757E-02
         0.11653E-01
         0.41461E-02
         0.21764E-02
         0.12561E-02
         0.27763E-02
         0.14274E-02
         0.86122E-02
         0.80546E-02
         0.78575E-02
         0.20385E-02
         0.35890E-02
         0.10514E-02
         0.39316E-02
         0.55875E-03
         0.15492E-02
         0.37284E-02
         0.35406E-02
         0.18351E-02
         0.21865E-02
         0.19818E-02
         0.75941E-02
         0.44904E-02
         0.58150E-02
         0.95960E-02
         0.74810E-02
         0.68630E-02
         0.96154E-02
         0.86878E-02
         0.86913E-02
         0.67285E-02
         0.59886E-02
         0.82026E-02
         0.53849E-02
         0.45715E-02
         0.36847E-02
         0.43400E-02
         0.72001E-02
         0.48535E-02
         0.31695E-01
         0.32529E-01
         0.34141E-01
         0.33903E-01
         0.36031E-01
         0.38565E-01
         0.36949E-01
         0.32945E-01
         0.32116E-01
         0.34334E-01
         0.33740E-01
         0.33419E-01
         0.27569E-01
         0.26217E-01
         0.28890E-01
         0.31042E-01
         0.32222E-01
         0.35126E-01
         0.33608E-01
         0.34520E-01
         0.31063E-01
         0.29516E-01
         0.31311E-01
         0.30440E-01
         0.31378E-01
         0.31129E-01
         0.56779E-02
         0.33732E-02
         0.32103E-02
         0.22403E-02
         0.57770E-02
         0.39837E-02
         0.18746E-02
         0.55950E-02
         0.35719E-02
         0.54558E-02
         0.25491E-02
         0.10920E-01
         0.83617E-02
         0.39662E-02
         0.11665E-01
         0.41501E-02
         0.21828E-02
         0.12528E-02
         0.27782E-02
         0.14244E-02
         0.86137E-02
         0.80545E-02
         0.78583E-02
         0.20384E-02
         0.36014E-02
         0.10506E-02
         0.39320E-02
         0.55550E-03
         0.15560E-02
         0.37326E-02
         0.35438E-02
         0.18341E-02
         0.21829E-02
         0.19836E-02
         0.75980E-02
         0.44898E-02
         0.58141E-02
         0.96112E-02
         0.74982E-02
         0.68724E-02
         0.96218E-02
         0.86918E-02
         0.86930E-02
         0.67303E-02
         0.59891E-02
         0.82040E-02
         0.53862E-02
         0.45723E-02
         0.36809E-02
         0.43344E-02
         0.71968E-02
         0.48463E-02
         0.31683E-01
         0.32521E-01
         0.34140E-01
         0.33903E-01
         0.36026E-01
         0.38552E-01
         0.36933E-01
         0.32936E-01
         0.32107E-01
         0.34321E-01
         0.33735E-01
         0.33424E-01
         0.27570E-01
         0.26216E-01
         0.28894E-01
         0.31052E-01
         0.32233E-01
         0.35134E-01
         0.33606E-01
         0.34518E-01
         0.31060E-01
         0.29514E-01
         0.31300E-01
         0.30420E-01
         0.31361E-01
         0.31112E-01
         0.57890E-02
         0.35430E-02
         0.33865E-02
         0.24432E-02
         0.59169E-02
         0.41497E-02
         0.21968E-02
         0.57322E-02
         0.37239E-02
         0.56042E-02
         0.28487E-02
         0.11050E-01
         0.84925E-02
         0.41743E-02
         0.11809E-01
         0.42779E-02
         0.24284E-02
         0.15479E-02
         0.29900E-02
         0.18175E-02
         0.87246E-02
         0.81701E-02
         0.79663E-02
         0.22894E-02
         0.38020E-02
         0.14430E-02
         0.41455E-02
         0.13522E-02
         0.19993E-02
         0.39325E-02
         0.36896E-02
         0.21034E-02
         0.23865E-02
         0.22286E-02
         0.77411E-02
         0.46591E-02
         0.59533E-02
         0.97600E-02
         0.76612E-02
         0.70337E-02
         0.97581E-02
         0.88220E-02
         0.88109E-02
         0.68439E-02
         0.61196E-02
         0.83377E-02
         0.55384E-02
         0.47248E-02
         0.38507E-02
         0.44928E-02
         0.73282E-02
         0.49920E-02
         0.31846E-01
         0.32683E-01
         0.34313E-01
         0.34071E-01
         0.36195E-01
         0.38726E-01
         0.37106E-01
         0.33113E-01
         0.32287E-01
         0.34502E-01
         0.33916E-01
         0.33600E-01
         0.27721E-01
         0.26358E-01
         0.29040E-01
         0.31205E-01
         0.32388E-01
         0.35302E-01
         0.33779E-01
         0.34692E-01
         0.31217E-01
         0.29666E-01
         0.31449E-01
         0.30560E-01
         0.31502E-01
         0.31253E-01
         0.13630E-01
         0.12274E-01
         0.12026E-01
         0.10657E-01
         0.14844E-01
         0.12964E-01
         0.12393E-01
         0.14704E-01
         0.11749E-01
         0.14583E-01
         0.13718E-01
         0.21246E-01
         0.17931E-01
         0.14735E-01
         0.22426E-01
         0.11993E-01
         0.11487E-01
         0.98549E-02
         0.12071E-01
         0.12110E-01
         0.17383E-01
         0.17118E-01
         0.16315E-01
         0.11355E-01
         0.13417E-01
         0.10698E-01
         0.14697E-01
         0.13329E-01
         0.13563E-01
         0.13866E-01
         0.11651E-01
         0.11237E-01
         0.10700E-01
         0.11045E-01
         0.17165E-01
         0.13981E-01
         0.14993E-01
         0.20258E-01
         0.18109E-01
         0.17447E-01
         0.20089E-01
         0.18719E-01
         0.18192E-01
         0.15090E-01
         0.14780E-01
         0.17644E-01
         0.14663E-01
         0.13501E-01
         0.12723E-01
         0.13493E-01
         0.16440E-01
         0.13858E-01
         0.44603E-01
         0.45240E-01
         0.47251E-01
         0.46827E-01
         0.49431E-01
         0.52818E-01
         0.51585E-01
         0.47366E-01
         0.46437E-01
         0.48918E-01
         0.48027E-01
         0.47052E-01
         0.39863E-01
         0.37969E-01
         0.40634E-01
         0.42797E-01
         0.44099E-01
         0.47775E-01
         0.46600E-01
         0.47694E-01
         0.43542E-01
         0.41700E-01
         0.43838E-01
         0.42897E-01
         0.43759E-01
         0.43329E-01
  
SCALARS                     nodal_mass  double 1
LOOKUP_TABLE default
         0.24608E-05
         0.19551E-05
         0.20945E-05
         0.35953E-05
         0.12304E-05
         0.97770E-06
         0.10472E-05
         0.17973E-05
         0.19315E-05
         0.24627E-05
         0.96570E-06
         0.12312E-05
         0.13823E-05
         0.16614E-05
         0.69133E-06
         0.83095E-06
         0.27274E-05
         0.20125E-05
         0.13635E-05
         0.10066E-05
         0.81737E-06
         0.15393E-05
         0.16929E-05
         0.40889E-06
         0.76975E-06
         0.84649E-06
         0.13859E-05
         0.17532E-05
         0.69345E-06
         0.87672E-06
         0.32470E-05
         0.25355E-05
         0.32225E-05
         0.16233E-05
         0.12675E-05
         0.16109E-05
         0.18980E-05
         0.21673E-05
         0.94902E-06
         0.10836E-05
         0.20482E-05
         0.22683E-05
         0.10242E-05
         0.11342E-05
         0.17426E-05
         0.10823E-05
         0.87140E-06
         0.54121E-06
         0.20598E-05
         0.10301E-05
         0.17103E-05
         0.85523E-06
         0.17977E-05
         0.89958E-06
         0.18362E-05
         0.91859E-06
         0.15911E-05
         0.19369E-05
         0.79575E-06
         0.96860E-06
         0.24553E-05
         0.17361E-05
         0.12277E-05
         0.86816E-06
         0.27409E-05
         0.13702E-05
         0.23792E-05
         0.11891E-05
         0.10821E-05
         0.16705E-05
         0.54106E-06
         0.83538E-06
         0.18955E-05
         0.94787E-06
         0.20026E-05
         0.10014E-05
         0.19316E-05
         0.96578E-06
         0.15181E-05
         0.75906E-06
         0.95443E-06
         0.15782E-05
         0.47723E-06
         0.78918E-06
         0.20886E-05
         0.10443E-05
         0.16867E-05
         0.84342E-06
         0.14838E-05
         0.74203E-06
         0.97224E-06
         0.16569E-05
         0.48620E-06
         0.82849E-06
         0.22482E-05
         0.11241E-05
         0.23568E-05
         0.11783E-05
         0.19018E-05
         0.95085E-06
         0.11709E-05
         0.20091E-05
         0.58544E-06
         0.10044E-05
         0.74681E-06
         0.94889E-06
         0.37348E-06
         0.47447E-06
         0.88885E-06
         0.44455E-06
         0.10466E-05
         0.52333E-06
         0.10205E-05
         0.51021E-06
         0.99108E-06
         0.49550E-06
         0.10560E-05
         0.52791E-06
         0.11142E-05
         0.55694E-06
         0.10497E-05
         0.52469E-06
         0.82085E-06
         0.41039E-06
         0.66950E-06
         0.33475E-06
         0.86397E-06
         0.43199E-06
         0.11504E-05
         0.57519E-06
         0.12637E-05
         0.63182E-06
         0.12132E-05
         0.60658E-06
         0.10948E-05
         0.54745E-06
         0.99429E-06
         0.49718E-06
         0.80759E-06
         0.40382E-06
         0.67982E-06
         0.33995E-06
         0.88797E-06
         0.44401E-06
         0.11753E-05
         0.58766E-06
         0.12140E-05
         0.60702E-06
         0.98236E-06
         0.49125E-06
         0.79766E-06
         0.39889E-06
         0.97540E-06
         0.48769E-06
         0.11548E-05
         0.57743E-06
         0.24609E-05
         0.19547E-05
         0.20946E-05
         0.35969E-05
         0.19318E-05
         0.24634E-05
         0.13815E-05
         0.16603E-05
         0.27283E-05
         0.20111E-05
         0.81658E-06
         0.15390E-05
         0.16927E-05
         0.13839E-05
         0.17528E-05
         0.32479E-05
         0.25367E-05
         0.32241E-05
         0.18980E-05
         0.21675E-05
         0.20481E-05
         0.22684E-05
         0.17424E-05
         0.10822E-05
         0.20589E-05
         0.17102E-05
         0.17950E-05
         0.18344E-05
         0.15904E-05
         0.19365E-05
         0.24555E-05
         0.17359E-05
         0.27423E-05
         0.23814E-05
         0.10820E-05
         0.16702E-05
         0.18953E-05
         0.20025E-05
         0.19317E-05
         0.15181E-05
         0.95442E-06
         0.15780E-05
         0.20884E-05
         0.16864E-05
         0.14835E-05
         0.97197E-06
         0.16567E-05
         0.22482E-05
         0.23571E-05
         0.19022E-05
         0.11709E-05
         0.20101E-05
         0.74658E-06
         0.94886E-06
         0.88841E-06
         0.10467E-05
         0.10207E-05
         0.99128E-06
         0.10565E-05
         0.11150E-05
         0.10503E-05
         0.82102E-06
         0.66954E-06
         0.86398E-06
         0.11506E-05
         0.12640E-05
         0.12133E-05
         0.10948E-05
         0.99421E-06
         0.80751E-06
         0.67970E-06
         0.88789E-06
         0.11752E-05
         0.12140E-05
         0.98215E-06
         0.79747E-06
         0.97551E-06
         0.11548E-05
         0.24611E-05
         0.19543E-05
         0.20949E-05
         0.35987E-05
         0.19321E-05
         0.24642E-05
         0.13808E-05
         0.16594E-05
         0.27293E-05
         0.20098E-05
         0.81582E-06
         0.15388E-05
         0.16927E-05
         0.13821E-05
         0.17525E-05
         0.32489E-05
         0.25379E-05
         0.32257E-05
         0.18982E-05
         0.21678E-05
         0.20480E-05
         0.22685E-05
         0.17423E-05
         0.10821E-05
         0.20580E-05
         0.17101E-05
         0.17924E-05
         0.18326E-05
         0.15898E-05
         0.19361E-05
         0.24558E-05
         0.17357E-05
         0.27438E-05
         0.23836E-05
         0.10821E-05
         0.16699E-05
         0.18951E-05
         0.20024E-05
         0.19318E-05
         0.15183E-05
         0.95445E-06
         0.15778E-05
         0.20884E-05
         0.16862E-05
         0.14831E-05
         0.97174E-06
         0.16566E-05
         0.22483E-05
         0.23575E-05
         0.19026E-05
         0.11709E-05
         0.20112E-05
         0.74636E-06
         0.94886E-06
         0.88800E-06
         0.10467E-05
         0.10210E-05
         0.99152E-06
         0.10570E-05
         0.11159E-05
         0.10509E-05
         0.82122E-06
         0.66961E-06
         0.86402E-06
         0.11507E-05
         0.12643E-05
         0.12135E-05
         0.10948E-05
         0.99417E-06
         0.80747E-06
         0.67961E-06
         0.88784E-06
         0.11752E-05
         0.12140E-05
         0.98197E-06
         0.79731E-06
         0.97565E-06
         0.11548E-05
         0.24612E-05
         0.19539E-05
         0.20950E-05
         0.36004E-05
         0.19324E-05
         0.24650E-05
         0.13801E-05
         0.16584E-05
         0.27303E-05
         0.20085E-05
         0.81504E-06
         0.15385E-05
         0.16925E-05
         0.13801E-05
         0.17521E-05
         0.32498E-05
         0.25390E-05
         0.32274E-05
         0.18982E-05
         0.21681E-05
         0.20479E-05
         0.22686E-05
         0.17421E-05
         0.10820E-05
         0.20571E-05
         0.17099E-05
         0.17897E-05
         0.18308E-05
         0.15891E-05
         0.19356E-05
         0.24561E-05
         0.17355E-05
         0.27453E-05
         0.23857E-05
         0.10820E-05
         0.16696E-05
         0.18948E-05
         0.20022E-05
         0.19320E-05
         0.15183E-05
         0.95445E-06
         0.15776E-05
         0.20883E-05
         0.16859E-05
         0.14828E-05
         0.97149E-06
         0.16564E-05
         0.22483E-05
         0.23578E-05
         0.19030E-05
         0.11710E-05
         0.20122E-05
         0.74613E-06
         0.94884E-06
         0.88756E-06
         0.10467E-05
         0.10212E-05
         0.99173E-06
         0.10574E-05
         0.11167E-05
         0.10515E-05
         0.82140E-06
         0.66966E-06
         0.86404E-06
         0.11509E-05
         0.12646E-05
         0.12136E-05
         0.10947E-05
         0.99410E-06
         0.80740E-06
         0.67950E-06
         0.88777E-06
         0.11752E-05
         0.12140E-05
         0.98177E-06
         0.79713E-06
         0.97576E-06
         0.11547E-05
         0.24613E-05
         0.19535E-05
         0.20952E-05
         0.36022E-05
         0.19327E-05
         0.24657E-05
         0.13794E-05
         0.16574E-05
         0.27313E-05
         0.20072E-05
         0.81426E-06
         0.15382E-05
         0.16924E-05
         0.13782E-05
         0.17517E-05
         0.32508E-05
         0.25402E-05
         0.32290E-05
         0.18983E-05
         0.21684E-05
         0.20479E-05
         0.22687E-05
         0.17420E-05
         0.10819E-05
         0.20563E-05
         0.17098E-05
         0.17870E-05
         0.18290E-05
         0.15884E-05
         0.19352E-05
         0.24563E-05
         0.17353E-05
         0.27467E-05
         0.23879E-05
         0.10820E-05
         0.16693E-05
         0.18946E-05
         0.20021E-05
         0.19321E-05
         0.15184E-05
         0.95445E-06
         0.15773E-05
         0.20882E-05
         0.16857E-05
         0.14824E-05
         0.97124E-06
         0.16563E-05
         0.22484E-05
         0.23582E-05
         0.19034E-05
         0.11710E-05
         0.20132E-05
         0.74590E-06
         0.94883E-06
         0.88713E-06
         0.10468E-05
         0.10215E-05
         0.99194E-06
         0.10579E-05
         0.11175E-05
         0.10521E-05
         0.82159E-06
         0.66972E-06
         0.86406E-06
         0.11510E-05
         0.12649E-05
         0.12138E-05
         0.10947E-05
         0.99404E-06
         0.80734E-06
         0.67940E-06
         0.88771E-06
         0.11752E-05
         0.12140E-05
         0.98157E-06
         0.79696E-06
         0.97588E-06
         0.11547E-05
         0.24615E-05
         0.19531E-05
         0.20954E-05
         0.36039E-05
         0.19331E-05
         0.24665E-05
         0.13787E-05
         0.16564E-05
         0.27322E-05
         0.20059E-05
         0.81349E-06
         0.15380E-05
         0.16923E-05
         0.13763E-05
         0.17514E-05
         0.32518E-05
         0.25414E-05
         0.32306E-05
         0.18984E-05
         0.21687E-05
         0.20478E-05
         0.22688E-05
         0.17418E-05
         0.10818E-05
         0.20554E-05
         0.17096E-05
         0.17843E-05
         0.18272E-05
         0.15878E-05
         0.19347E-05
         0.24566E-05
         0.17351E-05
         0.27482E-05
         0.23901E-05
         0.10820E-05
         0.16690E-05
         0.18943E-05
         0.20019E-05
         0.19322E-05
         0.15185E-05
         0.95446E-06
         0.15771E-05
         0.20881E-05
         0.16855E-05
         0.14821E-05
         0.97100E-06
         0.16562E-05
         0.22484E-05
         0.23586E-05
         0.19038E-05
         0.11710E-05
         0.20142E-05
         0.74568E-06
         0.94882E-06
         0.88671E-06
         0.10468E-05
         0.10217E-05
         0.99216E-06
         0.10583E-05
         0.11183E-05
         0.10528E-05
         0.82178E-06
         0.66977E-06
         0.86408E-06
         0.11512E-05
         0.12652E-05
         0.12139E-05
         0.10947E-05
         0.99398E-06
         0.80728E-06
         0.67930E-06
         0.88766E-06
         0.11752E-05
         0.12140E-05
         0.98138E-06
         0.79679E-06
         0.97601E-06
         0.11547E-05
         0.24616E-05
         0.19527E-05
         0.20956E-05
         0.36056E-05
         0.19334E-05
         0.24672E-05
         0.13779E-05
         0.16554E-05
         0.27332E-05
         0.20046E-05
         0.81271E-06
         0.15377E-05
         0.16922E-05
         0.13744E-05
         0.17510E-05
         0.32527E-05
         0.25425E-05
         0.32322E-05
         0.18984E-05
         0.21689E-05
         0.20477E-05
         0.22689E-05
         0.17416E-05
         0.10816E-05
         0.20545E-05
         0.17095E-05
         0.17817E-05
         0.18254E-05
         0.15871E-05
         0.19343E-05
         0.24568E-05
         0.17349E-05
         0.27496E-05
         0.23922E-05
         0.10820E-05
         0.16686E-05
         0.18941E-05
         0.20018E-05
         0.19324E-05
         0.15186E-05
         0.95446E-06
         0.15769E-05
         0.20880E-05
         0.16852E-05
         0.14817E-05
         0.97074E-06
         0.16560E-05
         0.22484E-05
         0.23589E-05
         0.19042E-05
         0.11710E-05
         0.20152E-05
         0.74544E-06
         0.94880E-06
         0.88627E-06
         0.10469E-05
         0.10219E-05
         0.99237E-06
         0.10588E-05
         0.11191E-05
         0.10534E-05
         0.82196E-06
         0.66982E-06
         0.86410E-06
         0.11513E-05
         0.12654E-05
         0.12140E-05
         0.10947E-05
         0.99391E-06
         0.80721E-06
         0.67919E-06
         0.88759E-06
         0.11751E-05
         0.12140E-05
         0.98118E-06
         0.79661E-06
         0.97612E-06
         0.11546E-05
         0.24618E-05
         0.19523E-05
         0.20957E-05
         0.36073E-05
         0.19337E-05
         0.24680E-05
         0.13772E-05
         0.16545E-05
         0.27341E-05
         0.20033E-05
         0.81194E-06
         0.15374E-05
         0.16921E-05
         0.13725E-05
         0.17506E-05
         0.32537E-05
         0.25437E-05
         0.32339E-05
         0.18985E-05
         0.21692E-05
         0.20476E-05
         0.22690E-05
         0.17414E-05
         0.10815E-05
         0.20536E-05
         0.17093E-05
         0.17790E-05
         0.18236E-05
         0.15864E-05
         0.19339E-05
         0.24571E-05
         0.17347E-05
         0.27511E-05
         0.23944E-05
         0.10820E-05
         0.16683E-05
         0.18938E-05
         0.20016E-05
         0.19325E-05
         0.15186E-05
         0.95446E-06
         0.15767E-05
         0.20878E-05
         0.16850E-05
         0.14814E-05
         0.97050E-06
         0.16559E-05
         0.22484E-05
         0.23593E-05
         0.19046E-05
         0.11711E-05
         0.20162E-05
         0.74522E-06
         0.94878E-06
         0.88584E-06
         0.10469E-05
         0.10222E-05
         0.99258E-06
         0.10593E-05
         0.11199E-05
         0.10540E-05
         0.82215E-06
         0.66988E-06
         0.86413E-06
         0.11515E-05
         0.12657E-05
         0.12142E-05
         0.10946E-05
         0.99385E-06
         0.80715E-06
         0.67909E-06
         0.88752E-06
         0.11751E-05
         0.12140E-05
         0.98098E-06
         0.79643E-06
         0.97624E-06
         0.11546E-05
         0.24619E-05
         0.19519E-05
         0.20959E-05
         0.36091E-05
         0.19340E-05
         0.24688E-05
         0.13765E-05
         0.16535E-05
         0.27351E-05
         0.20020E-05
         0.81117E-06
         0.15372E-05
         0.16920E-05
         0.13706E-05
         0.17503E-05
         0.32546E-05
         0.25448E-05
         0.32355E-05
         0.18986E-05
         0.21695E-05
         0.20475E-05
         0.22691E-05
         0.17413E-05
         0.10814E-05
         0.20527E-05
         0.17092E-05
         0.17763E-05
         0.18219E-05
         0.15858E-05
         0.19334E-05
         0.24573E-05
         0.17345E-05
         0.27525E-05
         0.23966E-05
         0.10820E-05
         0.16680E-05
         0.18936E-05
         0.20015E-05
         0.19326E-05
         0.15187E-05
         0.95447E-06
         0.15765E-05
         0.20878E-05
         0.16848E-05
         0.14810E-05
         0.97025E-06
         0.16557E-05
         0.22485E-05
         0.23597E-05
         0.19050E-05
         0.11711E-05
         0.20172E-05
         0.74499E-06
         0.94877E-06
         0.88541E-06
         0.10469E-05
         0.10224E-05
         0.99280E-06
         0.10597E-05
         0.11207E-05
         0.10546E-05
         0.82234E-06
         0.66994E-06
         0.86415E-06
         0.11517E-05
         0.12660E-05
         0.12143E-05
         0.10946E-05
         0.99379E-06
         0.80709E-06
         0.67898E-06
         0.88746E-06
         0.11751E-05
         0.12140E-05
         0.98079E-06
         0.79626E-06
         0.97636E-06
         0.11546E-05
         0.24621E-05
         0.19515E-05
         0.20961E-05
         0.36108E-05
         0.19343E-05
         0.24695E-05
         0.13758E-05
         0.16525E-05
         0.27361E-05
         0.20006E-05
         0.81039E-06
         0.15369E-05
         0.16919E-05
         0.13686E-05
         0.17499E-05
         0.32556E-05
         0.25460E-05
         0.32371E-05
         0.18986E-05
         0.21697E-05
         0.20474E-05
         0.22692E-05
         0.17411E-05
         0.10813E-05
         0.20519E-05
         0.17091E-05
         0.17736E-05
         0.18201E-05
         0.15851E-05
         0.19330E-05
         0.24575E-05
         0.17342E-05
         0.27540E-05
         0.23987E-05
         0.10820E-05
         0.16677E-05
         0.18933E-05
         0.20014E-05
         0.19328E-05
         0.15188E-05
         0.95448E-06
         0.15763E-05
         0.20876E-05
         0.16845E-05
         0.14807E-05
         0.97000E-06
         0.16556E-05
         0.22485E-05
         0.23600E-05
         0.19053E-05
         0.11711E-05
         0.20182E-05
         0.74476E-06
         0.94875E-06
         0.88498E-06
         0.10470E-05
         0.10227E-05
         0.99301E-06
         0.10602E-05
         0.11215E-05
         0.10553E-05
         0.82252E-06
         0.66999E-06
         0.86417E-06
         0.11518E-05
         0.12663E-05
         0.12145E-05
         0.10946E-05
         0.99373E-06
         0.80702E-06
         0.67888E-06
         0.88740E-06
         0.11751E-05
         0.12140E-05
         0.98058E-06
         0.79608E-06
         0.97648E-06
         0.11546E-05
         0.24622E-05
         0.19511E-05
         0.20963E-05
         0.36125E-05
         0.19346E-05
         0.24703E-05
         0.13751E-05
         0.16515E-05
         0.27370E-05
         0.19993E-05
         0.80962E-06
         0.15366E-05
         0.16917E-05
         0.13667E-05
         0.17495E-05
         0.32565E-05
         0.25471E-05
         0.32388E-05
         0.18987E-05
         0.21700E-05
         0.20473E-05
         0.22693E-05
         0.17409E-05
         0.10812E-05
         0.20510E-05
         0.17089E-05
         0.17710E-05
         0.18183E-05
         0.15844E-05
         0.19325E-05
         0.24578E-05
         0.17340E-05
         0.27554E-05
         0.24009E-05
         0.10820E-05
         0.16674E-05
         0.18931E-05
         0.20012E-05
         0.19329E-05
         0.15189E-05
         0.95448E-06
         0.15760E-05
         0.20875E-05
         0.16843E-05
         0.14803E-05
         0.96975E-06
         0.16555E-05
         0.22485E-05
         0.23604E-05
         0.19057E-05
         0.11712E-05
         0.20192E-05
         0.74453E-06
         0.94874E-06
         0.88455E-06
         0.10470E-05
         0.10229E-05
         0.99322E-06
         0.10606E-05
         0.11223E-05
         0.10559E-05
         0.82270E-06
         0.67004E-06
         0.86419E-06
         0.11520E-05
         0.12666E-05
         0.12146E-05
         0.10945E-05
         0.99366E-06
         0.80696E-06
         0.67877E-06
         0.88733E-06
         0.11751E-05
         0.12140E-05
         0.98038E-06
         0.79590E-06
         0.97660E-06
         0.11545E-05
         0.24623E-05
         0.19507E-05
         0.20964E-05
         0.36142E-05
         0.19349E-05
         0.24710E-05
         0.13743E-05
         0.16505E-05
         0.27380E-05
         0.19980E-05
         0.80885E-06
         0.15364E-05
         0.16916E-05
         0.13648E-05
         0.17492E-05
         0.32575E-05
         0.25483E-05
         0.32404E-05
         0.18988E-05
         0.21703E-05
         0.20473E-05
         0.22694E-05
         0.17407E-05
         0.10811E-05
         0.20501E-05
         0.17088E-05
         0.17683E-05
         0.18165E-05
         0.15837E-05
         0.19321E-05
         0.24580E-05
         0.17338E-05
         0.27569E-05
         0.24031E-05
         0.10820E-05
         0.16670E-05
         0.18928E-05
         0.20011E-05
         0.19330E-05
         0.15189E-05
         0.95448E-06
         0.15758E-05
         0.20874E-05
         0.16840E-05
         0.14800E-05
         0.96950E-06
         0.16553E-05
         0.22485E-05
         0.23608E-05
         0.19061E-05
         0.11712E-05
         0.20202E-05
         0.74430E-06
         0.94872E-06
         0.88412E-06
         0.10470E-05
         0.10231E-05
         0.99344E-06
         0.10611E-05
         0.11231E-05
         0.10565E-05
         0.82289E-06
         0.67009E-06
         0.86422E-06
         0.11521E-05
         0.12669E-05
         0.12147E-05
         0.10945E-05
         0.99360E-06
         0.80690E-06
         0.67867E-06
         0.88727E-06
         0.11750E-05
         0.12140E-05
         0.98019E-06
         0.79573E-06
         0.97672E-06
         0.11545E-05
         0.24625E-05
         0.19503E-05
         0.20966E-05
         0.36160E-05
         0.19352E-05
         0.24718E-05
         0.13736E-05
         0.16496E-05
         0.27389E-05
         0.19967E-05
         0.80807E-06
         0.15361E-05
         0.16915E-05
         0.13629E-05
         0.17488E-05
         0.32584E-05
         0.25495E-05
         0.32420E-05
         0.18988E-05
         0.21705E-05
         0.20472E-05
         0.22695E-05
         0.17406E-05
         0.10810E-05
         0.20492E-05
         0.17086E-05
         0.17656E-05
         0.18147E-05
         0.15831E-05
         0.19317E-05
         0.24583E-05
         0.17336E-05
         0.27583E-05
         0.24053E-05
         0.10820E-05
         0.16667E-05
         0.18926E-05
         0.20009E-05
         0.19331E-05
         0.15190E-05
         0.95449E-06
         0.15756E-05
         0.20873E-05
         0.16838E-05
         0.14796E-05
         0.96925E-06
         0.16552E-05
         0.22486E-05
         0.23611E-05
         0.19065E-05
         0.11712E-05
         0.20212E-05
         0.74407E-06
         0.94870E-06
         0.88368E-06
         0.10471E-05
         0.10234E-05
         0.99365E-06
         0.10616E-05
         0.11239E-05
         0.10571E-05
         0.82307E-06
         0.67014E-06
         0.86424E-06
         0.11523E-05
         0.12672E-05
         0.12149E-05
         0.10945E-05
         0.99354E-06
         0.80683E-06
         0.67856E-06
         0.88721E-06
         0.11750E-05
         0.12140E-05
         0.97999E-06
         0.79555E-06
         0.97684E-06
         0.11545E-05
         0.24626E-05
         0.19499E-05
         0.20968E-05
         0.36177E-05
         0.19355E-05
         0.24725E-05
         0.13729E-05
         0.16486E-05
         0.27399E-05
         0.19954E-05
         0.80730E-06
         0.15358E-05
         0.16914E-05
         0.13610E-05
         0.17484E-05
         0.32594E-05
         0.25506E-05
         0.32437E-05
         0.18989E-05
         0.21708E-05
         0.20471E-05
         0.22696E-05
         0.17404E-05
         0.10808E-05
         0.20483E-05
         0.17085E-05
         0.17629E-05
         0.18129E-05
         0.15824E-05
         0.19312E-05
         0.24585E-05
         0.17334E-05
         0.27598E-05
         0.24074E-05
         0.10820E-05
         0.16664E-05
         0.18923E-05
         0.20008E-05
         0.19333E-05
         0.15191E-05
         0.95449E-06
         0.15754E-05
         0.20872E-05
         0.16835E-05
         0.14793E-05
         0.96901E-06
         0.16550E-05
         0.22486E-05
         0.23615E-05
         0.19069E-05
         0.11713E-05
         0.20222E-05
         0.74384E-06
         0.94869E-06
         0.88325E-06
         0.10471E-05
         0.10236E-05
         0.99386E-06
         0.10620E-05
         0.11247E-05
         0.10577E-05
         0.82326E-06
         0.67020E-06
         0.86426E-06
         0.11524E-05
         0.12674E-05
         0.12150E-05
         0.10944E-05
         0.99348E-06
         0.80677E-06
         0.67846E-06
         0.88714E-06
         0.11750E-05
         0.12140E-05
         0.97979E-06
         0.79538E-06
         0.97696E-06
         0.11544E-05
         0.24628E-05
         0.19495E-05
         0.20970E-05
         0.36194E-05
         0.19358E-05
         0.24733E-05
         0.13722E-05
         0.16476E-05
         0.27409E-05
         0.19941E-05
         0.80652E-06
         0.15355E-05
         0.16913E-05
         0.13591E-05
         0.17481E-05
         0.32604E-05
         0.25518E-05
         0.32453E-05
         0.18990E-05
         0.21711E-05
         0.20470E-05
         0.22697E-05
         0.17402E-05
         0.10807E-05
         0.20474E-05
         0.17084E-05
         0.17603E-05
         0.18111E-05
         0.15817E-05
         0.19308E-05
         0.24588E-05
         0.17332E-05
         0.27613E-05
         0.24096E-05
         0.10819E-05
         0.16661E-05
         0.18921E-05
         0.20006E-05
         0.19334E-05
         0.15192E-05
         0.95450E-06
         0.15752E-05
         0.20871E-05
         0.16833E-05
         0.14789E-05
         0.96876E-06
         0.16549E-05
         0.22486E-05
         0.23619E-05
         0.19073E-05
         0.11713E-05
         0.20232E-05
         0.74362E-06
         0.94868E-06
         0.88282E-06
         0.10472E-05
         0.10238E-05
         0.99408E-06
         0.10625E-05
         0.11255E-05
         0.10584E-05
         0.82345E-06
         0.67025E-06
         0.86428E-06
         0.11526E-05
         0.12677E-05
         0.12152E-05
         0.10944E-05
         0.99342E-06
         0.80671E-06
         0.67836E-06
         0.88709E-06
         0.11750E-05
         0.12140E-05
         0.97959E-06
         0.79521E-06
         0.97708E-06
         0.11544E-05
         0.24629E-05
         0.19491E-05
         0.20972E-05
         0.36212E-05
         0.19361E-05
         0.24741E-05
         0.13715E-05
         0.16466E-05
         0.27418E-05
         0.19928E-05
         0.80575E-06
         0.15353E-05
         0.16912E-05
         0.13572E-05
         0.17477E-05
         0.32613E-05
         0.25529E-05
         0.32469E-05
         0.18990E-05
         0.21714E-05
         0.20469E-05
         0.22698E-05
         0.17400E-05
         0.10806E-05
         0.20466E-05
         0.17082E-05
         0.17576E-05
         0.18093E-05
         0.15810E-05
         0.19303E-05
         0.24590E-05
         0.17330E-05
         0.27627E-05
         0.24118E-05
         0.10819E-05
         0.16658E-05
         0.18919E-05
         0.20005E-05
         0.19335E-05
         0.15192E-05
         0.95450E-06
         0.15750E-05
         0.20870E-05
         0.16831E-05
         0.14786E-05
         0.96851E-06
         0.16548E-05
         0.22487E-05
         0.23622E-05
         0.19077E-05
         0.11713E-05
         0.20242E-05
         0.74339E-06
         0.94866E-06
         0.88239E-06
         0.10472E-05
         0.10241E-05
         0.99429E-06
         0.10630E-05
         0.11263E-05
         0.10590E-05
         0.82363E-06
         0.67030E-06
         0.86430E-06
         0.11527E-05
         0.12680E-05
         0.12153E-05
         0.10944E-05
         0.99335E-06
         0.80665E-06
         0.67825E-06
         0.88702E-06
         0.11749E-05
         0.12140E-05
         0.97939E-06
         0.79503E-06
         0.97720E-06
         0.11544E-05
         0.24631E-05
         0.19487E-05
         0.20973E-05
         0.36229E-05
         0.19364E-05
         0.24748E-05
         0.13707E-05
         0.16456E-05
         0.27428E-05
         0.19915E-05
         0.80498E-06
         0.15350E-05
         0.16911E-05
         0.13553E-05
         0.17473E-05
         0.32623E-05
         0.25541E-05
         0.32486E-05
         0.18991E-05
         0.21716E-05
         0.20468E-05
         0.22699E-05
         0.17399E-05
         0.10805E-05
         0.20457E-05
         0.17081E-05
         0.17549E-05
         0.18075E-05
         0.15804E-05
         0.19299E-05
         0.24592E-05
         0.17328E-05
         0.27642E-05
         0.24140E-05
         0.10819E-05
         0.16654E-05
         0.18916E-05
         0.20003E-05
         0.19337E-05
         0.15193E-05
         0.95450E-06
         0.15748E-05
         0.20869E-05
         0.16828E-05
         0.14782E-05
         0.96826E-06
         0.16546E-05
         0.22487E-05
         0.23626E-05
         0.19081E-05
         0.11714E-05
         0.20253E-05
         0.74316E-06
         0.94864E-06
         0.88196E-06
         0.10472E-05
         0.10243E-05
         0.99450E-06
         0.10634E-05
         0.11271E-05
         0.10596E-05
         0.82381E-06
         0.67036E-06
         0.86432E-06
         0.11529E-05
         0.12683E-05
         0.12154E-05
         0.10943E-05
         0.99329E-06
         0.80658E-06
         0.67815E-06
         0.88696E-06
         0.11749E-05
         0.12140E-05
         0.97919E-06
         0.79485E-06
         0.97732E-06
         0.11544E-05
         0.24632E-05
         0.19483E-05
         0.20975E-05
         0.36246E-05
         0.19368E-05
         0.24756E-05
         0.13700E-05
         0.16447E-05
         0.27437E-05
         0.19902E-05
         0.80421E-06
         0.15347E-05
         0.16910E-05
         0.13534E-05
         0.17470E-05
         0.32632E-05
         0.25552E-05
         0.32502E-05
         0.18992E-05
         0.21719E-05
         0.20467E-05
         0.22700E-05
         0.17397E-05
         0.10804E-05
         0.20448E-05
         0.17079E-05
         0.17523E-05
         0.18057E-05
         0.15797E-05
         0.19295E-05
         0.24595E-05
         0.17326E-05
         0.27656E-05
         0.24161E-05
         0.10819E-05
         0.16651E-05
         0.18914E-05
         0.20002E-05
         0.19338E-05
         0.15194E-05
         0.95451E-06
         0.15745E-05
         0.20868E-05
         0.16826E-05
         0.14779E-05
         0.96801E-06
         0.16545E-05
         0.22487E-05
         0.23630E-05
         0.19085E-05
         0.11714E-05
         0.20263E-05
         0.74293E-06
         0.94863E-06
         0.88153E-06
         0.10473E-05
         0.10245E-05
         0.99472E-06
         0.10639E-05
         0.11279E-05
         0.10602E-05
         0.82400E-06
         0.67041E-06
         0.86435E-06
         0.11530E-05
         0.12686E-05
         0.12156E-05
         0.10943E-05
         0.99323E-06
         0.80652E-06
         0.67804E-06
         0.88690E-06
         0.11749E-05
         0.12140E-05
         0.97900E-06
         0.79468E-06
         0.97744E-06
         0.11543E-05
         0.24633E-05
         0.19479E-05
         0.20977E-05
         0.36264E-05
         0.19371E-05
         0.24763E-05
         0.13693E-05
         0.16437E-05
         0.27447E-05
         0.19888E-05
         0.80343E-06
         0.15345E-05
         0.16908E-05
         0.13515E-05
         0.17466E-05
         0.32642E-05
         0.25564E-05
         0.32518E-05
         0.18992E-05
         0.21722E-05
         0.20466E-05
         0.22701E-05
         0.17395E-05
         0.10803E-05
         0.20439E-05
         0.17078E-05
         0.17496E-05
         0.18039E-05
         0.15790E-05
         0.19290E-05
         0.24597E-05
         0.17323E-05
         0.27671E-05
         0.24183E-05
         0.10819E-05
         0.16648E-05
         0.18911E-05
         0.20001E-05
         0.19339E-05
         0.15195E-05
         0.95452E-06
         0.15743E-05
         0.20867E-05
         0.16823E-05
         0.14775E-05
         0.96776E-06
         0.16543E-05
         0.22487E-05
         0.23633E-05
         0.19089E-05
         0.11714E-05
         0.20273E-05
         0.74270E-06
         0.94861E-06
         0.88109E-06
         0.10473E-05
         0.10248E-05
         0.99493E-06
         0.10643E-05
         0.11287E-05
         0.10609E-05
         0.82418E-06
         0.67046E-06
         0.86437E-06
         0.11532E-05
         0.12689E-05
         0.12157E-05
         0.10943E-05
         0.99316E-06
         0.80646E-06
         0.67794E-06
         0.88683E-06
         0.11749E-05
         0.12140E-05
         0.97879E-06
         0.79450E-06
         0.97755E-06
         0.11543E-05
         0.24635E-05
         0.19475E-05
         0.20979E-05
         0.36281E-05
         0.19374E-05
         0.24771E-05
         0.13686E-05
         0.16427E-05
         0.27456E-05
         0.19875E-05
         0.80266E-06
         0.15342E-05
         0.16907E-05
         0.13496E-05
         0.17463E-05
         0.32651E-05
         0.25575E-05
         0.32534E-05
         0.18993E-05
         0.21724E-05
         0.20466E-05
         0.22702E-05
         0.17393E-05
         0.10802E-05
         0.20430E-05
         0.17076E-05
         0.17469E-05
         0.18021E-05
         0.15784E-05
         0.19286E-05
         0.24600E-05
         0.17321E-05
         0.27685E-05
         0.24205E-05
         0.10819E-05
         0.16645E-05
         0.18909E-05
         0.19999E-05
         0.19341E-05
         0.15195E-05
         0.95452E-06
         0.15741E-05
         0.20866E-05
         0.16821E-05
         0.14772E-05
         0.96751E-06
         0.16542E-05
         0.22488E-05
         0.23637E-05
         0.19092E-05
         0.11715E-05
         0.20283E-05
         0.74247E-06
         0.94860E-06
         0.88066E-06
         0.10473E-05
         0.10250E-05
         0.99514E-06
         0.10648E-05
         0.11295E-05
         0.10615E-05
         0.82437E-06
         0.67052E-06
         0.86439E-06
         0.11533E-05
         0.12691E-05
         0.12159E-05
         0.10942E-05
         0.99310E-06
         0.80639E-06
         0.67783E-06
         0.88676E-06
         0.11748E-05
         0.12140E-05
         0.97859E-06
         0.79433E-06
         0.97767E-06
         0.11543E-05
         0.24636E-05
         0.19471E-05
         0.20980E-05
         0.36298E-05
         0.19377E-05
         0.24779E-05
         0.13679E-05
         0.16417E-05
         0.27466E-05
         0.19862E-05
         0.80189E-06
         0.15339E-05
         0.16906E-05
         0.13477E-05
         0.17459E-05
         0.32661E-05
         0.25587E-05
         0.32551E-05
         0.18994E-05
         0.21727E-05
         0.20465E-05
         0.22703E-05
         0.17392E-05
         0.10800E-05
         0.20421E-05
         0.17075E-05
         0.17443E-05
         0.18003E-05
         0.15777E-05
         0.19281E-05
         0.24602E-05
         0.17319E-05
         0.27700E-05
         0.24227E-05
         0.10819E-05
         0.16642E-05
         0.18906E-05
         0.19998E-05
         0.19342E-05
         0.15196E-05
         0.95453E-06
         0.15739E-05
         0.20865E-05
         0.16819E-05
         0.14768E-05
         0.96727E-06
         0.16541E-05
         0.22488E-05
         0.23640E-05
         0.19096E-05
         0.11715E-05
         0.20293E-05
         0.74225E-06
         0.94859E-06
         0.88023E-06
         0.10474E-05
         0.10253E-05
         0.99535E-06
         0.10653E-05
         0.11303E-05
         0.10621E-05
         0.82456E-06
         0.67057E-06
         0.86441E-06
         0.11535E-05
         0.12694E-05
         0.12160E-05
         0.10942E-05
         0.99304E-06
         0.80633E-06
         0.67773E-06
         0.88671E-06
         0.11748E-05
         0.12140E-05
         0.97840E-06
         0.79415E-06
         0.97780E-06
         0.11542E-05
         0.24637E-05
         0.19466E-05
         0.20982E-05
         0.36315E-05
         0.19380E-05
         0.24786E-05
         0.13671E-05
         0.16407E-05
         0.27475E-05
         0.19849E-05
         0.80110E-06
         0.15336E-05
         0.16905E-05
         0.13457E-05
         0.17455E-05
         0.32669E-05
         0.25598E-05
         0.32567E-05
         0.18994E-05
         0.21729E-05
         0.20464E-05
         0.22703E-05
         0.17390E-05
         0.10799E-05
         0.20412E-05
         0.17073E-05
         0.17416E-05
         0.17985E-05
         0.15770E-05
         0.19277E-05
         0.24604E-05
         0.17317E-05
         0.27714E-05
         0.24248E-05
         0.10819E-05
         0.16638E-05
         0.18903E-05
         0.19996E-05
         0.19343E-05
         0.15196E-05
         0.95451E-06
         0.15737E-05
         0.20864E-05
         0.16816E-05
         0.14765E-05
         0.96700E-06
         0.16539E-05
         0.22488E-05
         0.23644E-05
         0.19100E-05
         0.11715E-05
         0.20303E-05
         0.74200E-06
         0.94855E-06
         0.87978E-06
         0.10474E-05
         0.10255E-05
         0.99555E-06
         0.10657E-05
         0.11311E-05
         0.10627E-05
         0.82472E-06
         0.67061E-06
         0.86442E-06
         0.11536E-05
         0.12697E-05
         0.12161E-05
         0.10941E-05
         0.99295E-06
         0.80625E-06
         0.67761E-06
         0.88662E-06
         0.11748E-05
         0.12140E-05
         0.97818E-06
         0.79396E-06
         0.97790E-06
         0.11542E-05
         0.24639E-05
         0.19463E-05
         0.20984E-05
         0.36333E-05
         0.19383E-05
         0.24794E-05
         0.13664E-05
         0.16398E-05
         0.27485E-05
         0.19836E-05
         0.80034E-06
         0.15334E-05
         0.16904E-05
         0.13439E-05
         0.17452E-05
         0.32679E-05
         0.25610E-05
         0.32583E-05
         0.18995E-05
         0.21732E-05
         0.20463E-05
         0.22704E-05
         0.17388E-05
         0.10798E-05
         0.20404E-05
         0.17072E-05
         0.17389E-05
         0.17967E-05
         0.15763E-05
         0.19272E-05
         0.24607E-05
         0.17315E-05
         0.27729E-05
         0.24270E-05
         0.10819E-05
         0.16635E-05
         0.18901E-05
         0.19995E-05
         0.19345E-05
         0.15197E-05
         0.95453E-06
         0.15735E-05
         0.20863E-05
         0.16814E-05
         0.14761E-05
         0.96677E-06
         0.16538E-05
         0.22488E-05
         0.23647E-05
         0.19104E-05
         0.11716E-05
         0.20313E-05
         0.74179E-06
         0.94855E-06
         0.87936E-06
         0.10475E-05
         0.10257E-05
         0.99577E-06
         0.10662E-05
         0.11319E-05
         0.10633E-05
         0.82492E-06
         0.67068E-06
         0.86446E-06
         0.11538E-05
         0.12700E-05
         0.12163E-05
         0.10941E-05
         0.99291E-06
         0.80620E-06
         0.67752E-06
         0.88657E-06
         0.11748E-05
         0.12140E-05
         0.97800E-06
         0.79380E-06
         0.97803E-06
         0.11542E-05
         0.12320E-05
         0.97306E-06
         0.10493E-05
         0.18171E-05
         0.96926E-06
         0.12399E-05
         0.68306E-06
         0.81967E-06
         0.13745E-05
         0.99152E-06
         0.39999E-06
         0.76665E-06
         0.84519E-06
         0.67148E-06
         0.87252E-06
         0.16343E-05
         0.12808E-05
         0.16296E-05
         0.94981E-06
         0.10867E-05
         0.10232E-05
         0.11353E-05
         0.86940E-06
         0.53990E-06
         0.10200E-05
         0.85360E-06
         0.86884E-06
         0.89793E-06
         0.78802E-06
         0.96354E-06
         0.12305E-05
         0.86572E-06
         0.13869E-05
         0.12141E-05
         0.54095E-06
         0.83170E-06
         0.94503E-06
         0.99975E-06
         0.96729E-06
         0.75992E-06
         0.47728E-06
         0.78670E-06
         0.10432E-05
         0.84065E-06
         0.73800E-06
         0.48334E-06
         0.82688E-06
         0.11245E-05
         0.11825E-05
         0.95534E-06
         0.58581E-06
         0.10159E-05
         0.37085E-06
         0.47429E-06
         0.43959E-06
         0.52375E-06
         0.51294E-06
         0.49796E-06
         0.53322E-06
         0.56619E-06
         0.53185E-06
         0.41252E-06
         0.33536E-06
         0.43225E-06
         0.57696E-06
         0.63509E-06
         0.60820E-06
         0.54708E-06
         0.49646E-06
         0.40310E-06
         0.33875E-06
         0.44329E-06
         0.58740E-06
         0.60700E-06
         0.48897E-06
         0.39687E-06
         0.48906E-06
         0.57710E-06
  
SCALARS                 Poissons_ratio  double 1
LOOKUP_TABLE default
         0.30000E+00
         0.30000E+00
         0.30000E+00
         0.30000E+00
         0.30000E+00
         0.30000E+00
         0.30000E+00
         0.30000E+00
         0.30000E+00
         0.30000E+00
         0.30000E+00
         0.30000E+00
         0.30000E+00
         0.30000E+00
         0.30000E+00
         0.30000E+00
         0.30000E+00
         0.30000E+00
         0.30000E+00
         0.30000E+00
         0.30000E+00
         0.30000E+00
         0.30000E+00
         0.30000E+00
         0.30000E+00
         0.30000E+00
         0.30000E+00
         0.30000E+00
         0.30000E+00
         0.30000E+00
         0.30000E+00
         0.30000E+00
         0.30000E+00
         0.30000E+00
         0.30000E+00
         0.30000E+00
         0.30000E+00
         0.30000E+00
         0.30000E+00
         0.30000E+00
         0.30000E+00
         0.30000E+00
         0.30000E+00
         0.30000E+00
         0.30000E+00
         0.30000E+00
         0.30000E+00
         0.30000E+00
         0.30000E+00
         0.30000E+00
         0.30000E+00
         0.30000E+00
         0.30000E+00
         0.30000E+00
         0.30000E+00
         0.30000E+00
         0.30000E+00
         0.30000E+00
         0.30000E+00
         0.30000E+00
         0.30000E+00
         0.30000E+00
         0.30000E+00
         0.30000E+00
         0.30000E+00
         0.30000E+00
         0.30000E+00
         0.30000E+00
         0.30000E+00
         0.30000E+00
         0.30000E+00
         0.30000E+00
         0.30000E+00
         0.30000E+00
         0.30000E+00
         0.30000E+00
         0.30000E+00
         0.30000E+00
         0.30000E+00
         0.30000E+00
         0.30000E+00
         0.30000E+00
         0.30000E+00
         0.30000E+00
         0.30000E+00
         0.30000E+00
         0.30000E+00
         0.30000E+00
         0.30000E+00
         0.30000E+00
         0.30000E+00
         0.30000E+00
         0.30000E+00
         0.30000E+00
         0.30000E+00
         0.30000E+00
         0.30000E+00
         0.30000E+00
         0.30000E+00
         0.30000E+00
         0.30000E+00
         0.30000E+00
         0.30000E+00
         0.30000E+00
         0.30000E+00
         0.30000E+00
         0.30000E+00
         0.30000E+00
         0.30000E+00
         0.30000E+00
         0.30000E+00
         0.30000E+00
         0.30000E+00
         0.30000E+00
         0.30000E+00
         0.30000E+00
         0.30000E+00
         0.30000E+00
         0.30000E+00
         0.30000E+00
         0.30000E+00
         0.30000E+00
         0.30000E+00
         0.30000E+00
         0.30000E+00
         0.30000E+00
         0.30000E+00
         0.30000E+00
         0.30000E+00
         0.30000E+00
         0.30000E+00
         0.30000E+00
         0.30000E+00
         0.30000E+00
         0.30000E+00
         0.30000E+00
         0.30000E+00
         0.30000E+00
         0.30000E+00
         0.30000E+00
         0.30000E+00
         0.30000E+00
         0.30000E+00
         0.30000E+00
         0.30000E+00
         0.30000E+00
         0.30000E+00
         0.30000E+00
         0.30000E+00
         0.30000E+00
         0.30000E+00
         0.30000E+00
         0.30000E+00
         0.30000E+00
         0.30000E+00
         0.30000E+00
         0.30000E+00
         0.30000E+00
         0.30000E+00
         0.30000E+00
         0.30000E+00
         0.30000E+00
         0.30000E+00
         0.30000E+00
         0.30000E+00
         0.30000E+00
         0.30000E+00
         0.30000E+00
         0.30000E+00
         0.30000E+00
         0.30000E+00
         0.30000E+00
         0.30000E+00
         0.30000E+00
         0.30000E+00
         0.30000E+00
         0.30000E+00
         0.30000E+00
         0.30000E+00
         0.30000E+00
         0.30000E+00
         0.30000E+00
         0.30000E+00
         0.30000E+00
         0.30000E+00
         0.30000E+00
         0.30000E+00
         0.30000E+00
         0.30000E+00
         0.30000E+00
         0.30000E+00
         0.30000E+00
         0.30000E+00
         0.30000E+00
         0.30000E+00
         0.30000E+00
         0.30000E+00
         0.30000E+00
         0.30000E+00
         0.30000E+00
         0.30000E+00
         0.30000E+00
         0.30000E+00
         0.30000E+00
         0.30000E+00
         0.30000E+00
         0.30000E+00
         0.30000E+00
         0.30000E+00
         0.30000E+00
         0.30000E+00
         0.30000E+00
         0.30000E+00
         0.30000E+00
         0.30000E+00
         0.30000E+00
         0.30000E+00
         0.30000E+00
         0.30000E+00
         0.30000E+00
         0.30000E+00
         0.30000E+00
         0.30000E+00
         0.30000E+00
         0.30000E+00
         0.30000E+00
         0.30000E+00
         0.30000E+00
         0.30000E+00
         0.30000E+00
         0.30000E+00
         0.30000E+00
         0.30000E+00
         0.30000E+00
         0.30000E+00
         0.30000E+00
         0.30000E+00
         0.30000E+00
         0.30000E+00
         0.30000E+00
         0.30000E+00
         0.30000E+00
         0.30000E+00
         0.30000E+00
         0.30000E+00
         0.30000E+00
         0.30000E+00
         0.30000E+00
         0.30000E+00
         0.30000E+00
         0.30000E+00
         0.30000E+00
         0.30000E+00
         0.30000E+00
         0.30000E+00
         0.30000E+00
         0.30000E+00
         0.30000E+00
         0.30000E+00
         0.30000E+00
         0.30000E+00
         0.30000E+00
         0.30000E+00
         0.30000E+00
         0.30000E+00
         0.30000E+00
         0.30000E+00
         0.30000E+00
         0.30000E+00
         0.30000E+00
         0.30000E+00
         0.30000E+00
         0.30000E+00
         0.30000E+00
         0.30000E+00
         0.30000E+00
         0.30000E+00
         0.30000E+00
         0.30000E+00
         0.30000E+00
         0.30000E+00
         0.30000E+00
         0.30000E+00
         0.30000E+00
         0.30000E+00
         0.30000E+00
         0.30000E+00
         0.30000E+00
         0.30000E+00
         0.30000E+00
         0.30000E+00
         0.30000E+00
         0.30000E+00
         0.30000E+00
         0.30000E+00
         0.30000E+00
         0.30000E+00
         0.30000E+00
         0.30000E+00
         0.30000E+00
         0.30000E+00
         0.30000E+00
         0.30000E+00
         0.30000E+00
         0.30000E+00
         0.30000E+00
         0.30000E+00
         0.30000E+00
         0.30000E+00
         0.30000E+00
         0.30000E+00
         0.30000E+00
         0.30000E+00
         0.30000E+00
         0.30000E+00
         0.30000E+00
         0.30000E+00
         0.30000E+00
         0.30000E+00
         0.30000E+00
         0.30000E+00
         0.30000E+00
         0.30000E+00
         0.30000E+00
         0.30000E+00
         0.30000E+00
         0.30000E+00
         0.30000E+00
         0.30000E+00
         0.30000E+00
         0.30000E+00
         0.30000E+00
         0.30000E+00
         0.30000E+00
         0.30000E+00
         0.30000E+00
         0.30000E+00
         0.30000E+00
         0.30000E+00
         0.30000E+00
         0.30000E+00
         0.30000E+00
         0.30000E+00
         0.30000E+00
         0.30000E+00
         0.30000E+00
         0.30000E+00
         0.30000E+00
         0.30000E+00
         0.30000E+00
         0.30000E+00
         0.30000E+00
         0.30000E+00
         0.30000E+00
         0.30000E+00
         0.30000E+00
         0.30000E+00
         0.30000E+00
         0.30000E+00
         0.30000E+00
         0.30000E+00
         0.30000E+00
         0.30000E+00
         0.30000E+00
         0.30000E+00
         0.30000E+00
         0.30000E+00
         0.30000E+00
         0.30000E+00
         0.30000E+00
         0.30000E+00
         0.30000E+00
         0.30000E+00
         0.30000E+00
         0.30000E+00
         0.30000E+00
         0.30000E+00
         0.30000E+00
         0.30000E+00
         0.30000E+00
         0.30000E+00
         0.30000E+00
         0.30000E+00
         0.30000E+00
         0.30000E+00
         0.30000E+00
         0.30000E+00
         0.30000E+00
         0.30000E+00
         0.30000E+00
         0.30000E+00
         0.30000E+00
         0.30000E+00
         0.30000E+00
         0.30000E+00
         0.30000E+00
         0.30000E+00
         0.30000E+00
         0.30000E+00
         0.30000E+00
         0.30000E+00
         0.30000E+00
         0.30000E+00
         0.30000E+00
         0.30000E+00
         0.30000E+00
         0.30000E+00
         0.30000E+00
         0.30000E+00
         0.30000E+00
         0.30000E+00
         0.30000E+00
         0.30000E+00
         0.30000E+00
         0.30000E+00
         0.30000E+00
         0.30000E+00
         0.30000E+00
         0.30000E+00
         0.30000E+00
         0.30000E+00
         0.30000E+00
         0.30000E+00
         0.30000E+00
         0.30000E+00
         0.30000E+00
         0.30000E+00
         0.30000E+00
         0.30000E+00
         0.30000E+00
         0.30000E+00
         0.30000E+00
         0.30000E+00
         0.30000E+00
         0.30000E+00
         0.30000E+00
         0.30000E+00
         0.30000E+00
         0.30000E+00
         0.30000E+00
         0.30000E+00
         0.30000E+00
         0.30000E+00
         0.30000E+00
         0.30000E+00
         0.30000E+00
         0.30000E+00
         0.30000E+00
         0.30000E+00
         0.30000E+00
         0.30000E+00
         0.30000E+00
         0.30000E+00
         0.30000E+00
         0.30000E+00
         0.30000E+00
         0.30000E+00
         0.30000E+00
         0.30000E+00
         0.30000E+00
         0.30000E+00
         0.30000E+00
         0.30000E+00
         0.30000E+00
         0.30000E+00
         0.30000E+00
         0.30000E+00
         0.30000E+00
         0.30000E+00
         0.30000E+00
         0.30000E+00
         0.30000E+00
         0.30000E+00
         0.30000E+00
         0.30000E+00
         0.30000E+00
         0.30000E+00
         0.30000E+00
         0.30000E+00
         0.30000E+00
         0.30000E+00
         0.30000E+00
         0.30000E+00
         0.30000E+00
         0.30000E+00
         0.30000E+00
         0.30000E+00
         0.30000E+00
         0.30000E+00
         0.30000E+00
         0.30000E+00
         0.30000E+00
         0.30000E+00
         0.30000E+00
         0.30000E+00
         0.30000E+00
         0.30000E+00
         0.30000E+00
         0.30000E+00
         0.30000E+00
         0.30000E+00
         0.30000E+00
         0.30000E+00
         0.30000E+00
         0.30000E+00
         0.30000E+00
         0.30000E+00
         0.30000E+00
         0.30000E+00
         0.30000E+00
         0.30000E+00
         0.30000E+00
         0.30000E+00
         0.30000E+00
         0.30000E+00
         0.30000E+00
         0.30000E+00
         0.30000E+00
         0.30000E+00
         0.30000E+00
         0.30000E+00
         0.30000E+00
         0.30000E+00
         0.30000E+00
         0.30000E+00
         0.30000E+00
         0.30000E+00
         0.30000E+00
         0.30000E+00
         0.30000E+00
         0.30000E+00
         0.30000E+00
         0.30000E+00
         0.30000E+00
         0.30000E+00
         0.30000E+00
         0.30000E+00
         0.30000E+00
         0.30000E+00
         0.30000E+00
         0.30000E+00
         0.30000E+00
         0.30000E+00
         0.30000E+00
         0.30000E+00
         0.30000E+00
         0.30000E+00
         0.30000E+00
         0.30000E+00
         0.30000E+00
         0.30000E+00
         0.30000E+00
         0.30000E+00
         0.30000E+00
         0.30000E+00
         0.30000E+00
         0.30000E+00
         0.30000E+00
         0.30000E+00
         0.30000E+00
         0.30000E+00
         0.30000E+00
         0.30000E+00
         0.30000E+00
         0.30000E+00
         0.30000E+00
         0.30000E+00
         0.30000E+00
         0.30000E+00
         0.30000E+00
         0.30000E+00
         0.30000E+00
         0.30000E+00
         0.30000E+00
         0.30000E+00
         0.30000E+00
         0.30000E+00
         0.30000E+00
         0.30000E+00
         0.30000E+00
         0.30000E+00
         0.30000E+00
         0.30000E+00
         0.30000E+00
         0.30000E+00
         0.30000E+00
         0.30000E+00
         0.30000E+00
         0.30000E+00
         0.30000E+00
         0.30000E+00
         0.30000E+00
         0.30000E+00
         0.30000E+00
         0.30000E+00
         0.30000E+00
         0.30000E+00
         0.30000E+00
         0.30000E+00
         0.30000E+00
         0.30000E+00
         0.30000E+00
         0.30000E+00
         0.30000E+00
         0.30000E+00
         0.30000E+00
         0.30000E+00
         0.30000E+00
         0.30000E+00
         0.30000E+00
         0.30000E+00
         0.30000E+00
         0.30000E+00
         0.30000E+00
         0.30000E+00
         0.30000E+00
         0.30000E+00
         0.30000E+00
         0.30000E+00
         0.30000E+00
         0.30000E+00
         0.30000E+00
         0.30000E+00
         0.30000E+00
         0.30000E+00
         0.30000E+00
         0.30000E+00
         0.30000E+00
         0.30000E+00
         0.30000E+00
         0.30000E+00
         0.30000E+00
         0.30000E+00
         0.30000E+00
         0.30000E+00
         0.30000E+00
         0.30000E+00
         0.30000E+00
         0.30000E+00
         0.30000E+00
         0.30000E+00
         0.30000E+00
         0.30000E+00
         0.30000E+00
         0.30000E+00
         0.30000E+00
         0.30000E+00
         0.30000E+00
         0.30000E+00
         0.30000E+00
         0.30000E+00
         0.30000E+00
         0.30000E+00
         0.30000E+00
         0.30000E+00
         0.30000E+00
         0.30000E+00
         0.30000E+00
         0.30000E+00
         0.30000E+00
         0.30000E+00
         0.30000E+00
         0.30000E+00
         0.30000E+00
         0.30000E+00
         0.30000E+00
         0.30000E+00
         0.30000E+00
         0.30000E+00
         0.30000E+00
         0.30000E+00
         0.30000E+00
         0.30000E+00
         0.30000E+00
         0.30000E+00
         0.30000E+00
         0.30000E+00
         0.30000E+00
         0.30000E+00
         0.30000E+00
         0.30000E+00
         0.30000E+00
         0.30000E+00
         0.30000E+00
         0.30000E+00
         0.30000E+00
         0.30000E+00
         0.30000E+00
         0.30000E+00
         0.30000E+00
         0.30000E+00
         0.30000E+00
         0.30000E+00
         0.30000E+00
         0.30000E+00
         0.30000E+00
         0.30000E+00
         0.30000E+00
         0.30000E+00
         0.30000E+00
         0.30000E+00
         0.30000E+00
         0.30000E+00
         0.30000E+00
         0.30000E+00
         0.30000E+00
         0.30000E+00
         0.30000E+00
         0.30000E+00
         0.30000E+00
         0.30000E+00
         0.30000E+00
         0.30000E+00
         0.30000E+00
         0.30000E+00
         0.30000E+00
         0.30000E+00
         0.30000E+00
         0.30000E+00
         0.30000E+00
         0.30000E+00
         0.30000E+00
         0.30000E+00
         0.30000E+00
         0.30000E+00
         0.30000E+00
         0.30000E+00
         0.30000E+00
         0.30000E+00
         0.30000E+00
         0.30000E+00
         0.30000E+00
         0.30000E+00
         0.30000E+00
         0.30000E+00
         0.30000E+00
         0.30000E+00
         0.30000E+00
         0.30000E+00
         0.30000E+00
         0.30000E+00
         0.30000E+00
         0.30000E+00
         0.30000E+00
         0.30000E+00
         0.30000E+00
         0.30000E+00
         0.30000E+00
         0.30000E+00
         0.30000E+00
         0.30000E+00
         0.30000E+00
         0.30000E+00
         0.30000E+00
         0.30000E+00
         0.30000E+00
         0.30000E+00
         0.30000E+00
         0.30000E+00
         0.30000E+00
         0.30000E+00
         0.30000E+00
         0.30000E+00
         0.30000E+00
         0.30000E+00
         0.30000E+00
         0.30000E+00
         0.30000E+00
         0.30000E+00
         0.30000E+00
         0.30000E+00
         0.30000E+00
         0.30000E+00
         0.30000E+00
         0.30000E+00
         0.30000E+00
         0.30000E+00
         0.30000E+00
         0.30000E+00
         0.30000E+00
         0.30000E+00
         0.30000E+00
         0.30000E+00
         0.30000E+00
         0.30000E+00
         0.30000E+00
         0.30000E+00
         0.30000E+00
         0.30000E+00
         0.30000E+00
         0.30000E+00
         0.30000E+00
         0.30000E+00
         0.30000E+00
         0.30000E+00
         0.30000E+00
         0.30000E+00
         0.30000E+00
         0.30000E+00
         0.30000E+00
         0.30000E+00
         0.30000E+00
         0.30000E+00
         0.30000E+00
         0.30000E+00
         0.30000E+00
         0.30000E+00
         0.30000E+00
         0.30000E+00
         0.30000E+00
         0.30000E+00
         0.30000E+00
         0.30000E+00
         0.30000E+00
         0.30000E+00
         0.30000E+00
         0.30000E+00
         0.30000E+00
         0.30000E+00
         0.30000E+00
         0.30000E+00
         0.30000E+00
         0.30000E+00
         0.30000E+00
         0.30000E+00
         0.30000E+00
         0.30000E+00
         0.30000E+00
         0.30000E+00
         0.30000E+00
         0.30000E+00
         0.30000E+00
         0.30000E+00
         0.30000E+00
         0.30000E+00
         0.30000E+00
         0.30000E+00
         0.30000E+00
         0.30000E+00
         0.30000E+00
         0.30000E+00
         0.30000E+00
         0.30000E+00
         0.30000E+00
         0.30000E+00
         0.30000E+00
         0.30000E+00
         0.30000E+00
         0.30000E+00
         0.30000E+00
         0.30000E+00
         0.30000E+00
         0.30000E+00
         0.30000E+00
         0.30000E+00
         0.30000E+00
         0.30000E+00
         0.30000E+00
         0.30000E+00
         0.30000E+00
         0.30000E+00
         0.30000E+00
         0.30000E+00
         0.30000E+00
         0.30000E+00
         0.30000E+00
         0.30000E+00
         0.30000E+00
         0.30000E+00
         0.30000E+00
         0.30000E+00
         0.30000E+00
         0.30000E+00
         0.30000E+00
         0.30000E+00
         0.30000E+00
         0.30000E+00
         0.30000E+00
         0.30000E+00
         0.30000E+00
         0.30000E+00
         0.30000E+00
         0.30000E+00
         0.30000E+00
         0.30000E+00
         0.30000E+00
         0.30000E+00
         0.30000E+00
         0.30000E+00
         0.30000E+00
         0.30000E+00
         0.30000E+00
         0.30000E+00
         0.30000E+00
         0.30000E+00
         0.30000E+00
         0.30000E+00
         0.30000E+00
         0.30000E+00
         0.30000E+00
         0.30000E+00
         0.30000E+00
         0.30000E+00
         0.30000E+00
         0.30000E+00
         0.30000E+00
         0.30000E+00
         0.30000E+00
         0.30000E+00
         0.30000E+00
         0.30000E+00
         0.30000E+00
         0.30000E+00
         0.30000E+00
         0.30000E+00
         0.30000E+00
         0.30000E+00
         0.30000E+00
         0.30000E+00
         0.30000E+00
         0.30000E+00
         0.30000E+00
         0.30000E+00
         0.30000E+00
         0.30000E+00
         0.30000E+00
         0.30000E+00
         0.30000E+00
         0.30000E+00
         0.30000E+00
         0.30000E+00
         0.30000E+00
         0.30000E+00
         0.30000E+00
         0.30000E+00
         0.30000E+00
         0.30000E+00
         0.30000E+00
         0.30000E+00
         0.30000E+00
         0.30000E+00
         0.30000E+00
         0.30000E+00
         0.30000E+00
         0.30000E+00
         0.30000E+00
         0.30000E+00
         0.30000E+00
         0.30000E+00
         0.30000E+00
         0.30000E+00
         0.30000E+00
         0.30000E+00
         0.30000E+00
         0.30000E+00
         0.30000E+00
         0.30000E+00
         0.30000E+00
         0.30000E+00
         0.30000E+00
         0.30000E+00
         0.30000E+00
         0.30000E+00
         0.30000E+00
         0.30000E+00
         0.30000E+00
         0.30000E+00
         0.30000E+00
         0.30000E+00
         0.30000E+00
         0.30000E+00
         0.30000E+00
         0.30000E+00
         0.30000E+00
         0.30000E+00
         0.30000E+00
         0.30000E+00
         0.30000E+00
         0.30000E+00
         0.30000E+00
         0.30000E+00
         0.30000E+00
         0.30000E+00
         0.30000E+00
         0.30000E+00
         0.30000E+00
         0.30000E+00
         0.30000E+00
         0.30000E+00
         0.30000E+00
         0.30000E+00
         0.30000E+00
         0.30000E+00
         0.30000E+00
         0.30000E+00
         0.30000E+00
         0.30000E+00
         0.30000E+00
         0.30000E+00
         0.30000E+00
         0.30000E+00
         0.30000E+00
         0.30000E+00
         0.30000E+00
         0.30000E+00
         0.30000E+00
         0.30000E+00
         0.30000E+00
         0.30000E+00
         0.30000E+00
         0.30000E+00
         0.30000E+00
         0.30000E+00
         0.30000E+00
         0.30000E+00
         0.30000E+00
         0.30000E+00
         0.30000E+00
         0.30000E+00
         0.30000E+00
         0.30000E+00
         0.30000E+00
         0.30000E+00
         0.30000E+00
         0.30000E+00
         0.30000E+00
         0.30000E+00
         0.30000E+00
         0.30000E+00
         0.30000E+00
         0.30000E+00
         0.30000E+00
         0.30000E+00
         0.30000E+00
         0.30000E+00
         0.30000E+00
         0.30000E+00
         0.30000E+00
         0.30000E+00
         0.30000E+00
         0.30000E+00
         0.30000E+00
         0.30000E+00
         0.30000E+00
         0.30000E+00
         0.30000E+00
         0.30000E+00
         0.30000E+00
         0.30000E+00
         0.30000E+00
         0.30000E+00
         0.30000E+00
         0.30000E+00
         0.30000E+00
         0.30000E+00
         0.30000E+00
         0.30000E+00
         0.30000E+00
         0.30000E+00
         0.30000E+00
         0.30000E+00
         0.30000E+00
         0.30000E+00
         0.30000E+00
         0.30000E+00
         0.30000E+00
         0.30000E+00
         0.30000E+00
         0.30000E+00
         0.30000E+00
         0.30000E+00
         0.30000E+00
         0.30000E+00
         0.30000E+00
         0.30000E+00
         0.30000E+00
         0.30000E+00
         0.30000E+00
         0.30000E+00
         0.30000E+00
         0.30000E+00
         0.30000E+00
         0.30000E+00
         0.30000E+00
         0.30000E+00
         0.30000E+00
         0.30000E+00
         0.30000E+00
         0.30000E+00
         0.30000E+00
         0.30000E+00
         0.30000E+00
         0.30000E+00
         0.30000E+00
         0.30000E+00
         0.30000E+00
         0.30000E+00
         0.30000E+00
         0.30000E+00
         0.30000E+00
         0.30000E+00
         0.30000E+00
         0.30000E+00
         0.30000E+00
         0.30000E+00
         0.30000E+00
         0.30000E+00
         0.30000E+00
         0.30000E+00
         0.30000E+00
         0.30000E+00
         0.30000E+00
         0.30000E+00
         0.30000E+00
         0.30000E+00
         0.30000E+00
         0.30000E+00
         0.30000E+00
         0.30000E+00
         0.30000E+00
         0.30000E+00
         0.30000E+00
         0.30000E+00
         0.30000E+00
         0.30000E+00
         0.30000E+00
         0.30000E+00
         0.30000E+00
         0.30000E+00
         0.30000E+00
         0.30000E+00
         0.30000E+00
         0.30000E+00
         0.30000E+00
         0.30000E+00
         0.30000E+00
         0.30000E+00
         0.30000E+00
         0.30000E+00
         0.30000E+00
         0.30000E+00
         0.30000E+00
         0.30000E+00
         0.30000E+00
         0.30000E+00
         0.30000E+00
         0.30000E+00
         0.30000E+00
         0.30000E+00
         0.30000E+00
         0.30000E+00
         0.30000E+00
         0.30000E+00
         0.30000E+00
         0.30000E+00
         0.30000E+00
         0.30000E+00
         0.30000E+00
         0.30000E+00
         0.30000E+00
         0.30000E+00
         0.30000E+00
         0.30000E+00
         0.30000E+00
         0.30000E+00
         0.30000E+00
         0.30000E+00
         0.30000E+00
         0.30000E+00
         0.30000E+00
         0.30000E+00
         0.30000E+00
         0.30000E+00
         0.30000E+00
         0.30000E+00
         0.30000E+00
         0.30000E+00
         0.30000E+00
         0.30000E+00
         0.30000E+00
         0.30000E+00
         0.30000E+00
         0.30000E+00
         0.30000E+00
         0.30000E+00
         0.30000E+00
         0.30000E+00
         0.30000E+00
         0.30000E+00
         0.30000E+00
         0.30000E+00
         0.30000E+00
         0.30000E+00
         0.30000E+00
         0.30000E+00
         0.30000E+00
         0.30000E+00
         0.30000E+00
         0.30000E+00
         0.30000E+00
         0.30000E+00
         0.30000E+00
         0.30000E+00
         0.30000E+00
         0.30000E+00
         0.30000E+00
         0.30000E+00
         0.30000E+00
         0.30000E+00
         0.30000E+00
         0.30000E+00
         0.30000E+00
         0.30000E+00
         0.30000E+00
         0.30000E+00
         0.30000E+00
         0.30000E+00
         0.30000E+00
         0.30000E+00
         0.30000E+00
         0.30000E+00
         0.30000E+00
         0.30000E+00
         0.30000E+00
         0.30000E+00
         0.30000E+00
         0.30000E+00
         0.30000E+00
         0.30000E+00
         0.30000E+00
         0.30000E+00
         0.30000E+00
         0.30000E+00
         0.30000E+00
         0.30000E+00
         0.30000E+00
         0.30000E+00
         0.30000E+00
         0.30000E+00
         0.30000E+00
         0.30000E+00
         0.30000E+00
         0.30000E+00
         0.30000E+00
         0.30000E+00
         0.30000E+00
         0.30000E+00
         0.30000E+00
         0.30000E+00
         0.30000E+00
         0.30000E+00
         0.30000E+00
         0.30000E+00
         0.30000E+00
         0.30000E+00
         0.30000E+00
         0.30000E+00
         0.30000E+00
         0.30000E+00
         0.30000E+00
         0.30000E+00
         0.30000E+00
         0.30000E+00
         0.30000E+00
         0.30000E+00
         0.30000E+00
         0.30000E+00
         0.30000E+00
         0.30000E+00
         0.30000E+00
         0.30000E+00
         0.30000E+00
         0.30000E+00
         0.30000E+00
         0.30000E+00
         0.30000E+00
         0.30000E+00
         0.30000E+00
         0.30000E+00
         0.30000E+00
         0.30000E+00
         0.30000E+00
         0.30000E+00
         0.30000E+00
         0.30000E+00
         0.30000E+00
         0.30000E+00
         0.30000E+00
         0.30000E+00
         0.30000E+00
         0.30000E+00
         0.30000E+00
         0.30000E+00
         0.30000E+00
         0.30000E+00
         0.30000E+00
         0.30000E+00
         0.30000E+00
         0.30000E+00
         0.30000E+00
         0.30000E+00
         0.30000E+00
         0.30000E+00
         0.30000E+00
         0.30000E+00
         0.30000E+00
         0.30000E+00
         0.30000E+00
         0.30000E+00
         0.30000E+00
         0.30000E+00
         0.30000E+00
         0.30000E+00
         0.30000E+00
         0.30000E+00
         0.30000E+00
         0.30000E+00
         0.30000E+00
         0.30000E+00
         0.30000E+00
         0.30000E+00
         0.30000E+00
         0.30000E+00
         0.30000E+00
         0.30000E+00
         0.30000E+00
         0.30000E+00
         0.30000E+00
         0.30000E+00
         0.30000E+00
         0.30000E+00
         0.30000E+00
         0.30000E+00
         0.30000E+00
         0.30000E+00
         0.30000E+00
         0.30000E+00
         0.30000E+00
         0.30000E+00
         0.30000E+00
         0.30000E+00
         0.30000E+00
         0.30000E+00
         0.30000E+00
         0.30000E+00
         0.30000E+00
         0.30000E+00
         0.30000E+00
         0.30000E+00
         0.30000E+00
         0.30000E+00
         0.30000E+00
         0.30000E+00
         0.30000E+00
         0.30000E+00
         0.30000E+00
         0.30000E+00
         0.30000E+00
         0.30000E+00
         0.30000E+00
         0.30000E+00
         0.30000E+00
         0.30000E+00
         0.30000E+00
         0.30000E+00
         0.30000E+00
         0.30000E+00
         0.30000E+00
         0.30000E+00
         0.30000E+00
         0.30000E+00
         0.30000E+00
         0.30000E+00
         0.30000E+00
         0.30000E+00
         0.30000E+00
         0.30000E+00
         0.30000E+00
         0.30000E+00
         0.30000E+00
         0.30000E+00
         0.30000E+00
         0.30000E+00
         0.30000E+00
         0.30000E+00
         0.30000E+00
         0.30000E+00
         0.30000E+00
         0.30000E+00
         0.30000E+00
         0.30000E+00
         0.30000E+00
         0.30000E+00
         0.30000E+00
         0.30000E+00
         0.30000E+00
         0.30000E+00
         0.30000E+00
         0.30000E+00
         0.30000E+00
         0.30000E+00
         0.30000E+00
         0.30000E+00
         0.30000E+00
         0.30000E+00
         0.30000E+00
         0.30000E+00
         0.30000E+00
         0.30000E+00
         0.30000E+00
         0.30000E+00
         0.30000E+00
         0.30000E+00
         0.30000E+00
         0.30000E+00
         0.30000E+00
         0.30000E+00
         0.30000E+00
         0.30000E+00
         0.30000E+00
         0.30000E+00
         0.30000E+00
         0.30000E+00
         0.30000E+00
         0.30000E+00
         0.30000E+00
         0.30000E+00
         0.30000E+00
         0.30000E+00
         0.30000E+00
         0.30000E+00
         0.30000E+00
         0.30000E+00
         0.30000E+00
         0.30000E+00
         0.30000E+00
         0.30000E+00
         0.30000E+00
         0.30000E+00
         0.30000E+00
         0.30000E+00
         0.30000E+00
         0.30000E+00
         0.30000E+00
         0.30000E+00
         0.30000E+00
         0.30000E+00
         0.30000E+00
         0.30000E+00
         0.30000E+00
         0.30000E+00
         0.30000E+00
         0.30000E+00
         0.30000E+00
         0.30000E+00
         0.30000E+00
         0.30000E+00
         0.30000E+00
         0.30000E+00
         0.30000E+00
         0.30000E+00
         0.30000E+00
         0.30000E+00
         0.30000E+00
         0.30000E+00
         0.30000E+00
         0.30000E+00
         0.30000E+00
         0.30000E+00
         0.30000E+00
         0.30000E+00
         0.30000E+00
         0.30000E+00
         0.30000E+00
         0.30000E+00
         0.30000E+00
         0.30000E+00
         0.30000E+00
         0.30000E+00
         0.30000E+00
         0.30000E+00
         0.30000E+00
         0.30000E+00
         0.30000E+00
         0.30000E+00
         0.30000E+00
         0.30000E+00
         0.30000E+00
         0.30000E+00
         0.30000E+00
         0.30000E+00
         0.30000E+00
         0.30000E+00
         0.30000E+00
         0.30000E+00
         0.30000E+00
         0.30000E+00
         0.30000E+00
         0.30000E+00
         0.30000E+00
         0.30000E+00
         0.30000E+00
         0.30000E+00
         0.30000E+00
         0.30000E+00
         0.30000E+00
         0.30000E+00
         0.30000E+00
         0.30000E+00
         0.30000E+00
         0.30000E+00
         0.30000E+00
         0.30000E+00
         0.30000E+00
         0.30000E+00
         0.30000E+00
         0.30000E+00
         0.30000E+00
         0.30000E+00
         0.30000E+00
         0.30000E+00
         0.30000E+00
         0.30000E+00
         0.30000E+00
         0.30000E+00
         0.30000E+00
         0.30000E+00
         0.30000E+00
         0.30000E+00
         0.30000E+00
         0.30000E+00
         0.30000E+00
         0.30000E+00
         0.30000E+00
         0.30000E+00
         0.30000E+00
         0.30000E+00
         0.30000E+00
         0.30000E+00
         0.30000E+00
         0.30000E+00
         0.30000E+00
         0.30000E+00
         0.30000E+00
         0.30000E+00
         0.30000E+00
         0.30000E+00
         0.30000E+00
         0.30000E+00
         0.30000E+00
         0.30000E+00
         0.30000E+00
         0.30000E+00
         0.30000E+00
         0.30000E+00
         0.30000E+00
         0.30000E+00
         0.30000E+00
         0.30000E+00
         0.30000E+00
         0.30000E+00
         0.30000E+00
         0.30000E+00
         0.30000E+00
         0.30000E+00
         0.30000E+00
         0.30000E+00
         0.30000E+00
         0.30000E+00
         0.30000E+00
         0.30000E+00
         0.30000E+00
         0.30000E+00
         0.30000E+00
         0.30000E+00
         0.30000E+00
         0.30000E+00
         0.30000E+00
         0.30000E+00
         0.30000E+00
         0.30000E+00
         0.30000E+00
         0.30000E+00
         0.30000E+00
         0.30000E+00
         0.30000E+00
         0.30000E+00
         0.30000E+00
         0.30000E+00
         0.30000E+00
         0.30000E+00
         0.30000E+00
         0.30000E+00
         0.30000E+00
         0.30000E+00
         0.30000E+00
         0.30000E+00
         0.30000E+00
         0.30000E+00
         0.30000E+00
         0.30000E+00
         0.30000E+00
         0.30000E+00
         0.30000E+00
         0.30000E+00
         0.30000E+00
         0.30000E+00
         0.30000E+00
         0.30000E+00
         0.30000E+00
         0.30000E+00
         0.30000E+00
         0.30000E+00
         0.30000E+00
         0.30000E+00
         0.30000E+00
         0.30000E+00
         0.30000E+00
         0.30000E+00
         0.30000E+00
         0.30000E+00
         0.30000E+00
         0.30000E+00
         0.30000E+00
         0.30000E+00
         0.30000E+00
         0.30000E+00
         0.30000E+00
         0.30000E+00
         0.30000E+00
         0.30000E+00
         0.30000E+00
         0.30000E+00
         0.30000E+00
         0.30000E+00
         0.30000E+00
         0.30000E+00
         0.30000E+00
         0.30000E+00
         0.30000E+00
         0.30000E+00
         0.30000E+00
         0.30000E+00
         0.30000E+00
         0.30000E+00
         0.30000E+00
         0.30000E+00
         0.30000E+00
         0.30000E+00
         0.30000E+00
         0.30000E+00
         0.30000E+00
         0.30000E+00
         0.30000E+00
         0.30000E+00
         0.30000E+00
         0.30000E+00
         0.30000E+00
         0.30000E+00
         0.30000E+00
         0.30000E+00
         0.30000E+00
         0.30000E+00
         0.30000E+00
         0.30000E+00
         0.30000E+00
         0.30000E+00
         0.30000E+00
         0.30000E+00
         0.30000E+00
         0.30000E+00
         0.30000E+00
         0.30000E+00
         0.30000E+00
         0.30000E+00
         0.30000E+00
         0.30000E+00
         0.30000E+00
         0.30000E+00
         0.30000E+00
         0.30000E+00
         0.30000E+00
         0.30000E+00
         0.30000E+00
         0.30000E+00
         0.30000E+00
         0.30000E+00
         0.30000E+00
         0.30000E+00
         0.30000E+00
         0.30000E+00
         0.30000E+00
         0.30000E+00
         0.30000E+00
         0.30000E+00
         0.30000E+00
         0.30000E+00
         0.30000E+00
         0.30000E+00
         0.30000E+00
         0.30000E+00
         0.30000E+00
         0.30000E+00
         0.30000E+00
         0.30000E+00
         0.30000E+00
         0.30000E+00
         0.30000E+00
         0.30000E+00
         0.30000E+00
         0.30000E+00
         0.30000E+00
         0.30000E+00
         0.30000E+00
         0.30000E+00
         0.30000E+00
         0.30000E+00
         0.30000E+00
         0.30000E+00
         0.30000E+00
         0.30000E+00
         0.30000E+00
         0.30000E+00
         0.30000E+00
         0.30000E+00
         0.30000E+00
         0.30000E+00
         0.30000E+00
         0.30000E+00
         0.30000E+00
         0.30000E+00
         0.30000E+00
         0.30000E+00
         0.30000E+00
         0.30000E+00
         0.30000E+00
         0.30000E+00
         0.30000E+00
         0.30000E+00
         0.30000E+00
         0.30000E+00
         0.30000E+00
         0.30000E+00
         0.30000E+00
         0.30000E+00
         0.30000E+00
         0.30000E+00
         0.30000E+00
         0.30000E+00
         0.30000E+00
         0.30000E+00
         0.30000E+00
         0.30000E+00
         0.30000E+00
         0.30000E+00
         0.30000E+00
         0.30000E+00
         0.30000E+00
         0.30000E+00
         0.30000E+00
         0.30000E+00
         0.30000E+00
         0.30000E+00
         0.30000E+00
         0.30000E+00
         0.30000E+00
         0.30000E+00
         0.30000E+00
         0.30000E+00
         0.30000E+00
         0.30000E+00
         0.30000E+00
         0.30000E+00
         0.30000E+00
         0.30000E+00
         0.30000E+00
         0.30000E+00
         0.30000E+00
         0.30000E+00
         0.30000E+00
         0.30000E+00
         0.30000E+00
         0.30000E+00
         0.30000E+00
         0.30000E+00
         0.30000E+00
         0.30000E+00
         0.30000E+00
         0.30000E+00
         0.30000E+00
         0.30000E+00
         0.30000E+00
         0.30000E+00
         0.30000E+00
         0.30000E+00
         0.30000E+00
         0.30000E+00
         0.30000E+00
         0.30000E+00
         0.30000E+00
         0.30000E+00
         0.30000E+00
         0.30000E+00
         0.30000E+00
         0.30000E+00
         0.30000E+00
         0.30000E+00
         0.30000E+00
         0.30000E+00
         0.30000E+00
         0.30000E+00
         0.30000E+00
         0.30000E+00
         0.30000E+00
         0.30000E+00
         0.30000E+00
         0.30000E+00
         0.30000E+00
         0.30000E+00
         0.30000E+00
         0.30000E+00
         0.30000E+00
         0.30000E+00
         0.30000E+00
         0.30000E+00
         0.30000E+00
         0.30000E+00
         0.30000E+00
         0.30000E+00
         0.30000E+00
         0.30000E+00
         0.30000E+00
         0.30000E+00
         0.30000E+00
         0.30000E+00
         0.30000E+00
         0.30000E+00
         0.30000E+00
         0.30000E+00
         0.30000E+00
         0.30000E+00
         0.30000E+00
         0.30000E+00
         0.30000E+00
         0.30000E+00
         0.30000E+00
         0.30000E+00
         0.30000E+00
         0.30000E+00
         0.30000E+00
         0.30000E+00
         0.30000E+00
         0.30000E+00
         0.30000E+00
         0.30000E+00
         0.30000E+00
         0.30000E+00
         0.30000E+00
         0.30000E+00
         0.30000E+00
         0.30000E+00
         0.30000E+00
         0.30000E+00
         0.30000E+00
         0.30000E+00
         0.30000E+00
         0.30000E+00
         0.30000E+00
         0.30000E+00
         0.30000E+00
         0.30000E+00
         0.30000E+00
         0.30000E+00
         0.30000E+00
         0.30000E+00
         0.30000E+00
         0.30000E+00
         0.30000E+00
         0.30000E+00
         0.30000E+00
         0.30000E+00
         0.30000E+00
         0.30000E+00
         0.30000E+00
         0.30000E+00
         0.30000E+00
         0.30000E+00
         0.30000E+00
         0.30000E+00
         0.30000E+00
         0.30000E+00
         0.30000E+00
         0.30000E+00
         0.30000E+00
         0.30000E+00
         0.30000E+00
         0.30000E+00
         0.30000E+00
         0.30000E+00
         0.30000E+00
         0.30000E+00
         0.30000E+00
         0.30000E+00
         0.30000E+00
         0.30000E+00
         0.30000E+00
         0.30000E+00
         0.30000E+00
         0.30000E+00
         0.30000E+00
         0.30000E+00
         0.30000E+00
         0.30000E+00
         0.30000E+00
         0.30000E+00
         0.30000E+00
         0.30000E+00
         0.30000E+00
         0.30000E+00
         0.30000E+00
         0.30000E+00
         0.30000E+00
         0.30000E+00
         0.30000E+00
         0.30000E+00
         0.30000E+00
         0.30000E+00
         0.30000E+00
         0.30000E+00
         0.30000E+00
         0.30000E+00
         0.30000E+00
         0.30000E+00
         0.30000E+00
         0.30000E+00
         0.30000E+00
         0.30000E+00
         0.30000E+00
         0.30000E+00
         0.30000E+00
         0.30000E+00
         0.30000E+00
         0.30000E+00
         0.30000E+00
         0.30000E+00
         0.30000E+00
         0.30000E+00
         0.30000E+00
         0.30000E+00
         0.30000E+00
  
SCALARS                 Youngs_modulus  double 1
LOOKUP_TABLE default
         0.78200E+11
         0.78200E+11
         0.78200E+11
         0.78200E+11
         0.78200E+11
         0.78200E+11
         0.78200E+11
         0.78200E+11
         0.78200E+11
         0.78200E+11
         0.78200E+11
         0.78200E+11
         0.78200E+11
         0.78200E+11
         0.78200E+11
         0.78200E+11
         0.78200E+11
         0.78200E+11
         0.78200E+11
         0.78200E+11
         0.78200E+11
         0.78200E+11
         0.78200E+11
         0.78200E+11
         0.78200E+11
         0.78200E+11
         0.78200E+11
         0.78200E+11
         0.78200E+11
         0.78200E+11
         0.78200E+11
         0.78200E+11
         0.78200E+11
         0.78200E+11
         0.78200E+11
         0.78200E+11
         0.78200E+11
         0.78200E+11
         0.78200E+11
         0.78200E+11
         0.78200E+11
         0.78200E+11
         0.78200E+11
         0.78200E+11
         0.78200E+11
         0.78200E+11
         0.78200E+11
         0.78200E+11
         0.78200E+11
         0.78200E+11
         0.78200E+11
         0.78200E+11
         0.78200E+11
         0.78200E+11
         0.78200E+11
         0.78200E+11
         0.78200E+11
         0.78200E+11
         0.78200E+11
         0.78200E+11
         0.78200E+11
         0.78200E+11
         0.78200E+11
         0.78200E+11
         0.78200E+11
         0.78200E+11
         0.78200E+11
         0.78200E+11
         0.78200E+11
         0.78200E+11
         0.78200E+11
         0.78200E+11
         0.78200E+11
         0.78200E+11
         0.78200E+11
         0.78200E+11
         0.78200E+11
         0.78200E+11
         0.78200E+11
         0.78200E+11
         0.78200E+11
         0.78200E+11
         0.78200E+11
         0.78200E+11
         0.78200E+11
         0.78200E+11
         0.78200E+11
         0.78200E+11
         0.78200E+11
         0.78200E+11
         0.78200E+11
         0.78200E+11
         0.78200E+11
         0.78200E+11
         0.78200E+11
         0.78200E+11
         0.78200E+11
         0.78200E+11
         0.78200E+11
         0.78200E+11
         0.78200E+11
         0.78200E+11
         0.78200E+11
         0.78200E+11
         0.78200E+11
         0.78200E+11
         0.78200E+11
         0.78200E+11
         0.78200E+11
         0.78200E+11
         0.78200E+11
         0.78200E+11
         0.78200E+11
         0.78200E+11
         0.78200E+11
         0.78200E+11
         0.78200E+11
         0.78200E+11
         0.78200E+11
         0.78200E+11
         0.78200E+11
         0.78200E+11
         0.78200E+11
         0.78200E+11
         0.78200E+11
         0.78200E+11
         0.78200E+11
         0.78200E+11
         0.78200E+11
         0.78200E+11
         0.78200E+11
         0.78200E+11
         0.78200E+11
         0.78200E+11
         0.78200E+11
         0.78200E+11
         0.78200E+11
         0.78200E+11
         0.78200E+11
         0.78200E+11
         0.78200E+11
         0.78200E+11
         0.78200E+11
         0.78200E+11
         0.78200E+11
         0.78200E+11
         0.78200E+11
         0.78200E+11
         0.78200E+11
         0.78200E+11
         0.78200E+11
         0.78200E+11
         0.78200E+11
         0.78200E+11
         0.78200E+11
         0.78200E+11
         0.78200E+11
         0.78200E+11
         0.78200E+11
         0.78200E+11
         0.78200E+11
         0.78200E+11
         0.78200E+11
         0.78200E+11
         0.78200E+11
         0.78200E+11
         0.78200E+11
         0.78200E+11
         0.78200E+11
         0.78200E+11
         0.78200E+11
         0.78200E+11
         0.78200E+11
         0.78200E+11
         0.78200E+11
         0.78200E+11
         0.78200E+11
         0.78200E+11
         0.78200E+11
         0.78200E+11
         0.78200E+11
         0.78200E+11
         0.78200E+11
         0.78200E+11
         0.78200E+11
         0.78200E+11
         0.78200E+11
         0.78200E+11
         0.78200E+11
         0.78200E+11
         0.78200E+11
         0.78200E+11
         0.78200E+11
         0.78200E+11
         0.78200E+11
         0.78200E+11
         0.78200E+11
         0.78200E+11
         0.78200E+11
         0.78200E+11
         0.78200E+11
         0.78200E+11
         0.78200E+11
         0.78200E+11
         0.78200E+11
         0.78200E+11
         0.78200E+11
         0.78200E+11
         0.78200E+11
         0.78200E+11
         0.78200E+11
         0.78200E+11
         0.78200E+11
         0.78200E+11
         0.78200E+11
         0.78200E+11
         0.78200E+11
         0.78200E+11
         0.78200E+11
         0.78200E+11
         0.78200E+11
         0.78200E+11
         0.78200E+11
         0.78200E+11
         0.78200E+11
         0.78200E+11
         0.78200E+11
         0.78200E+11
         0.78200E+11
         0.78200E+11
         0.78200E+11
         0.78200E+11
         0.78200E+11
         0.78200E+11
         0.78200E+11
         0.78200E+11
         0.78200E+11
         0.78200E+11
         0.78200E+11
         0.78200E+11
         0.78200E+11
         0.78200E+11
         0.78200E+11
         0.78200E+11
         0.78200E+11
         0.78200E+11
         0.78200E+11
         0.78200E+11
         0.78200E+11
         0.78200E+11
         0.78200E+11
         0.78200E+11
         0.78200E+11
         0.78200E+11
         0.78200E+11
         0.78200E+11
         0.78200E+11
         0.78200E+11
         0.78200E+11
         0.78200E+11
         0.78200E+11
         0.78200E+11
         0.78200E+11
         0.78200E+11
         0.78200E+11
         0.78200E+11
         0.78200E+11
         0.78200E+11
         0.78200E+11
         0.78200E+11
         0.78200E+11
         0.78200E+11
         0.78200E+11
         0.78200E+11
         0.78200E+11
         0.78200E+11
         0.78200E+11
         0.78200E+11
         0.78200E+11
         0.78200E+11
         0.78200E+11
         0.78200E+11
         0.78200E+11
         0.78200E+11
         0.78200E+11
         0.78200E+11
         0.78200E+11
         0.78200E+11
         0.78200E+11
         0.78200E+11
         0.78200E+11
         0.78200E+11
         0.78200E+11
         0.78200E+11
         0.78200E+11
         0.78200E+11
         0.78200E+11
         0.78200E+11
         0.78200E+11
         0.78200E+11
         0.78200E+11
         0.78200E+11
         0.78200E+11
         0.78200E+11
         0.78200E+11
         0.78200E+11
         0.78200E+11
         0.78200E+11
         0.78200E+11
         0.78200E+11
         0.78200E+11
         0.78200E+11
         0.78200E+11
         0.78200E+11
         0.78200E+11
         0.78200E+11
         0.78200E+11
         0.78200E+11
         0.78200E+11
         0.78200E+11
         0.78200E+11
         0.78200E+11
         0.78200E+11
         0.78200E+11
         0.78200E+11
         0.78200E+11
         0.78200E+11
         0.78200E+11
         0.78200E+11
         0.78200E+11
         0.78200E+11
         0.78200E+11
         0.78200E+11
         0.78200E+11
         0.78200E+11
         0.78200E+11
         0.78200E+11
         0.78200E+11
         0.78200E+11
         0.78200E+11
         0.78200E+11
         0.78200E+11
         0.78200E+11
         0.78200E+11
         0.78200E+11
         0.78200E+11
         0.78200E+11
         0.78200E+11
         0.78200E+11
         0.78200E+11
         0.78200E+11
         0.78200E+11
         0.78200E+11
         0.78200E+11
         0.78200E+11
         0.78200E+11
         0.78200E+11
         0.78200E+11
         0.78200E+11
         0.78200E+11
         0.78200E+11
         0.78200E+11
         0.78200E+11
         0.78200E+11
         0.78200E+11
         0.78200E+11
         0.78200E+11
         0.78200E+11
         0.78200E+11
         0.78200E+11
         0.78200E+11
         0.78200E+11
         0.78200E+11
         0.78200E+11
         0.78200E+11
         0.78200E+11
         0.78200E+11
         0.78200E+11
         0.78200E+11
         0.78200E+11
         0.78200E+11
         0.78200E+11
         0.78200E+11
         0.78200E+11
         0.78200E+11
         0.78200E+11
         0.78200E+11
         0.78200E+11
         0.78200E+11
         0.78200E+11
         0.78200E+11
         0.78200E+11
         0.78200E+11
         0.78200E+11
         0.78200E+11
         0.78200E+11
         0.78200E+11
         0.78200E+11
         0.78200E+11
         0.78200E+11
         0.78200E+11
         0.78200E+11
         0.78200E+11
         0.78200E+11
         0.78200E+11
         0.78200E+11
         0.78200E+11
         0.78200E+11
         0.78200E+11
         0.78200E+11
         0.78200E+11
         0.78200E+11
         0.78200E+11
         0.78200E+11
         0.78200E+11
         0.78200E+11
         0.78200E+11
         0.78200E+11
         0.78200E+11
         0.78200E+11
         0.78200E+11
         0.78200E+11
         0.78200E+11
         0.78200E+11
         0.78200E+11
         0.78200E+11
         0.78200E+11
         0.78200E+11
         0.78200E+11
         0.78200E+11
         0.78200E+11
         0.78200E+11
         0.78200E+11
         0.78200E+11
         0.78200E+11
         0.78200E+11
         0.78200E+11
         0.78200E+11
         0.78200E+11
         0.78200E+11
         0.78200E+11
         0.78200E+11
         0.78200E+11
         0.78200E+11
         0.78200E+11
         0.78200E+11
         0.78200E+11
         0.78200E+11
         0.78200E+11
         0.78200E+11
         0.78200E+11
         0.78200E+11
         0.78200E+11
         0.78200E+11
         0.78200E+11
         0.78200E+11
         0.78200E+11
         0.78200E+11
         0.78200E+11
         0.78200E+11
         0.78200E+11
         0.78200E+11
         0.78200E+11
         0.78200E+11
         0.78200E+11
         0.78200E+11
         0.78200E+11
         0.78200E+11
         0.78200E+11
         0.78200E+11
         0.78200E+11
         0.78200E+11
         0.78200E+11
         0.78200E+11
         0.78200E+11
         0.78200E+11
         0.78200E+11
         0.78200E+11
         0.78200E+11
         0.78200E+11
         0.78200E+11
         0.78200E+11
         0.78200E+11
         0.78200E+11
         0.78200E+11
         0.78200E+11
         0.78200E+11
         0.78200E+11
         0.78200E+11
         0.78200E+11
         0.78200E+11
         0.78200E+11
         0.78200E+11
         0.78200E+11
         0.78200E+11
         0.78200E+11
         0.78200E+11
         0.78200E+11
         0.78200E+11
         0.78200E+11
         0.78200E+11
         0.78200E+11
         0.78200E+11
         0.78200E+11
         0.78200E+11
         0.78200E+11
         0.78200E+11
         0.78200E+11
         0.78200E+11
         0.78200E+11
         0.78200E+11
         0.78200E+11
         0.78200E+11
         0.78200E+11
         0.78200E+11
         0.78200E+11
         0.78200E+11
         0.78200E+11
         0.78200E+11
         0.78200E+11
         0.78200E+11
         0.78200E+11
         0.78200E+11
         0.78200E+11
         0.78200E+11
         0.78200E+11
         0.78200E+11
         0.78200E+11
         0.78200E+11
         0.78200E+11
         0.78200E+11
         0.78200E+11
         0.78200E+11
         0.78200E+11
         0.78200E+11
         0.78200E+11
         0.78200E+11
         0.78200E+11
         0.78200E+11
         0.78200E+11
         0.78200E+11
         0.78200E+11
         0.78200E+11
         0.78200E+11
         0.78200E+11
         0.78200E+11
         0.78200E+11
         0.78200E+11
         0.78200E+11
         0.78200E+11
         0.78200E+11
         0.78200E+11
         0.78200E+11
         0.78200E+11
         0.78200E+11
         0.78200E+11
         0.78200E+11
         0.78200E+11
         0.78200E+11
         0.78200E+11
         0.78200E+11
         0.78200E+11
         0.78200E+11
         0.78200E+11
         0.78200E+11
         0.78200E+11
         0.78200E+11
         0.78200E+11
         0.78200E+11
         0.78200E+11
         0.78200E+11
         0.78200E+11
         0.78200E+11
         0.78200E+11
         0.78200E+11
         0.78200E+11
         0.78200E+11
         0.78200E+11
         0.78200E+11
         0.78200E+11
         0.78200E+11
         0.78200E+11
         0.78200E+11
         0.78200E+11
         0.78200E+11
         0.78200E+11
         0.78200E+11
         0.78200E+11
         0.78200E+11
         0.78200E+11
         0.78200E+11
         0.78200E+11
         0.78200E+11
         0.78200E+11
         0.78200E+11
         0.78200E+11
         0.78200E+11
         0.78200E+11
         0.78200E+11
         0.78200E+11
         0.78200E+11
         0.78200E+11
         0.78200E+11
         0.78200E+11
         0.78200E+11
         0.78200E+11
         0.78200E+11
         0.78200E+11
         0.78200E+11
         0.78200E+11
         0.78200E+11
         0.78200E+11
         0.78200E+11
         0.78200E+11
         0.78200E+11
         0.78200E+11
         0.78200E+11
         0.78200E+11
         0.78200E+11
         0.78200E+11
         0.78200E+11
         0.78200E+11
         0.78200E+11
         0.78200E+11
         0.78200E+11
         0.78200E+11
         0.78200E+11
         0.78200E+11
         0.78200E+11
         0.78200E+11
         0.78200E+11
         0.78200E+11
         0.78200E+11
         0.78200E+11
         0.78200E+11
         0.78200E+11
         0.78200E+11
         0.78200E+11
         0.78200E+11
         0.78200E+11
         0.78200E+11
         0.78200E+11
         0.78200E+11
         0.78200E+11
         0.78200E+11
         0.78200E+11
         0.78200E+11
         0.78200E+11
         0.78200E+11
         0.78200E+11
         0.78200E+11
         0.78200E+11
         0.78200E+11
         0.78200E+11
         0.78200E+11
         0.78200E+11
         0.78200E+11
         0.78200E+11
         0.78200E+11
         0.78200E+11
         0.78200E+11
         0.78200E+11
         0.78200E+11
         0.78200E+11
         0.78200E+11
         0.78200E+11
         0.78200E+11
         0.78200E+11
         0.78200E+11
         0.78200E+11
         0.78200E+11
         0.78200E+11
         0.78200E+11
         0.78200E+11
         0.78200E+11
         0.78200E+11
         0.78200E+11
         0.78200E+11
         0.78200E+11
         0.78200E+11
         0.78200E+11
         0.78200E+11
         0.78200E+11
         0.78200E+11
         0.78200E+11
         0.78200E+11
         0.78200E+11
         0.78200E+11
         0.78200E+11
         0.78200E+11
         0.78200E+11
         0.78200E+11
         0.78200E+11
         0.78200E+11
         0.78200E+11
         0.78200E+11
         0.78200E+11
         0.78200E+11
         0.78200E+11
         0.78200E+11
         0.78200E+11
         0.78200E+11
         0.78200E+11
         0.78200E+11
         0.78200E+11
         0.78200E+11
         0.78200E+11
         0.78200E+11
         0.78200E+11
         0.78200E+11
         0.78200E+11
         0.78200E+11
         0.78200E+11
         0.78200E+11
         0.78200E+11
         0.78200E+11
         0.78200E+11
         0.78200E+11
         0.78200E+11
         0.78200E+11
         0.78200E+11
         0.78200E+11
         0.78200E+11
         0.78200E+11
         0.78200E+11
         0.78200E+11
         0.78200E+11
         0.78200E+11
         0.78200E+11
         0.78200E+11
         0.78200E+11
         0.78200E+11
         0.78200E+11
         0.78200E+11
         0.78200E+11
         0.78200E+11
         0.78200E+11
         0.78200E+11
         0.78200E+11
         0.78200E+11
         0.78200E+11
         0.78200E+11
         0.78200E+11
         0.78200E+11
         0.78200E+11
         0.78200E+11
         0.78200E+11
         0.78200E+11
         0.78200E+11
         0.78200E+11
         0.78200E+11
         0.78200E+11
         0.78200E+11
         0.78200E+11
         0.78200E+11
         0.78200E+11
         0.78200E+11
         0.78200E+11
         0.78200E+11
         0.78200E+11
         0.78200E+11
         0.78200E+11
         0.78200E+11
         0.78200E+11
         0.78200E+11
         0.78200E+11
         0.78200E+11
         0.78200E+11
         0.78200E+11
         0.78200E+11
         0.78200E+11
         0.78200E+11
         0.78200E+11
         0.78200E+11
         0.78200E+11
         0.78200E+11
         0.78200E+11
         0.78200E+11
         0.78200E+11
         0.78200E+11
         0.78200E+11
         0.78200E+11
         0.78200E+11
         0.78200E+11
         0.78200E+11
         0.78200E+11
         0.78200E+11
         0.78200E+11
         0.78200E+11
         0.78200E+11
         0.78200E+11
         0.78200E+11
         0.78200E+11
         0.78200E+11
         0.78200E+11
         0.78200E+11
         0.78200E+11
         0.78200E+11
         0.78200E+11
         0.78200E+11
         0.78200E+11
         0.78200E+11
         0.78200E+11
         0.78200E+11
         0.78200E+11
         0.78200E+11
         0.78200E+11
         0.78200E+11
         0.78200E+11
         0.78200E+11
         0.78200E+11
         0.78200E+11
         0.78200E+11
         0.78200E+11
         0.78200E+11
         0.78200E+11
         0.78200E+11
         0.78200E+11
         0.78200E+11
         0.78200E+11
         0.78200E+11
         0.78200E+11
         0.78200E+11
         0.78200E+11
         0.78200E+11
         0.78200E+11
         0.78200E+11
         0.78200E+11
         0.78200E+11
         0.78200E+11
         0.78200E+11
         0.78200E+11
         0.78200E+11
         0.78200E+11
         0.78200E+11
         0.78200E+11
         0.78200E+11
         0.78200E+11
         0.78200E+11
         0.78200E+11
         0.78200E+11
         0.78200E+11
         0.78200E+11
         0.78200E+11
         0.78200E+11
         0.78200E+11
         0.78200E+11
         0.78200E+11
         0.78200E+11
         0.78200E+11
         0.78200E+11
         0.78200E+11
         0.78200E+11
         0.78200E+11
         0.78200E+11
         0.78200E+11
         0.78200E+11
         0.78200E+11
         0.78200E+11
         0.78200E+11
         0.78200E+11
         0.78200E+11
         0.78200E+11
         0.78200E+11
         0.78200E+11
         0.78200E+11
         0.78200E+11
         0.78200E+11
         0.78200E+11
         0.78200E+11
         0.78200E+11
         0.78200E+11
         0.78200E+11
         0.78200E+11
         0.78200E+11
         0.78200E+11
         0.78200E+11
         0.78200E+11
         0.78200E+11
         0.78200E+11
         0.78200E+11
         0.78200E+11
         0.78200E+11
         0.78200E+11
         0.78200E+11
         0.78200E+11
         0.78200E+11
         0.78200E+11
         0.78200E+11
         0.78200E+11
         0.78200E+11
         0.78200E+11
         0.78200E+11
         0.78200E+11
         0.78200E+11
         0.78200E+11
         0.78200E+11
         0.78200E+11
         0.78200E+11
         0.78200E+11
         0.78200E+11
         0.78200E+11
         0.78200E+11
         0.78200E+11
         0.78200E+11
         0.78200E+11
         0.78200E+11
         0.78200E+11
         0.78200E+11
         0.78200E+11
         0.78200E+11
         0.78200E+11
         0.78200E+11
         0.78200E+11
         0.78200E+11
         0.78200E+11
         0.78200E+11
         0.78200E+11
         0.78200E+11
         0.78200E+11
         0.78200E+11
         0.78200E+11
         0.78200E+11
         0.78200E+11
         0.78200E+11
         0.78200E+11
         0.78200E+11
         0.78200E+11
         0.78200E+11
         0.78200E+11
         0.78200E+11
         0.78200E+11
         0.78200E+11
         0.78200E+11
         0.78200E+11
         0.78200E+11
         0.78200E+11
         0.78200E+11
         0.78200E+11
         0.78200E+11
         0.78200E+11
         0.78200E+11
         0.78200E+11
         0.78200E+11
         0.78200E+11
         0.78200E+11
         0.78200E+11
         0.78200E+11
         0.78200E+11
         0.78200E+11
         0.78200E+11
         0.78200E+11
         0.78200E+11
         0.78200E+11
         0.78200E+11
         0.78200E+11
         0.78200E+11
         0.78200E+11
         0.78200E+11
         0.78200E+11
         0.78200E+11
         0.78200E+11
         0.78200E+11
         0.78200E+11
         0.78200E+11
         0.78200E+11
         0.78200E+11
         0.78200E+11
         0.78200E+11
         0.78200E+11
         0.78200E+11
         0.78200E+11
         0.78200E+11
         0.78200E+11
         0.78200E+11
         0.78200E+11
         0.78200E+11
         0.78200E+11
         0.78200E+11
         0.78200E+11
         0.78200E+11
         0.78200E+11
         0.78200E+11
         0.78200E+11
         0.78200E+11
         0.78200E+11
         0.78200E+11
         0.78200E+11
         0.78200E+11
         0.78200E+11
         0.78200E+11
         0.78200E+11
         0.78200E+11
         0.78200E+11
         0.78200E+11
         0.78200E+11
         0.78200E+11
         0.78200E+11
         0.78200E+11
         0.78200E+11
         0.78200E+11
         0.78200E+11
         0.78200E+11
         0.78200E+11
         0.78200E+11
         0.78200E+11
         0.78200E+11
         0.78200E+11
         0.78200E+11
         0.78200E+11
         0.78200E+11
         0.78200E+11
         0.78200E+11
         0.78200E+11
         0.78200E+11
         0.78200E+11
         0.78200E+11
         0.78200E+11
         0.78200E+11
         0.78200E+11
         0.78200E+11
         0.78200E+11
         0.78200E+11
         0.78200E+11
         0.78200E+11
         0.78200E+11
         0.78200E+11
         0.78200E+11
         0.78200E+11
         0.78200E+11
         0.78200E+11
         0.78200E+11
         0.78200E+11
         0.78200E+11
         0.78200E+11
         0.78200E+11
         0.78200E+11
         0.78200E+11
         0.78200E+11
         0.78200E+11
         0.78200E+11
         0.78200E+11
         0.78200E+11
         0.78200E+11
         0.78200E+11
         0.78200E+11
         0.78200E+11
         0.78200E+11
         0.78200E+11
         0.78200E+11
         0.78200E+11
         0.78200E+11
         0.78200E+11
         0.78200E+11
         0.78200E+11
         0.78200E+11
         0.78200E+11
         0.78200E+11
         0.78200E+11
         0.78200E+11
         0.78200E+11
         0.78200E+11
         0.78200E+11
         0.78200E+11
         0.78200E+11
         0.78200E+11
         0.78200E+11
         0.78200E+11
         0.78200E+11
         0.78200E+11
         0.78200E+11
         0.78200E+11
         0.78200E+11
         0.78200E+11
         0.78200E+11
         0.78200E+11
         0.78200E+11
         0.78200E+11
         0.78200E+11
         0.78200E+11
         0.78200E+11
         0.78200E+11
         0.78200E+11
         0.78200E+11
         0.78200E+11
         0.78200E+11
         0.78200E+11
         0.78200E+11
         0.78200E+11
         0.78200E+11
         0.78200E+11
         0.78200E+11
         0.78200E+11
         0.78200E+11
         0.78200E+11
         0.78200E+11
         0.78200E+11
         0.78200E+11
         0.78200E+11
         0.78200E+11
         0.78200E+11
         0.78200E+11
         0.78200E+11
         0.78200E+11
         0.78200E+11
         0.78200E+11
         0.78200E+11
         0.78200E+11
         0.78200E+11
         0.78200E+11
         0.78200E+11
         0.78200E+11
         0.78200E+11
         0.78200E+11
         0.78200E+11
         0.78200E+11
         0.78200E+11
         0.78200E+11
         0.78200E+11
         0.78200E+11
         0.78200E+11
         0.78200E+11
         0.78200E+11
         0.78200E+11
         0.78200E+11
         0.78200E+11
         0.78200E+11
         0.78200E+11
         0.78200E+11
         0.78200E+11
         0.78200E+11
         0.78200E+11
         0.78200E+11
         0.78200E+11
         0.78200E+11
         0.78200E+11
         0.78200E+11
         0.78200E+11
         0.78200E+11
         0.78200E+11
         0.78200E+11
         0.78200E+11
         0.78200E+11
         0.78200E+11
         0.78200E+11
         0.78200E+11
         0.78200E+11
         0.78200E+11
         0.78200E+11
         0.78200E+11
         0.78200E+11
         0.78200E+11
         0.78200E+11
         0.78200E+11
         0.78200E+11
         0.78200E+11
         0.78200E+11
         0.78200E+11
         0.78200E+11
         0.78200E+11
         0.78200E+11
         0.78200E+11
         0.78200E+11
         0.78200E+11
         0.78200E+11
         0.78200E+11
         0.78200E+11
         0.78200E+11
         0.78200E+11
         0.78200E+11
         0.78200E+11
         0.78200E+11
         0.78200E+11
         0.78200E+11
         0.78200E+11
         0.78200E+11
         0.78200E+11
         0.78200E+11
         0.78200E+11
         0.78200E+11
         0.78200E+11
         0.78200E+11
         0.78200E+11
         0.78200E+11
         0.78200E+11
         0.78200E+11
         0.78200E+11
         0.78200E+11
         0.78200E+11
         0.78200E+11
         0.78200E+11
         0.78200E+11
         0.78200E+11
         0.78200E+11
         0.78200E+11
         0.78200E+11
         0.78200E+11
         0.78200E+11
         0.78200E+11
         0.78200E+11
         0.78200E+11
         0.78200E+11
         0.78200E+11
         0.78200E+11
         0.78200E+11
         0.78200E+11
         0.78200E+11
         0.78200E+11
         0.78200E+11
         0.78200E+11
         0.78200E+11
         0.78200E+11
         0.78200E+11
         0.78200E+11
         0.78200E+11
         0.78200E+11
         0.78200E+11
         0.78200E+11
         0.78200E+11
         0.78200E+11
         0.78200E+11
         0.78200E+11
         0.78200E+11
         0.78200E+11
         0.78200E+11
         0.78200E+11
         0.78200E+11
         0.78200E+11
         0.78200E+11
         0.78200E+11
         0.78200E+11
         0.78200E+11
         0.78200E+11
         0.78200E+11
         0.78200E+11
         0.78200E+11
         0.78200E+11
         0.78200E+11
         0.78200E+11
         0.78200E+11
         0.78200E+11
         0.78200E+11
         0.78200E+11
         0.78200E+11
         0.78200E+11
         0.78200E+11
         0.78200E+11
         0.78200E+11
         0.78200E+11
         0.78200E+11
         0.78200E+11
         0.78200E+11
         0.78200E+11
         0.78200E+11
         0.78200E+11
         0.78200E+11
         0.78200E+11
         0.78200E+11
         0.78200E+11
         0.78200E+11
         0.78200E+11
         0.78200E+11
         0.78200E+11
         0.78200E+11
         0.78200E+11
         0.78200E+11
         0.78200E+11
         0.78200E+11
         0.78200E+11
         0.78200E+11
         0.78200E+11
         0.78200E+11
         0.78200E+11
         0.78200E+11
         0.78200E+11
         0.78200E+11
         0.78200E+11
         0.78200E+11
         0.78200E+11
         0.78200E+11
         0.78200E+11
         0.78200E+11
         0.78200E+11
         0.78200E+11
         0.78200E+11
         0.78200E+11
         0.78200E+11
         0.78200E+11
         0.78200E+11
         0.78200E+11
         0.78200E+11
         0.78200E+11
         0.78200E+11
         0.78200E+11
         0.78200E+11
         0.78200E+11
         0.78200E+11
         0.78200E+11
         0.78200E+11
         0.78200E+11
         0.78200E+11
         0.78200E+11
         0.78200E+11
         0.78200E+11
         0.78200E+11
         0.78200E+11
         0.78200E+11
         0.78200E+11
         0.78200E+11
         0.78200E+11
         0.78200E+11
         0.78200E+11
         0.78200E+11
         0.78200E+11
         0.78200E+11
         0.78200E+11
         0.78200E+11
         0.78200E+11
         0.78200E+11
         0.78200E+11
         0.78200E+11
         0.78200E+11
         0.78200E+11
         0.78200E+11
         0.78200E+11
         0.78200E+11
         0.78200E+11
         0.78200E+11
         0.78200E+11
         0.78200E+11
         0.78200E+11
         0.78200E+11
         0.78200E+11
         0.78200E+11
         0.78200E+11
         0.78200E+11
         0.78200E+11
         0.78200E+11
         0.78200E+11
         0.78200E+11
         0.78200E+11
         0.78200E+11
         0.78200E+11
         0.78200E+11
         0.78200E+11
         0.78200E+11
         0.78200E+11
         0.78200E+11
         0.78200E+11
         0.78200E+11
         0.78200E+11
         0.78200E+11
         0.78200E+11
         0.78200E+11
         0.78200E+11
         0.78200E+11
         0.78200E+11
         0.78200E+11
         0.78200E+11
         0.78200E+11
         0.78200E+11
         0.78200E+11
         0.78200E+11
         0.78200E+11
         0.78200E+11
         0.78200E+11
         0.78200E+11
         0.78200E+11
         0.78200E+11
         0.78200E+11
         0.78200E+11
         0.78200E+11
         0.78200E+11
         0.78200E+11
         0.78200E+11
         0.78200E+11
         0.78200E+11
         0.78200E+11
         0.78200E+11
         0.78200E+11
         0.78200E+11
         0.78200E+11
         0.78200E+11
         0.78200E+11
         0.78200E+11
         0.78200E+11
         0.78200E+11
         0.78200E+11
         0.78200E+11
         0.78200E+11
         0.78200E+11
         0.78200E+11
         0.78200E+11
         0.78200E+11
         0.78200E+11
         0.78200E+11
         0.78200E+11
         0.78200E+11
         0.78200E+11
         0.78200E+11
         0.78200E+11
         0.78200E+11
         0.78200E+11
         0.78200E+11
         0.78200E+11
         0.78200E+11
         0.78200E+11
         0.78200E+11
         0.78200E+11
         0.78200E+11
         0.78200E+11
         0.78200E+11
         0.78200E+11
         0.78200E+11
         0.78200E+11
         0.78200E+11
         0.78200E+11
         0.78200E+11
         0.78200E+11
         0.78200E+11
         0.78200E+11
         0.78200E+11
         0.78200E+11
         0.78200E+11
         0.78200E+11
         0.78200E+11
         0.78200E+11
         0.78200E+11
         0.78200E+11
         0.78200E+11
         0.78200E+11
         0.78200E+11
         0.78200E+11
         0.78200E+11
         0.78200E+11
         0.78200E+11
         0.78200E+11
         0.78200E+11
         0.78200E+11
         0.78200E+11
         0.78200E+11
         0.78200E+11
         0.78200E+11
         0.78200E+11
         0.78200E+11
         0.78200E+11
         0.78200E+11
         0.78200E+11
         0.78200E+11
         0.78200E+11
         0.78200E+11
         0.78200E+11
         0.78200E+11
         0.78200E+11
         0.78200E+11
         0.78200E+11
         0.78200E+11
         0.78200E+11
         0.78200E+11
         0.78200E+11
         0.78200E+11
         0.78200E+11
         0.78200E+11
         0.78200E+11
         0.78200E+11
         0.78200E+11
         0.78200E+11
         0.78200E+11
         0.78200E+11
         0.78200E+11
         0.78200E+11
         0.78200E+11
         0.78200E+11
         0.78200E+11
         0.78200E+11
         0.78200E+11
         0.78200E+11
         0.78200E+11
         0.78200E+11
         0.78200E+11
         0.78200E+11
         0.78200E+11
         0.78200E+11
         0.78200E+11
         0.78200E+11
         0.78200E+11
         0.78200E+11
         0.78200E+11
         0.78200E+11
         0.78200E+11
         0.78200E+11
         0.78200E+11
         0.78200E+11
         0.78200E+11
         0.78200E+11
         0.78200E+11
         0.78200E+11
         0.78200E+11
         0.78200E+11
         0.78200E+11
         0.78200E+11
         0.78200E+11
         0.78200E+11
         0.78200E+11
         0.78200E+11
         0.78200E+11
         0.78200E+11
         0.78200E+11
         0.78200E+11
         0.78200E+11
         0.78200E+11
         0.78200E+11
         0.78200E+11
         0.78200E+11
         0.78200E+11
         0.78200E+11
         0.78200E+11
         0.78200E+11
         0.78200E+11
         0.78200E+11
         0.78200E+11
         0.78200E+11
         0.78200E+11
         0.78200E+11
         0.78200E+11
         0.78200E+11
         0.78200E+11
         0.78200E+11
         0.78200E+11
         0.78200E+11
         0.78200E+11
         0.78200E+11
         0.78200E+11
         0.78200E+11
         0.78200E+11
         0.78200E+11
         0.78200E+11
         0.78200E+11
         0.78200E+11
         0.78200E+11
         0.78200E+11
         0.78200E+11
         0.78200E+11
         0.78200E+11
         0.78200E+11
         0.78200E+11
         0.78200E+11
         0.78200E+11
         0.78200E+11
         0.78200E+11
         0.78200E+11
         0.78200E+11
         0.78200E+11
         0.78200E+11
         0.78200E+11
         0.78200E+11
         0.78200E+11
         0.78200E+11
         0.78200E+11
         0.78200E+11
         0.78200E+11
         0.78200E+11
         0.78200E+11
         0.78200E+11
         0.78200E+11
         0.78200E+11
         0.78200E+11
         0.78200E+11
         0.78200E+11
         0.78200E+11
         0.78200E+11
         0.78200E+11
         0.78200E+11
         0.78200E+11
         0.78200E+11
         0.78200E+11
         0.78200E+11
         0.78200E+11
         0.78200E+11
         0.78200E+11
         0.78200E+11
         0.78200E+11
         0.78200E+11
         0.78200E+11
         0.78200E+11
         0.78200E+11
         0.78200E+11
         0.78200E+11
         0.78200E+11
         0.78200E+11
         0.78200E+11
         0.78200E+11
         0.78200E+11
         0.78200E+11
         0.78200E+11
         0.78200E+11
         0.78200E+11
         0.78200E+11
         0.78200E+11
         0.78200E+11
         0.78200E+11
         0.78200E+11
         0.78200E+11
         0.78200E+11
         0.78200E+11
         0.78200E+11
         0.78200E+11
         0.78200E+11
         0.78200E+11
         0.78200E+11
         0.78200E+11
         0.78200E+11
         0.78200E+11
         0.78200E+11
         0.78200E+11
         0.78200E+11
         0.78200E+11
         0.78200E+11
         0.78200E+11
         0.78200E+11
         0.78200E+11
         0.78200E+11
         0.78200E+11
         0.78200E+11
         0.78200E+11
         0.78200E+11
         0.78200E+11
         0.78200E+11
         0.78200E+11
         0.78200E+11
         0.78200E+11
         0.78200E+11
         0.78200E+11
         0.78200E+11
         0.78200E+11
         0.78200E+11
         0.78200E+11
         0.78200E+11
         0.78200E+11
         0.78200E+11
         0.78200E+11
         0.78200E+11
         0.78200E+11
         0.78200E+11
         0.78200E+11
         0.78200E+11
         0.78200E+11
         0.78200E+11
         0.78200E+11
         0.78200E+11
         0.78200E+11
         0.78200E+11
         0.78200E+11
         0.78200E+11
         0.78200E+11
         0.78200E+11
         0.78200E+11
         0.78200E+11
         0.78200E+11
         0.78200E+11
         0.78200E+11
         0.78200E+11
         0.78200E+11
         0.78200E+11
         0.78200E+11
         0.78200E+11
         0.78200E+11
         0.78200E+11
         0.78200E+11
         0.78200E+11
         0.78200E+11
         0.78200E+11
         0.78200E+11
         0.78200E+11
         0.78200E+11
         0.78200E+11
         0.78200E+11
         0.78200E+11
         0.78200E+11
         0.78200E+11
         0.78200E+11
         0.78200E+11
         0.78200E+11
         0.78200E+11
         0.78200E+11
         0.78200E+11
         0.78200E+11
         0.78200E+11
         0.78200E+11
         0.78200E+11
         0.78200E+11
         0.78200E+11
         0.78200E+11
         0.78200E+11
         0.78200E+11
         0.78200E+11
         0.78200E+11
         0.78200E+11
         0.78200E+11
         0.78200E+11
         0.78200E+11
         0.78200E+11
         0.78200E+11
         0.78200E+11
         0.78200E+11
         0.78200E+11
         0.78200E+11
         0.78200E+11
         0.78200E+11
         0.78200E+11
         0.78200E+11
         0.78200E+11
         0.78200E+11
         0.78200E+11
         0.78200E+11
         0.78200E+11
         0.78200E+11
         0.78200E+11
         0.78200E+11
         0.78200E+11
         0.78200E+11
         0.78200E+11
         0.78200E+11
         0.78200E+11
         0.78200E+11
         0.78200E+11
         0.78200E+11
         0.78200E+11
         0.78200E+11
         0.78200E+11
         0.78200E+11
         0.78200E+11
         0.78200E+11
         0.78200E+11
         0.78200E+11
         0.78200E+11
         0.78200E+11
         0.78200E+11
         0.78200E+11
         0.78200E+11
         0.78200E+11
         0.78200E+11
         0.78200E+11
         0.78200E+11
         0.78200E+11
         0.78200E+11
         0.78200E+11
         0.78200E+11
         0.78200E+11
         0.78200E+11
         0.78200E+11
         0.78200E+11
         0.78200E+11
         0.78200E+11
         0.78200E+11
         0.78200E+11
         0.78200E+11
         0.78200E+11
         0.78200E+11
         0.78200E+11
         0.78200E+11
         0.78200E+11
         0.78200E+11
         0.78200E+11
         0.78200E+11
         0.78200E+11
         0.78200E+11
         0.78200E+11
         0.78200E+11
         0.78200E+11
         0.78200E+11
         0.78200E+11
         0.78200E+11
         0.78200E+11
         0.78200E+11
         0.78200E+11
         0.78200E+11
         0.78200E+11
         0.78200E+11
         0.78200E+11
         0.78200E+11
         0.78200E+11
         0.78200E+11
         0.78200E+11
         0.78200E+11
         0.78200E+11
         0.78200E+11
         0.78200E+11
         0.78200E+11
         0.78200E+11
         0.78200E+11
         0.78200E+11
         0.78200E+11
         0.78200E+11
         0.78200E+11
         0.78200E+11
         0.78200E+11
         0.78200E+11
         0.78200E+11
         0.78200E+11
         0.78200E+11
         0.78200E+11
         0.78200E+11
         0.78200E+11
         0.78200E+11
         0.78200E+11
         0.78200E+11
         0.78200E+11
         0.78200E+11
         0.78200E+11
         0.78200E+11
         0.78200E+11
         0.78200E+11
         0.78200E+11
         0.78200E+11
         0.78200E+11
         0.78200E+11
         0.78200E+11
         0.78200E+11
         0.78200E+11
         0.78200E+11
         0.78200E+11
         0.78200E+11
         0.78200E+11
         0.78200E+11
         0.78200E+11
         0.78200E+11
         0.78200E+11
         0.78200E+11
         0.78200E+11
         0.78200E+11
         0.78200E+11
         0.78200E+11
         0.78200E+11
         0.78200E+11
         0.78200E+11
         0.78200E+11
         0.78200E+11
         0.78200E+11
         0.78200E+11
         0.78200E+11
         0.78200E+11
         0.78200E+11
         0.78200E+11
         0.78200E+11
         0.78200E+11
         0.78200E+11
         0.78200E+11
         0.78200E+11
         0.78200E+11
         0.78200E+11
         0.78200E+11
         0.78200E+11
         0.78200E+11
         0.78200E+11
         0.78200E+11
         0.78200E+11
         0.78200E+11
         0.78200E+11
         0.78200E+11
         0.78200E+11
         0.78200E+11
         0.78200E+11
         0.78200E+11
         0.78200E+11
         0.78200E+11
         0.78200E+11
         0.78200E+11
         0.78200E+11
         0.78200E+11
         0.78200E+11
         0.78200E+11
         0.78200E+11
         0.78200E+11
         0.78200E+11
         0.78200E+11
         0.78200E+11
         0.78200E+11
         0.78200E+11
         0.78200E+11
         0.78200E+11
         0.78200E+11
         0.78200E+11
         0.78200E+11
         0.78200E+11
         0.78200E+11
         0.78200E+11
         0.78200E+11
         0.78200E+11
         0.78200E+11
         0.78200E+11
         0.78200E+11
         0.78200E+11
         0.78200E+11
         0.78200E+11
         0.78200E+11
         0.78200E+11
         0.78200E+11
         0.78200E+11
         0.78200E+11
         0.78200E+11
         0.78200E+11
         0.78200E+11
         0.78200E+11
         0.78200E+11
         0.78200E+11
         0.78200E+11
         0.78200E+11
         0.78200E+11
         0.78200E+11
         0.78200E+11
         0.78200E+11
         0.78200E+11
         0.78200E+11
         0.78200E+11
         0.78200E+11
         0.78200E+11
         0.78200E+11
         0.78200E+11
         0.78200E+11
         0.78200E+11
         0.78200E+11
         0.78200E+11
         0.78200E+11
         0.78200E+11
         0.78200E+11
         0.78200E+11
         0.78200E+11
         0.78200E+11
         0.78200E+11
         0.78200E+11
         0.78200E+11
         0.78200E+11
         0.78200E+11
         0.78200E+11
         0.78200E+11
         0.78200E+11
         0.78200E+11
         0.78200E+11
         0.78200E+11
         0.78200E+11
         0.78200E+11
         0.78200E+11
         0.78200E+11
         0.78200E+11
         0.78200E+11
         0.78200E+11
         0.78200E+11
         0.78200E+11
         0.78200E+11
  
SCALARS                        density  double 1
LOOKUP_TABLE default
         0.27000E+04
         0.27000E+04
         0.27000E+04
         0.27000E+04
         0.27000E+04
         0.27000E+04
         0.27000E+04
         0.27000E+04
         0.27000E+04
         0.27000E+04
         0.27000E+04
         0.27000E+04
         0.27000E+04
         0.27000E+04
         0.27000E+04
         0.27000E+04
         0.27000E+04
         0.27000E+04
         0.27000E+04
         0.27000E+04
         0.27000E+04
         0.27000E+04
         0.27000E+04
         0.27000E+04
         0.27000E+04
         0.27000E+04
         0.27000E+04
         0.27000E+04
         0.27000E+04
         0.27000E+04
         0.27000E+04
         0.27000E+04
         0.27000E+04
         0.27000E+04
         0.27000E+04
         0.27000E+04
         0.27000E+04
         0.27000E+04
         0.27000E+04
         0.27000E+04
         0.27000E+04
         0.27000E+04
         0.27000E+04
         0.27000E+04
         0.27000E+04
         0.27000E+04
         0.27000E+04
         0.27000E+04
         0.27000E+04
         0.27000E+04
         0.27000E+04
         0.27000E+04
         0.27000E+04
         0.27000E+04
         0.27000E+04
         0.27000E+04
         0.27000E+04
         0.27000E+04
         0.27000E+04
         0.27000E+04
         0.27000E+04
         0.27000E+04
         0.27000E+04
         0.27000E+04
         0.27000E+04
         0.27000E+04
         0.27000E+04
         0.27000E+04
         0.27000E+04
         0.27000E+04
         0.27000E+04
         0.27000E+04
         0.27000E+04
         0.27000E+04
         0.27000E+04
         0.27000E+04
         0.27000E+04
         0.27000E+04
         0.27000E+04
         0.27000E+04
         0.27000E+04
         0.27000E+04
         0.27000E+04
         0.27000E+04
         0.27000E+04
         0.27000E+04
         0.27000E+04
         0.27000E+04
         0.27000E+04
         0.27000E+04
         0.27000E+04
         0.27000E+04
         0.27000E+04
         0.27000E+04
         0.27000E+04
         0.27000E+04
         0.27000E+04
         0.27000E+04
         0.27000E+04
         0.27000E+04
         0.27000E+04
         0.27000E+04
         0.27000E+04
         0.27000E+04
         0.27000E+04
         0.27000E+04
         0.27000E+04
         0.27000E+04
         0.27000E+04
         0.27000E+04
         0.27000E+04
         0.27000E+04
         0.27000E+04
         0.27000E+04
         0.27000E+04
         0.27000E+04
         0.27000E+04
         0.27000E+04
         0.27000E+04
         0.27000E+04
         0.27000E+04
         0.27000E+04
         0.27000E+04
         0.27000E+04
         0.27000E+04
         0.27000E+04
         0.27000E+04
         0.27000E+04
         0.27000E+04
         0.27000E+04
         0.27000E+04
         0.27000E+04
         0.27000E+04
         0.27000E+04
         0.27000E+04
         0.27000E+04
         0.27000E+04
         0.27000E+04
         0.27000E+04
         0.27000E+04
         0.27000E+04
         0.27000E+04
         0.27000E+04
         0.27000E+04
         0.27000E+04
         0.27000E+04
         0.27000E+04
         0.27000E+04
         0.27000E+04
         0.27000E+04
         0.27000E+04
         0.27000E+04
         0.27000E+04
         0.27000E+04
         0.27000E+04
         0.27000E+04
         0.27000E+04
         0.27000E+04
         0.27000E+04
         0.27000E+04
         0.27000E+04
         0.27000E+04
         0.27000E+04
         0.27000E+04
         0.27000E+04
         0.27000E+04
         0.27000E+04
         0.27000E+04
         0.27000E+04
         0.27000E+04
         0.27000E+04
         0.27000E+04
         0.27000E+04
         0.27000E+04
         0.27000E+04
         0.27000E+04
         0.27000E+04
         0.27000E+04
         0.27000E+04
         0.27000E+04
         0.27000E+04
         0.27000E+04
         0.27000E+04
         0.27000E+04
         0.27000E+04
         0.27000E+04
         0.27000E+04
         0.27000E+04
         0.27000E+04
         0.27000E+04
         0.27000E+04
         0.27000E+04
         0.27000E+04
         0.27000E+04
         0.27000E+04
         0.27000E+04
         0.27000E+04
         0.27000E+04
         0.27000E+04
         0.27000E+04
         0.27000E+04
         0.27000E+04
         0.27000E+04
         0.27000E+04
         0.27000E+04
         0.27000E+04
         0.27000E+04
         0.27000E+04
         0.27000E+04
         0.27000E+04
         0.27000E+04
         0.27000E+04
         0.27000E+04
         0.27000E+04
         0.27000E+04
         0.27000E+04
         0.27000E+04
         0.27000E+04
         0.27000E+04
         0.27000E+04
         0.27000E+04
         0.27000E+04
         0.27000E+04
         0.27000E+04
         0.27000E+04
         0.27000E+04
         0.27000E+04
         0.27000E+04
         0.27000E+04
         0.27000E+04
         0.27000E+04
         0.27000E+04
         0.27000E+04
         0.27000E+04
         0.27000E+04
         0.27000E+04
         0.27000E+04
         0.27000E+04
         0.27000E+04
         0.27000E+04
         0.27000E+04
         0.27000E+04
         0.27000E+04
         0.27000E+04
         0.27000E+04
         0.27000E+04
         0.27000E+04
         0.27000E+04
         0.27000E+04
         0.27000E+04
         0.27000E+04
         0.27000E+04
         0.27000E+04
         0.27000E+04
         0.27000E+04
         0.27000E+04
         0.27000E+04
         0.27000E+04
         0.27000E+04
         0.27000E+04
         0.27000E+04
         0.27000E+04
         0.27000E+04
         0.27000E+04
         0.27000E+04
         0.27000E+04
         0.27000E+04
         0.27000E+04
         0.27000E+04
         0.27000E+04
         0.27000E+04
         0.27000E+04
         0.27000E+04
         0.27000E+04
         0.27000E+04
         0.27000E+04
         0.27000E+04
         0.27000E+04
         0.27000E+04
         0.27000E+04
         0.27000E+04
         0.27000E+04
         0.27000E+04
         0.27000E+04
         0.27000E+04
         0.27000E+04
         0.27000E+04
         0.27000E+04
         0.27000E+04
         0.27000E+04
         0.27000E+04
         0.27000E+04
         0.27000E+04
         0.27000E+04
         0.27000E+04
         0.27000E+04
         0.27000E+04
         0.27000E+04
         0.27000E+04
         0.27000E+04
         0.27000E+04
         0.27000E+04
         0.27000E+04
         0.27000E+04
         0.27000E+04
         0.27000E+04
         0.27000E+04
         0.27000E+04
         0.27000E+04
         0.27000E+04
         0.27000E+04
         0.27000E+04
         0.27000E+04
         0.27000E+04
         0.27000E+04
         0.27000E+04
         0.27000E+04
         0.27000E+04
         0.27000E+04
         0.27000E+04
         0.27000E+04
         0.27000E+04
         0.27000E+04
         0.27000E+04
         0.27000E+04
         0.27000E+04
         0.27000E+04
         0.27000E+04
         0.27000E+04
         0.27000E+04
         0.27000E+04
         0.27000E+04
         0.27000E+04
         0.27000E+04
         0.27000E+04
         0.27000E+04
         0.27000E+04
         0.27000E+04
         0.27000E+04
         0.27000E+04
         0.27000E+04
         0.27000E+04
         0.27000E+04
         0.27000E+04
         0.27000E+04
         0.27000E+04
         0.27000E+04
         0.27000E+04
         0.27000E+04
         0.27000E+04
         0.27000E+04
         0.27000E+04
         0.27000E+04
         0.27000E+04
         0.27000E+04
         0.27000E+04
         0.27000E+04
         0.27000E+04
         0.27000E+04
         0.27000E+04
         0.27000E+04
         0.27000E+04
         0.27000E+04
         0.27000E+04
         0.27000E+04
         0.27000E+04
         0.27000E+04
         0.27000E+04
         0.27000E+04
         0.27000E+04
         0.27000E+04
         0.27000E+04
         0.27000E+04
         0.27000E+04
         0.27000E+04
         0.27000E+04
         0.27000E+04
         0.27000E+04
         0.27000E+04
         0.27000E+04
         0.27000E+04
         0.27000E+04
         0.27000E+04
         0.27000E+04
         0.27000E+04
         0.27000E+04
         0.27000E+04
         0.27000E+04
         0.27000E+04
         0.27000E+04
         0.27000E+04
         0.27000E+04
         0.27000E+04
         0.27000E+04
         0.27000E+04
         0.27000E+04
         0.27000E+04
         0.27000E+04
         0.27000E+04
         0.27000E+04
         0.27000E+04
         0.27000E+04
         0.27000E+04
         0.27000E+04
         0.27000E+04
         0.27000E+04
         0.27000E+04
         0.27000E+04
         0.27000E+04
         0.27000E+04
         0.27000E+04
         0.27000E+04
         0.27000E+04
         0.27000E+04
         0.27000E+04
         0.27000E+04
         0.27000E+04
         0.27000E+04
         0.27000E+04
         0.27000E+04
         0.27000E+04
         0.27000E+04
         0.27000E+04
         0.27000E+04
         0.27000E+04
         0.27000E+04
         0.27000E+04
         0.27000E+04
         0.27000E+04
         0.27000E+04
         0.27000E+04
         0.27000E+04
         0.27000E+04
         0.27000E+04
         0.27000E+04
         0.27000E+04
         0.27000E+04
         0.27000E+04
         0.27000E+04
         0.27000E+04
         0.27000E+04
         0.27000E+04
         0.27000E+04
         0.27000E+04
         0.27000E+04
         0.27000E+04
         0.27000E+04
         0.27000E+04
         0.27000E+04
         0.27000E+04
         0.27000E+04
         0.27000E+04
         0.27000E+04
         0.27000E+04
         0.27000E+04
         0.27000E+04
         0.27000E+04
         0.27000E+04
         0.27000E+04
         0.27000E+04
         0.27000E+04
         0.27000E+04
         0.27000E+04
         0.27000E+04
         0.27000E+04
         0.27000E+04
         0.27000E+04
         0.27000E+04
         0.27000E+04
         0.27000E+04
         0.27000E+04
         0.27000E+04
         0.27000E+04
         0.27000E+04
         0.27000E+04
         0.27000E+04
         0.27000E+04
         0.27000E+04
         0.27000E+04
         0.27000E+04
         0.27000E+04
         0.27000E+04
         0.27000E+04
         0.27000E+04
         0.27000E+04
         0.27000E+04
         0.27000E+04
         0.27000E+04
         0.27000E+04
         0.27000E+04
         0.27000E+04
         0.27000E+04
         0.27000E+04
         0.27000E+04
         0.27000E+04
         0.27000E+04
         0.27000E+04
         0.27000E+04
         0.27000E+04
         0.27000E+04
         0.27000E+04
         0.27000E+04
         0.27000E+04
         0.27000E+04
         0.27000E+04
         0.27000E+04
         0.27000E+04
         0.27000E+04
         0.27000E+04
         0.27000E+04
         0.27000E+04
         0.27000E+04
         0.27000E+04
         0.27000E+04
         0.27000E+04
         0.27000E+04
         0.27000E+04
         0.27000E+04
         0.27000E+04
         0.27000E+04
         0.27000E+04
         0.27000E+04
         0.27000E+04
         0.27000E+04
         0.27000E+04
         0.27000E+04
         0.27000E+04
         0.27000E+04
         0.27000E+04
         0.27000E+04
         0.27000E+04
         0.27000E+04
         0.27000E+04
         0.27000E+04
         0.27000E+04
         0.27000E+04
         0.27000E+04
         0.27000E+04
         0.27000E+04
         0.27000E+04
         0.27000E+04
         0.27000E+04
         0.27000E+04
         0.27000E+04
         0.27000E+04
         0.27000E+04
         0.27000E+04
         0.27000E+04
         0.27000E+04
         0.27000E+04
         0.27000E+04
         0.27000E+04
         0.27000E+04
         0.27000E+04
         0.27000E+04
         0.27000E+04
         0.27000E+04
         0.27000E+04
         0.27000E+04
         0.27000E+04
         0.27000E+04
         0.27000E+04
         0.27000E+04
         0.27000E+04
         0.27000E+04
         0.27000E+04
         0.27000E+04
         0.27000E+04
         0.27000E+04
         0.27000E+04
         0.27000E+04
         0.27000E+04
         0.27000E+04
         0.27000E+04
         0.27000E+04
         0.27000E+04
         0.27000E+04
         0.27000E+04
         0.27000E+04
         0.27000E+04
         0.27000E+04
         0.27000E+04
         0.27000E+04
         0.27000E+04
         0.27000E+04
         0.27000E+04
         0.27000E+04
         0.27000E+04
         0.27000E+04
         0.27000E+04
         0.27000E+04
         0.27000E+04
         0.27000E+04
         0.27000E+04
         0.27000E+04
         0.27000E+04
         0.27000E+04
         0.27000E+04
         0.27000E+04
         0.27000E+04
         0.27000E+04
         0.27000E+04
         0.27000E+04
         0.27000E+04
         0.27000E+04
         0.27000E+04
         0.27000E+04
         0.27000E+04
         0.27000E+04
         0.27000E+04
         0.27000E+04
         0.27000E+04
         0.27000E+04
         0.27000E+04
         0.27000E+04
         0.27000E+04
         0.27000E+04
         0.27000E+04
         0.27000E+04
         0.27000E+04
         0.27000E+04
         0.27000E+04
         0.27000E+04
         0.27000E+04
         0.27000E+04
         0.27000E+04
         0.27000E+04
         0.27000E+04
         0.27000E+04
         0.27000E+04
         0.27000E+04
         0.27000E+04
         0.27000E+04
         0.27000E+04
         0.27000E+04
         0.27000E+04
         0.27000E+04
         0.27000E+04
         0.27000E+04
         0.27000E+04
         0.27000E+04
         0.27000E+04
         0.27000E+04
         0.27000E+04
         0.27000E+04
         0.27000E+04
         0.27000E+04
         0.27000E+04
         0.27000E+04
         0.27000E+04
         0.27000E+04
         0.27000E+04
         0.27000E+04
         0.27000E+04
         0.27000E+04
         0.27000E+04
         0.27000E+04
         0.27000E+04
         0.27000E+04
         0.27000E+04
         0.27000E+04
         0.27000E+04
         0.27000E+04
         0.27000E+04
         0.27000E+04
         0.27000E+04
         0.27000E+04
         0.27000E+04
         0.27000E+04
         0.27000E+04
         0.27000E+04
         0.27000E+04
         0.27000E+04
         0.27000E+04
         0.27000E+04
         0.27000E+04
         0.27000E+04
         0.27000E+04
         0.27000E+04
         0.27000E+04
         0.27000E+04
         0.27000E+04
         0.27000E+04
         0.27000E+04
         0.27000E+04
         0.27000E+04
         0.27000E+04
         0.27000E+04
         0.27000E+04
         0.27000E+04
         0.27000E+04
         0.27000E+04
         0.27000E+04
         0.27000E+04
         0.27000E+04
         0.27000E+04
         0.27000E+04
         0.27000E+04
         0.27000E+04
         0.27000E+04
         0.27000E+04
         0.27000E+04
         0.27000E+04
         0.27000E+04
         0.27000E+04
         0.27000E+04
         0.27000E+04
         0.27000E+04
         0.27000E+04
         0.27000E+04
         0.27000E+04
         0.27000E+04
         0.27000E+04
         0.27000E+04
         0.27000E+04
         0.27000E+04
         0.27000E+04
         0.27000E+04
         0.27000E+04
         0.27000E+04
         0.27000E+04
         0.27000E+04
         0.27000E+04
         0.27000E+04
         0.27000E+04
         0.27000E+04
         0.27000E+04
         0.27000E+04
         0.27000E+04
         0.27000E+04
         0.27000E+04
         0.27000E+04
         0.27000E+04
         0.27000E+04
         0.27000E+04
         0.27000E+04
         0.27000E+04
         0.27000E+04
         0.27000E+04
         0.27000E+04
         0.27000E+04
         0.27000E+04
         0.27000E+04
         0.27000E+04
         0.27000E+04
         0.27000E+04
         0.27000E+04
         0.27000E+04
         0.27000E+04
         0.27000E+04
         0.27000E+04
         0.27000E+04
         0.27000E+04
         0.27000E+04
         0.27000E+04
         0.27000E+04
         0.27000E+04
         0.27000E+04
         0.27000E+04
         0.27000E+04
         0.27000E+04
         0.27000E+04
         0.27000E+04
         0.27000E+04
         0.27000E+04
         0.27000E+04
         0.27000E+04
         0.27000E+04
         0.27000E+04
         0.27000E+04
         0.27000E+04
         0.27000E+04
         0.27000E+04
         0.27000E+04
         0.27000E+04
         0.27000E+04
         0.27000E+04
         0.27000E+04
         0.27000E+04
         0.27000E+04
         0.27000E+04
         0.27000E+04
         0.27000E+04
         0.27000E+04
         0.27000E+04
         0.27000E+04
         0.27000E+04
         0.27000E+04
         0.27000E+04
         0.27000E+04
         0.27000E+04
         0.27000E+04
         0.27000E+04
         0.27000E+04
         0.27000E+04
         0.27000E+04
         0.27000E+04
         0.27000E+04
         0.27000E+04
         0.27000E+04
         0.27000E+04
         0.27000E+04
         0.27000E+04
         0.27000E+04
         0.27000E+04
         0.27000E+04
         0.27000E+04
         0.27000E+04
         0.27000E+04
         0.27000E+04
         0.27000E+04
         0.27000E+04
         0.27000E+04
         0.27000E+04
         0.27000E+04
         0.27000E+04
         0.27000E+04
         0.27000E+04
         0.27000E+04
         0.27000E+04
         0.27000E+04
         0.27000E+04
         0.27000E+04
         0.27000E+04
         0.27000E+04
         0.27000E+04
         0.27000E+04
         0.27000E+04
         0.27000E+04
         0.27000E+04
         0.27000E+04
         0.27000E+04
         0.27000E+04
         0.27000E+04
         0.27000E+04
         0.27000E+04
         0.27000E+04
         0.27000E+04
         0.27000E+04
         0.27000E+04
         0.27000E+04
         0.27000E+04
         0.27000E+04
         0.27000E+04
         0.27000E+04
         0.27000E+04
         0.27000E+04
         0.27000E+04
         0.27000E+04
         0.27000E+04
         0.27000E+04
         0.27000E+04
         0.27000E+04
         0.27000E+04
         0.27000E+04
         0.27000E+04
         0.27000E+04
         0.27000E+04
         0.27000E+04
         0.27000E+04
         0.27000E+04
         0.27000E+04
         0.27000E+04
         0.27000E+04
         0.27000E+04
         0.27000E+04
         0.27000E+04
         0.27000E+04
         0.27000E+04
         0.27000E+04
         0.27000E+04
         0.27000E+04
         0.27000E+04
         0.27000E+04
         0.27000E+04
         0.27000E+04
         0.27000E+04
         0.27000E+04
         0.27000E+04
         0.27000E+04
         0.27000E+04
         0.27000E+04
         0.27000E+04
         0.27000E+04
         0.27000E+04
         0.27000E+04
         0.27000E+04
         0.27000E+04
         0.27000E+04
         0.27000E+04
         0.27000E+04
         0.27000E+04
         0.27000E+04
         0.27000E+04
         0.27000E+04
         0.27000E+04
         0.27000E+04
         0.27000E+04
         0.27000E+04
         0.27000E+04
         0.27000E+04
         0.27000E+04
         0.27000E+04
         0.27000E+04
         0.27000E+04
         0.27000E+04
         0.27000E+04
         0.27000E+04
         0.27000E+04
         0.27000E+04
         0.27000E+04
         0.27000E+04
         0.27000E+04
         0.27000E+04
         0.27000E+04
         0.27000E+04
         0.27000E+04
         0.27000E+04
         0.27000E+04
         0.27000E+04
         0.27000E+04
         0.27000E+04
         0.27000E+04
         0.27000E+04
         0.27000E+04
         0.27000E+04
         0.27000E+04
         0.27000E+04
         0.27000E+04
         0.27000E+04
         0.27000E+04
         0.27000E+04
         0.27000E+04
         0.27000E+04
         0.27000E+04
         0.27000E+04
         0.27000E+04
         0.27000E+04
         0.27000E+04
         0.27000E+04
         0.27000E+04
         0.27000E+04
         0.27000E+04
         0.27000E+04
         0.27000E+04
         0.27000E+04
         0.27000E+04
         0.27000E+04
         0.27000E+04
         0.27000E+04
         0.27000E+04
         0.27000E+04
         0.27000E+04
         0.27000E+04
         0.27000E+04
         0.27000E+04
         0.27000E+04
         0.27000E+04
         0.27000E+04
         0.27000E+04
         0.27000E+04
         0.27000E+04
         0.27000E+04
         0.27000E+04
         0.27000E+04
         0.27000E+04
         0.27000E+04
         0.27000E+04
         0.27000E+04
         0.27000E+04
         0.27000E+04
         0.27000E+04
         0.27000E+04
         0.27000E+04
         0.27000E+04
         0.27000E+04
         0.27000E+04
         0.27000E+04
         0.27000E+04
         0.27000E+04
         0.27000E+04
         0.27000E+04
         0.27000E+04
         0.27000E+04
         0.27000E+04
         0.27000E+04
         0.27000E+04
         0.27000E+04
         0.27000E+04
         0.27000E+04
         0.27000E+04
         0.27000E+04
         0.27000E+04
         0.27000E+04
         0.27000E+04
         0.27000E+04
         0.27000E+04
         0.27000E+04
         0.27000E+04
         0.27000E+04
         0.27000E+04
         0.27000E+04
         0.27000E+04
         0.27000E+04
         0.27000E+04
         0.27000E+04
         0.27000E+04
         0.27000E+04
         0.27000E+04
         0.27000E+04
         0.27000E+04
         0.27000E+04
         0.27000E+04
         0.27000E+04
         0.27000E+04
         0.27000E+04
         0.27000E+04
         0.27000E+04
         0.27000E+04
         0.27000E+04
         0.27000E+04
         0.27000E+04
         0.27000E+04
         0.27000E+04
         0.27000E+04
         0.27000E+04
         0.27000E+04
         0.27000E+04
         0.27000E+04
         0.27000E+04
         0.27000E+04
         0.27000E+04
         0.27000E+04
         0.27000E+04
         0.27000E+04
         0.27000E+04
         0.27000E+04
         0.27000E+04
         0.27000E+04
         0.27000E+04
         0.27000E+04
         0.27000E+04
         0.27000E+04
         0.27000E+04
         0.27000E+04
         0.27000E+04
         0.27000E+04
         0.27000E+04
         0.27000E+04
         0.27000E+04
         0.27000E+04
         0.27000E+04
         0.27000E+04
         0.27000E+04
         0.27000E+04
         0.27000E+04
         0.27000E+04
         0.27000E+04
         0.27000E+04
         0.27000E+04
         0.27000E+04
         0.27000E+04
         0.27000E+04
         0.27000E+04
         0.27000E+04
         0.27000E+04
         0.27000E+04
         0.27000E+04
         0.27000E+04
         0.27000E+04
         0.27000E+04
         0.27000E+04
         0.27000E+04
         0.27000E+04
         0.27000E+04
         0.27000E+04
         0.27000E+04
         0.27000E+04
         0.27000E+04
         0.27000E+04
         0.27000E+04
         0.27000E+04
         0.27000E+04
         0.27000E+04
         0.27000E+04
         0.27000E+04
         0.27000E+04
         0.27000E+04
         0.27000E+04
         0.27000E+04
         0.27000E+04
         0.27000E+04
         0.27000E+04
         0.27000E+04
         0.27000E+04
         0.27000E+04
         0.27000E+04
         0.27000E+04
         0.27000E+04
         0.27000E+04
         0.27000E+04
         0.27000E+04
         0.27000E+04
         0.27000E+04
         0.27000E+04
         0.27000E+04
         0.27000E+04
         0.27000E+04
         0.27000E+04
         0.27000E+04
         0.27000E+04
         0.27000E+04
         0.27000E+04
         0.27000E+04
         0.27000E+04
         0.27000E+04
         0.27000E+04
         0.27000E+04
         0.27000E+04
         0.27000E+04
         0.27000E+04
         0.27000E+04
         0.27000E+04
         0.27000E+04
         0.27000E+04
         0.27000E+04
         0.27000E+04
         0.27000E+04
         0.27000E+04
         0.27000E+04
         0.27000E+04
         0.27000E+04
         0.27000E+04
         0.27000E+04
         0.27000E+04
         0.27000E+04
         0.27000E+04
         0.27000E+04
         0.27000E+04
         0.27000E+04
         0.27000E+04
         0.27000E+04
         0.27000E+04
         0.27000E+04
         0.27000E+04
         0.27000E+04
         0.27000E+04
         0.27000E+04
         0.27000E+04
         0.27000E+04
         0.27000E+04
         0.27000E+04
         0.27000E+04
         0.27000E+04
         0.27000E+04
         0.27000E+04
         0.27000E+04
         0.27000E+04
         0.27000E+04
         0.27000E+04
         0.27000E+04
         0.27000E+04
         0.27000E+04
         0.27000E+04
         0.27000E+04
         0.27000E+04
         0.27000E+04
         0.27000E+04
         0.27000E+04
         0.27000E+04
         0.27000E+04
         0.27000E+04
         0.27000E+04
         0.27000E+04
         0.27000E+04
         0.27000E+04
         0.27000E+04
         0.27000E+04
         0.27000E+04
         0.27000E+04
         0.27000E+04
         0.27000E+04
         0.27000E+04
         0.27000E+04
         0.27000E+04
         0.27000E+04
         0.27000E+04
         0.27000E+04
         0.27000E+04
         0.27000E+04
         0.27000E+04
         0.27000E+04
         0.27000E+04
         0.27000E+04
         0.27000E+04
         0.27000E+04
         0.27000E+04
         0.27000E+04
         0.27000E+04
         0.27000E+04
         0.27000E+04
         0.27000E+04
         0.27000E+04
         0.27000E+04
         0.27000E+04
         0.27000E+04
         0.27000E+04
         0.27000E+04
         0.27000E+04
         0.27000E+04
         0.27000E+04
         0.27000E+04
         0.27000E+04
         0.27000E+04
         0.27000E+04
         0.27000E+04
         0.27000E+04
         0.27000E+04
         0.27000E+04
         0.27000E+04
         0.27000E+04
         0.27000E+04
         0.27000E+04
         0.27000E+04
         0.27000E+04
         0.27000E+04
         0.27000E+04
         0.27000E+04
         0.27000E+04
         0.27000E+04
         0.27000E+04
         0.27000E+04
         0.27000E+04
         0.27000E+04
         0.27000E+04
         0.27000E+04
         0.27000E+04
         0.27000E+04
         0.27000E+04
         0.27000E+04
         0.27000E+04
         0.27000E+04
         0.27000E+04
         0.27000E+04
         0.27000E+04
         0.27000E+04
         0.27000E+04
         0.27000E+04
         0.27000E+04
         0.27000E+04
         0.27000E+04
         0.27000E+04
         0.27000E+04
         0.27000E+04
         0.27000E+04
         0.27000E+04
         0.27000E+04
         0.27000E+04
         0.27000E+04
         0.27000E+04
         0.27000E+04
         0.27000E+04
         0.27000E+04
         0.27000E+04
         0.27000E+04
         0.27000E+04
         0.27000E+04
         0.27000E+04
         0.27000E+04
         0.27000E+04
         0.27000E+04
         0.27000E+04
         0.27000E+04
         0.27000E+04
         0.27000E+04
         0.27000E+04
         0.27000E+04
         0.27000E+04
         0.27000E+04
         0.27000E+04
         0.27000E+04
         0.27000E+04
         0.27000E+04
         0.27000E+04
         0.27000E+04
         0.27000E+04
         0.27000E+04
         0.27000E+04
         0.27000E+04
         0.27000E+04
         0.27000E+04
         0.27000E+04
         0.27000E+04
         0.27000E+04
         0.27000E+04
         0.27000E+04
         0.27000E+04
         0.27000E+04
         0.27000E+04
         0.27000E+04
         0.27000E+04
         0.27000E+04
         0.27000E+04
         0.27000E+04
         0.27000E+04
         0.27000E+04
         0.27000E+04
         0.27000E+04
         0.27000E+04
         0.27000E+04
         0.27000E+04
         0.27000E+04
         0.27000E+04
         0.27000E+04
         0.27000E+04
         0.27000E+04
         0.27000E+04
         0.27000E+04
         0.27000E+04
         0.27000E+04
         0.27000E+04
         0.27000E+04
         0.27000E+04
         0.27000E+04
         0.27000E+04
         0.27000E+04
         0.27000E+04
         0.27000E+04
         0.27000E+04
         0.27000E+04
         0.27000E+04
         0.27000E+04
         0.27000E+04
         0.27000E+04
         0.27000E+04
         0.27000E+04
         0.27000E+04
         0.27000E+04
         0.27000E+04
         0.27000E+04
         0.27000E+04
         0.27000E+04
         0.27000E+04
         0.27000E+04
         0.27000E+04
         0.27000E+04
         0.27000E+04
         0.27000E+04
         0.27000E+04
         0.27000E+04
         0.27000E+04
         0.27000E+04
         0.27000E+04
         0.27000E+04
         0.27000E+04
         0.27000E+04
         0.27000E+04
         0.27000E+04
         0.27000E+04
         0.27000E+04
         0.27000E+04
         0.27000E+04
         0.27000E+04
         0.27000E+04
         0.27000E+04
         0.27000E+04
         0.27000E+04
         0.27000E+04
         0.27000E+04
         0.27000E+04
         0.27000E+04
         0.27000E+04
         0.27000E+04
         0.27000E+04
         0.27000E+04
         0.27000E+04
         0.27000E+04
         0.27000E+04
         0.27000E+04
         0.27000E+04
         0.27000E+04
         0.27000E+04
         0.27000E+04
         0.27000E+04
         0.27000E+04
         0.27000E+04
         0.27000E+04
         0.27000E+04
         0.27000E+04
         0.27000E+04
         0.27000E+04
         0.27000E+04
         0.27000E+04
         0.27000E+04
         0.27000E+04
         0.27000E+04
         0.27000E+04
         0.27000E+04
         0.27000E+04
         0.27000E+04
         0.27000E+04
         0.27000E+04
         0.27000E+04
         0.27000E+04
         0.27000E+04
         0.27000E+04
         0.27000E+04
         0.27000E+04
         0.27000E+04
         0.27000E+04
         0.27000E+04
         0.27000E+04
         0.27000E+04
         0.27000E+04
         0.27000E+04
         0.27000E+04
         0.27000E+04
         0.27000E+04
         0.27000E+04
         0.27000E+04
         0.27000E+04
         0.27000E+04
         0.27000E+04
         0.27000E+04
         0.27000E+04
         0.27000E+04
         0.27000E+04
         0.27000E+04
         0.27000E+04
         0.27000E+04
         0.27000E+04
         0.27000E+04
         0.27000E+04
         0.27000E+04
         0.27000E+04
         0.27000E+04
         0.27000E+04
         0.27000E+04
         0.27000E+04
         0.27000E+04
         0.27000E+04
         0.27000E+04
         0.27000E+04
         0.27000E+04
         0.27000E+04
         0.27000E+04
         0.27000E+04
         0.27000E+04
         0.27000E+04
         0.27000E+04
         0.27000E+04
         0.27000E+04
         0.27000E+04
         0.27000E+04
         0.27000E+04
         0.27000E+04
         0.27000E+04
         0.27000E+04
         0.27000E+04
         0.27000E+04
         0.27000E+04
         0.27000E+04
         0.27000E+04
         0.27000E+04
         0.27000E+04
         0.27000E+04
         0.27000E+04
         0.27000E+04
         0.27000E+04
         0.27000E+04
         0.27000E+04
         0.27000E+04
         0.27000E+04
         0.27000E+04
         0.27000E+04
         0.27000E+04
         0.27000E+04
         0.27000E+04
         0.27000E+04
         0.27000E+04
         0.27000E+04
         0.27000E+04
         0.27000E+04
         0.27000E+04
         0.27000E+04
         0.27000E+04
         0.27000E+04
         0.27000E+04
         0.27000E+04
         0.27000E+04
         0.27000E+04
         0.27000E+04
         0.27000E+04
         0.27000E+04
         0.27000E+04
         0.27000E+04
         0.27000E+04
         0.27000E+04
         0.27000E+04
         0.27000E+04
         0.27000E+04
         0.27000E+04
         0.27000E+04
         0.27000E+04
         0.27000E+04
         0.27000E+04
         0.27000E+04
         0.27000E+04
         0.27000E+04
         0.27000E+04
         0.27000E+04
         0.27000E+04
         0.27000E+04
         0.27000E+04
         0.27000E+04
         0.27000E+04
         0.27000E+04
         0.27000E+04
         0.27000E+04
         0.27000E+04
         0.27000E+04
         0.27000E+04
         0.27000E+04
         0.27000E+04
         0.27000E+04
         0.27000E+04
         0.27000E+04
         0.27000E+04
         0.27000E+04
         0.27000E+04
         0.27000E+04
         0.27000E+04
         0.27000E+04
         0.27000E+04
         0.27000E+04
         0.27000E+04
         0.27000E+04
         0.27000E+04
         0.27000E+04
         0.27000E+04
         0.27000E+04
         0.27000E+04
         0.27000E+04
         0.27000E+04
         0.27000E+04
         0.27000E+04
         0.27000E+04
         0.27000E+04
         0.27000E+04
         0.27000E+04
         0.27000E+04
         0.27000E+04
         0.27000E+04
         0.27000E+04
         0.27000E+04
         0.27000E+04
         0.27000E+04
         0.27000E+04
         0.27000E+04
         0.27000E+04
         0.27000E+04
         0.27000E+04
         0.27000E+04
         0.27000E+04
         0.27000E+04
         0.27000E+04
         0.27000E+04
         0.27000E+04
         0.27000E+04
         0.27000E+04
         0.27000E+04
         0.27000E+04
         0.27000E+04
         0.27000E+04
         0.27000E+04
         0.27000E+04
         0.27000E+04
         0.27000E+04
         0.27000E+04
         0.27000E+04
         0.27000E+04
         0.27000E+04
         0.27000E+04
         0.27000E+04
         0.27000E+04
         0.27000E+04
         0.27000E+04
         0.27000E+04
         0.27000E+04
         0.27000E+04
         0.27000E+04
         0.27000E+04
         0.27000E+04
         0.27000E+04
         0.27000E+04
         0.27000E+04
         0.27000E+04
         0.27000E+04
         0.27000E+04
         0.27000E+04
         0.27000E+04
         0.27000E+04
         0.27000E+04
         0.27000E+04
         0.27000E+04
         0.27000E+04
         0.27000E+04
         0.27000E+04
         0.27000E+04
         0.27000E+04
         0.27000E+04
         0.27000E+04
         0.27000E+04
         0.27000E+04
         0.27000E+04
         0.27000E+04
         0.27000E+04
         0.27000E+04
         0.27000E+04
         0.27000E+04
         0.27000E+04
         0.27000E+04
         0.27000E+04
         0.27000E+04
         0.27000E+04
         0.27000E+04
         0.27000E+04
         0.27000E+04
         0.27000E+04
         0.27000E+04
         0.27000E+04
         0.27000E+04
         0.27000E+04
         0.27000E+04
         0.27000E+04
         0.27000E+04
         0.27000E+04
         0.27000E+04
         0.27000E+04
         0.27000E+04
         0.27000E+04
         0.27000E+04
         0.27000E+04
         0.27000E+04
         0.27000E+04
         0.27000E+04
         0.27000E+04
         0.27000E+04
         0.27000E+04
         0.27000E+04
         0.27000E+04
         0.27000E+04
         0.27000E+04
         0.27000E+04
         0.27000E+04
         0.27000E+04
         0.27000E+04
         0.27000E+04
         0.27000E+04
         0.27000E+04
         0.27000E+04
         0.27000E+04
         0.27000E+04
         0.27000E+04
         0.27000E+04
         0.27000E+04
         0.27000E+04
         0.27000E+04
         0.27000E+04
         0.27000E+04
         0.27000E+04
         0.27000E+04
         0.27000E+04
         0.27000E+04
         0.27000E+04
         0.27000E+04
         0.27000E+04
         0.27000E+04
         0.27000E+04
         0.27000E+04
         0.27000E+04
         0.27000E+04
         0.27000E+04
         0.27000E+04
         0.27000E+04
         0.27000E+04
         0.27000E+04
         0.27000E+04
         0.27000E+04
         0.27000E+04
         0.27000E+04
         0.27000E+04
         0.27000E+04
         0.27000E+04
         0.27000E+04
         0.27000E+04
         0.27000E+04
         0.27000E+04
         0.27000E+04
         0.27000E+04
         0.27000E+04
         0.27000E+04
         0.27000E+04
         0.27000E+04
         0.27000E+04
         0.27000E+04
         0.27000E+04
         0.27000E+04
         0.27000E+04
         0.27000E+04
         0.27000E+04
         0.27000E+04
         0.27000E+04
         0.27000E+04
         0.27000E+04
         0.27000E+04
         0.27000E+04
         0.27000E+04
         0.27000E+04
         0.27000E+04
         0.27000E+04
         0.27000E+04
         0.27000E+04
         0.27000E+04
         0.27000E+04
         0.27000E+04
         0.27000E+04
         0.27000E+04
         0.27000E+04
         0.27000E+04
         0.27000E+04
         0.27000E+04
         0.27000E+04
         0.27000E+04
         0.27000E+04
         0.27000E+04
         0.27000E+04
         0.27000E+04
         0.27000E+04
         0.27000E+04
         0.27000E+04
         0.27000E+04
         0.27000E+04
         0.27000E+04
         0.27000E+04
         0.27000E+04
         0.27000E+04
         0.27000E+04
         0.27000E+04
         0.27000E+04
         0.27000E+04
         0.27000E+04
         0.27000E+04
         0.27000E+04
         0.27000E+04
         0.27000E+04
         0.27000E+04
         0.27000E+04
         0.27000E+04
         0.27000E+04
         0.27000E+04
         0.27000E+04
         0.27000E+04
         0.27000E+04
         0.27000E+04
         0.27000E+04
         0.27000E+04
         0.27000E+04
         0.27000E+04
         0.27000E+04
         0.27000E+04
         0.27000E+04
         0.27000E+04
         0.27000E+04
         0.27000E+04
         0.27000E+04
         0.27000E+04
         0.27000E+04
         0.27000E+04
         0.27000E+04
         0.27000E+04
         0.27000E+04
         0.27000E+04
         0.27000E+04
         0.27000E+04
         0.27000E+04
         0.27000E+04
         0.27000E+04
         0.27000E+04
         0.27000E+04
         0.27000E+04
         0.27000E+04
         0.27000E+04
         0.27000E+04
         0.27000E+04
         0.27000E+04
         0.27000E+04
         0.27000E+04
         0.27000E+04
         0.27000E+04
         0.27000E+04
         0.27000E+04
         0.27000E+04
         0.27000E+04
         0.27000E+04
         0.27000E+04
         0.27000E+04
         0.27000E+04
         0.27000E+04
         0.27000E+04
         0.27000E+04
         0.27000E+04
         0.27000E+04
         0.27000E+04
         0.27000E+04
         0.27000E+04
         0.27000E+04
         0.27000E+04
         0.27000E+04
         0.27000E+04
         0.27000E+04
         0.27000E+04
         0.27000E+04
         0.27000E+04
         0.27000E+04
         0.27000E+04
         0.27000E+04
         0.27000E+04
         0.27000E+04
         0.27000E+04
         0.27000E+04
         0.27000E+04
         0.27000E+04
         0.27000E+04
         0.27000E+04
         0.27000E+04
         0.27000E+04
         0.27000E+04
         0.27000E+04
         0.27000E+04
         0.27000E+04
         0.27000E+04
         0.27000E+04
         0.27000E+04
         0.27000E+04
         0.27000E+04
         0.27000E+04
         0.27000E+04
         0.27000E+04
         0.27000E+04
         0.27000E+04
         0.27000E+04
         0.27000E+04
         0.27000E+04
         0.27000E+04
         0.27000E+04
         0.27000E+04
         0.27000E+04
         0.27000E+04
         0.27000E+04
         0.27000E+04
         0.27000E+04
         0.27000E+04
         0.27000E+04
         0.27000E+04
         0.27000E+04
         0.27000E+04
         0.27000E+04
         0.27000E+04
         0.27000E+04
         0.27000E+04
         0.27000E+04
         0.27000E+04
         0.27000E+04
         0.27000E+04
         0.27000E+04
         0.27000E+04
         0.27000E+04
         0.27000E+04
         0.27000E+04
         0.27000E+04
         0.27000E+04
         0.27000E+04
         0.27000E+04
         0.27000E+04
         0.27000E+04
         0.27000E+04
         0.27000E+04
         0.27000E+04
         0.27000E+04
         0.27000E+04
         0.27000E+04
         0.27000E+04
         0.27000E+04
         0.27000E+04
         0.27000E+04
         0.27000E+04
         0.27000E+04
         0.27000E+04
         0.27000E+04
         0.27000E+04
         0.27000E+04
         0.27000E+04
         0.27000E+04
         0.27000E+04
         0.27000E+04
         0.27000E+04
         0.27000E+04
         0.27000E+04
         0.27000E+04
         0.27000E+04
         0.27000E+04
         0.27000E+04
         0.27000E+04
         0.27000E+04
         0.27000E+04
         0.27000E+04
         0.27000E+04
         0.27000E+04
         0.27000E+04
         0.27000E+04
         0.27000E+04
         0.27000E+04
         0.27000E+04
         0.27000E+04
         0.27000E+04
         0.27000E+04
         0.27000E+04
         0.27000E+04
         0.27000E+04
         0.27000E+04
         0.27000E+04
         0.27000E+04
         0.27000E+04
         0.27000E+04
         0.27000E+04
         0.27000E+04
         0.27000E+04
         0.27000E+04
         0.27000E+04
         0.27000E+04
         0.27000E+04
         0.27000E+04
         0.27000E+04
         0.27000E+04
         0.27000E+04
         0.27000E+04
         0.27000E+04
         0.27000E+04
         0.27000E+04
