# vtk DataFile Version 2.0
               (MEGA VTK FILE)
ASCII
DATASET UNSTRUCTURED_GRID
POINTS       1950    double
  0.10378E-02  0.67292E-03 -0.16949E-01
  0.17452E-02  0.12308E-02 -0.16939E-01
  0.23177E-02  0.59151E-03 -0.16937E-01
  0.16698E-02 -0.33775E-03 -0.16956E-01
  0.10379E-02  0.67237E-03 -0.11750E-01
  0.17453E-02  0.12301E-02 -0.11750E-01
  0.23178E-02  0.59098E-03 -0.11750E-01
  0.16700E-02 -0.33851E-03 -0.11750E-01
  0.30377E-02  0.14882E-03 -0.16919E-01
  0.27791E-02 -0.67643E-03 -0.16941E-01
  0.30377E-02  0.14846E-03 -0.11750E-01
  0.27788E-02 -0.67692E-03 -0.11750E-01
  0.12850E-02  0.18412E-02 -0.16928E-01
  0.65139E-03  0.14576E-02 -0.16942E-01
  0.12851E-02  0.18410E-02 -0.11750E-01
  0.65164E-03  0.14566E-02 -0.11750E-01
  0.12757E-03  0.29933E-03 -0.16950E-01
 -0.12822E-03  0.11672E-02 -0.16952E-01
  0.12783E-03  0.29819E-03 -0.11750E-01
 -0.12804E-03  0.11655E-02 -0.11750E-01
  0.94500E-03  0.22748E-02 -0.16921E-01
  0.11327E-02  0.28286E-02 -0.16912E-01
  0.17490E-02  0.24238E-02 -0.16916E-01
  0.94533E-03  0.22746E-02 -0.11750E-01
  0.11330E-02  0.28291E-02 -0.11750E-01
  0.17494E-02  0.24236E-02 -0.11750E-01
  0.40588E-03  0.21685E-02 -0.16938E-01
  0.39779E-03  0.29366E-02 -0.16933E-01
  0.40594E-03  0.21684E-02 -0.11750E-01
  0.39781E-03  0.29369E-02 -0.11750E-01
 -0.76303E-03 -0.10033E-02 -0.16957E-01
 -0.86604E-03  0.78969E-04 -0.16962E-01
  0.46119E-03 -0.70318E-03 -0.16954E-01
 -0.76268E-03 -0.10032E-02 -0.11750E-01
 -0.86593E-03  0.78160E-04 -0.11750E-01
  0.46164E-03 -0.70391E-03 -0.11750E-01
 -0.18300E-02 -0.71196E-03 -0.16938E-01
 -0.18440E-02  0.82749E-04 -0.16958E-01
 -0.18297E-02 -0.71210E-03 -0.11750E-01
 -0.18441E-02  0.82626E-04 -0.11750E-01
 -0.27238E-02 -0.77865E-03 -0.16932E-01
 -0.28028E-02  0.40713E-04 -0.16949E-01
 -0.27238E-02 -0.77882E-03 -0.11750E-01
 -0.28031E-02  0.40439E-04 -0.11750E-01
 -0.25365E-02 -0.15195E-02 -0.16917E-01
 -0.19287E-02 -0.13230E-02 -0.16924E-01
 -0.25363E-02 -0.15195E-02 -0.11750E-01
 -0.19283E-02 -0.13231E-02 -0.11750E-01
 -0.99363E-03  0.98847E-03 -0.16964E-01
 -0.99377E-03  0.98712E-03 -0.11750E-01
 -0.14380E-02 -0.17325E-02 -0.16935E-01
 -0.14377E-02 -0.17325E-02 -0.11750E-01
 -0.31574E-03  0.20220E-02 -0.16956E-01
 -0.31594E-03  0.20217E-02 -0.11750E-01
 -0.11068E-02  0.18615E-02 -0.16962E-01
 -0.11071E-02  0.18616E-02 -0.11750E-01
 -0.18845E-02  0.17175E-02 -0.16946E-01
 -0.18713E-02  0.90940E-03 -0.16959E-01
 -0.18846E-02  0.17175E-02 -0.11750E-01
 -0.18714E-02  0.90916E-03 -0.11750E-01
 -0.15871E-03 -0.19800E-02 -0.16953E-01
 -0.94089E-03 -0.23489E-02 -0.16935E-01
 -0.15844E-03 -0.19800E-02 -0.11750E-01
 -0.94029E-03 -0.23489E-02 -0.11750E-01
  0.78856E-03 -0.17074E-02 -0.16952E-01
  0.78922E-03 -0.17074E-02 -0.11750E-01
  0.17211E-02 -0.14894E-02 -0.16945E-01
  0.17211E-02 -0.14892E-02 -0.11750E-01
  0.32050E-02  0.76036E-03 -0.16891E-01
  0.28046E-02  0.12477E-02 -0.16913E-01
  0.32047E-02  0.75936E-03 -0.11750E-01
  0.28047E-02  0.12473E-02 -0.11750E-01
  0.23059E-02  0.18665E-02 -0.16921E-01
  0.23060E-02  0.18664E-02 -0.11750E-01
 -0.40614E-03  0.29038E-02 -0.16944E-01
 -0.40627E-03  0.29049E-02 -0.11750E-01
 -0.12092E-02  0.27207E-02 -0.16942E-01
 -0.12092E-02  0.27212E-02 -0.11750E-01
 -0.19448E-02  0.24642E-02 -0.16922E-01
 -0.19448E-02  0.24645E-02 -0.11750E-01
 -0.25029E-02  0.22359E-02 -0.16899E-01
 -0.26371E-02  0.16503E-02 -0.16927E-01
 -0.25029E-02  0.22359E-02 -0.11750E-01
 -0.26372E-02  0.16503E-02 -0.11750E-01
 -0.27671E-02  0.87493E-03 -0.16951E-01
 -0.27674E-02  0.87466E-03 -0.11750E-01
 -0.21123E-02 -0.21373E-02 -0.16918E-01
 -0.21122E-02 -0.21373E-02 -0.11750E-01
 -0.16087E-02 -0.26931E-02 -0.16910E-01
 -0.16087E-02 -0.26931E-02 -0.11750E-01
 -0.11939E-02 -0.31291E-02 -0.16889E-01
 -0.58641E-03 -0.30382E-02 -0.16918E-01
 -0.11937E-02 -0.31291E-02 -0.11750E-01
 -0.58606E-03 -0.30382E-02 -0.11750E-01
  0.20912E-03 -0.28748E-02 -0.16937E-01
  0.20952E-03 -0.28748E-02 -0.11750E-01
  0.10586E-02 -0.26423E-02 -0.16934E-01
  0.10589E-02 -0.26420E-02 -0.11750E-01
  0.18413E-02 -0.23707E-02 -0.16919E-01
  0.18413E-02 -0.23705E-02 -0.11750E-01
  0.24544E-02 -0.21445E-02 -0.16897E-01
  0.26022E-02 -0.15105E-02 -0.16922E-01
  0.24543E-02 -0.21439E-02 -0.11750E-01
  0.26021E-02 -0.15106E-02 -0.11750E-01
  0.37964E-02  0.93572E-03 -0.16833E-01
  0.39100E-02  0.00000E+00 -0.16843E-01
  0.37964E-02  0.93572E-03 -0.11750E-01
  0.39100E-02  0.00000E+00 -0.11750E-01
  0.34621E-02  0.18171E-02 -0.16842E-01
  0.34621E-02  0.18171E-02 -0.11750E-01
  0.29267E-02  0.25928E-02 -0.16834E-01
  0.29267E-02  0.25928E-02 -0.11750E-01
  0.22211E-02  0.32179E-02 -0.16835E-01
  0.22211E-02  0.32179E-02 -0.11750E-01
  0.13865E-02  0.36559E-02 -0.16834E-01
  0.13865E-02  0.36559E-02 -0.11750E-01
  0.47130E-03  0.38815E-02 -0.16840E-01
  0.47130E-03  0.38815E-02 -0.11750E-01
 -0.47130E-03  0.38815E-02 -0.16842E-01
 -0.47130E-03  0.38815E-02 -0.11750E-01
 -0.13865E-02  0.36559E-02 -0.16841E-01
 -0.13865E-02  0.36559E-02 -0.11750E-01
 -0.22211E-02  0.32179E-02 -0.16840E-01
 -0.22211E-02  0.32179E-02 -0.11750E-01
 -0.29267E-02  0.25928E-02 -0.16831E-01
 -0.29267E-02  0.25928E-02 -0.11750E-01
 -0.34621E-02  0.18171E-02 -0.16842E-01
 -0.34621E-02  0.18171E-02 -0.11750E-01
 -0.37964E-02  0.93572E-03 -0.16846E-01
 -0.37964E-02  0.93572E-03 -0.11750E-01
 -0.39100E-02  0.22152E-17 -0.16845E-01
 -0.39100E-02 -0.47884E-18 -0.11750E-01
 -0.37964E-02 -0.93572E-03 -0.16841E-01
 -0.37964E-02 -0.93572E-03 -0.11750E-01
 -0.34621E-02 -0.18171E-02 -0.16836E-01
 -0.34621E-02 -0.18171E-02 -0.11750E-01
 -0.29267E-02 -0.25928E-02 -0.16834E-01
 -0.29267E-02 -0.25928E-02 -0.11750E-01
 -0.22211E-02 -0.32179E-02 -0.16841E-01
 -0.22211E-02 -0.32179E-02 -0.11750E-01
 -0.13865E-02 -0.36559E-02 -0.16834E-01
 -0.13865E-02 -0.36559E-02 -0.11750E-01
 -0.47130E-03 -0.38815E-02 -0.16844E-01
 -0.47130E-03 -0.38815E-02 -0.11750E-01
  0.47130E-03 -0.38815E-02 -0.16841E-01
  0.47130E-03 -0.38815E-02 -0.11750E-01
  0.13865E-02 -0.36559E-02 -0.16837E-01
  0.13865E-02 -0.36559E-02 -0.11750E-01
  0.22211E-02 -0.32179E-02 -0.16843E-01
  0.22211E-02 -0.32179E-02 -0.11750E-01
  0.29267E-02 -0.25928E-02 -0.16835E-01
  0.29267E-02 -0.25928E-02 -0.11750E-01
  0.34621E-02 -0.18171E-02 -0.16843E-01
  0.34621E-02 -0.18171E-02 -0.11750E-01
  0.37964E-02 -0.93572E-03 -0.16843E-01
  0.37964E-02 -0.93572E-03 -0.11750E-01
  0.10376E-02  0.67348E-03 -0.18499E-01
  0.17450E-02  0.12314E-02 -0.18498E-01
  0.23175E-02  0.59203E-03 -0.18497E-01
  0.16696E-02 -0.33700E-03 -0.18500E-01
  0.30377E-02  0.14918E-03 -0.18495E-01
  0.27795E-02 -0.67594E-03 -0.18498E-01
  0.12849E-02  0.18414E-02 -0.18496E-01
  0.65115E-03  0.14586E-02 -0.18498E-01
  0.12731E-03  0.30048E-03 -0.18500E-01
 -0.12841E-03  0.11690E-02 -0.18500E-01
  0.94467E-03  0.22749E-02 -0.18495E-01
  0.11323E-02  0.28282E-02 -0.18494E-01
  0.17487E-02  0.24239E-02 -0.18494E-01
  0.40583E-03  0.21685E-02 -0.18497E-01
  0.39777E-03  0.29364E-02 -0.18497E-01
 -0.76338E-03 -0.10035E-02 -0.18500E-01
 -0.86615E-03  0.79778E-04 -0.18501E-01
  0.46074E-03 -0.70245E-03 -0.18500E-01
 -0.18303E-02 -0.71182E-03 -0.18498E-01
 -0.18439E-02  0.82873E-04 -0.18501E-01
 -0.27238E-02 -0.77848E-03 -0.18497E-01
 -0.28025E-02  0.40986E-04 -0.18500E-01
 -0.25366E-02 -0.15194E-02 -0.18494E-01
 -0.19292E-02 -0.13228E-02 -0.18496E-01
 -0.99349E-03  0.98983E-03 -0.18502E-01
 -0.14384E-02 -0.17324E-02 -0.18497E-01
 -0.31554E-03  0.20223E-02 -0.18500E-01
 -0.11064E-02  0.18614E-02 -0.18501E-01
 -0.18845E-02  0.17175E-02 -0.18499E-01
 -0.18712E-02  0.90964E-03 -0.18501E-01
 -0.15899E-03 -0.19800E-02 -0.18500E-01
 -0.94149E-03 -0.23489E-02 -0.18497E-01
  0.78790E-03 -0.17074E-02 -0.18500E-01
  0.17210E-02 -0.14896E-02 -0.18498E-01
  0.32053E-02  0.76137E-03 -0.18491E-01
  0.28046E-02  0.12481E-02 -0.18494E-01
  0.23058E-02  0.18665E-02 -0.18495E-01
 -0.40600E-03  0.29027E-02 -0.18499E-01
 -0.12092E-02  0.27202E-02 -0.18498E-01
 -0.19447E-02  0.24640E-02 -0.18495E-01
 -0.25028E-02  0.22359E-02 -0.18492E-01
 -0.26370E-02  0.16503E-02 -0.18496E-01
 -0.27668E-02  0.87519E-03 -0.18500E-01
 -0.21125E-02 -0.21373E-02 -0.18494E-01
 -0.16088E-02 -0.26932E-02 -0.18493E-01
 -0.11940E-02 -0.31291E-02 -0.18491E-01
 -0.58676E-03 -0.30382E-02 -0.18494E-01
  0.20871E-03 -0.28748E-02 -0.18497E-01
  0.10583E-02 -0.26426E-02 -0.18497E-01
  0.18413E-02 -0.23709E-02 -0.18494E-01
  0.24545E-02 -0.21450E-02 -0.18492E-01
  0.26022E-02 -0.15104E-02 -0.18495E-01
  0.37964E-02  0.93572E-03 -0.18485E-01
  0.39100E-02  0.00000E+00 -0.18486E-01
  0.34621E-02  0.18171E-02 -0.18486E-01
  0.29267E-02  0.25928E-02 -0.18485E-01
  0.22211E-02  0.32179E-02 -0.18485E-01
  0.13865E-02  0.36559E-02 -0.18485E-01
  0.47130E-03  0.38815E-02 -0.18486E-01
 -0.47130E-03  0.38815E-02 -0.18486E-01
 -0.13865E-02  0.36559E-02 -0.18486E-01
 -0.22211E-02  0.32179E-02 -0.18485E-01
 -0.29267E-02  0.25928E-02 -0.18484E-01
 -0.34621E-02  0.18171E-02 -0.18486E-01
 -0.37964E-02  0.93572E-03 -0.18487E-01
 -0.39100E-02 -0.47884E-18 -0.18487E-01
 -0.37964E-02 -0.93572E-03 -0.18486E-01
 -0.34621E-02 -0.18171E-02 -0.18485E-01
 -0.29267E-02 -0.25928E-02 -0.18485E-01
 -0.22211E-02 -0.32179E-02 -0.18486E-01
 -0.13865E-02 -0.36559E-02 -0.18485E-01
 -0.47130E-03 -0.38815E-02 -0.18487E-01
  0.47130E-03 -0.38815E-02 -0.18487E-01
  0.13865E-02 -0.36559E-02 -0.18486E-01
  0.22211E-02 -0.32179E-02 -0.18486E-01
  0.29267E-02 -0.25928E-02 -0.18485E-01
  0.34621E-02 -0.18171E-02 -0.18486E-01
  0.37964E-02 -0.93572E-03 -0.18487E-01
  0.10375E-02  0.67403E-03 -0.17727E-01
  0.17448E-02  0.12321E-02 -0.17727E-01
  0.23174E-02  0.59255E-03 -0.17727E-01
  0.16694E-02 -0.33624E-03 -0.17727E-01
  0.30377E-02  0.14955E-03 -0.17727E-01
  0.27798E-02 -0.67544E-03 -0.17727E-01
  0.12848E-02  0.18415E-02 -0.17727E-01
  0.65090E-03  0.14596E-02 -0.17727E-01
  0.12705E-03  0.30163E-03 -0.17727E-01
 -0.12859E-03  0.11707E-02 -0.17727E-01
  0.94434E-03  0.22750E-02 -0.17727E-01
  0.11320E-02  0.28277E-02 -0.17727E-01
  0.17483E-02  0.24241E-02 -0.17727E-01
  0.40577E-03  0.21685E-02 -0.17727E-01
  0.39776E-03  0.29361E-02 -0.17727E-01
 -0.76374E-03 -0.10036E-02 -0.17727E-01
 -0.86626E-03  0.80588E-04 -0.17727E-01
  0.46029E-03 -0.70173E-03 -0.17727E-01
 -0.18306E-02 -0.71168E-03 -0.17727E-01
 -0.18438E-02  0.82996E-04 -0.17727E-01
 -0.27238E-02 -0.77831E-03 -0.17727E-01
 -0.28022E-02  0.41259E-04 -0.17727E-01
 -0.25368E-02 -0.15194E-02 -0.17727E-01
 -0.19296E-02 -0.13227E-02 -0.17727E-01
 -0.99334E-03  0.99119E-03 -0.17727E-01
 -0.14387E-02 -0.17324E-02 -0.17727E-01
 -0.31534E-03  0.20226E-02 -0.17727E-01
 -0.11061E-02  0.18613E-02 -0.17727E-01
 -0.18844E-02  0.17175E-02 -0.17727E-01
 -0.18710E-02  0.90988E-03 -0.17727E-01
 -0.15926E-03 -0.19801E-02 -0.17727E-01
 -0.94209E-03 -0.23490E-02 -0.17727E-01
  0.78724E-03 -0.17074E-02 -0.17727E-01
  0.17210E-02 -0.14899E-02 -0.17727E-01
  0.32056E-02  0.76237E-03 -0.17727E-01
  0.28046E-02  0.12485E-02 -0.17727E-01
  0.23057E-02  0.18666E-02 -0.17727E-01
 -0.40586E-03  0.29017E-02 -0.17727E-01
 -0.12092E-02  0.27198E-02 -0.17727E-01
 -0.19447E-02  0.24638E-02 -0.17727E-01
 -0.25028E-02  0.22359E-02 -0.17727E-01
 -0.26369E-02  0.16503E-02 -0.17727E-01
 -0.27665E-02  0.87545E-03 -0.17727E-01
 -0.21126E-02 -0.21374E-02 -0.17727E-01
 -0.16088E-02 -0.26932E-02 -0.17727E-01
 -0.11941E-02 -0.31291E-02 -0.17727E-01
 -0.58711E-03 -0.30382E-02 -0.17727E-01
  0.20830E-03 -0.28748E-02 -0.17727E-01
  0.10580E-02 -0.26428E-02 -0.17727E-01
  0.18414E-02 -0.23711E-02 -0.17727E-01
  0.24546E-02 -0.21456E-02 -0.17727E-01
  0.26023E-02 -0.15103E-02 -0.17727E-01
  0.37964E-02  0.93572E-03 -0.17727E-01
  0.39100E-02  0.00000E+00 -0.17727E-01
  0.34621E-02  0.18171E-02 -0.17727E-01
  0.29267E-02  0.25928E-02 -0.17727E-01
  0.22211E-02  0.32179E-02 -0.17727E-01
  0.13865E-02  0.36559E-02 -0.17727E-01
  0.47130E-03  0.38815E-02 -0.17727E-01
 -0.47130E-03  0.38815E-02 -0.17727E-01
 -0.13865E-02  0.36559E-02 -0.17727E-01
 -0.22211E-02  0.32179E-02 -0.17727E-01
 -0.29267E-02  0.25928E-02 -0.17727E-01
 -0.34621E-02  0.18171E-02 -0.17727E-01
 -0.37964E-02  0.93572E-03 -0.17727E-01
 -0.39100E-02  0.39516E-17 -0.17727E-01
 -0.37964E-02 -0.93572E-03 -0.17727E-01
 -0.34621E-02 -0.18171E-02 -0.17727E-01
 -0.29267E-02 -0.25928E-02 -0.17727E-01
 -0.22211E-02 -0.32179E-02 -0.17727E-01
 -0.13865E-02 -0.36559E-02 -0.17727E-01
 -0.47130E-03 -0.38815E-02 -0.17727E-01
  0.47130E-03 -0.38815E-02 -0.17727E-01
  0.13865E-02 -0.36559E-02 -0.17727E-01
  0.22211E-02 -0.32179E-02 -0.17727E-01
  0.29267E-02 -0.25928E-02 -0.17727E-01
  0.34621E-02 -0.18171E-02 -0.17727E-01
  0.37964E-02 -0.93572E-03 -0.17727E-01
  0.10374E-02  0.67459E-03 -0.16748E-01
  0.17446E-02  0.12328E-02 -0.16748E-01
  0.23173E-02  0.59308E-03 -0.16748E-01
  0.16692E-02 -0.33549E-03 -0.16748E-01
  0.30376E-02  0.14991E-03 -0.16748E-01
  0.27801E-02 -0.67495E-03 -0.16748E-01
  0.12847E-02  0.18417E-02 -0.16748E-01
  0.65065E-03  0.14606E-02 -0.16748E-01
  0.12678E-03  0.30278E-03 -0.16748E-01
 -0.12878E-03  0.11725E-02 -0.16748E-01
  0.94401E-03  0.22752E-02 -0.16748E-01
  0.11316E-02  0.28273E-02 -0.16748E-01
  0.17479E-02  0.24242E-02 -0.16748E-01
  0.40572E-03  0.21686E-02 -0.16748E-01
  0.39774E-03  0.29359E-02 -0.16748E-01
 -0.76409E-03 -0.10038E-02 -0.16748E-01
 -0.86637E-03  0.81397E-04 -0.16748E-01
  0.45985E-03 -0.70100E-03 -0.16748E-01
 -0.18309E-02 -0.71154E-03 -0.16748E-01
 -0.18437E-02  0.83120E-04 -0.16748E-01
 -0.27237E-02 -0.77814E-03 -0.16748E-01
 -0.28020E-02  0.41533E-04 -0.16748E-01
 -0.25369E-02 -0.15193E-02 -0.16748E-01
 -0.19300E-02 -0.13227E-02 -0.16748E-01
 -0.99320E-03  0.99254E-03 -0.16748E-01
 -0.14391E-02 -0.17324E-02 -0.16748E-01
 -0.31514E-03  0.20228E-02 -0.16748E-01
 -0.11057E-02  0.18611E-02 -0.16748E-01
 -0.18844E-02  0.17175E-02 -0.16748E-01
 -0.18709E-02  0.91012E-03 -0.16748E-01
 -0.15954E-03 -0.19801E-02 -0.16748E-01
 -0.94269E-03 -0.23490E-02 -0.16748E-01
  0.78658E-03 -0.17074E-02 -0.16748E-01
  0.17209E-02 -0.14901E-02 -0.16748E-01
  0.32060E-02  0.76338E-03 -0.16748E-01
  0.28046E-02  0.12490E-02 -0.16748E-01
  0.23056E-02  0.18666E-02 -0.16748E-01
 -0.40572E-03  0.29006E-02 -0.16748E-01
 -0.12092E-02  0.27193E-02 -0.16748E-01
 -0.19446E-02  0.24636E-02 -0.16748E-01
 -0.25028E-02  0.22359E-02 -0.16748E-01
 -0.26368E-02  0.16503E-02 -0.16748E-01
 -0.27662E-02  0.87571E-03 -0.16748E-01
 -0.21128E-02 -0.21374E-02 -0.16748E-01
 -0.16088E-02 -0.26932E-02 -0.16748E-01
 -0.11942E-02 -0.31291E-02 -0.16748E-01
 -0.58746E-03 -0.30382E-02 -0.16748E-01
  0.20790E-03 -0.28748E-02 -0.16748E-01
  0.10577E-02 -0.26431E-02 -0.16748E-01
  0.18414E-02 -0.23713E-02 -0.16748E-01
  0.24548E-02 -0.21461E-02 -0.16748E-01
  0.26024E-02 -0.15102E-02 -0.16748E-01
  0.37964E-02  0.93572E-03 -0.16748E-01
  0.39100E-02  0.00000E+00 -0.16748E-01
  0.34621E-02  0.18171E-02 -0.16748E-01
  0.29267E-02  0.25928E-02 -0.16748E-01
  0.22211E-02  0.32179E-02 -0.16748E-01
  0.13865E-02  0.36559E-02 -0.16748E-01
  0.47130E-03  0.38815E-02 -0.16748E-01
 -0.47130E-03  0.38815E-02 -0.16748E-01
 -0.13865E-02  0.36559E-02 -0.16748E-01
 -0.22211E-02  0.32179E-02 -0.16748E-01
 -0.29267E-02  0.25928E-02 -0.16748E-01
 -0.34621E-02  0.18171E-02 -0.16748E-01
 -0.37964E-02  0.93572E-03 -0.16748E-01
 -0.39100E-02 -0.47884E-18 -0.16748E-01
 -0.37964E-02 -0.93572E-03 -0.16748E-01
 -0.34621E-02 -0.18171E-02 -0.16748E-01
 -0.29267E-02 -0.25928E-02 -0.16748E-01
 -0.22211E-02 -0.32179E-02 -0.16748E-01
 -0.13865E-02 -0.36559E-02 -0.16748E-01
 -0.47130E-03 -0.38815E-02 -0.16748E-01
  0.47130E-03 -0.38815E-02 -0.16748E-01
  0.13865E-02 -0.36559E-02 -0.16748E-01
  0.22211E-02 -0.32179E-02 -0.16748E-01
  0.29267E-02 -0.25928E-02 -0.16748E-01
  0.34621E-02 -0.18171E-02 -0.16748E-01
  0.37964E-02 -0.93572E-03 -0.16748E-01
  0.10373E-02  0.67514E-03 -0.15769E-01
  0.17445E-02  0.12334E-02 -0.15769E-01
  0.23172E-02  0.59360E-03 -0.15769E-01
  0.16689E-02 -0.33474E-03 -0.15769E-01
  0.30376E-02  0.15027E-03 -0.15769E-01
  0.27805E-02 -0.67446E-03 -0.15769E-01
  0.12846E-02  0.18419E-02 -0.15769E-01
  0.65041E-03  0.14616E-02 -0.15769E-01
  0.12652E-03  0.30393E-03 -0.15769E-01
 -0.12896E-03  0.11742E-02 -0.15769E-01
  0.94367E-03  0.22753E-02 -0.15769E-01
  0.11313E-02  0.28269E-02 -0.15769E-01
  0.17475E-02  0.24244E-02 -0.15769E-01
  0.40566E-03  0.21686E-02 -0.15769E-01
  0.39772E-03  0.29356E-02 -0.15769E-01
 -0.76444E-03 -0.10039E-02 -0.15769E-01
 -0.86648E-03  0.82206E-04 -0.15769E-01
  0.45940E-03 -0.70028E-03 -0.15769E-01
 -0.18312E-02 -0.71140E-03 -0.15769E-01
 -0.18436E-02  0.83243E-04 -0.15769E-01
 -0.27237E-02 -0.77797E-03 -0.15769E-01
 -0.28017E-02  0.41806E-04 -0.15769E-01
 -0.25371E-02 -0.15193E-02 -0.15769E-01
 -0.19305E-02 -0.13226E-02 -0.15769E-01
 -0.99305E-03  0.99390E-03 -0.15769E-01
 -0.14394E-02 -0.17323E-02 -0.15769E-01
 -0.31494E-03  0.20231E-02 -0.15769E-01
 -0.11054E-02  0.18610E-02 -0.15769E-01
 -0.18843E-02  0.17175E-02 -0.15769E-01
 -0.18708E-02  0.91036E-03 -0.15769E-01
 -0.15981E-03 -0.19801E-02 -0.15769E-01
 -0.94328E-03 -0.23490E-02 -0.15769E-01
  0.78592E-03 -0.17074E-02 -0.15769E-01
  0.17209E-02 -0.14904E-02 -0.15769E-01
  0.32063E-02  0.76439E-03 -0.15769E-01
  0.28045E-02  0.12494E-02 -0.15769E-01
  0.23055E-02  0.18666E-02 -0.15769E-01
 -0.40558E-03  0.28995E-02 -0.15769E-01
 -0.12092E-02  0.27188E-02 -0.15769E-01
 -0.19446E-02  0.24633E-02 -0.15769E-01
 -0.25027E-02  0.22359E-02 -0.15769E-01
 -0.26367E-02  0.16503E-02 -0.15769E-01
 -0.27658E-02  0.87597E-03 -0.15769E-01
 -0.21129E-02 -0.21374E-02 -0.15769E-01
 -0.16089E-02 -0.26932E-02 -0.15769E-01
 -0.11943E-02 -0.31291E-02 -0.15769E-01
 -0.58781E-03 -0.30382E-02 -0.15769E-01
  0.20749E-03 -0.28748E-02 -0.15769E-01
  0.10574E-02 -0.26434E-02 -0.15769E-01
  0.18415E-02 -0.23715E-02 -0.15769E-01
  0.24549E-02 -0.21467E-02 -0.15769E-01
  0.26025E-02 -0.15101E-02 -0.15769E-01
  0.37964E-02  0.93572E-03 -0.15769E-01
  0.39100E-02  0.00000E+00 -0.15769E-01
  0.34621E-02  0.18171E-02 -0.15769E-01
  0.29267E-02  0.25928E-02 -0.15769E-01
  0.22211E-02  0.32179E-02 -0.15769E-01
  0.13865E-02  0.36559E-02 -0.15769E-01
  0.47130E-03  0.38815E-02 -0.15769E-01
 -0.47130E-03  0.38815E-02 -0.15769E-01
 -0.13865E-02  0.36559E-02 -0.15769E-01
 -0.22211E-02  0.32179E-02 -0.15769E-01
 -0.29267E-02  0.25928E-02 -0.15769E-01
 -0.34621E-02  0.18171E-02 -0.15769E-01
 -0.37964E-02  0.93572E-03 -0.15769E-01
 -0.39100E-02 -0.47884E-18 -0.15769E-01
 -0.37964E-02 -0.93572E-03 -0.15769E-01
 -0.34621E-02 -0.18171E-02 -0.15769E-01
 -0.29267E-02 -0.25928E-02 -0.15769E-01
 -0.22211E-02 -0.32179E-02 -0.15769E-01
 -0.13865E-02 -0.36559E-02 -0.15769E-01
 -0.47130E-03 -0.38815E-02 -0.15769E-01
  0.47130E-03 -0.38815E-02 -0.15769E-01
  0.13865E-02 -0.36559E-02 -0.15769E-01
  0.22211E-02 -0.32179E-02 -0.15769E-01
  0.29267E-02 -0.25928E-02 -0.15769E-01
  0.34621E-02 -0.18171E-02 -0.15769E-01
  0.37964E-02 -0.93572E-03 -0.15769E-01
  0.10372E-02  0.67570E-03 -0.14790E-01
  0.17443E-02  0.12341E-02 -0.14790E-01
  0.23171E-02  0.59412E-03 -0.14790E-01
  0.16687E-02 -0.33398E-03 -0.14790E-01
  0.30376E-02  0.15064E-03 -0.14790E-01
  0.27808E-02 -0.67396E-03 -0.14790E-01
  0.12845E-02  0.18421E-02 -0.14790E-01
  0.65016E-03  0.14626E-02 -0.14790E-01
  0.12626E-03  0.30507E-03 -0.14790E-01
 -0.12915E-03  0.11760E-02 -0.14790E-01
  0.94334E-03  0.22754E-02 -0.14790E-01
  0.11310E-02  0.28264E-02 -0.14790E-01
  0.17471E-02  0.24245E-02 -0.14790E-01
  0.40561E-03  0.21686E-02 -0.14790E-01
  0.39770E-03  0.29353E-02 -0.14790E-01
 -0.76480E-03 -0.10040E-02 -0.14790E-01
 -0.86659E-03  0.83015E-04 -0.14790E-01
  0.45895E-03 -0.69955E-03 -0.14790E-01
 -0.18315E-02 -0.71126E-03 -0.14790E-01
 -0.18435E-02  0.83367E-04 -0.14790E-01
 -0.27237E-02 -0.77780E-03 -0.14790E-01
 -0.28014E-02  0.42080E-04 -0.14790E-01
 -0.25372E-02 -0.15192E-02 -0.14790E-01
 -0.19309E-02 -0.13224E-02 -0.14790E-01
 -0.99291E-03  0.99526E-03 -0.14790E-01
 -0.14398E-02 -0.17323E-02 -0.14790E-01
 -0.31474E-03  0.20234E-02 -0.14790E-01
 -0.11051E-02  0.18609E-02 -0.14790E-01
 -0.18843E-02  0.17175E-02 -0.14790E-01
 -0.18706E-02  0.91060E-03 -0.14790E-01
 -0.16009E-03 -0.19801E-02 -0.14790E-01
 -0.94388E-03 -0.23490E-02 -0.14790E-01
  0.78526E-03 -0.17074E-02 -0.14790E-01
  0.17208E-02 -0.14906E-02 -0.14790E-01
  0.32066E-02  0.76539E-03 -0.14790E-01
  0.28045E-02  0.12498E-02 -0.14790E-01
  0.23053E-02  0.18667E-02 -0.14790E-01
 -0.40545E-03  0.28984E-02 -0.14790E-01
 -0.12092E-02  0.27184E-02 -0.14790E-01
 -0.19446E-02  0.24631E-02 -0.14790E-01
 -0.25027E-02  0.22359E-02 -0.14790E-01
 -0.26366E-02  0.16503E-02 -0.14790E-01
 -0.27655E-02  0.87623E-03 -0.14790E-01
 -0.21130E-02 -0.21374E-02 -0.14790E-01
 -0.16089E-02 -0.26932E-02 -0.14790E-01
 -0.11944E-02 -0.31291E-02 -0.14790E-01
 -0.58816E-03 -0.30382E-02 -0.14790E-01
  0.20709E-03 -0.28748E-02 -0.14790E-01
  0.10571E-02 -0.26436E-02 -0.14790E-01
  0.18415E-02 -0.23717E-02 -0.14790E-01
  0.24550E-02 -0.21472E-02 -0.14790E-01
  0.26025E-02 -0.15100E-02 -0.14790E-01
  0.37964E-02  0.93572E-03 -0.14790E-01
  0.39100E-02  0.00000E+00 -0.14790E-01
  0.34621E-02  0.18171E-02 -0.14790E-01
  0.29267E-02  0.25928E-02 -0.14790E-01
  0.22211E-02  0.32179E-02 -0.14790E-01
  0.13865E-02  0.36559E-02 -0.14790E-01
  0.47130E-03  0.38815E-02 -0.14790E-01
 -0.47130E-03  0.38815E-02 -0.14790E-01
 -0.13865E-02  0.36559E-02 -0.14790E-01
 -0.22211E-02  0.32179E-02 -0.14790E-01
 -0.29267E-02  0.25928E-02 -0.14790E-01
 -0.34621E-02  0.18171E-02 -0.14790E-01
 -0.37964E-02  0.93572E-03 -0.14790E-01
 -0.39100E-02 -0.47884E-18 -0.14790E-01
 -0.37964E-02 -0.93572E-03 -0.14790E-01
 -0.34621E-02 -0.18171E-02 -0.14790E-01
 -0.29267E-02 -0.25928E-02 -0.14790E-01
 -0.22211E-02 -0.32179E-02 -0.14790E-01
 -0.13865E-02 -0.36559E-02 -0.14790E-01
 -0.47130E-03 -0.38815E-02 -0.14790E-01
  0.47130E-03 -0.38815E-02 -0.14790E-01
  0.13865E-02 -0.36559E-02 -0.14790E-01
  0.22211E-02 -0.32179E-02 -0.14790E-01
  0.29267E-02 -0.25928E-02 -0.14790E-01
  0.34621E-02 -0.18171E-02 -0.14790E-01
  0.37964E-02 -0.93572E-03 -0.14790E-01
  0.10371E-02  0.67625E-03 -0.13811E-01
  0.17441E-02  0.12348E-02 -0.13811E-01
  0.23169E-02  0.59465E-03 -0.13811E-01
  0.16685E-02 -0.33323E-03 -0.13811E-01
  0.30376E-02  0.15100E-03 -0.13811E-01
  0.27812E-02 -0.67347E-03 -0.13811E-01
  0.12844E-02  0.18423E-02 -0.13811E-01
  0.64992E-03  0.14636E-02 -0.13811E-01
  0.12600E-03  0.30622E-03 -0.13811E-01
 -0.12933E-03  0.11777E-02 -0.13811E-01
  0.94301E-03  0.22755E-02 -0.13811E-01
  0.11306E-02  0.28260E-02 -0.13811E-01
  0.17467E-02  0.24247E-02 -0.13811E-01
  0.40556E-03  0.21687E-02 -0.13811E-01
  0.39769E-03  0.29351E-02 -0.13811E-01
 -0.76515E-03 -0.10042E-02 -0.13811E-01
 -0.86670E-03  0.83825E-04 -0.13811E-01
  0.45850E-03 -0.69882E-03 -0.13811E-01
 -0.18318E-02 -0.71112E-03 -0.13811E-01
 -0.18434E-02  0.83490E-04 -0.13811E-01
 -0.27236E-02 -0.77763E-03 -0.13811E-01
 -0.28011E-02  0.42353E-04 -0.13811E-01
 -0.25374E-02 -0.15192E-02 -0.13811E-01
 -0.19313E-02 -0.13223E-02 -0.13811E-01
 -0.99277E-03  0.99661E-03 -0.13811E-01
 -0.14401E-02 -0.17322E-02 -0.13811E-01
 -0.31454E-03  0.20237E-02 -0.13811E-01
 -0.11047E-02  0.18607E-02 -0.13811E-01
 -0.18842E-02  0.17175E-02 -0.13811E-01
 -0.18705E-02  0.91084E-03 -0.13811E-01
 -0.16036E-03 -0.19801E-02 -0.13811E-01
 -0.94448E-03 -0.23491E-02 -0.13811E-01
  0.78460E-03 -0.17074E-02 -0.13811E-01
  0.17208E-02 -0.14909E-02 -0.13811E-01
  0.32070E-02  0.76640E-03 -0.13811E-01
  0.28045E-02  0.12503E-02 -0.13811E-01
  0.23052E-02  0.18667E-02 -0.13811E-01
 -0.40531E-03  0.28974E-02 -0.13811E-01
 -0.12092E-02  0.27179E-02 -0.13811E-01
 -0.19445E-02  0.24629E-02 -0.13811E-01
 -0.25027E-02  0.22359E-02 -0.13811E-01
 -0.26366E-02  0.16503E-02 -0.13811E-01
 -0.27652E-02  0.87650E-03 -0.13811E-01
 -0.21132E-02 -0.21374E-02 -0.13811E-01
 -0.16090E-02 -0.26933E-02 -0.13811E-01
 -0.11946E-02 -0.31291E-02 -0.13811E-01
 -0.58851E-03 -0.30382E-02 -0.13811E-01
  0.20668E-03 -0.28749E-02 -0.13811E-01
  0.10567E-02 -0.26439E-02 -0.13811E-01
  0.18416E-02 -0.23719E-02 -0.13811E-01
  0.24551E-02 -0.21478E-02 -0.13811E-01
  0.26026E-02 -0.15099E-02 -0.13811E-01
  0.37964E-02  0.93572E-03 -0.13811E-01
  0.39100E-02  0.00000E+00 -0.13811E-01
  0.34621E-02  0.18171E-02 -0.13811E-01
  0.29267E-02  0.25928E-02 -0.13811E-01
  0.22211E-02  0.32179E-02 -0.13811E-01
  0.13865E-02  0.36559E-02 -0.13811E-01
  0.47130E-03  0.38815E-02 -0.13811E-01
 -0.47130E-03  0.38815E-02 -0.13811E-01
 -0.13865E-02  0.36559E-02 -0.13811E-01
 -0.22211E-02  0.32179E-02 -0.13811E-01
 -0.29267E-02  0.25928E-02 -0.13811E-01
 -0.34621E-02  0.18171E-02 -0.13811E-01
 -0.37964E-02  0.93572E-03 -0.13811E-01
 -0.39100E-02 -0.47884E-18 -0.13811E-01
 -0.37964E-02 -0.93572E-03 -0.13811E-01
 -0.34621E-02 -0.18171E-02 -0.13811E-01
 -0.29267E-02 -0.25928E-02 -0.13811E-01
 -0.22211E-02 -0.32179E-02 -0.13811E-01
 -0.13865E-02 -0.36559E-02 -0.13811E-01
 -0.47130E-03 -0.38815E-02 -0.13811E-01
  0.47130E-03 -0.38815E-02 -0.13811E-01
  0.13865E-02 -0.36559E-02 -0.13811E-01
  0.22211E-02 -0.32179E-02 -0.13811E-01
  0.29267E-02 -0.25928E-02 -0.13811E-01
  0.34621E-02 -0.18171E-02 -0.13811E-01
  0.37964E-02 -0.93572E-03 -0.13811E-01
  0.10370E-02  0.67680E-03 -0.12832E-01
  0.17439E-02  0.12354E-02 -0.12832E-01
  0.23168E-02  0.59517E-03 -0.12832E-01
  0.16683E-02 -0.33247E-03 -0.12832E-01
  0.30375E-02  0.15136E-03 -0.12832E-01
  0.27815E-02 -0.67298E-03 -0.12832E-01
  0.12843E-02  0.18425E-02 -0.12832E-01
  0.64967E-03  0.14646E-02 -0.12832E-01
  0.12573E-03  0.30737E-03 -0.12832E-01
 -0.12952E-03  0.11795E-02 -0.12832E-01
  0.94268E-03  0.22757E-02 -0.12832E-01
  0.11303E-02  0.28255E-02 -0.12832E-01
  0.17463E-02  0.24248E-02 -0.12832E-01
  0.40550E-03  0.21687E-02 -0.12832E-01
  0.39767E-03  0.29348E-02 -0.12832E-01
 -0.76551E-03 -0.10043E-02 -0.12832E-01
 -0.86680E-03  0.84634E-04 -0.12832E-01
  0.45806E-03 -0.69810E-03 -0.12832E-01
 -0.18321E-02 -0.71098E-03 -0.12832E-01
 -0.18433E-02  0.83614E-04 -0.12832E-01
 -0.27236E-02 -0.77746E-03 -0.12832E-01
 -0.28009E-02  0.42626E-04 -0.12832E-01
 -0.25375E-02 -0.15191E-02 -0.12832E-01
 -0.19317E-02 -0.13223E-02 -0.12832E-01
 -0.99262E-03  0.99797E-03 -0.12832E-01
 -0.14405E-02 -0.17322E-02 -0.12832E-01
 -0.31434E-03  0.20240E-02 -0.12832E-01
 -0.11044E-02  0.18606E-02 -0.12832E-01
 -0.18842E-02  0.17175E-02 -0.12832E-01
 -0.18704E-02  0.91108E-03 -0.12832E-01
 -0.16064E-03 -0.19802E-02 -0.12832E-01
 -0.94508E-03 -0.23491E-02 -0.12832E-01
  0.78394E-03 -0.17074E-02 -0.12832E-01
  0.17208E-02 -0.14911E-02 -0.12832E-01
  0.32073E-02  0.76740E-03 -0.12832E-01
  0.28045E-02  0.12507E-02 -0.12832E-01
  0.23051E-02  0.18668E-02 -0.12832E-01
 -0.40517E-03  0.28963E-02 -0.12832E-01
 -0.12092E-02  0.27174E-02 -0.12832E-01
 -0.19445E-02  0.24627E-02 -0.12832E-01
 -0.25026E-02  0.22358E-02 -0.12832E-01
 -0.26365E-02  0.16503E-02 -0.12832E-01
 -0.27649E-02  0.87676E-03 -0.12832E-01
 -0.21133E-02 -0.21374E-02 -0.12832E-01
 -0.16090E-02 -0.26933E-02 -0.12832E-01
 -0.11947E-02 -0.31291E-02 -0.12832E-01
 -0.58886E-03 -0.30382E-02 -0.12832E-01
  0.20627E-03 -0.28749E-02 -0.12832E-01
  0.10564E-02 -0.26442E-02 -0.12832E-01
  0.18416E-02 -0.23721E-02 -0.12832E-01
  0.24553E-02 -0.21483E-02 -0.12832E-01
  0.26027E-02 -0.15097E-02 -0.12832E-01
  0.37964E-02  0.93572E-03 -0.12832E-01
  0.39100E-02  0.00000E+00 -0.12832E-01
  0.34621E-02  0.18171E-02 -0.12832E-01
  0.29267E-02  0.25928E-02 -0.12832E-01
  0.22211E-02  0.32179E-02 -0.12832E-01
  0.13865E-02  0.36559E-02 -0.12832E-01
  0.47130E-03  0.38815E-02 -0.12832E-01
 -0.47130E-03  0.38815E-02 -0.12832E-01
 -0.13865E-02  0.36559E-02 -0.12832E-01
 -0.22211E-02  0.32179E-02 -0.12832E-01
 -0.29267E-02  0.25928E-02 -0.12832E-01
 -0.34621E-02  0.18171E-02 -0.12832E-01
 -0.37964E-02  0.93572E-03 -0.12832E-01
 -0.39100E-02 -0.47884E-18 -0.12832E-01
 -0.37964E-02 -0.93572E-03 -0.12832E-01
 -0.34621E-02 -0.18171E-02 -0.12832E-01
 -0.29267E-02 -0.25928E-02 -0.12832E-01
 -0.22211E-02 -0.32179E-02 -0.12832E-01
 -0.13865E-02 -0.36559E-02 -0.12832E-01
 -0.47130E-03 -0.38815E-02 -0.12832E-01
  0.47130E-03 -0.38815E-02 -0.12832E-01
  0.13865E-02 -0.36559E-02 -0.12832E-01
  0.22211E-02 -0.32179E-02 -0.12832E-01
  0.29267E-02 -0.25928E-02 -0.12832E-01
  0.34621E-02 -0.18171E-02 -0.12832E-01
  0.37964E-02 -0.93572E-03 -0.12832E-01
  0.10368E-02  0.67736E-03 -0.11852E-01
  0.17438E-02  0.12361E-02 -0.11852E-01
  0.23167E-02  0.59570E-03 -0.11852E-01
  0.16681E-02 -0.33172E-03 -0.11852E-01
  0.30375E-02  0.15173E-03 -0.11852E-01
  0.27819E-02 -0.67248E-03 -0.11852E-01
  0.12842E-02  0.18427E-02 -0.11852E-01
  0.64943E-03  0.14656E-02 -0.11852E-01
  0.12547E-03  0.30852E-03 -0.11852E-01
 -0.12970E-03  0.11812E-02 -0.11852E-01
  0.94235E-03  0.22758E-02 -0.11852E-01
  0.11300E-02  0.28251E-02 -0.11852E-01
  0.17459E-02  0.24249E-02 -0.11852E-01
  0.40545E-03  0.21688E-02 -0.11852E-01
  0.39766E-03  0.29345E-02 -0.11852E-01
 -0.76586E-03 -0.10044E-02 -0.11852E-01
 -0.86691E-03  0.85443E-04 -0.11852E-01
  0.45761E-03 -0.69737E-03 -0.11852E-01
 -0.18324E-02 -0.71084E-03 -0.11852E-01
 -0.18432E-02  0.83737E-04 -0.11852E-01
 -0.27236E-02 -0.77729E-03 -0.11852E-01
 -0.28006E-02  0.42899E-04 -0.11852E-01
 -0.25377E-02 -0.15191E-02 -0.11852E-01
 -0.19322E-02 -0.13222E-02 -0.11852E-01
 -0.99248E-03  0.99932E-03 -0.11852E-01
 -0.14408E-02 -0.17322E-02 -0.11852E-01
 -0.31414E-03  0.20243E-02 -0.11852E-01
 -0.11040E-02  0.18605E-02 -0.11852E-01
 -0.18841E-02  0.17175E-02 -0.11852E-01
 -0.18703E-02  0.91132E-03 -0.11852E-01
 -0.16091E-03 -0.19802E-02 -0.11852E-01
 -0.94568E-03 -0.23491E-02 -0.11852E-01
  0.78328E-03 -0.17074E-02 -0.11852E-01
  0.17207E-02 -0.14914E-02 -0.11852E-01
  0.32076E-02  0.76841E-03 -0.11852E-01
  0.28044E-02  0.12511E-02 -0.11852E-01
  0.23050E-02  0.18668E-02 -0.11852E-01
 -0.40503E-03  0.28952E-02 -0.11852E-01
 -0.12092E-02  0.27170E-02 -0.11852E-01
 -0.19445E-02  0.24624E-02 -0.11852E-01
 -0.25026E-02  0.22358E-02 -0.11852E-01
 -0.26364E-02  0.16503E-02 -0.11852E-01
 -0.27646E-02  0.87702E-03 -0.11852E-01
 -0.21134E-02 -0.21374E-02 -0.11852E-01
 -0.16091E-02 -0.26933E-02 -0.11852E-01
 -0.11948E-02 -0.31291E-02 -0.11852E-01
 -0.58921E-03 -0.30382E-02 -0.11852E-01
  0.20587E-03 -0.28749E-02 -0.11852E-01
  0.10561E-02 -0.26444E-02 -0.11852E-01
  0.18416E-02 -0.23723E-02 -0.11852E-01
  0.24554E-02 -0.21489E-02 -0.11852E-01
  0.26027E-02 -0.15096E-02 -0.11852E-01
  0.37964E-02  0.93572E-03 -0.11852E-01
  0.39100E-02  0.00000E+00 -0.11852E-01
  0.34621E-02  0.18171E-02 -0.11852E-01
  0.29267E-02  0.25928E-02 -0.11852E-01
  0.22211E-02  0.32179E-02 -0.11852E-01
  0.13865E-02  0.36559E-02 -0.11852E-01
  0.47130E-03  0.38815E-02 -0.11852E-01
 -0.47130E-03  0.38815E-02 -0.11852E-01
 -0.13865E-02  0.36559E-02 -0.11852E-01
 -0.22211E-02  0.32179E-02 -0.11852E-01
 -0.29267E-02  0.25928E-02 -0.11852E-01
 -0.34621E-02  0.18171E-02 -0.11852E-01
 -0.37964E-02  0.93572E-03 -0.11852E-01
 -0.39100E-02 -0.47884E-18 -0.11852E-01
 -0.37964E-02 -0.93572E-03 -0.11852E-01
 -0.34621E-02 -0.18171E-02 -0.11852E-01
 -0.29267E-02 -0.25928E-02 -0.11852E-01
 -0.22211E-02 -0.32179E-02 -0.11852E-01
 -0.13865E-02 -0.36559E-02 -0.11852E-01
 -0.47130E-03 -0.38815E-02 -0.11852E-01
  0.47130E-03 -0.38815E-02 -0.11852E-01
  0.13865E-02 -0.36559E-02 -0.11852E-01
  0.22211E-02 -0.32179E-02 -0.11852E-01
  0.29267E-02 -0.25928E-02 -0.11852E-01
  0.34621E-02 -0.18171E-02 -0.11852E-01
  0.37964E-02 -0.93572E-03 -0.11852E-01
  0.10367E-02  0.67791E-03 -0.10873E-01
  0.17436E-02  0.12368E-02 -0.10873E-01
  0.23166E-02  0.59622E-03 -0.10873E-01
  0.16679E-02 -0.33096E-03 -0.10873E-01
  0.30375E-02  0.15209E-03 -0.10873E-01
  0.27822E-02 -0.67199E-03 -0.10873E-01
  0.12841E-02  0.18429E-02 -0.10873E-01
  0.64918E-03  0.14666E-02 -0.10873E-01
  0.12521E-03  0.30967E-03 -0.10873E-01
 -0.12989E-03  0.11830E-02 -0.10873E-01
  0.94202E-03  0.22759E-02 -0.10873E-01
  0.11296E-02  0.28247E-02 -0.10873E-01
  0.17455E-02  0.24251E-02 -0.10873E-01
  0.40539E-03  0.21688E-02 -0.10873E-01
  0.39764E-03  0.29343E-02 -0.10873E-01
 -0.76621E-03 -0.10046E-02 -0.10873E-01
 -0.86702E-03  0.86253E-04 -0.10873E-01
  0.45716E-03 -0.69665E-03 -0.10873E-01
 -0.18326E-02 -0.71070E-03 -0.10873E-01
 -0.18431E-02  0.83861E-04 -0.10873E-01
 -0.27235E-02 -0.77712E-03 -0.10873E-01
 -0.28003E-02  0.43173E-04 -0.10873E-01
 -0.25379E-02 -0.15190E-02 -0.10873E-01
 -0.19326E-02 -0.13220E-02 -0.10873E-01
 -0.99233E-03  0.10007E-02 -0.10873E-01
 -0.14412E-02 -0.17321E-02 -0.10873E-01
 -0.31394E-03  0.20245E-02 -0.10873E-01
 -0.11037E-02  0.18603E-02 -0.10873E-01
 -0.18841E-02  0.17175E-02 -0.10873E-01
 -0.18701E-02  0.91156E-03 -0.10873E-01
 -0.16119E-03 -0.19802E-02 -0.10873E-01
 -0.94628E-03 -0.23491E-02 -0.10873E-01
  0.78262E-03 -0.17074E-02 -0.10873E-01
  0.17207E-02 -0.14916E-02 -0.10873E-01
  0.32079E-02  0.76941E-03 -0.10873E-01
  0.28044E-02  0.12515E-02 -0.10873E-01
  0.23049E-02  0.18668E-02 -0.10873E-01
 -0.40490E-03  0.28942E-02 -0.10873E-01
 -0.12093E-02  0.27165E-02 -0.10873E-01
 -0.19444E-02  0.24622E-02 -0.10873E-01
 -0.25026E-02  0.22358E-02 -0.10873E-01
 -0.26363E-02  0.16503E-02 -0.10873E-01
 -0.27643E-02  0.87728E-03 -0.10873E-01
 -0.21136E-02 -0.21374E-02 -0.10873E-01
 -0.16091E-02 -0.26933E-02 -0.10873E-01
 -0.11949E-02 -0.31291E-02 -0.10873E-01
 -0.58956E-03 -0.30382E-02 -0.10873E-01
  0.20546E-03 -0.28749E-02 -0.10873E-01
  0.10558E-02 -0.26447E-02 -0.10873E-01
  0.18417E-02 -0.23725E-02 -0.10873E-01
  0.24555E-02 -0.21494E-02 -0.10873E-01
  0.26028E-02 -0.15095E-02 -0.10873E-01
  0.37964E-02  0.93572E-03 -0.10873E-01
  0.39100E-02  0.00000E+00 -0.10873E-01
  0.34621E-02  0.18171E-02 -0.10873E-01
  0.29267E-02  0.25928E-02 -0.10873E-01
  0.22211E-02  0.32179E-02 -0.10873E-01
  0.13865E-02  0.36559E-02 -0.10873E-01
  0.47130E-03  0.38815E-02 -0.10873E-01
 -0.47130E-03  0.38815E-02 -0.10873E-01
 -0.13865E-02  0.36559E-02 -0.10873E-01
 -0.22211E-02  0.32179E-02 -0.10873E-01
 -0.29267E-02  0.25928E-02 -0.10873E-01
 -0.34621E-02  0.18171E-02 -0.10873E-01
 -0.37964E-02  0.93572E-03 -0.10873E-01
 -0.39100E-02 -0.47884E-18 -0.10873E-01
 -0.37964E-02 -0.93572E-03 -0.10873E-01
 -0.34621E-02 -0.18171E-02 -0.10873E-01
 -0.29267E-02 -0.25928E-02 -0.10873E-01
 -0.22211E-02 -0.32179E-02 -0.10873E-01
 -0.13865E-02 -0.36559E-02 -0.10873E-01
 -0.47130E-03 -0.38815E-02 -0.10873E-01
  0.47130E-03 -0.38815E-02 -0.10873E-01
  0.13865E-02 -0.36559E-02 -0.10873E-01
  0.22211E-02 -0.32179E-02 -0.10873E-01
  0.29267E-02 -0.25928E-02 -0.10873E-01
  0.34621E-02 -0.18171E-02 -0.10873E-01
  0.37964E-02 -0.93572E-03 -0.10873E-01
  0.10366E-02  0.67847E-03 -0.98941E-02
  0.17434E-02  0.12374E-02 -0.98941E-02
  0.23164E-02  0.59674E-03 -0.98941E-02
  0.16677E-02 -0.33021E-03 -0.98941E-02
  0.30375E-02  0.15245E-03 -0.98941E-02
  0.27825E-02 -0.67150E-03 -0.98941E-02
  0.12840E-02  0.18430E-02 -0.98941E-02
  0.64894E-03  0.14676E-02 -0.98941E-02
  0.12495E-03  0.31081E-03 -0.98941E-02
 -0.13007E-03  0.11847E-02 -0.98941E-02
  0.94169E-03  0.22761E-02 -0.98941E-02
  0.11293E-02  0.28242E-02 -0.98941E-02
  0.17451E-02  0.24252E-02 -0.98941E-02
  0.40534E-03  0.21688E-02 -0.98941E-02
  0.39762E-03  0.29340E-02 -0.98941E-02
 -0.76657E-03 -0.10047E-02 -0.98941E-02
 -0.86713E-03  0.87062E-04 -0.98941E-02
  0.45671E-03 -0.69592E-03 -0.98941E-02
 -0.18329E-02 -0.71056E-03 -0.98941E-02
 -0.18430E-02  0.83985E-04 -0.98941E-02
 -0.27235E-02 -0.77695E-03 -0.98941E-02
 -0.28001E-02  0.43446E-04 -0.98941E-02
 -0.25380E-02 -0.15190E-02 -0.98941E-02
 -0.19330E-02 -0.13219E-02 -0.98941E-02
 -0.99219E-03  0.10020E-02 -0.98941E-02
 -0.14415E-02 -0.17321E-02 -0.98941E-02
 -0.31374E-03  0.20248E-02 -0.98941E-02
 -0.11033E-02  0.18602E-02 -0.98941E-02
 -0.18840E-02  0.17175E-02 -0.98941E-02
 -0.18700E-02  0.91180E-03 -0.98941E-02
 -0.16146E-03 -0.19803E-02 -0.98941E-02
 -0.94687E-03 -0.23491E-02 -0.98941E-02
  0.78195E-03 -0.17073E-02 -0.98941E-02
  0.17207E-02 -0.14919E-02 -0.98941E-02
  0.32083E-02  0.77042E-03 -0.98941E-02
  0.28044E-02  0.12520E-02 -0.98941E-02
  0.23048E-02  0.18669E-02 -0.98941E-02
 -0.40476E-03  0.28931E-02 -0.98941E-02
 -0.12093E-02  0.27160E-02 -0.98941E-02
 -0.19444E-02  0.24620E-02 -0.98941E-02
 -0.25026E-02  0.22358E-02 -0.98941E-02
 -0.26362E-02  0.16503E-02 -0.98941E-02
 -0.27640E-02  0.87754E-03 -0.98941E-02
 -0.21137E-02 -0.21374E-02 -0.98941E-02
 -0.16091E-02 -0.26933E-02 -0.98941E-02
 -0.11950E-02 -0.31291E-02 -0.98941E-02
 -0.58991E-03 -0.30382E-02 -0.98941E-02
  0.20505E-03 -0.28749E-02 -0.98941E-02
  0.10555E-02 -0.26450E-02 -0.98941E-02
  0.18417E-02 -0.23727E-02 -0.98941E-02
  0.24556E-02 -0.21500E-02 -0.98941E-02
  0.26029E-02 -0.15094E-02 -0.98941E-02
  0.37964E-02  0.93572E-03 -0.98941E-02
  0.39100E-02  0.00000E+00 -0.98941E-02
  0.34621E-02  0.18171E-02 -0.98941E-02
  0.29267E-02  0.25928E-02 -0.98941E-02
  0.22211E-02  0.32179E-02 -0.98941E-02
  0.13865E-02  0.36559E-02 -0.98941E-02
  0.47130E-03  0.38815E-02 -0.98941E-02
 -0.47130E-03  0.38815E-02 -0.98941E-02
 -0.13865E-02  0.36559E-02 -0.98941E-02
 -0.22211E-02  0.32179E-02 -0.98941E-02
 -0.29267E-02  0.25928E-02 -0.98941E-02
 -0.34621E-02  0.18171E-02 -0.98941E-02
 -0.37964E-02  0.93572E-03 -0.98941E-02
 -0.39100E-02  0.39516E-17 -0.98941E-02
 -0.37964E-02 -0.93572E-03 -0.98941E-02
 -0.34621E-02 -0.18171E-02 -0.98941E-02
 -0.29267E-02 -0.25928E-02 -0.98941E-02
 -0.22211E-02 -0.32179E-02 -0.98941E-02
 -0.13865E-02 -0.36559E-02 -0.98941E-02
 -0.47130E-03 -0.38815E-02 -0.98941E-02
  0.47130E-03 -0.38815E-02 -0.98941E-02
  0.13865E-02 -0.36559E-02 -0.98941E-02
  0.22211E-02 -0.32179E-02 -0.98941E-02
  0.29267E-02 -0.25928E-02 -0.98941E-02
  0.34621E-02 -0.18171E-02 -0.98941E-02
  0.37964E-02 -0.93572E-03 -0.98941E-02
  0.10365E-02  0.67902E-03 -0.89150E-02
  0.17432E-02  0.12381E-02 -0.89150E-02
  0.23163E-02  0.59727E-03 -0.89150E-02
  0.16675E-02 -0.32945E-03 -0.89150E-02
  0.30374E-02  0.15282E-03 -0.89150E-02
  0.27829E-02 -0.67100E-03 -0.89150E-02
  0.12839E-02  0.18432E-02 -0.89150E-02
  0.64869E-03  0.14686E-02 -0.89150E-02
  0.12468E-03  0.31196E-03 -0.89150E-02
 -0.13026E-03  0.11865E-02 -0.89150E-02
  0.94135E-03  0.22762E-02 -0.89150E-02
  0.11289E-02  0.28238E-02 -0.89150E-02
  0.17447E-02  0.24254E-02 -0.89150E-02
  0.40528E-03  0.21688E-02 -0.89150E-02
  0.39760E-03  0.29337E-02 -0.89150E-02
 -0.76692E-03 -0.10049E-02 -0.89150E-02
 -0.86724E-03  0.87871E-04 -0.89150E-02
  0.45626E-03 -0.69519E-03 -0.89150E-02
 -0.18332E-02 -0.71042E-03 -0.89150E-02
 -0.18430E-02  0.84108E-04 -0.89150E-02
 -0.27235E-02 -0.77678E-03 -0.89150E-02
 -0.27998E-02  0.43720E-04 -0.89150E-02
 -0.25382E-02 -0.15189E-02 -0.89150E-02
 -0.19334E-02 -0.13219E-02 -0.89150E-02
 -0.99205E-03  0.10034E-02 -0.89150E-02
 -0.14419E-02 -0.17320E-02 -0.89150E-02
 -0.31354E-03  0.20251E-02 -0.89150E-02
 -0.11030E-02  0.18601E-02 -0.89150E-02
 -0.18840E-02  0.17175E-02 -0.89150E-02
 -0.18699E-02  0.91204E-03 -0.89150E-02
 -0.16174E-03 -0.19803E-02 -0.89150E-02
 -0.94747E-03 -0.23492E-02 -0.89150E-02
  0.78129E-03 -0.17073E-02 -0.89150E-02
  0.17206E-02 -0.14921E-02 -0.89150E-02
  0.32086E-02  0.77142E-03 -0.89150E-02
  0.28044E-02  0.12524E-02 -0.89150E-02
  0.23047E-02  0.18669E-02 -0.89150E-02
 -0.40462E-03  0.28920E-02 -0.89150E-02
 -0.12093E-02  0.27155E-02 -0.89150E-02
 -0.19444E-02  0.24618E-02 -0.89150E-02
 -0.25025E-02  0.22358E-02 -0.89150E-02
 -0.26361E-02  0.16503E-02 -0.89150E-02
 -0.27637E-02  0.87781E-03 -0.89150E-02
 -0.21139E-02 -0.21374E-02 -0.89150E-02
 -0.16092E-02 -0.26934E-02 -0.89150E-02
 -0.11951E-02 -0.31291E-02 -0.89150E-02
 -0.59025E-03 -0.30382E-02 -0.89150E-02
  0.20465E-03 -0.28749E-02 -0.89150E-02
  0.10552E-02 -0.26452E-02 -0.89150E-02
  0.18418E-02 -0.23729E-02 -0.89150E-02
  0.24558E-02 -0.21505E-02 -0.89150E-02
  0.26030E-02 -0.15093E-02 -0.89150E-02
  0.37964E-02  0.93572E-03 -0.89150E-02
  0.39100E-02  0.00000E+00 -0.89150E-02
  0.34621E-02  0.18171E-02 -0.89150E-02
  0.29267E-02  0.25928E-02 -0.89150E-02
  0.22211E-02  0.32179E-02 -0.89150E-02
  0.13865E-02  0.36559E-02 -0.89150E-02
  0.47130E-03  0.38815E-02 -0.89150E-02
 -0.47130E-03  0.38815E-02 -0.89150E-02
 -0.13865E-02  0.36559E-02 -0.89150E-02
 -0.22211E-02  0.32179E-02 -0.89150E-02
 -0.29267E-02  0.25928E-02 -0.89150E-02
 -0.34621E-02  0.18171E-02 -0.89150E-02
 -0.37964E-02  0.93572E-03 -0.89150E-02
 -0.39100E-02 -0.47884E-18 -0.89150E-02
 -0.37964E-02 -0.93572E-03 -0.89150E-02
 -0.34621E-02 -0.18171E-02 -0.89150E-02
 -0.29267E-02 -0.25928E-02 -0.89150E-02
 -0.22211E-02 -0.32179E-02 -0.89150E-02
 -0.13865E-02 -0.36559E-02 -0.89150E-02
 -0.47130E-03 -0.38815E-02 -0.89150E-02
  0.47130E-03 -0.38815E-02 -0.89150E-02
  0.13865E-02 -0.36559E-02 -0.89150E-02
  0.22211E-02 -0.32179E-02 -0.89150E-02
  0.29267E-02 -0.25928E-02 -0.89150E-02
  0.34621E-02 -0.18171E-02 -0.89150E-02
  0.37964E-02 -0.93572E-03 -0.89150E-02
  0.10364E-02  0.67958E-03 -0.79358E-02
  0.17430E-02  0.12387E-02 -0.79358E-02
  0.23162E-02  0.59779E-03 -0.79358E-02
  0.16672E-02 -0.32870E-03 -0.79358E-02
  0.30374E-02  0.15318E-03 -0.79358E-02
  0.27832E-02 -0.67051E-03 -0.79358E-02
  0.12838E-02  0.18434E-02 -0.79358E-02
  0.64845E-03  0.14696E-02 -0.79358E-02
  0.12442E-03  0.31311E-03 -0.79358E-02
 -0.13044E-03  0.11882E-02 -0.79358E-02
  0.94102E-03  0.22763E-02 -0.79358E-02
  0.11286E-02  0.28233E-02 -0.79358E-02
  0.17443E-02  0.24255E-02 -0.79358E-02
  0.40523E-03  0.21689E-02 -0.79358E-02
  0.39759E-03  0.29335E-02 -0.79358E-02
 -0.76727E-03 -0.10050E-02 -0.79358E-02
 -0.86735E-03  0.88681E-04 -0.79358E-02
  0.45582E-03 -0.69447E-03 -0.79358E-02
 -0.18335E-02 -0.71028E-03 -0.79358E-02
 -0.18429E-02  0.84232E-04 -0.79358E-02
 -0.27235E-02 -0.77661E-03 -0.79358E-02
 -0.27995E-02  0.43993E-04 -0.79358E-02
 -0.25383E-02 -0.15189E-02 -0.79358E-02
 -0.19339E-02 -0.13218E-02 -0.79358E-02
 -0.99190E-03  0.10048E-02 -0.79358E-02
 -0.14422E-02 -0.17320E-02 -0.79358E-02
 -0.31334E-03  0.20254E-02 -0.79358E-02
 -0.11026E-02  0.18599E-02 -0.79358E-02
 -0.18839E-02  0.17175E-02 -0.79358E-02
 -0.18697E-02  0.91228E-03 -0.79358E-02
 -0.16201E-03 -0.19803E-02 -0.79358E-02
 -0.94807E-03 -0.23492E-02 -0.79358E-02
  0.78063E-03 -0.17073E-02 -0.79358E-02
  0.17206E-02 -0.14923E-02 -0.79358E-02
  0.32089E-02  0.77243E-03 -0.79358E-02
  0.28043E-02  0.12528E-02 -0.79358E-02
  0.23046E-02  0.18670E-02 -0.79358E-02
 -0.40448E-03  0.28910E-02 -0.79358E-02
 -0.12093E-02  0.27151E-02 -0.79358E-02
 -0.19443E-02  0.24615E-02 -0.79358E-02
 -0.25025E-02  0.22358E-02 -0.79358E-02
 -0.26360E-02  0.16503E-02 -0.79358E-02
 -0.27633E-02  0.87807E-03 -0.79358E-02
 -0.21140E-02 -0.21374E-02 -0.79358E-02
 -0.16092E-02 -0.26934E-02 -0.79358E-02
 -0.11953E-02 -0.31291E-02 -0.79358E-02
 -0.59060E-03 -0.30382E-02 -0.79358E-02
  0.20424E-03 -0.28749E-02 -0.79358E-02
  0.10549E-02 -0.26455E-02 -0.79358E-02
  0.18418E-02 -0.23732E-02 -0.79358E-02
  0.24559E-02 -0.21511E-02 -0.79358E-02
  0.26030E-02 -0.15092E-02 -0.79358E-02
  0.37964E-02  0.93572E-03 -0.79358E-02
  0.39100E-02  0.00000E+00 -0.79358E-02
  0.34621E-02  0.18171E-02 -0.79358E-02
  0.29267E-02  0.25928E-02 -0.79358E-02
  0.22211E-02  0.32179E-02 -0.79358E-02
  0.13865E-02  0.36559E-02 -0.79358E-02
  0.47130E-03  0.38815E-02 -0.79358E-02
 -0.47130E-03  0.38815E-02 -0.79358E-02
 -0.13865E-02  0.36559E-02 -0.79358E-02
 -0.22211E-02  0.32179E-02 -0.79358E-02
 -0.29267E-02  0.25928E-02 -0.79358E-02
 -0.34621E-02  0.18171E-02 -0.79358E-02
 -0.37964E-02  0.93572E-03 -0.79358E-02
 -0.39100E-02  0.22152E-17 -0.79358E-02
 -0.37964E-02 -0.93572E-03 -0.79358E-02
 -0.34621E-02 -0.18171E-02 -0.79358E-02
 -0.29267E-02 -0.25928E-02 -0.79358E-02
 -0.22211E-02 -0.32179E-02 -0.79358E-02
 -0.13865E-02 -0.36559E-02 -0.79358E-02
 -0.47130E-03 -0.38815E-02 -0.79358E-02
  0.47130E-03 -0.38815E-02 -0.79358E-02
  0.13865E-02 -0.36559E-02 -0.79358E-02
  0.22211E-02 -0.32179E-02 -0.79358E-02
  0.29267E-02 -0.25928E-02 -0.79358E-02
  0.34621E-02 -0.18171E-02 -0.79358E-02
  0.37964E-02 -0.93572E-03 -0.79358E-02
  0.10363E-02  0.68013E-03 -0.69566E-02
  0.17429E-02  0.12394E-02 -0.69566E-02
  0.23161E-02  0.59831E-03 -0.69566E-02
  0.16670E-02 -0.32794E-03 -0.69566E-02
  0.30374E-02  0.15354E-03 -0.69566E-02
  0.27836E-02 -0.67002E-03 -0.69566E-02
  0.12837E-02  0.18436E-02 -0.69566E-02
  0.64820E-03  0.14706E-02 -0.69566E-02
  0.12416E-03  0.31426E-03 -0.69566E-02
 -0.13063E-03  0.11900E-02 -0.69566E-02
  0.94069E-03  0.22765E-02 -0.69566E-02
  0.11282E-02  0.28229E-02 -0.69566E-02
  0.17439E-02  0.24257E-02 -0.69566E-02
  0.40518E-03  0.21689E-02 -0.69566E-02
  0.39757E-03  0.29332E-02 -0.69566E-02
 -0.76763E-03 -0.10051E-02 -0.69566E-02
 -0.86746E-03  0.89490E-04 -0.69566E-02
  0.45537E-03 -0.69374E-03 -0.69566E-02
 -0.18338E-02 -0.71013E-03 -0.69566E-02
 -0.18428E-02  0.84355E-04 -0.69566E-02
 -0.27234E-02 -0.77644E-03 -0.69566E-02
 -0.27992E-02  0.44266E-04 -0.69566E-02
 -0.25385E-02 -0.15188E-02 -0.69566E-02
 -0.19343E-02 -0.13216E-02 -0.69566E-02
 -0.99176E-03  0.10061E-02 -0.69566E-02
 -0.14425E-02 -0.17320E-02 -0.69566E-02
 -0.31314E-03  0.20257E-02 -0.69566E-02
 -0.11023E-02  0.18598E-02 -0.69566E-02
 -0.18839E-02  0.17175E-02 -0.69566E-02
 -0.18696E-02  0.91252E-03 -0.69566E-02
 -0.16229E-03 -0.19803E-02 -0.69566E-02
 -0.94867E-03 -0.23492E-02 -0.69566E-02
  0.77997E-03 -0.17073E-02 -0.69566E-02
  0.17205E-02 -0.14926E-02 -0.69566E-02
  0.32092E-02  0.77343E-03 -0.69566E-02
  0.28043E-02  0.12533E-02 -0.69566E-02
  0.23044E-02  0.18670E-02 -0.69566E-02
 -0.40434E-03  0.28899E-02 -0.69566E-02
 -0.12093E-02  0.27146E-02 -0.69566E-02
 -0.19443E-02  0.24613E-02 -0.69566E-02
 -0.25025E-02  0.22358E-02 -0.69566E-02
 -0.26359E-02  0.16503E-02 -0.69566E-02
 -0.27630E-02  0.87833E-03 -0.69566E-02
 -0.21141E-02 -0.21374E-02 -0.69566E-02
 -0.16093E-02 -0.26934E-02 -0.69566E-02
 -0.11954E-02 -0.31291E-02 -0.69566E-02
 -0.59095E-03 -0.30382E-02 -0.69566E-02
  0.20384E-03 -0.28750E-02 -0.69566E-02
  0.10546E-02 -0.26458E-02 -0.69566E-02
  0.18419E-02 -0.23734E-02 -0.69566E-02
  0.24560E-02 -0.21516E-02 -0.69566E-02
  0.26031E-02 -0.15091E-02 -0.69566E-02
  0.37964E-02  0.93572E-03 -0.69566E-02
  0.39100E-02  0.00000E+00 -0.69566E-02
  0.34621E-02  0.18171E-02 -0.69566E-02
  0.29267E-02  0.25928E-02 -0.69566E-02
  0.22211E-02  0.32179E-02 -0.69566E-02
  0.13865E-02  0.36559E-02 -0.69566E-02
  0.47130E-03  0.38815E-02 -0.69566E-02
 -0.47130E-03  0.38815E-02 -0.69566E-02
 -0.13865E-02  0.36559E-02 -0.69566E-02
 -0.22211E-02  0.32179E-02 -0.69566E-02
 -0.29267E-02  0.25928E-02 -0.69566E-02
 -0.34621E-02  0.18171E-02 -0.69566E-02
 -0.37964E-02  0.93572E-03 -0.69566E-02
 -0.39100E-02 -0.47884E-18 -0.69566E-02
 -0.37964E-02 -0.93572E-03 -0.69566E-02
 -0.34621E-02 -0.18171E-02 -0.69566E-02
 -0.29267E-02 -0.25928E-02 -0.69566E-02
 -0.22211E-02 -0.32179E-02 -0.69566E-02
 -0.13865E-02 -0.36559E-02 -0.69566E-02
 -0.47130E-03 -0.38815E-02 -0.69566E-02
  0.47130E-03 -0.38815E-02 -0.69566E-02
  0.13865E-02 -0.36559E-02 -0.69566E-02
  0.22211E-02 -0.32179E-02 -0.69566E-02
  0.29267E-02 -0.25928E-02 -0.69566E-02
  0.34621E-02 -0.18171E-02 -0.69566E-02
  0.37964E-02 -0.93572E-03 -0.69566E-02
  0.10362E-02  0.68068E-03 -0.59775E-02
  0.17427E-02  0.12401E-02 -0.59775E-02
  0.23160E-02  0.59884E-03 -0.59775E-02
  0.16668E-02 -0.32719E-03 -0.59775E-02
  0.30373E-02  0.15391E-03 -0.59775E-02
  0.27839E-02 -0.66953E-03 -0.59775E-02
  0.12836E-02  0.18438E-02 -0.59775E-02
  0.64796E-03  0.14716E-02 -0.59775E-02
  0.12390E-03  0.31541E-03 -0.59775E-02
 -0.13082E-03  0.11917E-02 -0.59775E-02
  0.94036E-03  0.22766E-02 -0.59775E-02
  0.11279E-02  0.28225E-02 -0.59775E-02
  0.17435E-02  0.24258E-02 -0.59775E-02
  0.40512E-03  0.21690E-02 -0.59775E-02
  0.39755E-03  0.29330E-02 -0.59775E-02
 -0.76798E-03 -0.10053E-02 -0.59775E-02
 -0.86756E-03  0.90299E-04 -0.59775E-02
  0.45492E-03 -0.69302E-03 -0.59775E-02
 -0.18341E-02 -0.70999E-03 -0.59775E-02
 -0.18427E-02  0.84479E-04 -0.59775E-02
 -0.27234E-02 -0.77627E-03 -0.59775E-02
 -0.27990E-02  0.44540E-04 -0.59775E-02
 -0.25386E-02 -0.15188E-02 -0.59775E-02
 -0.19347E-02 -0.13215E-02 -0.59775E-02
 -0.99161E-03  0.10075E-02 -0.59775E-02
 -0.14429E-02 -0.17319E-02 -0.59775E-02
 -0.31294E-03  0.20260E-02 -0.59775E-02
 -0.11019E-02  0.18597E-02 -0.59775E-02
 -0.18838E-02  0.17175E-02 -0.59775E-02
 -0.18695E-02  0.91276E-03 -0.59775E-02
 -0.16256E-03 -0.19804E-02 -0.59775E-02
 -0.94927E-03 -0.23493E-02 -0.59775E-02
  0.77931E-03 -0.17073E-02 -0.59775E-02
  0.17205E-02 -0.14928E-02 -0.59775E-02
  0.32096E-02  0.77444E-03 -0.59775E-02
  0.28043E-02  0.12537E-02 -0.59775E-02
  0.23043E-02  0.18670E-02 -0.59775E-02
 -0.40420E-03  0.28888E-02 -0.59775E-02
 -0.12093E-02  0.27141E-02 -0.59775E-02
 -0.19443E-02  0.24611E-02 -0.59775E-02
 -0.25024E-02  0.22358E-02 -0.59775E-02
 -0.26358E-02  0.16503E-02 -0.59775E-02
 -0.27627E-02  0.87859E-03 -0.59775E-02
 -0.21143E-02 -0.21374E-02 -0.59775E-02
 -0.16093E-02 -0.26934E-02 -0.59775E-02
 -0.11955E-02 -0.31291E-02 -0.59775E-02
 -0.59130E-03 -0.30382E-02 -0.59775E-02
  0.20343E-03 -0.28750E-02 -0.59775E-02
  0.10543E-02 -0.26460E-02 -0.59775E-02
  0.18419E-02 -0.23736E-02 -0.59775E-02
  0.24561E-02 -0.21521E-02 -0.59775E-02
  0.26032E-02 -0.15090E-02 -0.59775E-02
  0.37964E-02  0.93572E-03 -0.59775E-02
  0.39100E-02  0.00000E+00 -0.59775E-02
  0.34621E-02  0.18171E-02 -0.59775E-02
  0.29267E-02  0.25928E-02 -0.59775E-02
  0.22211E-02  0.32179E-02 -0.59775E-02
  0.13865E-02  0.36559E-02 -0.59775E-02
  0.47130E-03  0.38815E-02 -0.59775E-02
 -0.47130E-03  0.38815E-02 -0.59775E-02
 -0.13865E-02  0.36559E-02 -0.59775E-02
 -0.22211E-02  0.32179E-02 -0.59775E-02
 -0.29267E-02  0.25928E-02 -0.59775E-02
 -0.34621E-02  0.18171E-02 -0.59775E-02
 -0.37964E-02  0.93572E-03 -0.59775E-02
 -0.39100E-02  0.22152E-17 -0.59775E-02
 -0.37964E-02 -0.93572E-03 -0.59775E-02
 -0.34621E-02 -0.18171E-02 -0.59775E-02
 -0.29267E-02 -0.25928E-02 -0.59775E-02
 -0.22211E-02 -0.32179E-02 -0.59775E-02
 -0.13865E-02 -0.36559E-02 -0.59775E-02
 -0.47130E-03 -0.38815E-02 -0.59775E-02
  0.47130E-03 -0.38815E-02 -0.59775E-02
  0.13865E-02 -0.36559E-02 -0.59775E-02
  0.22211E-02 -0.32179E-02 -0.59775E-02
  0.29267E-02 -0.25928E-02 -0.59775E-02
  0.34621E-02 -0.18171E-02 -0.59775E-02
  0.37964E-02 -0.93572E-03 -0.59775E-02
  0.10360E-02  0.68124E-03 -0.49983E-02
  0.17425E-02  0.12407E-02 -0.49983E-02
  0.23158E-02  0.59936E-03 -0.49983E-02
  0.16666E-02 -0.32643E-03 -0.49983E-02
  0.30373E-02  0.15427E-03 -0.49983E-02
  0.27842E-02 -0.66903E-03 -0.49983E-02
  0.12835E-02  0.18440E-02 -0.49983E-02
  0.64771E-03  0.14727E-02 -0.49983E-02
  0.12363E-03  0.31656E-03 -0.49983E-02
 -0.13100E-03  0.11935E-02 -0.49983E-02
  0.94003E-03  0.22767E-02 -0.49983E-02
  0.11276E-02  0.28220E-02 -0.49983E-02
  0.17432E-02  0.24260E-02 -0.49983E-02
  0.40507E-03  0.21690E-02 -0.49983E-02
  0.39754E-03  0.29327E-02 -0.49983E-02
 -0.76834E-03 -0.10054E-02 -0.49983E-02
 -0.86767E-03  0.91108E-04 -0.49983E-02
  0.45447E-03 -0.69229E-03 -0.49983E-02
 -0.18344E-02 -0.70985E-03 -0.49983E-02
 -0.18426E-02  0.84602E-04 -0.49983E-02
 -0.27234E-02 -0.77610E-03 -0.49983E-02
 -0.27987E-02  0.44813E-04 -0.49983E-02
 -0.25388E-02 -0.15187E-02 -0.49983E-02
 -0.19352E-02 -0.13215E-02 -0.49983E-02
 -0.99147E-03  0.10088E-02 -0.49983E-02
 -0.14433E-02 -0.17319E-02 -0.49983E-02
 -0.31274E-03  0.20262E-02 -0.49983E-02
 -0.11016E-02  0.18595E-02 -0.49983E-02
 -0.18838E-02  0.17175E-02 -0.49983E-02
 -0.18694E-02  0.91300E-03 -0.49983E-02
 -0.16284E-03 -0.19804E-02 -0.49983E-02
 -0.94986E-03 -0.23493E-02 -0.49983E-02
  0.77865E-03 -0.17073E-02 -0.49983E-02
  0.17205E-02 -0.14931E-02 -0.49983E-02
  0.32099E-02  0.77544E-03 -0.49983E-02
  0.28042E-02  0.12541E-02 -0.49983E-02
  0.23042E-02  0.18671E-02 -0.49983E-02
 -0.40407E-03  0.28877E-02 -0.49983E-02
 -0.12093E-02  0.27137E-02 -0.49983E-02
 -0.19442E-02  0.24609E-02 -0.49983E-02
 -0.25024E-02  0.22358E-02 -0.49983E-02
 -0.26358E-02  0.16503E-02 -0.49983E-02
 -0.27624E-02  0.87885E-03 -0.49983E-02
 -0.21144E-02 -0.21374E-02 -0.49983E-02
 -0.16094E-02 -0.26934E-02 -0.49983E-02
 -0.11956E-02 -0.31291E-02 -0.49983E-02
 -0.59165E-03 -0.30382E-02 -0.49983E-02
  0.20302E-03 -0.28750E-02 -0.49983E-02
  0.10540E-02 -0.26463E-02 -0.49983E-02
  0.18419E-02 -0.23738E-02 -0.49983E-02
  0.24563E-02 -0.21527E-02 -0.49983E-02
  0.26033E-02 -0.15088E-02 -0.49983E-02
  0.37964E-02  0.93572E-03 -0.49983E-02
  0.39100E-02  0.00000E+00 -0.49983E-02
  0.34621E-02  0.18171E-02 -0.49983E-02
  0.29267E-02  0.25928E-02 -0.49983E-02
  0.22211E-02  0.32179E-02 -0.49983E-02
  0.13865E-02  0.36559E-02 -0.49983E-02
  0.47130E-03  0.38815E-02 -0.49983E-02
 -0.47130E-03  0.38815E-02 -0.49983E-02
 -0.13865E-02  0.36559E-02 -0.49983E-02
 -0.22211E-02  0.32179E-02 -0.49983E-02
 -0.29267E-02  0.25928E-02 -0.49983E-02
 -0.34621E-02  0.18171E-02 -0.49983E-02
 -0.37964E-02  0.93572E-03 -0.49983E-02
 -0.39100E-02 -0.47884E-18 -0.49983E-02
 -0.37964E-02 -0.93572E-03 -0.49983E-02
 -0.34621E-02 -0.18171E-02 -0.49983E-02
 -0.29267E-02 -0.25928E-02 -0.49983E-02
 -0.22211E-02 -0.32179E-02 -0.49983E-02
 -0.13865E-02 -0.36559E-02 -0.49983E-02
 -0.47130E-03 -0.38815E-02 -0.49983E-02
  0.47130E-03 -0.38815E-02 -0.49983E-02
  0.13865E-02 -0.36559E-02 -0.49983E-02
  0.22211E-02 -0.32179E-02 -0.49983E-02
  0.29267E-02 -0.25928E-02 -0.49983E-02
  0.34621E-02 -0.18171E-02 -0.49983E-02
  0.37964E-02 -0.93572E-03 -0.49983E-02
  0.10359E-02  0.68179E-03 -0.40191E-02
  0.17423E-02  0.12414E-02 -0.40191E-02
  0.23157E-02  0.59988E-03 -0.40191E-02
  0.16664E-02 -0.32568E-03 -0.40191E-02
  0.30373E-02  0.15463E-03 -0.40191E-02
  0.27846E-02 -0.66854E-03 -0.40191E-02
  0.12834E-02  0.18442E-02 -0.40191E-02
  0.64747E-03  0.14736E-02 -0.40191E-02
  0.12337E-03  0.31770E-03 -0.40191E-02
 -0.13118E-03  0.11952E-02 -0.40191E-02
  0.93970E-03  0.22768E-02 -0.40191E-02
  0.11272E-02  0.28216E-02 -0.40191E-02
  0.17428E-02  0.24261E-02 -0.40191E-02
  0.40501E-03  0.21690E-02 -0.40191E-02
  0.39752E-03  0.29324E-02 -0.40191E-02
 -0.76869E-03 -0.10056E-02 -0.40191E-02
 -0.86778E-03  0.91918E-04 -0.40191E-02
  0.45402E-03 -0.69156E-03 -0.40191E-02
 -0.18347E-02 -0.70971E-03 -0.40191E-02
 -0.18425E-02  0.84726E-04 -0.40191E-02
 -0.27234E-02 -0.77593E-03 -0.40191E-02
 -0.27984E-02  0.45086E-04 -0.40191E-02
 -0.25389E-02 -0.15187E-02 -0.40191E-02
 -0.19356E-02 -0.13213E-02 -0.40191E-02
 -0.99133E-03  0.10102E-02 -0.40191E-02
 -0.14436E-02 -0.17318E-02 -0.40191E-02
 -0.31254E-03  0.20265E-02 -0.40191E-02
 -0.11013E-02  0.18594E-02 -0.40191E-02
 -0.18837E-02  0.17175E-02 -0.40191E-02
 -0.18692E-02  0.91324E-03 -0.40191E-02
 -0.16311E-03 -0.19804E-02 -0.40191E-02
 -0.95046E-03 -0.23493E-02 -0.40191E-02
  0.77799E-03 -0.17073E-02 -0.40191E-02
  0.17204E-02 -0.14933E-02 -0.40191E-02
  0.32102E-02  0.77645E-03 -0.40191E-02
  0.28042E-02  0.12545E-02 -0.40191E-02
  0.23041E-02  0.18671E-02 -0.40191E-02
 -0.40393E-03  0.28867E-02 -0.40191E-02
 -0.12093E-02  0.27132E-02 -0.40191E-02
 -0.19442E-02  0.24606E-02 -0.40191E-02
 -0.25024E-02  0.22358E-02 -0.40191E-02
 -0.26357E-02  0.16503E-02 -0.40191E-02
 -0.27621E-02  0.87912E-03 -0.40191E-02
 -0.21146E-02 -0.21374E-02 -0.40191E-02
 -0.16094E-02 -0.26935E-02 -0.40191E-02
 -0.11957E-02 -0.31291E-02 -0.40191E-02
 -0.59200E-03 -0.30381E-02 -0.40191E-02
  0.20262E-03 -0.28750E-02 -0.40191E-02
  0.10536E-02 -0.26466E-02 -0.40191E-02
  0.18420E-02 -0.23740E-02 -0.40191E-02
  0.24564E-02 -0.21533E-02 -0.40191E-02
  0.26033E-02 -0.15087E-02 -0.40191E-02
  0.37964E-02  0.93572E-03 -0.40191E-02
  0.39100E-02  0.00000E+00 -0.40191E-02
  0.34621E-02  0.18171E-02 -0.40191E-02
  0.29267E-02  0.25928E-02 -0.40191E-02
  0.22211E-02  0.32179E-02 -0.40191E-02
  0.13865E-02  0.36559E-02 -0.40191E-02
  0.47130E-03  0.38815E-02 -0.40191E-02
 -0.47130E-03  0.38815E-02 -0.40191E-02
 -0.13865E-02  0.36559E-02 -0.40191E-02
 -0.22211E-02  0.32179E-02 -0.40191E-02
 -0.29267E-02  0.25928E-02 -0.40191E-02
 -0.34621E-02  0.18171E-02 -0.40191E-02
 -0.37964E-02  0.93572E-03 -0.40191E-02
 -0.39100E-02 -0.47884E-18 -0.40191E-02
 -0.37964E-02 -0.93572E-03 -0.40191E-02
 -0.34621E-02 -0.18171E-02 -0.40191E-02
 -0.29267E-02 -0.25928E-02 -0.40191E-02
 -0.22211E-02 -0.32179E-02 -0.40191E-02
 -0.13865E-02 -0.36559E-02 -0.40191E-02
 -0.47130E-03 -0.38815E-02 -0.40191E-02
  0.47130E-03 -0.38815E-02 -0.40191E-02
  0.13865E-02 -0.36559E-02 -0.40191E-02
  0.22211E-02 -0.32179E-02 -0.40191E-02
  0.29267E-02 -0.25928E-02 -0.40191E-02
  0.34621E-02 -0.18171E-02 -0.40191E-02
  0.37964E-02 -0.93572E-03 -0.40191E-02
  0.10358E-02  0.68235E-03 -0.30400E-02
  0.17422E-02  0.12421E-02 -0.30400E-02
  0.23156E-02  0.60041E-03 -0.30400E-02
  0.16662E-02 -0.32493E-03 -0.30400E-02
  0.30373E-02  0.15500E-03 -0.30400E-02
  0.27849E-02 -0.66805E-03 -0.30400E-02
  0.12833E-02  0.18444E-02 -0.30400E-02
  0.64722E-03  0.14747E-02 -0.30400E-02
  0.12311E-03  0.31885E-03 -0.30400E-02
 -0.13137E-03  0.11970E-02 -0.30400E-02
  0.93937E-03  0.22770E-02 -0.30400E-02
  0.11269E-02  0.28211E-02 -0.30400E-02
  0.17424E-02  0.24262E-02 -0.30400E-02
  0.40496E-03  0.21691E-02 -0.30400E-02
  0.39750E-03  0.29322E-02 -0.30400E-02
 -0.76904E-03 -0.10057E-02 -0.30400E-02
 -0.86789E-03  0.92727E-04 -0.30400E-02
  0.45358E-03 -0.69084E-03 -0.30400E-02
 -0.18350E-02 -0.70957E-03 -0.30400E-02
 -0.18424E-02  0.84849E-04 -0.30400E-02
 -0.27233E-02 -0.77576E-03 -0.30400E-02
 -0.27981E-02  0.45359E-04 -0.30400E-02
 -0.25391E-02 -0.15186E-02 -0.30400E-02
 -0.19360E-02 -0.13212E-02 -0.30400E-02
 -0.99118E-03  0.10115E-02 -0.30400E-02
 -0.14440E-02 -0.17318E-02 -0.30400E-02
 -0.31234E-03  0.20268E-02 -0.30400E-02
 -0.11009E-02  0.18593E-02 -0.30400E-02
 -0.18836E-02  0.17175E-02 -0.30400E-02
 -0.18691E-02  0.91347E-03 -0.30400E-02
 -0.16339E-03 -0.19804E-02 -0.30400E-02
 -0.95106E-03 -0.23493E-02 -0.30400E-02
  0.77733E-03 -0.17073E-02 -0.30400E-02
  0.17204E-02 -0.14936E-02 -0.30400E-02
  0.32105E-02  0.77745E-03 -0.30400E-02
  0.28042E-02  0.12550E-02 -0.30400E-02
  0.23040E-02  0.18671E-02 -0.30400E-02
 -0.40379E-03  0.28856E-02 -0.30400E-02
 -0.12093E-02  0.27127E-02 -0.30400E-02
 -0.19441E-02  0.24604E-02 -0.30400E-02
 -0.25023E-02  0.22358E-02 -0.30400E-02
 -0.26356E-02  0.16503E-02 -0.30400E-02
 -0.27618E-02  0.87938E-03 -0.30400E-02
 -0.21147E-02 -0.21374E-02 -0.30400E-02
 -0.16094E-02 -0.26935E-02 -0.30400E-02
 -0.11958E-02 -0.31291E-02 -0.30400E-02
 -0.59235E-03 -0.30381E-02 -0.30400E-02
  0.20221E-03 -0.28750E-02 -0.30400E-02
  0.10533E-02 -0.26468E-02 -0.30400E-02
  0.18420E-02 -0.23742E-02 -0.30400E-02
  0.24565E-02 -0.21538E-02 -0.30400E-02
  0.26034E-02 -0.15086E-02 -0.30400E-02
  0.37964E-02  0.93572E-03 -0.30400E-02
  0.39100E-02  0.00000E+00 -0.30400E-02
  0.34621E-02  0.18171E-02 -0.30400E-02
  0.29267E-02  0.25928E-02 -0.30400E-02
  0.22211E-02  0.32179E-02 -0.30400E-02
  0.13865E-02  0.36559E-02 -0.30400E-02
  0.47130E-03  0.38815E-02 -0.30400E-02
 -0.47130E-03  0.38815E-02 -0.30400E-02
 -0.13865E-02  0.36559E-02 -0.30400E-02
 -0.22211E-02  0.32179E-02 -0.30400E-02
 -0.29267E-02  0.25928E-02 -0.30400E-02
 -0.34621E-02  0.18171E-02 -0.30400E-02
 -0.37964E-02  0.93572E-03 -0.30400E-02
 -0.39100E-02 -0.47884E-18 -0.30400E-02
 -0.37964E-02 -0.93572E-03 -0.30400E-02
 -0.34621E-02 -0.18171E-02 -0.30400E-02
 -0.29267E-02 -0.25928E-02 -0.30400E-02
 -0.22211E-02 -0.32179E-02 -0.30400E-02
 -0.13865E-02 -0.36559E-02 -0.30400E-02
 -0.47130E-03 -0.38815E-02 -0.30400E-02
  0.47130E-03 -0.38815E-02 -0.30400E-02
  0.13865E-02 -0.36559E-02 -0.30400E-02
  0.22211E-02 -0.32179E-02 -0.30400E-02
  0.29267E-02 -0.25928E-02 -0.30400E-02
  0.34621E-02 -0.18171E-02 -0.30400E-02
  0.37964E-02 -0.93572E-03 -0.30400E-02
  0.10357E-02  0.68290E-03 -0.20608E-02
  0.17420E-02  0.12427E-02 -0.20608E-02
  0.23155E-02  0.60093E-03 -0.20608E-02
  0.16660E-02 -0.32417E-03 -0.20608E-02
  0.30372E-02  0.15536E-03 -0.20608E-02
  0.27853E-02 -0.66755E-03 -0.20608E-02
  0.12832E-02  0.18445E-02 -0.20608E-02
  0.64698E-03  0.14757E-02 -0.20608E-02
  0.12285E-03  0.32000E-03 -0.20608E-02
 -0.13155E-03  0.11987E-02 -0.20608E-02
  0.93903E-03  0.22771E-02 -0.20608E-02
  0.11266E-02  0.28207E-02 -0.20608E-02
  0.17420E-02  0.24264E-02 -0.20608E-02
  0.40490E-03  0.21691E-02 -0.20608E-02
  0.39749E-03  0.29319E-02 -0.20608E-02
 -0.76940E-03 -0.10058E-02 -0.20608E-02
 -0.86800E-03  0.93536E-04 -0.20608E-02
  0.45313E-03 -0.69011E-03 -0.20608E-02
 -0.18353E-02 -0.70943E-03 -0.20608E-02
 -0.18423E-02  0.84973E-04 -0.20608E-02
 -0.27233E-02 -0.77559E-03 -0.20608E-02
 -0.27979E-02  0.45633E-04 -0.20608E-02
 -0.25393E-02 -0.15186E-02 -0.20608E-02
 -0.19365E-02 -0.13212E-02 -0.20608E-02
 -0.99104E-03  0.10129E-02 -0.20608E-02
 -0.14443E-02 -0.17318E-02 -0.20608E-02
 -0.31214E-03  0.20271E-02 -0.20608E-02
 -0.11006E-02  0.18592E-02 -0.20608E-02
 -0.18836E-02  0.17175E-02 -0.20608E-02
 -0.18690E-02  0.91371E-03 -0.20608E-02
 -0.16366E-03 -0.19805E-02 -0.20608E-02
 -0.95166E-03 -0.23493E-02 -0.20608E-02
  0.77667E-03 -0.17073E-02 -0.20608E-02
  0.17203E-02 -0.14938E-02 -0.20608E-02
  0.32109E-02  0.77846E-03 -0.20608E-02
  0.28042E-02  0.12554E-02 -0.20608E-02
  0.23039E-02  0.18672E-02 -0.20608E-02
 -0.40365E-03  0.28845E-02 -0.20608E-02
 -0.12093E-02  0.27122E-02 -0.20608E-02
 -0.19441E-02  0.24602E-02 -0.20608E-02
 -0.25023E-02  0.22358E-02 -0.20608E-02
 -0.26355E-02  0.16502E-02 -0.20608E-02
 -0.27615E-02  0.87964E-03 -0.20608E-02
 -0.21148E-02 -0.21374E-02 -0.20608E-02
 -0.16095E-02 -0.26935E-02 -0.20608E-02
 -0.11960E-02 -0.31291E-02 -0.20608E-02
 -0.59270E-03 -0.30381E-02 -0.20608E-02
  0.20180E-03 -0.28750E-02 -0.20608E-02
  0.10530E-02 -0.26471E-02 -0.20608E-02
  0.18421E-02 -0.23744E-02 -0.20608E-02
  0.24566E-02 -0.21543E-02 -0.20608E-02
  0.26035E-02 -0.15085E-02 -0.20608E-02
  0.37964E-02  0.93572E-03 -0.20608E-02
  0.39100E-02  0.00000E+00 -0.20608E-02
  0.34621E-02  0.18171E-02 -0.20608E-02
  0.29267E-02  0.25928E-02 -0.20608E-02
  0.22211E-02  0.32179E-02 -0.20608E-02
  0.13865E-02  0.36559E-02 -0.20608E-02
  0.47130E-03  0.38815E-02 -0.20608E-02
 -0.47130E-03  0.38815E-02 -0.20608E-02
 -0.13865E-02  0.36559E-02 -0.20608E-02
 -0.22211E-02  0.32179E-02 -0.20608E-02
 -0.29267E-02  0.25928E-02 -0.20608E-02
 -0.34621E-02  0.18171E-02 -0.20608E-02
 -0.37964E-02  0.93572E-03 -0.20608E-02
 -0.39100E-02 -0.47884E-18 -0.20608E-02
 -0.37964E-02 -0.93572E-03 -0.20608E-02
 -0.34621E-02 -0.18171E-02 -0.20608E-02
 -0.29267E-02 -0.25928E-02 -0.20608E-02
 -0.22211E-02 -0.32179E-02 -0.20608E-02
 -0.13865E-02 -0.36559E-02 -0.20608E-02
 -0.47130E-03 -0.38815E-02 -0.20608E-02
  0.47130E-03 -0.38815E-02 -0.20608E-02
  0.13865E-02 -0.36559E-02 -0.20608E-02
  0.22211E-02 -0.32179E-02 -0.20608E-02
  0.29267E-02 -0.25928E-02 -0.20608E-02
  0.34621E-02 -0.18171E-02 -0.20608E-02
  0.37964E-02 -0.93572E-03 -0.20608E-02
  0.10356E-02  0.68346E-03 -0.10816E-02
  0.17418E-02  0.12434E-02 -0.10816E-02
  0.23153E-02  0.60145E-03 -0.10816E-02
  0.16657E-02 -0.32342E-03 -0.10816E-02
  0.30372E-02  0.15572E-03 -0.10816E-02
  0.27856E-02 -0.66706E-03 -0.10816E-02
  0.12830E-02  0.18447E-02 -0.10816E-02
  0.64673E-03  0.14767E-02 -0.10816E-02
  0.12259E-03  0.32115E-03 -0.10816E-02
 -0.13174E-03  0.12005E-02 -0.10816E-02
  0.93870E-03  0.22772E-02 -0.10816E-02
  0.11262E-02  0.28203E-02 -0.10816E-02
  0.17416E-02  0.24265E-02 -0.10816E-02
  0.40485E-03  0.21691E-02 -0.10816E-02
  0.39747E-03  0.29316E-02 -0.10816E-02
 -0.76975E-03 -0.10060E-02 -0.10816E-02
 -0.86811E-03  0.94345E-04 -0.10816E-02
  0.45268E-03 -0.68939E-03 -0.10816E-02
 -0.18356E-02 -0.70929E-03 -0.10816E-02
 -0.18422E-02  0.85096E-04 -0.10816E-02
 -0.27233E-02 -0.77542E-03 -0.10816E-02
 -0.27976E-02  0.45906E-04 -0.10816E-02
 -0.25394E-02 -0.15185E-02 -0.10816E-02
 -0.19369E-02 -0.13211E-02 -0.10816E-02
 -0.99090E-03  0.10142E-02 -0.10816E-02
 -0.14446E-02 -0.17317E-02 -0.10816E-02
 -0.31194E-03  0.20274E-02 -0.10816E-02
 -0.11002E-02  0.18590E-02 -0.10816E-02
 -0.18835E-02  0.17175E-02 -0.10816E-02
 -0.18689E-02  0.91395E-03 -0.10816E-02
 -0.16394E-03 -0.19805E-02 -0.10816E-02
 -0.95226E-03 -0.23494E-02 -0.10816E-02
  0.77601E-03 -0.17073E-02 -0.10816E-02
  0.17203E-02 -0.14941E-02 -0.10816E-02
  0.32112E-02  0.77946E-03 -0.10816E-02
  0.28042E-02  0.12558E-02 -0.10816E-02
  0.23038E-02  0.18672E-02 -0.10816E-02
 -0.40352E-03  0.28835E-02 -0.10816E-02
 -0.12093E-02  0.27118E-02 -0.10816E-02
 -0.19441E-02  0.24600E-02 -0.10816E-02
 -0.25023E-02  0.22358E-02 -0.10816E-02
 -0.26354E-02  0.16502E-02 -0.10816E-02
 -0.27612E-02  0.87990E-03 -0.10816E-02
 -0.21150E-02 -0.21374E-02 -0.10816E-02
 -0.16095E-02 -0.26935E-02 -0.10816E-02
 -0.11961E-02 -0.31291E-02 -0.10816E-02
 -0.59305E-03 -0.30381E-02 -0.10816E-02
  0.20140E-03 -0.28750E-02 -0.10816E-02
  0.10527E-02 -0.26474E-02 -0.10816E-02
  0.18421E-02 -0.23746E-02 -0.10816E-02
  0.24568E-02 -0.21549E-02 -0.10816E-02
  0.26036E-02 -0.15084E-02 -0.10816E-02
  0.37964E-02  0.93572E-03 -0.10816E-02
  0.39100E-02  0.00000E+00 -0.10816E-02
  0.34621E-02  0.18171E-02 -0.10816E-02
  0.29267E-02  0.25928E-02 -0.10816E-02
  0.22211E-02  0.32179E-02 -0.10816E-02
  0.13865E-02  0.36559E-02 -0.10816E-02
  0.47130E-03  0.38815E-02 -0.10816E-02
 -0.47130E-03  0.38815E-02 -0.10816E-02
 -0.13865E-02  0.36559E-02 -0.10816E-02
 -0.22211E-02  0.32179E-02 -0.10816E-02
 -0.29267E-02  0.25928E-02 -0.10816E-02
 -0.34621E-02  0.18171E-02 -0.10816E-02
 -0.37964E-02  0.93572E-03 -0.10816E-02
 -0.39100E-02  0.22152E-17 -0.10816E-02
 -0.37964E-02 -0.93572E-03 -0.10816E-02
 -0.34621E-02 -0.18171E-02 -0.10816E-02
 -0.29267E-02 -0.25928E-02 -0.10816E-02
 -0.22211E-02 -0.32179E-02 -0.10816E-02
 -0.13865E-02 -0.36559E-02 -0.10816E-02
 -0.47130E-03 -0.38815E-02 -0.10816E-02
  0.47130E-03 -0.38815E-02 -0.10816E-02
  0.13865E-02 -0.36559E-02 -0.10816E-02
  0.22211E-02 -0.32179E-02 -0.10816E-02
  0.29267E-02 -0.25928E-02 -0.10816E-02
  0.34621E-02 -0.18171E-02 -0.10816E-02
  0.37964E-02 -0.93572E-03 -0.10816E-02
  0.10355E-02  0.68401E-03 -0.10247E-03
  0.17416E-02  0.12440E-02 -0.10247E-03
  0.23152E-02  0.60198E-03 -0.10247E-03
  0.16655E-02 -0.32266E-03 -0.10247E-03
  0.30372E-02  0.15609E-03 -0.10247E-03
  0.27860E-02 -0.66657E-03 -0.10247E-03
  0.12829E-02  0.18449E-02 -0.10247E-03
  0.64649E-03  0.14777E-02 -0.10247E-03
  0.12232E-03  0.32230E-03 -0.10247E-03
 -0.13193E-03  0.12022E-02 -0.10247E-03
  0.93837E-03  0.22774E-02 -0.10247E-03
  0.11259E-02  0.28198E-02 -0.10247E-03
  0.17412E-02  0.24267E-02 -0.10247E-03
  0.40480E-03  0.21692E-02 -0.10247E-03
  0.39745E-03  0.29314E-02 -0.10247E-03
 -0.77011E-03 -0.10061E-02 -0.10247E-03
 -0.86822E-03  0.95155E-04 -0.10247E-03
  0.45223E-03 -0.68866E-03 -0.10247E-03
 -0.18359E-02 -0.70915E-03 -0.10247E-03
 -0.18421E-02  0.85220E-04 -0.10247E-03
 -0.27232E-02 -0.77525E-03 -0.10247E-03
 -0.27973E-02  0.46180E-04 -0.10247E-03
 -0.25396E-02 -0.15185E-02 -0.10247E-03
 -0.19373E-02 -0.13210E-02 -0.10247E-03
 -0.99075E-03  0.10156E-02 -0.10247E-03
 -0.14450E-02 -0.17317E-02 -0.10247E-03
 -0.31173E-03  0.20277E-02 -0.10247E-03
 -0.10999E-02  0.18589E-02 -0.10247E-03
 -0.18835E-02  0.17175E-02 -0.10247E-03
 -0.18687E-02  0.91419E-03 -0.10247E-03
 -0.16421E-03 -0.19805E-02 -0.10247E-03
 -0.95285E-03 -0.23494E-02 -0.10247E-03
  0.77535E-03 -0.17073E-02 -0.10247E-03
  0.17202E-02 -0.14943E-02 -0.10247E-03
  0.32115E-02  0.78047E-03 -0.10247E-03
  0.28041E-02  0.12563E-02 -0.10247E-03
  0.23037E-02  0.18672E-02 -0.10247E-03
 -0.40338E-03  0.28824E-02 -0.10247E-03
 -0.12093E-02  0.27113E-02 -0.10247E-03
 -0.19440E-02  0.24597E-02 -0.10247E-03
 -0.25023E-02  0.22358E-02 -0.10247E-03
 -0.26353E-02  0.16502E-02 -0.10247E-03
 -0.27609E-02  0.88016E-03 -0.10247E-03
 -0.21151E-02 -0.21374E-02 -0.10247E-03
 -0.16096E-02 -0.26935E-02 -0.10247E-03
 -0.11962E-02 -0.31291E-02 -0.10247E-03
 -0.59340E-03 -0.30381E-02 -0.10247E-03
  0.20099E-03 -0.28751E-02 -0.10247E-03
  0.10524E-02 -0.26476E-02 -0.10247E-03
  0.18422E-02 -0.23748E-02 -0.10247E-03
  0.24569E-02 -0.21554E-02 -0.10247E-03
  0.26036E-02 -0.15083E-02 -0.10247E-03
  0.37964E-02  0.93572E-03 -0.10247E-03
  0.39100E-02  0.00000E+00 -0.10247E-03
  0.34621E-02  0.18171E-02 -0.10247E-03
  0.29267E-02  0.25928E-02 -0.10247E-03
  0.22211E-02  0.32179E-02 -0.10247E-03
  0.13865E-02  0.36559E-02 -0.10247E-03
  0.47130E-03  0.38815E-02 -0.10247E-03
 -0.47130E-03  0.38815E-02 -0.10247E-03
 -0.13865E-02  0.36559E-02 -0.10247E-03
 -0.22211E-02  0.32179E-02 -0.10247E-03
 -0.29267E-02  0.25928E-02 -0.10247E-03
 -0.34621E-02  0.18171E-02 -0.10247E-03
 -0.37964E-02  0.93572E-03 -0.10247E-03
 -0.39100E-02 -0.47884E-18 -0.10247E-03
 -0.37964E-02 -0.93572E-03 -0.10247E-03
 -0.34621E-02 -0.18171E-02 -0.10247E-03
 -0.29267E-02 -0.25928E-02 -0.10247E-03
 -0.22211E-02 -0.32179E-02 -0.10247E-03
 -0.13865E-02 -0.36559E-02 -0.10247E-03
 -0.47130E-03 -0.38815E-02 -0.10247E-03
  0.47130E-03 -0.38815E-02 -0.10247E-03
  0.13865E-02 -0.36559E-02 -0.10247E-03
  0.22211E-02 -0.32179E-02 -0.10247E-03
  0.29267E-02 -0.25928E-02 -0.10247E-03
  0.34621E-02 -0.18171E-02 -0.10247E-03
  0.37964E-02 -0.93572E-03 -0.10247E-03
  0.10354E-02  0.68457E-03  0.87670E-03
  0.17414E-02  0.12447E-02  0.87670E-03
  0.23151E-02  0.60250E-03  0.87670E-03
  0.16653E-02 -0.32191E-03  0.87670E-03
  0.30372E-02  0.15645E-03  0.87670E-03
  0.27863E-02 -0.66607E-03  0.87670E-03
  0.12829E-02  0.18451E-02  0.87670E-03
  0.64624E-03  0.14787E-02  0.87670E-03
  0.12206E-03  0.32345E-03  0.87670E-03
 -0.13211E-03  0.12040E-02  0.87670E-03
  0.93804E-03  0.22775E-02  0.87670E-03
  0.11255E-02  0.28194E-02  0.87670E-03
  0.17408E-02  0.24268E-02  0.87670E-03
  0.40474E-03  0.21692E-02  0.87670E-03
  0.39744E-03  0.29311E-02  0.87670E-03
 -0.77046E-03 -0.10062E-02  0.87670E-03
 -0.86832E-03  0.95964E-04  0.87670E-03
  0.45179E-03 -0.68793E-03  0.87670E-03
 -0.18362E-02 -0.70901E-03  0.87670E-03
 -0.18420E-02  0.85343E-04  0.87670E-03
 -0.27232E-02 -0.77507E-03  0.87670E-03
 -0.27970E-02  0.46453E-04  0.87670E-03
 -0.25397E-02 -0.15184E-02  0.87670E-03
 -0.19377E-02 -0.13209E-02  0.87670E-03
 -0.99061E-03  0.10169E-02  0.87670E-03
 -0.14453E-02 -0.17316E-02  0.87670E-03
 -0.31153E-03  0.20280E-02  0.87670E-03
 -0.10995E-02  0.18588E-02  0.87670E-03
 -0.18834E-02  0.17175E-02  0.87670E-03
 -0.18686E-02  0.91443E-03  0.87670E-03
 -0.16449E-03 -0.19806E-02  0.87670E-03
 -0.95345E-03 -0.23494E-02  0.87670E-03
  0.77469E-03 -0.17073E-02  0.87670E-03
  0.17202E-02 -0.14945E-02  0.87670E-03
  0.32119E-02  0.78148E-03  0.87670E-03
  0.28041E-02  0.12567E-02  0.87670E-03
  0.23036E-02  0.18673E-02  0.87670E-03
 -0.40324E-03  0.28813E-02  0.87670E-03
 -0.12093E-02  0.27108E-02  0.87670E-03
 -0.19440E-02  0.24595E-02  0.87670E-03
 -0.25022E-02  0.22358E-02  0.87670E-03
 -0.26352E-02  0.16502E-02  0.87670E-03
 -0.27606E-02  0.88043E-03  0.87670E-03
 -0.21152E-02 -0.21374E-02  0.87670E-03
 -0.16096E-02 -0.26936E-02  0.87670E-03
 -0.11963E-02 -0.31291E-02  0.87670E-03
 -0.59375E-03 -0.30381E-02  0.87670E-03
  0.20059E-03 -0.28751E-02  0.87670E-03
  0.10521E-02 -0.26479E-02  0.87670E-03
  0.18422E-02 -0.23750E-02  0.87670E-03
  0.24570E-02 -0.21560E-02  0.87670E-03
  0.26037E-02 -0.15082E-02  0.87670E-03
  0.37964E-02  0.93572E-03  0.87670E-03
  0.39100E-02  0.00000E+00  0.87670E-03
  0.34621E-02  0.18171E-02  0.87670E-03
  0.29267E-02  0.25928E-02  0.87670E-03
  0.22211E-02  0.32179E-02  0.87670E-03
  0.13865E-02  0.36559E-02  0.87670E-03
  0.47130E-03  0.38815E-02  0.87670E-03
 -0.47130E-03  0.38815E-02  0.87670E-03
 -0.13865E-02  0.36559E-02  0.87670E-03
 -0.22211E-02  0.32179E-02  0.87670E-03
 -0.29267E-02  0.25928E-02  0.87670E-03
 -0.34621E-02  0.18171E-02  0.87670E-03
 -0.37964E-02  0.93572E-03  0.87670E-03
 -0.39100E-02 -0.47884E-18  0.87670E-03
 -0.37964E-02 -0.93572E-03  0.87670E-03
 -0.34621E-02 -0.18171E-02  0.87670E-03
 -0.29267E-02 -0.25928E-02  0.87670E-03
 -0.22211E-02 -0.32179E-02  0.87670E-03
 -0.13865E-02 -0.36559E-02  0.87670E-03
 -0.47130E-03 -0.38815E-02  0.87670E-03
  0.47130E-03 -0.38815E-02  0.87670E-03
  0.13865E-02 -0.36559E-02  0.87670E-03
  0.22211E-02 -0.32179E-02  0.87670E-03
  0.29267E-02 -0.25928E-02  0.87670E-03
  0.34621E-02 -0.18171E-02  0.87670E-03
  0.37964E-02 -0.93572E-03  0.87670E-03
  0.10352E-02  0.68512E-03  0.18558E-02
  0.17413E-02  0.12454E-02  0.18558E-02
  0.23150E-02  0.60302E-03  0.18558E-02
  0.16651E-02 -0.32115E-03  0.18558E-02
  0.30371E-02  0.15681E-03  0.18558E-02
  0.27866E-02 -0.66558E-03  0.18558E-02
  0.12827E-02  0.18453E-02  0.18558E-02
  0.64600E-03  0.14797E-02  0.18558E-02
  0.12180E-03  0.32459E-03  0.18558E-02
 -0.13230E-03  0.12058E-02  0.18558E-02
  0.93771E-03  0.22776E-02  0.18558E-02
  0.11252E-02  0.28189E-02  0.18558E-02
  0.17404E-02  0.24270E-02  0.18558E-02
  0.40469E-03  0.21693E-02  0.18558E-02
  0.39742E-03  0.29308E-02  0.18558E-02
 -0.77081E-03 -0.10064E-02  0.18558E-02
 -0.86843E-03  0.96773E-04  0.18558E-02
  0.45134E-03 -0.68721E-03  0.18558E-02
 -0.18365E-02 -0.70887E-03  0.18558E-02
 -0.18419E-02  0.85467E-04  0.18558E-02
 -0.27232E-02 -0.77490E-03  0.18558E-02
 -0.27968E-02  0.46726E-04  0.18558E-02
 -0.25399E-02 -0.15184E-02  0.18558E-02
 -0.19382E-02 -0.13208E-02  0.18558E-02
 -0.99046E-03  0.10183E-02  0.18558E-02
 -0.14457E-02 -0.17316E-02  0.18558E-02
 -0.31133E-03  0.20283E-02  0.18558E-02
 -0.10992E-02  0.18586E-02  0.18558E-02
 -0.18834E-02  0.17175E-02  0.18558E-02
 -0.18685E-02  0.91467E-03  0.18558E-02
 -0.16476E-03 -0.19806E-02  0.18558E-02
 -0.95405E-03 -0.23494E-02  0.18558E-02
  0.77402E-03 -0.17073E-02  0.18558E-02
  0.17202E-02 -0.14948E-02  0.18558E-02
  0.32122E-02  0.78248E-03  0.18558E-02
  0.28041E-02  0.12571E-02  0.18558E-02
  0.23034E-02  0.18673E-02  0.18558E-02
 -0.40310E-03  0.28802E-02  0.18558E-02
 -0.12093E-02  0.27103E-02  0.18558E-02
 -0.19440E-02  0.24593E-02  0.18558E-02
 -0.25022E-02  0.22358E-02  0.18558E-02
 -0.26351E-02  0.16502E-02  0.18558E-02
 -0.27602E-02  0.88069E-03  0.18558E-02
 -0.21154E-02 -0.21374E-02  0.18558E-02
 -0.16097E-02 -0.26936E-02  0.18558E-02
 -0.11964E-02 -0.31291E-02  0.18558E-02
 -0.59409E-03 -0.30381E-02  0.18558E-02
  0.20018E-03 -0.28751E-02  0.18558E-02
  0.10518E-02 -0.26482E-02  0.18558E-02
  0.18422E-02 -0.23752E-02  0.18558E-02
  0.24571E-02 -0.21565E-02  0.18558E-02
  0.26038E-02 -0.15081E-02  0.18558E-02
  0.37964E-02  0.93572E-03  0.18558E-02
  0.39100E-02  0.00000E+00  0.18558E-02
  0.34621E-02  0.18171E-02  0.18558E-02
  0.29267E-02  0.25928E-02  0.18558E-02
  0.22211E-02  0.32179E-02  0.18558E-02
  0.13865E-02  0.36559E-02  0.18558E-02
  0.47130E-03  0.38815E-02  0.18558E-02
 -0.47130E-03  0.38815E-02  0.18558E-02
 -0.13865E-02  0.36559E-02  0.18558E-02
 -0.22211E-02  0.32179E-02  0.18558E-02
 -0.29267E-02  0.25928E-02  0.18558E-02
 -0.34621E-02  0.18171E-02  0.18558E-02
 -0.37964E-02  0.93572E-03  0.18558E-02
 -0.39100E-02 -0.47884E-18  0.18558E-02
 -0.37964E-02 -0.93572E-03  0.18558E-02
 -0.34621E-02 -0.18171E-02  0.18558E-02
 -0.29267E-02 -0.25928E-02  0.18558E-02
 -0.22211E-02 -0.32179E-02  0.18558E-02
 -0.13865E-02 -0.36559E-02  0.18558E-02
 -0.47130E-03 -0.38815E-02  0.18558E-02
  0.47130E-03 -0.38815E-02  0.18558E-02
  0.13865E-02 -0.36559E-02  0.18558E-02
  0.22211E-02 -0.32179E-02  0.18558E-02
  0.29267E-02 -0.25928E-02  0.18558E-02
  0.34621E-02 -0.18171E-02  0.18558E-02
  0.37964E-02 -0.93572E-03  0.18558E-02
  0.10351E-02  0.68567E-03  0.28350E-02
  0.17411E-02  0.12460E-02  0.28350E-02
  0.23149E-02  0.60355E-03  0.28350E-02
  0.16649E-02 -0.32040E-03  0.28350E-02
  0.30371E-02  0.15718E-03  0.28350E-02
  0.27870E-02 -0.66509E-03  0.28350E-02
  0.12826E-02  0.18455E-02  0.28350E-02
  0.64575E-03  0.14807E-02  0.28350E-02
  0.12154E-03  0.32574E-03  0.28350E-02
 -0.13248E-03  0.12075E-02  0.28350E-02
  0.93738E-03  0.22777E-02  0.28350E-02
  0.11249E-02  0.28185E-02  0.28350E-02
  0.17400E-02  0.24271E-02  0.28350E-02
  0.40463E-03  0.21693E-02  0.28350E-02
  0.39740E-03  0.29306E-02  0.28350E-02
 -0.77117E-03 -0.10065E-02  0.28350E-02
 -0.86854E-03  0.97583E-04  0.28350E-02
  0.45089E-03 -0.68648E-03  0.28350E-02
 -0.18368E-02 -0.70873E-03  0.28350E-02
 -0.18418E-02  0.85591E-04  0.28350E-02
 -0.27232E-02 -0.77474E-03  0.28350E-02
 -0.27965E-02  0.47000E-04  0.28350E-02
 -0.25400E-02 -0.15183E-02  0.28350E-02
 -0.19386E-02 -0.13207E-02  0.28350E-02
 -0.99032E-03  0.10197E-02  0.28350E-02
 -0.14460E-02 -0.17316E-02  0.28350E-02
 -0.31113E-03  0.20285E-02  0.28350E-02
 -0.10988E-02  0.18585E-02  0.28350E-02
 -0.18833E-02  0.17175E-02  0.28350E-02
 -0.18683E-02  0.91491E-03  0.28350E-02
 -0.16504E-03 -0.19806E-02  0.28350E-02
 -0.95465E-03 -0.23495E-02  0.28350E-02
  0.77336E-03 -0.17073E-02  0.28350E-02
  0.17201E-02 -0.14950E-02  0.28350E-02
  0.32125E-02  0.78348E-03  0.28350E-02
  0.28041E-02  0.12576E-02  0.28350E-02
  0.23033E-02  0.18674E-02  0.28350E-02
 -0.40296E-03  0.28792E-02  0.28350E-02
 -0.12093E-02  0.27099E-02  0.28350E-02
 -0.19439E-02  0.24591E-02  0.28350E-02
 -0.25022E-02  0.22358E-02  0.28350E-02
 -0.26350E-02  0.16502E-02  0.28350E-02
 -0.27599E-02  0.88095E-03  0.28350E-02
 -0.21155E-02 -0.21374E-02  0.28350E-02
 -0.16097E-02 -0.26936E-02  0.28350E-02
 -0.11965E-02 -0.31290E-02  0.28350E-02
 -0.59444E-03 -0.30381E-02  0.28350E-02
  0.19977E-03 -0.28751E-02  0.28350E-02
  0.10515E-02 -0.26484E-02  0.28350E-02
  0.18423E-02 -0.23754E-02  0.28350E-02
  0.24573E-02 -0.21571E-02  0.28350E-02
  0.26039E-02 -0.15080E-02  0.28350E-02
  0.37964E-02  0.93572E-03  0.28350E-02
  0.39100E-02  0.00000E+00  0.28350E-02
  0.34621E-02  0.18171E-02  0.28350E-02
  0.29267E-02  0.25928E-02  0.28350E-02
  0.22211E-02  0.32179E-02  0.28350E-02
  0.13865E-02  0.36559E-02  0.28350E-02
  0.47130E-03  0.38815E-02  0.28350E-02
 -0.47130E-03  0.38815E-02  0.28350E-02
 -0.13865E-02  0.36559E-02  0.28350E-02
 -0.22211E-02  0.32179E-02  0.28350E-02
 -0.29267E-02  0.25928E-02  0.28350E-02
 -0.34621E-02  0.18171E-02  0.28350E-02
 -0.37964E-02  0.93572E-03  0.28350E-02
 -0.39100E-02  0.47884E-18  0.28350E-02
 -0.37964E-02 -0.93572E-03  0.28350E-02
 -0.34621E-02 -0.18171E-02  0.28350E-02
 -0.29267E-02 -0.25928E-02  0.28350E-02
 -0.22211E-02 -0.32179E-02  0.28350E-02
 -0.13865E-02 -0.36559E-02  0.28350E-02
 -0.47130E-03 -0.38815E-02  0.28350E-02
  0.47130E-03 -0.38815E-02  0.28350E-02
  0.13865E-02 -0.36559E-02  0.28350E-02
  0.22211E-02 -0.32179E-02  0.28350E-02
  0.29267E-02 -0.25928E-02  0.28350E-02
  0.34621E-02 -0.18171E-02  0.28350E-02
  0.37964E-02 -0.93572E-03  0.28350E-02
  
CELLS       3486               17724
       1       0
       1       1
       1       2
       1       3
       1       4
       1       5
       1       6
       1       7
       1       8
       1       9
       1      10
       1      11
       1      12
       1      13
       1      14
       1      15
       1      16
       1      17
       1      18
       1      19
       1      20
       1      21
       1      22
       1      23
       1      24
       1      25
       1      26
       1      27
       1      28
       1      29
       1      30
       1      31
       1      32
       1      33
       1      34
       1      35
       1      36
       1      37
       1      38
       1      39
       1      40
       1      41
       1      42
       1      43
       1      44
       1      45
       1      46
       1      47
       1      48
       1      49
       1      50
       1      51
       1      52
       1      53
       1      54
       1      55
       1      56
       1      57
       1      58
       1      59
       1      60
       1      61
       1      62
       1      63
       1      64
       1      65
       1      66
       1      67
       1      68
       1      69
       1      70
       1      71
       1      72
       1      73
       1      74
       1      75
       1      76
       1      77
       1      78
       1      79
       1      80
       1      81
       1      82
       1      83
       1      84
       1      85
       1      86
       1      87
       1      88
       1      89
       1      90
       1      91
       1      92
       1      93
       1      94
       1      95
       1      96
       1      97
       1      98
       1      99
       1     100
       1     101
       1     102
       1     103
       1     104
       1     105
       1     106
       1     107
       1     108
       1     109
       1     110
       1     111
       1     112
       1     113
       1     114
       1     115
       1     116
       1     117
       1     118
       1     119
       1     120
       1     121
       1     122
       1     123
       1     124
       1     125
       1     126
       1     127
       1     128
       1     129
       1     130
       1     131
       1     132
       1     133
       1     134
       1     135
       1     136
       1     137
       1     138
       1     139
       1     140
       1     141
       1     142
       1     143
       1     144
       1     145
       1     146
       1     147
       1     148
       1     149
       1     150
       1     151
       1     152
       1     153
       1     154
       1     155
       1     156
       1     157
       1     158
       1     159
       1     160
       1     161
       1     162
       1     163
       1     164
       1     165
       1     166
       1     167
       1     168
       1     169
       1     170
       1     171
       1     172
       1     173
       1     174
       1     175
       1     176
       1     177
       1     178
       1     179
       1     180
       1     181
       1     182
       1     183
       1     184
       1     185
       1     186
       1     187
       1     188
       1     189
       1     190
       1     191
       1     192
       1     193
       1     194
       1     195
       1     196
       1     197
       1     198
       1     199
       1     200
       1     201
       1     202
       1     203
       1     204
       1     205
       1     206
       1     207
       1     208
       1     209
       1     210
       1     211
       1     212
       1     213
       1     214
       1     215
       1     216
       1     217
       1     218
       1     219
       1     220
       1     221
       1     222
       1     223
       1     224
       1     225
       1     226
       1     227
       1     228
       1     229
       1     230
       1     231
       1     232
       1     233
       1     234
       1     235
       1     236
       1     237
       1     238
       1     239
       1     240
       1     241
       1     242
       1     243
       1     244
       1     245
       1     246
       1     247
       1     248
       1     249
       1     250
       1     251
       1     252
       1     253
       1     254
       1     255
       1     256
       1     257
       1     258
       1     259
       1     260
       1     261
       1     262
       1     263
       1     264
       1     265
       1     266
       1     267
       1     268
       1     269
       1     270
       1     271
       1     272
       1     273
       1     274
       1     275
       1     276
       1     277
       1     278
       1     279
       1     280
       1     281
       1     282
       1     283
       1     284
       1     285
       1     286
       1     287
       1     288
       1     289
       1     290
       1     291
       1     292
       1     293
       1     294
       1     295
       1     296
       1     297
       1     298
       1     299
       1     300
       1     301
       1     302
       1     303
       1     304
       1     305
       1     306
       1     307
       1     308
       1     309
       1     310
       1     311
       1     312
       1     313
       1     314
       1     315
       1     316
       1     317
       1     318
       1     319
       1     320
       1     321
       1     322
       1     323
       1     324
       1     325
       1     326
       1     327
       1     328
       1     329
       1     330
       1     331
       1     332
       1     333
       1     334
       1     335
       1     336
       1     337
       1     338
       1     339
       1     340
       1     341
       1     342
       1     343
       1     344
       1     345
       1     346
       1     347
       1     348
       1     349
       1     350
       1     351
       1     352
       1     353
       1     354
       1     355
       1     356
       1     357
       1     358
       1     359
       1     360
       1     361
       1     362
       1     363
       1     364
       1     365
       1     366
       1     367
       1     368
       1     369
       1     370
       1     371
       1     372
       1     373
       1     374
       1     375
       1     376
       1     377
       1     378
       1     379
       1     380
       1     381
       1     382
       1     383
       1     384
       1     385
       1     386
       1     387
       1     388
       1     389
       1     390
       1     391
       1     392
       1     393
       1     394
       1     395
       1     396
       1     397
       1     398
       1     399
       1     400
       1     401
       1     402
       1     403
       1     404
       1     405
       1     406
       1     407
       1     408
       1     409
       1     410
       1     411
       1     412
       1     413
       1     414
       1     415
       1     416
       1     417
       1     418
       1     419
       1     420
       1     421
       1     422
       1     423
       1     424
       1     425
       1     426
       1     427
       1     428
       1     429
       1     430
       1     431
       1     432
       1     433
       1     434
       1     435
       1     436
       1     437
       1     438
       1     439
       1     440
       1     441
       1     442
       1     443
       1     444
       1     445
       1     446
       1     447
       1     448
       1     449
       1     450
       1     451
       1     452
       1     453
       1     454
       1     455
       1     456
       1     457
       1     458
       1     459
       1     460
       1     461
       1     462
       1     463
       1     464
       1     465
       1     466
       1     467
       1     468
       1     469
       1     470
       1     471
       1     472
       1     473
       1     474
       1     475
       1     476
       1     477
       1     478
       1     479
       1     480
       1     481
       1     482
       1     483
       1     484
       1     485
       1     486
       1     487
       1     488
       1     489
       1     490
       1     491
       1     492
       1     493
       1     494
       1     495
       1     496
       1     497
       1     498
       1     499
       1     500
       1     501
       1     502
       1     503
       1     504
       1     505
       1     506
       1     507
       1     508
       1     509
       1     510
       1     511
       1     512
       1     513
       1     514
       1     515
       1     516
       1     517
       1     518
       1     519
       1     520
       1     521
       1     522
       1     523
       1     524
       1     525
       1     526
       1     527
       1     528
       1     529
       1     530
       1     531
       1     532
       1     533
       1     534
       1     535
       1     536
       1     537
       1     538
       1     539
       1     540
       1     541
       1     542
       1     543
       1     544
       1     545
       1     546
       1     547
       1     548
       1     549
       1     550
       1     551
       1     552
       1     553
       1     554
       1     555
       1     556
       1     557
       1     558
       1     559
       1     560
       1     561
       1     562
       1     563
       1     564
       1     565
       1     566
       1     567
       1     568
       1     569
       1     570
       1     571
       1     572
       1     573
       1     574
       1     575
       1     576
       1     577
       1     578
       1     579
       1     580
       1     581
       1     582
       1     583
       1     584
       1     585
       1     586
       1     587
       1     588
       1     589
       1     590
       1     591
       1     592
       1     593
       1     594
       1     595
       1     596
       1     597
       1     598
       1     599
       1     600
       1     601
       1     602
       1     603
       1     604
       1     605
       1     606
       1     607
       1     608
       1     609
       1     610
       1     611
       1     612
       1     613
       1     614
       1     615
       1     616
       1     617
       1     618
       1     619
       1     620
       1     621
       1     622
       1     623
       1     624
       1     625
       1     626
       1     627
       1     628
       1     629
       1     630
       1     631
       1     632
       1     633
       1     634
       1     635
       1     636
       1     637
       1     638
       1     639
       1     640
       1     641
       1     642
       1     643
       1     644
       1     645
       1     646
       1     647
       1     648
       1     649
       1     650
       1     651
       1     652
       1     653
       1     654
       1     655
       1     656
       1     657
       1     658
       1     659
       1     660
       1     661
       1     662
       1     663
       1     664
       1     665
       1     666
       1     667
       1     668
       1     669
       1     670
       1     671
       1     672
       1     673
       1     674
       1     675
       1     676
       1     677
       1     678
       1     679
       1     680
       1     681
       1     682
       1     683
       1     684
       1     685
       1     686
       1     687
       1     688
       1     689
       1     690
       1     691
       1     692
       1     693
       1     694
       1     695
       1     696
       1     697
       1     698
       1     699
       1     700
       1     701
       1     702
       1     703
       1     704
       1     705
       1     706
       1     707
       1     708
       1     709
       1     710
       1     711
       1     712
       1     713
       1     714
       1     715
       1     716
       1     717
       1     718
       1     719
       1     720
       1     721
       1     722
       1     723
       1     724
       1     725
       1     726
       1     727
       1     728
       1     729
       1     730
       1     731
       1     732
       1     733
       1     734
       1     735
       1     736
       1     737
       1     738
       1     739
       1     740
       1     741
       1     742
       1     743
       1     744
       1     745
       1     746
       1     747
       1     748
       1     749
       1     750
       1     751
       1     752
       1     753
       1     754
       1     755
       1     756
       1     757
       1     758
       1     759
       1     760
       1     761
       1     762
       1     763
       1     764
       1     765
       1     766
       1     767
       1     768
       1     769
       1     770
       1     771
       1     772
       1     773
       1     774
       1     775
       1     776
       1     777
       1     778
       1     779
       1     780
       1     781
       1     782
       1     783
       1     784
       1     785
       1     786
       1     787
       1     788
       1     789
       1     790
       1     791
       1     792
       1     793
       1     794
       1     795
       1     796
       1     797
       1     798
       1     799
       1     800
       1     801
       1     802
       1     803
       1     804
       1     805
       1     806
       1     807
       1     808
       1     809
       1     810
       1     811
       1     812
       1     813
       1     814
       1     815
       1     816
       1     817
       1     818
       1     819
       1     820
       1     821
       1     822
       1     823
       1     824
       1     825
       1     826
       1     827
       1     828
       1     829
       1     830
       1     831
       1     832
       1     833
       1     834
       1     835
       1     836
       1     837
       1     838
       1     839
       1     840
       1     841
       1     842
       1     843
       1     844
       1     845
       1     846
       1     847
       1     848
       1     849
       1     850
       1     851
       1     852
       1     853
       1     854
       1     855
       1     856
       1     857
       1     858
       1     859
       1     860
       1     861
       1     862
       1     863
       1     864
       1     865
       1     866
       1     867
       1     868
       1     869
       1     870
       1     871
       1     872
       1     873
       1     874
       1     875
       1     876
       1     877
       1     878
       1     879
       1     880
       1     881
       1     882
       1     883
       1     884
       1     885
       1     886
       1     887
       1     888
       1     889
       1     890
       1     891
       1     892
       1     893
       1     894
       1     895
       1     896
       1     897
       1     898
       1     899
       1     900
       1     901
       1     902
       1     903
       1     904
       1     905
       1     906
       1     907
       1     908
       1     909
       1     910
       1     911
       1     912
       1     913
       1     914
       1     915
       1     916
       1     917
       1     918
       1     919
       1     920
       1     921
       1     922
       1     923
       1     924
       1     925
       1     926
       1     927
       1     928
       1     929
       1     930
       1     931
       1     932
       1     933
       1     934
       1     935
       1     936
       1     937
       1     938
       1     939
       1     940
       1     941
       1     942
       1     943
       1     944
       1     945
       1     946
       1     947
       1     948
       1     949
       1     950
       1     951
       1     952
       1     953
       1     954
       1     955
       1     956
       1     957
       1     958
       1     959
       1     960
       1     961
       1     962
       1     963
       1     964
       1     965
       1     966
       1     967
       1     968
       1     969
       1     970
       1     971
       1     972
       1     973
       1     974
       1     975
       1     976
       1     977
       1     978
       1     979
       1     980
       1     981
       1     982
       1     983
       1     984
       1     985
       1     986
       1     987
       1     988
       1     989
       1     990
       1     991
       1     992
       1     993
       1     994
       1     995
       1     996
       1     997
       1     998
       1     999
       1    1000
       1    1001
       1    1002
       1    1003
       1    1004
       1    1005
       1    1006
       1    1007
       1    1008
       1    1009
       1    1010
       1    1011
       1    1012
       1    1013
       1    1014
       1    1015
       1    1016
       1    1017
       1    1018
       1    1019
       1    1020
       1    1021
       1    1022
       1    1023
       1    1024
       1    1025
       1    1026
       1    1027
       1    1028
       1    1029
       1    1030
       1    1031
       1    1032
       1    1033
       1    1034
       1    1035
       1    1036
       1    1037
       1    1038
       1    1039
       1    1040
       1    1041
       1    1042
       1    1043
       1    1044
       1    1045
       1    1046
       1    1047
       1    1048
       1    1049
       1    1050
       1    1051
       1    1052
       1    1053
       1    1054
       1    1055
       1    1056
       1    1057
       1    1058
       1    1059
       1    1060
       1    1061
       1    1062
       1    1063
       1    1064
       1    1065
       1    1066
       1    1067
       1    1068
       1    1069
       1    1070
       1    1071
       1    1072
       1    1073
       1    1074
       1    1075
       1    1076
       1    1077
       1    1078
       1    1079
       1    1080
       1    1081
       1    1082
       1    1083
       1    1084
       1    1085
       1    1086
       1    1087
       1    1088
       1    1089
       1    1090
       1    1091
       1    1092
       1    1093
       1    1094
       1    1095
       1    1096
       1    1097
       1    1098
       1    1099
       1    1100
       1    1101
       1    1102
       1    1103
       1    1104
       1    1105
       1    1106
       1    1107
       1    1108
       1    1109
       1    1110
       1    1111
       1    1112
       1    1113
       1    1114
       1    1115
       1    1116
       1    1117
       1    1118
       1    1119
       1    1120
       1    1121
       1    1122
       1    1123
       1    1124
       1    1125
       1    1126
       1    1127
       1    1128
       1    1129
       1    1130
       1    1131
       1    1132
       1    1133
       1    1134
       1    1135
       1    1136
       1    1137
       1    1138
       1    1139
       1    1140
       1    1141
       1    1142
       1    1143
       1    1144
       1    1145
       1    1146
       1    1147
       1    1148
       1    1149
       1    1150
       1    1151
       1    1152
       1    1153
       1    1154
       1    1155
       1    1156
       1    1157
       1    1158
       1    1159
       1    1160
       1    1161
       1    1162
       1    1163
       1    1164
       1    1165
       1    1166
       1    1167
       1    1168
       1    1169
       1    1170
       1    1171
       1    1172
       1    1173
       1    1174
       1    1175
       1    1176
       1    1177
       1    1178
       1    1179
       1    1180
       1    1181
       1    1182
       1    1183
       1    1184
       1    1185
       1    1186
       1    1187
       1    1188
       1    1189
       1    1190
       1    1191
       1    1192
       1    1193
       1    1194
       1    1195
       1    1196
       1    1197
       1    1198
       1    1199
       1    1200
       1    1201
       1    1202
       1    1203
       1    1204
       1    1205
       1    1206
       1    1207
       1    1208
       1    1209
       1    1210
       1    1211
       1    1212
       1    1213
       1    1214
       1    1215
       1    1216
       1    1217
       1    1218
       1    1219
       1    1220
       1    1221
       1    1222
       1    1223
       1    1224
       1    1225
       1    1226
       1    1227
       1    1228
       1    1229
       1    1230
       1    1231
       1    1232
       1    1233
       1    1234
       1    1235
       1    1236
       1    1237
       1    1238
       1    1239
       1    1240
       1    1241
       1    1242
       1    1243
       1    1244
       1    1245
       1    1246
       1    1247
       1    1248
       1    1249
       1    1250
       1    1251
       1    1252
       1    1253
       1    1254
       1    1255
       1    1256
       1    1257
       1    1258
       1    1259
       1    1260
       1    1261
       1    1262
       1    1263
       1    1264
       1    1265
       1    1266
       1    1267
       1    1268
       1    1269
       1    1270
       1    1271
       1    1272
       1    1273
       1    1274
       1    1275
       1    1276
       1    1277
       1    1278
       1    1279
       1    1280
       1    1281
       1    1282
       1    1283
       1    1284
       1    1285
       1    1286
       1    1287
       1    1288
       1    1289
       1    1290
       1    1291
       1    1292
       1    1293
       1    1294
       1    1295
       1    1296
       1    1297
       1    1298
       1    1299
       1    1300
       1    1301
       1    1302
       1    1303
       1    1304
       1    1305
       1    1306
       1    1307
       1    1308
       1    1309
       1    1310
       1    1311
       1    1312
       1    1313
       1    1314
       1    1315
       1    1316
       1    1317
       1    1318
       1    1319
       1    1320
       1    1321
       1    1322
       1    1323
       1    1324
       1    1325
       1    1326
       1    1327
       1    1328
       1    1329
       1    1330
       1    1331
       1    1332
       1    1333
       1    1334
       1    1335
       1    1336
       1    1337
       1    1338
       1    1339
       1    1340
       1    1341
       1    1342
       1    1343
       1    1344
       1    1345
       1    1346
       1    1347
       1    1348
       1    1349
       1    1350
       1    1351
       1    1352
       1    1353
       1    1354
       1    1355
       1    1356
       1    1357
       1    1358
       1    1359
       1    1360
       1    1361
       1    1362
       1    1363
       1    1364
       1    1365
       1    1366
       1    1367
       1    1368
       1    1369
       1    1370
       1    1371
       1    1372
       1    1373
       1    1374
       1    1375
       1    1376
       1    1377
       1    1378
       1    1379
       1    1380
       1    1381
       1    1382
       1    1383
       1    1384
       1    1385
       1    1386
       1    1387
       1    1388
       1    1389
       1    1390
       1    1391
       1    1392
       1    1393
       1    1394
       1    1395
       1    1396
       1    1397
       1    1398
       1    1399
       1    1400
       1    1401
       1    1402
       1    1403
       1    1404
       1    1405
       1    1406
       1    1407
       1    1408
       1    1409
       1    1410
       1    1411
       1    1412
       1    1413
       1    1414
       1    1415
       1    1416
       1    1417
       1    1418
       1    1419
       1    1420
       1    1421
       1    1422
       1    1423
       1    1424
       1    1425
       1    1426
       1    1427
       1    1428
       1    1429
       1    1430
       1    1431
       1    1432
       1    1433
       1    1434
       1    1435
       1    1436
       1    1437
       1    1438
       1    1439
       1    1440
       1    1441
       1    1442
       1    1443
       1    1444
       1    1445
       1    1446
       1    1447
       1    1448
       1    1449
       1    1450
       1    1451
       1    1452
       1    1453
       1    1454
       1    1455
       1    1456
       1    1457
       1    1458
       1    1459
       1    1460
       1    1461
       1    1462
       1    1463
       1    1464
       1    1465
       1    1466
       1    1467
       1    1468
       1    1469
       1    1470
       1    1471
       1    1472
       1    1473
       1    1474
       1    1475
       1    1476
       1    1477
       1    1478
       1    1479
       1    1480
       1    1481
       1    1482
       1    1483
       1    1484
       1    1485
       1    1486
       1    1487
       1    1488
       1    1489
       1    1490
       1    1491
       1    1492
       1    1493
       1    1494
       1    1495
       1    1496
       1    1497
       1    1498
       1    1499
       1    1500
       1    1501
       1    1502
       1    1503
       1    1504
       1    1505
       1    1506
       1    1507
       1    1508
       1    1509
       1    1510
       1    1511
       1    1512
       1    1513
       1    1514
       1    1515
       1    1516
       1    1517
       1    1518
       1    1519
       1    1520
       1    1521
       1    1522
       1    1523
       1    1524
       1    1525
       1    1526
       1    1527
       1    1528
       1    1529
       1    1530
       1    1531
       1    1532
       1    1533
       1    1534
       1    1535
       1    1536
       1    1537
       1    1538
       1    1539
       1    1540
       1    1541
       1    1542
       1    1543
       1    1544
       1    1545
       1    1546
       1    1547
       1    1548
       1    1549
       1    1550
       1    1551
       1    1552
       1    1553
       1    1554
       1    1555
       1    1556
       1    1557
       1    1558
       1    1559
       1    1560
       1    1561
       1    1562
       1    1563
       1    1564
       1    1565
       1    1566
       1    1567
       1    1568
       1    1569
       1    1570
       1    1571
       1    1572
       1    1573
       1    1574
       1    1575
       1    1576
       1    1577
       1    1578
       1    1579
       1    1580
       1    1581
       1    1582
       1    1583
       1    1584
       1    1585
       1    1586
       1    1587
       1    1588
       1    1589
       1    1590
       1    1591
       1    1592
       1    1593
       1    1594
       1    1595
       1    1596
       1    1597
       1    1598
       1    1599
       1    1600
       1    1601
       1    1602
       1    1603
       1    1604
       1    1605
       1    1606
       1    1607
       1    1608
       1    1609
       1    1610
       1    1611
       1    1612
       1    1613
       1    1614
       1    1615
       1    1616
       1    1617
       1    1618
       1    1619
       1    1620
       1    1621
       1    1622
       1    1623
       1    1624
       1    1625
       1    1626
       1    1627
       1    1628
       1    1629
       1    1630
       1    1631
       1    1632
       1    1633
       1    1634
       1    1635
       1    1636
       1    1637
       1    1638
       1    1639
       1    1640
       1    1641
       1    1642
       1    1643
       1    1644
       1    1645
       1    1646
       1    1647
       1    1648
       1    1649
       1    1650
       1    1651
       1    1652
       1    1653
       1    1654
       1    1655
       1    1656
       1    1657
       1    1658
       1    1659
       1    1660
       1    1661
       1    1662
       1    1663
       1    1664
       1    1665
       1    1666
       1    1667
       1    1668
       1    1669
       1    1670
       1    1671
       1    1672
       1    1673
       1    1674
       1    1675
       1    1676
       1    1677
       1    1678
       1    1679
       1    1680
       1    1681
       1    1682
       1    1683
       1    1684
       1    1685
       1    1686
       1    1687
       1    1688
       1    1689
       1    1690
       1    1691
       1    1692
       1    1693
       1    1694
       1    1695
       1    1696
       1    1697
       1    1698
       1    1699
       1    1700
       1    1701
       1    1702
       1    1703
       1    1704
       1    1705
       1    1706
       1    1707
       1    1708
       1    1709
       1    1710
       1    1711
       1    1712
       1    1713
       1    1714
       1    1715
       1    1716
       1    1717
       1    1718
       1    1719
       1    1720
       1    1721
       1    1722
       1    1723
       1    1724
       1    1725
       1    1726
       1    1727
       1    1728
       1    1729
       1    1730
       1    1731
       1    1732
       1    1733
       1    1734
       1    1735
       1    1736
       1    1737
       1    1738
       1    1739
       1    1740
       1    1741
       1    1742
       1    1743
       1    1744
       1    1745
       1    1746
       1    1747
       1    1748
       1    1749
       1    1750
       1    1751
       1    1752
       1    1753
       1    1754
       1    1755
       1    1756
       1    1757
       1    1758
       1    1759
       1    1760
       1    1761
       1    1762
       1    1763
       1    1764
       1    1765
       1    1766
       1    1767
       1    1768
       1    1769
       1    1770
       1    1771
       1    1772
       1    1773
       1    1774
       1    1775
       1    1776
       1    1777
       1    1778
       1    1779
       1    1780
       1    1781
       1    1782
       1    1783
       1    1784
       1    1785
       1    1786
       1    1787
       1    1788
       1    1789
       1    1790
       1    1791
       1    1792
       1    1793
       1    1794
       1    1795
       1    1796
       1    1797
       1    1798
       1    1799
       1    1800
       1    1801
       1    1802
       1    1803
       1    1804
       1    1805
       1    1806
       1    1807
       1    1808
       1    1809
       1    1810
       1    1811
       1    1812
       1    1813
       1    1814
       1    1815
       1    1816
       1    1817
       1    1818
       1    1819
       1    1820
       1    1821
       1    1822
       1    1823
       1    1824
       1    1825
       1    1826
       1    1827
       1    1828
       1    1829
       1    1830
       1    1831
       1    1832
       1    1833
       1    1834
       1    1835
       1    1836
       1    1837
       1    1838
       1    1839
       1    1840
       1    1841
       1    1842
       1    1843
       1    1844
       1    1845
       1    1846
       1    1847
       1    1848
       1    1849
       1    1850
       1    1851
       1    1852
       1    1853
       1    1854
       1    1855
       1    1856
       1    1857
       1    1858
       1    1859
       1    1860
       1    1861
       1    1862
       1    1863
       1    1864
       1    1865
       1    1866
       1    1867
       1    1868
       1    1869
       1    1870
       1    1871
       1    1872
       1    1873
       1    1874
       1    1875
       1    1876
       1    1877
       1    1878
       1    1879
       1    1880
       1    1881
       1    1882
       1    1883
       1    1884
       1    1885
       1    1886
       1    1887
       1    1888
       1    1889
       1    1890
       1    1891
       1    1892
       1    1893
       1    1894
       1    1895
       1    1896
       1    1897
       1    1898
       1    1899
       1    1900
       1    1901
       1    1902
       1    1903
       1    1904
       1    1905
       1    1906
       1    1907
       1    1908
       1    1909
       1    1910
       1    1911
       1    1912
       1    1913
       1    1914
       1    1915
       1    1916
       1    1917
       1    1918
       1    1919
       1    1920
       1    1921
       1    1922
       1    1923
       1    1924
       1    1925
       1    1926
       1    1927
       1    1928
       1    1929
       1    1930
       1    1931
       1    1932
       1    1933
       1    1934
       1    1935
       1    1936
       1    1937
       1    1938
       1    1939
       1    1940
       1    1941
       1    1942
       1    1943
       1    1944
       1    1945
       1    1946
       1    1947
       1    1948
       1    1949
       8       0       1       2       3       4       5       6       7
       8       2       8       9       3       6      10      11       7
       8      12       1       0      13      14       5       4      15
       8       0      16      17      13       4      18      19      15
       8      20      21      22      12      23      24      25      14
       8      26      27      21      20      28      29      24      23
       8      13      26      20      12      15      28      23      14
       8      30      31      16      32      33      34      18      35
       8      36      37      31      30      38      39      34      33
       8      40      41      37      36      42      43      39      38
       8      44      40      36      45      46      42      38      47
       8      48      17      16      31      49      19      18      34
       8      30      50      45      36      33      51      47      38
       8       0       3      32      16       4       7      35      18
       8      52      26      13      17      53      28      15      19
       8      54      52      17      48      55      53      19      49
       8      56      54      48      57      58      55      49      59
       8      37      57      48      31      39      59      49      34
       8      60      61      50      30      62      63      51      33
       8      64      60      30      32      65      62      33      35
       8      66      64      32       3      67      65      35       7
       8      68       8       2      69      70      10       6      71
       8      72      69       2       1      73      71       6       5
       8      22      72       1      12      25      73       5      14
       8      74      27      26      52      75      29      28      53
       8      76      74      52      54      77      75      53      55
       8      78      76      54      56      79      77      55      58
       8      80      78      56      81      82      79      58      83
       8      84      81      56      57      85      83      58      59
       8      41      84      57      37      43      85      59      39
       8      86      44      45      50      87      46      47      51
       8      88      86      50      61      89      87      51      63
       8      90      88      61      91      92      89      63      93
       8      94      91      61      60      95      93      63      62
       8      96      94      60      64      97      95      62      65
       8      98      96      64      66      99      97      65      67
       8     100      98      66     101     102      99      67     103
       8       9     101      66       3      11     103      67       7
       8     104     105       8      68     106     107      10      70
       8     108     104      68      69     109     106      70      71
       8     110     108      69      72     111     109      71      73
       8     112     110      72      22     113     111      73      25
       8     114     112      22      21     115     113      25      24
       8     116     114      21      27     117     115      24      29
       8     118     116      27      74     119     117      29      75
       8     120     118      74      76     121     119      75      77
       8     122     120      76      78     123     121      77      79
       8     124     122      78      80     125     123      79      82
       8     126     124      80      81     127     125      82      83
       8     128     126      81      84     129     127      83      85
       8     130     128      84      41     131     129      85      43
       8     132     130      41      40     133     131      43      42
       8     134     132      40      44     135     133      42      46
       8     136     134      44      86     137     135      46      87
       8     138     136      86      88     139     137      87      89
       8     140     138      88      90     141     139      89      92
       8     142     140      90      91     143     141      92      93
       8     144     142      91      94     145     143      93      95
       8     146     144      94      96     147     145      95      97
       8     148     146      96      98     149     147      97      99
       8     150     148      98     100     151     149      99     102
       8     152     150     100     101     153     151     102     103
       8     154     152     101       9     155     153     103      11
       8     105     154       9       8     107     155      11      10
       8     156     157     158     159       0       1       2       3
       8     158     160     161     159       2       8       9       3
       8     162     157     156     163      12       1       0      13
       8     156     164     165     163       0      16      17      13
       8     166     167     168     162      20      21      22      12
       8     169     170     167     166      26      27      21      20
       8     163     169     166     162      13      26      20      12
       8     171     172     164     173      30      31      16      32
       8     174     175     172     171      36      37      31      30
       8     176     177     175     174      40      41      37      36
       8     178     176     174     179      44      40      36      45
       8     180     165     164     172      48      17      16      31
       8     171     181     179     174      30      50      45      36
       8     156     159     173     164       0       3      32      16
       8     182     169     163     165      52      26      13      17
       8     183     182     165     180      54      52      17      48
       8     184     183     180     185      56      54      48      57
       8     175     185     180     172      37      57      48      31
       8     186     187     181     171      60      61      50      30
       8     188     186     171     173      64      60      30      32
       8     189     188     173     159      66      64      32       3
       8     190     160     158     191      68       8       2      69
       8     192     191     158     157      72      69       2       1
       8     168     192     157     162      22      72       1      12
       8     193     170     169     182      74      27      26      52
       8     194     193     182     183      76      74      52      54
       8     195     194     183     184      78      76      54      56
       8     196     195     184     197      80      78      56      81
       8     198     197     184     185      84      81      56      57
       8     177     198     185     175      41      84      57      37
       8     199     178     179     181      86      44      45      50
       8     200     199     181     187      88      86      50      61
       8     201     200     187     202      90      88      61      91
       8     203     202     187     186      94      91      61      60
       8     204     203     186     188      96      94      60      64
       8     205     204     188     189      98      96      64      66
       8     206     205     189     207     100      98      66     101
       8     161     207     189     159       9     101      66       3
       8     208     209     160     190     104     105       8      68
       8     210     208     190     191     108     104      68      69
       8     211     210     191     192     110     108      69      72
       8     212     211     192     168     112     110      72      22
       8     213     212     168     167     114     112      22      21
       8     214     213     167     170     116     114      21      27
       8     215     214     170     193     118     116      27      74
       8     216     215     193     194     120     118      74      76
       8     217     216     194     195     122     120      76      78
       8     218     217     195     196     124     122      78      80
       8     219     218     196     197     126     124      80      81
       8     220     219     197     198     128     126      81      84
       8     221     220     198     177     130     128      84      41
       8     222     221     177     176     132     130      41      40
       8     223     222     176     178     134     132      40      44
       8     224     223     178     199     136     134      44      86
       8     225     224     199     200     138     136      86      88
       8     226     225     200     201     140     138      88      90
       8     227     226     201     202     142     140      90      91
       8     228     227     202     203     144     142      91      94
       8     229     228     203     204     146     144      94      96
       8     230     229     204     205     148     146      96      98
       8     231     230     205     206     150     148      98     100
       8     232     231     206     207     152     150     100     101
       8     233     232     207     161     154     152     101       9
       8     209     233     161     160     105     154       9       8
       8     234     235     236     237     156     157     158     159
       8     236     238     239     237     158     160     161     159
       8     240     235     234     241     162     157     156     163
       8     234     242     243     241     156     164     165     163
       8     244     245     246     240     166     167     168     162
       8     247     248     245     244     169     170     167     166
       8     241     247     244     240     163     169     166     162
       8     249     250     242     251     171     172     164     173
       8     252     253     250     249     174     175     172     171
       8     254     255     253     252     176     177     175     174
       8     256     254     252     257     178     176     174     179
       8     258     243     242     250     180     165     164     172
       8     249     259     257     252     171     181     179     174
       8     234     237     251     242     156     159     173     164
       8     260     247     241     243     182     169     163     165
       8     261     260     243     258     183     182     165     180
       8     262     261     258     263     184     183     180     185
       8     253     263     258     250     175     185     180     172
       8     264     265     259     249     186     187     181     171
       8     266     264     249     251     188     186     171     173
       8     267     266     251     237     189     188     173     159
       8     268     238     236     269     190     160     158     191
       8     270     269     236     235     192     191     158     157
       8     246     270     235     240     168     192     157     162
       8     271     248     247     260     193     170     169     182
       8     272     271     260     261     194     193     182     183
       8     273     272     261     262     195     194     183     184
       8     274     273     262     275     196     195     184     197
       8     276     275     262     263     198     197     184     185
       8     255     276     263     253     177     198     185     175
       8     277     256     257     259     199     178     179     181
       8     278     277     259     265     200     199     181     187
       8     279     278     265     280     201     200     187     202
       8     281     280     265     264     203     202     187     186
       8     282     281     264     266     204     203     186     188
       8     283     282     266     267     205     204     188     189
       8     284     283     267     285     206     205     189     207
       8     239     285     267     237     161     207     189     159
       8     286     287     238     268     208     209     160     190
       8     288     286     268     269     210     208     190     191
       8     289     288     269     270     211     210     191     192
       8     290     289     270     246     212     211     192     168
       8     291     290     246     245     213     212     168     167
       8     292     291     245     248     214     213     167     170
       8     293     292     248     271     215     214     170     193
       8     294     293     271     272     216     215     193     194
       8     295     294     272     273     217     216     194     195
       8     296     295     273     274     218     217     195     196
       8     297     296     274     275     219     218     196     197
       8     298     297     275     276     220     219     197     198
       8     299     298     276     255     221     220     198     177
       8     300     299     255     254     222     221     177     176
       8     301     300     254     256     223     222     176     178
       8     302     301     256     277     224     223     178     199
       8     303     302     277     278     225     224     199     200
       8     304     303     278     279     226     225     200     201
       8     305     304     279     280     227     226     201     202
       8     306     305     280     281     228     227     202     203
       8     307     306     281     282     229     228     203     204
       8     308     307     282     283     230     229     204     205
       8     309     308     283     284     231     230     205     206
       8     310     309     284     285     232     231     206     207
       8     311     310     285     239     233     232     207     161
       8     287     311     239     238     209     233     161     160
       8     312     313     314     315     234     235     236     237
       8     314     316     317     315     236     238     239     237
       8     318     313     312     319     240     235     234     241
       8     312     320     321     319     234     242     243     241
       8     322     323     324     318     244     245     246     240
       8     325     326     323     322     247     248     245     244
       8     319     325     322     318     241     247     244     240
       8     327     328     320     329     249     250     242     251
       8     330     331     328     327     252     253     250     249
       8     332     333     331     330     254     255     253     252
       8     334     332     330     335     256     254     252     257
       8     336     321     320     328     258     243     242     250
       8     327     337     335     330     249     259     257     252
       8     312     315     329     320     234     237     251     242
       8     338     325     319     321     260     247     241     243
       8     339     338     321     336     261     260     243     258
       8     340     339     336     341     262     261     258     263
       8     331     341     336     328     253     263     258     250
       8     342     343     337     327     264     265     259     249
       8     344     342     327     329     266     264     249     251
       8     345     344     329     315     267     266     251     237
       8     346     316     314     347     268     238     236     269
       8     348     347     314     313     270     269     236     235
       8     324     348     313     318     246     270     235     240
       8     349     326     325     338     271     248     247     260
       8     350     349     338     339     272     271     260     261
       8     351     350     339     340     273     272     261     262
       8     352     351     340     353     274     273     262     275
       8     354     353     340     341     276     275     262     263
       8     333     354     341     331     255     276     263     253
       8     355     334     335     337     277     256     257     259
       8     356     355     337     343     278     277     259     265
       8     357     356     343     358     279     278     265     280
       8     359     358     343     342     281     280     265     264
       8     360     359     342     344     282     281     264     266
       8     361     360     344     345     283     282     266     267
       8     362     361     345     363     284     283     267     285
       8     317     363     345     315     239     285     267     237
       8     364     365     316     346     286     287     238     268
       8     366     364     346     347     288     286     268     269
       8     367     366     347     348     289     288     269     270
       8     368     367     348     324     290     289     270     246
       8     369     368     324     323     291     290     246     245
       8     370     369     323     326     292     291     245     248
       8     371     370     326     349     293     292     248     271
       8     372     371     349     350     294     293     271     272
       8     373     372     350     351     295     294     272     273
       8     374     373     351     352     296     295     273     274
       8     375     374     352     353     297     296     274     275
       8     376     375     353     354     298     297     275     276
       8     377     376     354     333     299     298     276     255
       8     378     377     333     332     300     299     255     254
       8     379     378     332     334     301     300     254     256
       8     380     379     334     355     302     301     256     277
       8     381     380     355     356     303     302     277     278
       8     382     381     356     357     304     303     278     279
       8     383     382     357     358     305     304     279     280
       8     384     383     358     359     306     305     280     281
       8     385     384     359     360     307     306     281     282
       8     386     385     360     361     308     307     282     283
       8     387     386     361     362     309     308     283     284
       8     388     387     362     363     310     309     284     285
       8     389     388     363     317     311     310     285     239
       8     365     389     317     316     287     311     239     238
       8     390     391     392     393     312     313     314     315
       8     392     394     395     393     314     316     317     315
       8     396     391     390     397     318     313     312     319
       8     390     398     399     397     312     320     321     319
       8     400     401     402     396     322     323     324     318
       8     403     404     401     400     325     326     323     322
       8     397     403     400     396     319     325     322     318
       8     405     406     398     407     327     328     320     329
       8     408     409     406     405     330     331     328     327
       8     410     411     409     408     332     333     331     330
       8     412     410     408     413     334     332     330     335
       8     414     399     398     406     336     321     320     328
       8     405     415     413     408     327     337     335     330
       8     390     393     407     398     312     315     329     320
       8     416     403     397     399     338     325     319     321
       8     417     416     399     414     339     338     321     336
       8     418     417     414     419     340     339     336     341
       8     409     419     414     406     331     341     336     328
       8     420     421     415     405     342     343     337     327
       8     422     420     405     407     344     342     327     329
       8     423     422     407     393     345     344     329     315
       8     424     394     392     425     346     316     314     347
       8     426     425     392     391     348     347     314     313
       8     402     426     391     396     324     348     313     318
       8     427     404     403     416     349     326     325     338
       8     428     427     416     417     350     349     338     339
       8     429     428     417     418     351     350     339     340
       8     430     429     418     431     352     351     340     353
       8     432     431     418     419     354     353     340     341
       8     411     432     419     409     333     354     341     331
       8     433     412     413     415     355     334     335     337
       8     434     433     415     421     356     355     337     343
       8     435     434     421     436     357     356     343     358
       8     437     436     421     420     359     358     343     342
       8     438     437     420     422     360     359     342     344
       8     439     438     422     423     361     360     344     345
       8     440     439     423     441     362     361     345     363
       8     395     441     423     393     317     363     345     315
       8     442     443     394     424     364     365     316     346
       8     444     442     424     425     366     364     346     347
       8     445     444     425     426     367     366     347     348
       8     446     445     426     402     368     367     348     324
       8     447     446     402     401     369     368     324     323
       8     448     447     401     404     370     369     323     326
       8     449     448     404     427     371     370     326     349
       8     450     449     427     428     372     371     349     350
       8     451     450     428     429     373     372     350     351
       8     452     451     429     430     374     373     351     352
       8     453     452     430     431     375     374     352     353
       8     454     453     431     432     376     375     353     354
       8     455     454     432     411     377     376     354     333
       8     456     455     411     410     378     377     333     332
       8     457     456     410     412     379     378     332     334
       8     458     457     412     433     380     379     334     355
       8     459     458     433     434     381     380     355     356
       8     460     459     434     435     382     381     356     357
       8     461     460     435     436     383     382     357     358
       8     462     461     436     437     384     383     358     359
       8     463     462     437     438     385     384     359     360
       8     464     463     438     439     386     385     360     361
       8     465     464     439     440     387     386     361     362
       8     466     465     440     441     388     387     362     363
       8     467     466     441     395     389     388     363     317
       8     443     467     395     394     365     389     317     316
       8     468     469     470     471     390     391     392     393
       8     470     472     473     471     392     394     395     393
       8     474     469     468     475     396     391     390     397
       8     468     476     477     475     390     398     399     397
       8     478     479     480     474     400     401     402     396
       8     481     482     479     478     403     404     401     400
       8     475     481     478     474     397     403     400     396
       8     483     484     476     485     405     406     398     407
       8     486     487     484     483     408     409     406     405
       8     488     489     487     486     410     411     409     408
       8     490     488     486     491     412     410     408     413
       8     492     477     476     484     414     399     398     406
       8     483     493     491     486     405     415     413     408
       8     468     471     485     476     390     393     407     398
       8     494     481     475     477     416     403     397     399
       8     495     494     477     492     417     416     399     414
       8     496     495     492     497     418     417     414     419
       8     487     497     492     484     409     419     414     406
       8     498     499     493     483     420     421     415     405
       8     500     498     483     485     422     420     405     407
       8     501     500     485     471     423     422     407     393
       8     502     472     470     503     424     394     392     425
       8     504     503     470     469     426     425     392     391
       8     480     504     469     474     402     426     391     396
       8     505     482     481     494     427     404     403     416
       8     506     505     494     495     428     427     416     417
       8     507     506     495     496     429     428     417     418
       8     508     507     496     509     430     429     418     431
       8     510     509     496     497     432     431     418     419
       8     489     510     497     487     411     432     419     409
       8     511     490     491     493     433     412     413     415
       8     512     511     493     499     434     433     415     421
       8     513     512     499     514     435     434     421     436
       8     515     514     499     498     437     436     421     420
       8     516     515     498     500     438     437     420     422
       8     517     516     500     501     439     438     422     423
       8     518     517     501     519     440     439     423     441
       8     473     519     501     471     395     441     423     393
       8     520     521     472     502     442     443     394     424
       8     522     520     502     503     444     442     424     425
       8     523     522     503     504     445     444     425     426
       8     524     523     504     480     446     445     426     402
       8     525     524     480     479     447     446     402     401
       8     526     525     479     482     448     447     401     404
       8     527     526     482     505     449     448     404     427
       8     528     527     505     506     450     449     427     428
       8     529     528     506     507     451     450     428     429
       8     530     529     507     508     452     451     429     430
       8     531     530     508     509     453     452     430     431
       8     532     531     509     510     454     453     431     432
       8     533     532     510     489     455     454     432     411
       8     534     533     489     488     456     455     411     410
       8     535     534     488     490     457     456     410     412
       8     536     535     490     511     458     457     412     433
       8     537     536     511     512     459     458     433     434
       8     538     537     512     513     460     459     434     435
       8     539     538     513     514     461     460     435     436
       8     540     539     514     515     462     461     436     437
       8     541     540     515     516     463     462     437     438
       8     542     541     516     517     464     463     438     439
       8     543     542     517     518     465     464     439     440
       8     544     543     518     519     466     465     440     441
       8     545     544     519     473     467     466     441     395
       8     521     545     473     472     443     467     395     394
       8     546     547     548     549     468     469     470     471
       8     548     550     551     549     470     472     473     471
       8     552     547     546     553     474     469     468     475
       8     546     554     555     553     468     476     477     475
       8     556     557     558     552     478     479     480     474
       8     559     560     557     556     481     482     479     478
       8     553     559     556     552     475     481     478     474
       8     561     562     554     563     483     484     476     485
       8     564     565     562     561     486     487     484     483
       8     566     567     565     564     488     489     487     486
       8     568     566     564     569     490     488     486     491
       8     570     555     554     562     492     477     476     484
       8     561     571     569     564     483     493     491     486
       8     546     549     563     554     468     471     485     476
       8     572     559     553     555     494     481     475     477
       8     573     572     555     570     495     494     477     492
       8     574     573     570     575     496     495     492     497
       8     565     575     570     562     487     497     492     484
       8     576     577     571     561     498     499     493     483
       8     578     576     561     563     500     498     483     485
       8     579     578     563     549     501     500     485     471
       8     580     550     548     581     502     472     470     503
       8     582     581     548     547     504     503     470     469
       8     558     582     547     552     480     504     469     474
       8     583     560     559     572     505     482     481     494
       8     584     583     572     573     506     505     494     495
       8     585     584     573     574     507     506     495     496
       8     586     585     574     587     508     507     496     509
       8     588     587     574     575     510     509     496     497
       8     567     588     575     565     489     510     497     487
       8     589     568     569     571     511     490     491     493
       8     590     589     571     577     512     511     493     499
       8     591     590     577     592     513     512     499     514
       8     593     592     577     576     515     514     499     498
       8     594     593     576     578     516     515     498     500
       8     595     594     578     579     517     516     500     501
       8     596     595     579     597     518     517     501     519
       8     551     597     579     549     473     519     501     471
       8     598     599     550     580     520     521     472     502
       8     600     598     580     581     522     520     502     503
       8     601     600     581     582     523     522     503     504
       8     602     601     582     558     524     523     504     480
       8     603     602     558     557     525     524     480     479
       8     604     603     557     560     526     525     479     482
       8     605     604     560     583     527     526     482     505
       8     606     605     583     584     528     527     505     506
       8     607     606     584     585     529     528     506     507
       8     608     607     585     586     530     529     507     508
       8     609     608     586     587     531     530     508     509
       8     610     609     587     588     532     531     509     510
       8     611     610     588     567     533     532     510     489
       8     612     611     567     566     534     533     489     488
       8     613     612     566     568     535     534     488     490
       8     614     613     568     589     536     535     490     511
       8     615     614     589     590     537     536     511     512
       8     616     615     590     591     538     537     512     513
       8     617     616     591     592     539     538     513     514
       8     618     617     592     593     540     539     514     515
       8     619     618     593     594     541     540     515     516
       8     620     619     594     595     542     541     516     517
       8     621     620     595     596     543     542     517     518
       8     622     621     596     597     544     543     518     519
       8     623     622     597     551     545     544     519     473
       8     599     623     551     550     521     545     473     472
       8     624     625     626     627     546     547     548     549
       8     626     628     629     627     548     550     551     549
       8     630     625     624     631     552     547     546     553
       8     624     632     633     631     546     554     555     553
       8     634     635     636     630     556     557     558     552
       8     637     638     635     634     559     560     557     556
       8     631     637     634     630     553     559     556     552
       8     639     640     632     641     561     562     554     563
       8     642     643     640     639     564     565     562     561
       8     644     645     643     642     566     567     565     564
       8     646     644     642     647     568     566     564     569
       8     648     633     632     640     570     555     554     562
       8     639     649     647     642     561     571     569     564
       8     624     627     641     632     546     549     563     554
       8     650     637     631     633     572     559     553     555
       8     651     650     633     648     573     572     555     570
       8     652     651     648     653     574     573     570     575
       8     643     653     648     640     565     575     570     562
       8     654     655     649     639     576     577     571     561
       8     656     654     639     641     578     576     561     563
       8     657     656     641     627     579     578     563     549
       8     658     628     626     659     580     550     548     581
       8     660     659     626     625     582     581     548     547
       8     636     660     625     630     558     582     547     552
       8     661     638     637     650     583     560     559     572
       8     662     661     650     651     584     583     572     573
       8     663     662     651     652     585     584     573     574
       8     664     663     652     665     586     585     574     587
       8     666     665     652     653     588     587     574     575
       8     645     666     653     643     567     588     575     565
       8     667     646     647     649     589     568     569     571
       8     668     667     649     655     590     589     571     577
       8     669     668     655     670     591     590     577     592
       8     671     670     655     654     593     592     577     576
       8     672     671     654     656     594     593     576     578
       8     673     672     656     657     595     594     578     579
       8     674     673     657     675     596     595     579     597
       8     629     675     657     627     551     597     579     549
       8     676     677     628     658     598     599     550     580
       8     678     676     658     659     600     598     580     581
       8     679     678     659     660     601     600     581     582
       8     680     679     660     636     602     601     582     558
       8     681     680     636     635     603     602     558     557
       8     682     681     635     638     604     603     557     560
       8     683     682     638     661     605     604     560     583
       8     684     683     661     662     606     605     583     584
       8     685     684     662     663     607     606     584     585
       8     686     685     663     664     608     607     585     586
       8     687     686     664     665     609     608     586     587
       8     688     687     665     666     610     609     587     588
       8     689     688     666     645     611     610     588     567
       8     690     689     645     644     612     611     567     566
       8     691     690     644     646     613     612     566     568
       8     692     691     646     667     614     613     568     589
       8     693     692     667     668     615     614     589     590
       8     694     693     668     669     616     615     590     591
       8     695     694     669     670     617     616     591     592
       8     696     695     670     671     618     617     592     593
       8     697     696     671     672     619     618     593     594
       8     698     697     672     673     620     619     594     595
       8     699     698     673     674     621     620     595     596
       8     700     699     674     675     622     621     596     597
       8     701     700     675     629     623     622     597     551
       8     677     701     629     628     599     623     551     550
       8     702     703     704     705     624     625     626     627
       8     704     706     707     705     626     628     629     627
       8     708     703     702     709     630     625     624     631
       8     702     710     711     709     624     632     633     631
       8     712     713     714     708     634     635     636     630
       8     715     716     713     712     637     638     635     634
       8     709     715     712     708     631     637     634     630
       8     717     718     710     719     639     640     632     641
       8     720     721     718     717     642     643     640     639
       8     722     723     721     720     644     645     643     642
       8     724     722     720     725     646     644     642     647
       8     726     711     710     718     648     633     632     640
       8     717     727     725     720     639     649     647     642
       8     702     705     719     710     624     627     641     632
       8     728     715     709     711     650     637     631     633
       8     729     728     711     726     651     650     633     648
       8     730     729     726     731     652     651     648     653
       8     721     731     726     718     643     653     648     640
       8     732     733     727     717     654     655     649     639
       8     734     732     717     719     656     654     639     641
       8     735     734     719     705     657     656     641     627
       8     736     706     704     737     658     628     626     659
       8     738     737     704     703     660     659     626     625
       8     714     738     703     708     636     660     625     630
       8     739     716     715     728     661     638     637     650
       8     740     739     728     729     662     661     650     651
       8     741     740     729     730     663     662     651     652
       8     742     741     730     743     664     663     652     665
       8     744     743     730     731     666     665     652     653
       8     723     744     731     721     645     666     653     643
       8     745     724     725     727     667     646     647     649
       8     746     745     727     733     668     667     649     655
       8     747     746     733     748     669     668     655     670
       8     749     748     733     732     671     670     655     654
       8     750     749     732     734     672     671     654     656
       8     751     750     734     735     673     672     656     657
       8     752     751     735     753     674     673     657     675
       8     707     753     735     705     629     675     657     627
       8     754     755     706     736     676     677     628     658
       8     756     754     736     737     678     676     658     659
       8     757     756     737     738     679     678     659     660
       8     758     757     738     714     680     679     660     636
       8     759     758     714     713     681     680     636     635
       8     760     759     713     716     682     681     635     638
       8     761     760     716     739     683     682     638     661
       8     762     761     739     740     684     683     661     662
       8     763     762     740     741     685     684     662     663
       8     764     763     741     742     686     685     663     664
       8     765     764     742     743     687     686     664     665
       8     766     765     743     744     688     687     665     666
       8     767     766     744     723     689     688     666     645
       8     768     767     723     722     690     689     645     644
       8     769     768     722     724     691     690     644     646
       8     770     769     724     745     692     691     646     667
       8     771     770     745     746     693     692     667     668
       8     772     771     746     747     694     693     668     669
       8     773     772     747     748     695     694     669     670
       8     774     773     748     749     696     695     670     671
       8     775     774     749     750     697     696     671     672
       8     776     775     750     751     698     697     672     673
       8     777     776     751     752     699     698     673     674
       8     778     777     752     753     700     699     674     675
       8     779     778     753     707     701     700     675     629
       8     755     779     707     706     677     701     629     628
       8     780     781     782     783     702     703     704     705
       8     782     784     785     783     704     706     707     705
       8     786     781     780     787     708     703     702     709
       8     780     788     789     787     702     710     711     709
       8     790     791     792     786     712     713     714     708
       8     793     794     791     790     715     716     713     712
       8     787     793     790     786     709     715     712     708
       8     795     796     788     797     717     718     710     719
       8     798     799     796     795     720     721     718     717
       8     800     801     799     798     722     723     721     720
       8     802     800     798     803     724     722     720     725
       8     804     789     788     796     726     711     710     718
       8     795     805     803     798     717     727     725     720
       8     780     783     797     788     702     705     719     710
       8     806     793     787     789     728     715     709     711
       8     807     806     789     804     729     728     711     726
       8     808     807     804     809     730     729     726     731
       8     799     809     804     796     721     731     726     718
       8     810     811     805     795     732     733     727     717
       8     812     810     795     797     734     732     717     719
       8     813     812     797     783     735     734     719     705
       8     814     784     782     815     736     706     704     737
       8     816     815     782     781     738     737     704     703
       8     792     816     781     786     714     738     703     708
       8     817     794     793     806     739     716     715     728
       8     818     817     806     807     740     739     728     729
       8     819     818     807     808     741     740     729     730
       8     820     819     808     821     742     741     730     743
       8     822     821     808     809     744     743     730     731
       8     801     822     809     799     723     744     731     721
       8     823     802     803     805     745     724     725     727
       8     824     823     805     811     746     745     727     733
       8     825     824     811     826     747     746     733     748
       8     827     826     811     810     749     748     733     732
       8     828     827     810     812     750     749     732     734
       8     829     828     812     813     751     750     734     735
       8     830     829     813     831     752     751     735     753
       8     785     831     813     783     707     753     735     705
       8     832     833     784     814     754     755     706     736
       8     834     832     814     815     756     754     736     737
       8     835     834     815     816     757     756     737     738
       8     836     835     816     792     758     757     738     714
       8     837     836     792     791     759     758     714     713
       8     838     837     791     794     760     759     713     716
       8     839     838     794     817     761     760     716     739
       8     840     839     817     818     762     761     739     740
       8     841     840     818     819     763     762     740     741
       8     842     841     819     820     764     763     741     742
       8     843     842     820     821     765     764     742     743
       8     844     843     821     822     766     765     743     744
       8     845     844     822     801     767     766     744     723
       8     846     845     801     800     768     767     723     722
       8     847     846     800     802     769     768     722     724
       8     848     847     802     823     770     769     724     745
       8     849     848     823     824     771     770     745     746
       8     850     849     824     825     772     771     746     747
       8     851     850     825     826     773     772     747     748
       8     852     851     826     827     774     773     748     749
       8     853     852     827     828     775     774     749     750
       8     854     853     828     829     776     775     750     751
       8     855     854     829     830     777     776     751     752
       8     856     855     830     831     778     777     752     753
       8     857     856     831     785     779     778     753     707
       8     833     857     785     784     755     779     707     706
       8     858     859     860     861     780     781     782     783
       8     860     862     863     861     782     784     785     783
       8     864     859     858     865     786     781     780     787
       8     858     866     867     865     780     788     789     787
       8     868     869     870     864     790     791     792     786
       8     871     872     869     868     793     794     791     790
       8     865     871     868     864     787     793     790     786
       8     873     874     866     875     795     796     788     797
       8     876     877     874     873     798     799     796     795
       8     878     879     877     876     800     801     799     798
       8     880     878     876     881     802     800     798     803
       8     882     867     866     874     804     789     788     796
       8     873     883     881     876     795     805     803     798
       8     858     861     875     866     780     783     797     788
       8     884     871     865     867     806     793     787     789
       8     885     884     867     882     807     806     789     804
       8     886     885     882     887     808     807     804     809
       8     877     887     882     874     799     809     804     796
       8     888     889     883     873     810     811     805     795
       8     890     888     873     875     812     810     795     797
       8     891     890     875     861     813     812     797     783
       8     892     862     860     893     814     784     782     815
       8     894     893     860     859     816     815     782     781
       8     870     894     859     864     792     816     781     786
       8     895     872     871     884     817     794     793     806
       8     896     895     884     885     818     817     806     807
       8     897     896     885     886     819     818     807     808
       8     898     897     886     899     820     819     808     821
       8     900     899     886     887     822     821     808     809
       8     879     900     887     877     801     822     809     799
       8     901     880     881     883     823     802     803     805
       8     902     901     883     889     824     823     805     811
       8     903     902     889     904     825     824     811     826
       8     905     904     889     888     827     826     811     810
       8     906     905     888     890     828     827     810     812
       8     907     906     890     891     829     828     812     813
       8     908     907     891     909     830     829     813     831
       8     863     909     891     861     785     831     813     783
       8     910     911     862     892     832     833     784     814
       8     912     910     892     893     834     832     814     815
       8     913     912     893     894     835     834     815     816
       8     914     913     894     870     836     835     816     792
       8     915     914     870     869     837     836     792     791
       8     916     915     869     872     838     837     791     794
       8     917     916     872     895     839     838     794     817
       8     918     917     895     896     840     839     817     818
       8     919     918     896     897     841     840     818     819
       8     920     919     897     898     842     841     819     820
       8     921     920     898     899     843     842     820     821
       8     922     921     899     900     844     843     821     822
       8     923     922     900     879     845     844     822     801
       8     924     923     879     878     846     845     801     800
       8     925     924     878     880     847     846     800     802
       8     926     925     880     901     848     847     802     823
       8     927     926     901     902     849     848     823     824
       8     928     927     902     903     850     849     824     825
       8     929     928     903     904     851     850     825     826
       8     930     929     904     905     852     851     826     827
       8     931     930     905     906     853     852     827     828
       8     932     931     906     907     854     853     828     829
       8     933     932     907     908     855     854     829     830
       8     934     933     908     909     856     855     830     831
       8     935     934     909     863     857     856     831     785
       8     911     935     863     862     833     857     785     784
       8     936     937     938     939     858     859     860     861
       8     938     940     941     939     860     862     863     861
       8     942     937     936     943     864     859     858     865
       8     936     944     945     943     858     866     867     865
       8     946     947     948     942     868     869     870     864
       8     949     950     947     946     871     872     869     868
       8     943     949     946     942     865     871     868     864
       8     951     952     944     953     873     874     866     875
       8     954     955     952     951     876     877     874     873
       8     956     957     955     954     878     879     877     876
       8     958     956     954     959     880     878     876     881
       8     960     945     944     952     882     867     866     874
       8     951     961     959     954     873     883     881     876
       8     936     939     953     944     858     861     875     866
       8     962     949     943     945     884     871     865     867
       8     963     962     945     960     885     884     867     882
       8     964     963     960     965     886     885     882     887
       8     955     965     960     952     877     887     882     874
       8     966     967     961     951     888     889     883     873
       8     968     966     951     953     890     888     873     875
       8     969     968     953     939     891     890     875     861
       8     970     940     938     971     892     862     860     893
       8     972     971     938     937     894     893     860     859
       8     948     972     937     942     870     894     859     864
       8     973     950     949     962     895     872     871     884
       8     974     973     962     963     896     895     884     885
       8     975     974     963     964     897     896     885     886
       8     976     975     964     977     898     897     886     899
       8     978     977     964     965     900     899     886     887
       8     957     978     965     955     879     900     887     877
       8     979     958     959     961     901     880     881     883
       8     980     979     961     967     902     901     883     889
       8     981     980     967     982     903     902     889     904
       8     983     982     967     966     905     904     889     888
       8     984     983     966     968     906     905     888     890
       8     985     984     968     969     907     906     890     891
       8     986     985     969     987     908     907     891     909
       8     941     987     969     939     863     909     891     861
       8     988     989     940     970     910     911     862     892
       8     990     988     970     971     912     910     892     893
       8     991     990     971     972     913     912     893     894
       8     992     991     972     948     914     913     894     870
       8     993     992     948     947     915     914     870     869
       8     994     993     947     950     916     915     869     872
       8     995     994     950     973     917     916     872     895
       8     996     995     973     974     918     917     895     896
       8     997     996     974     975     919     918     896     897
       8     998     997     975     976     920     919     897     898
       8     999     998     976     977     921     920     898     899
       8    1000     999     977     978     922     921     899     900
       8    1001    1000     978     957     923     922     900     879
       8    1002    1001     957     956     924     923     879     878
       8    1003    1002     956     958     925     924     878     880
       8    1004    1003     958     979     926     925     880     901
       8    1005    1004     979     980     927     926     901     902
       8    1006    1005     980     981     928     927     902     903
       8    1007    1006     981     982     929     928     903     904
       8    1008    1007     982     983     930     929     904     905
       8    1009    1008     983     984     931     930     905     906
       8    1010    1009     984     985     932     931     906     907
       8    1011    1010     985     986     933     932     907     908
       8    1012    1011     986     987     934     933     908     909
       8    1013    1012     987     941     935     934     909     863
       8     989    1013     941     940     911     935     863     862
       8    1014    1015    1016    1017     936     937     938     939
       8    1016    1018    1019    1017     938     940     941     939
       8    1020    1015    1014    1021     942     937     936     943
       8    1014    1022    1023    1021     936     944     945     943
       8    1024    1025    1026    1020     946     947     948     942
       8    1027    1028    1025    1024     949     950     947     946
       8    1021    1027    1024    1020     943     949     946     942
       8    1029    1030    1022    1031     951     952     944     953
       8    1032    1033    1030    1029     954     955     952     951
       8    1034    1035    1033    1032     956     957     955     954
       8    1036    1034    1032    1037     958     956     954     959
       8    1038    1023    1022    1030     960     945     944     952
       8    1029    1039    1037    1032     951     961     959     954
       8    1014    1017    1031    1022     936     939     953     944
       8    1040    1027    1021    1023     962     949     943     945
       8    1041    1040    1023    1038     963     962     945     960
       8    1042    1041    1038    1043     964     963     960     965
       8    1033    1043    1038    1030     955     965     960     952
       8    1044    1045    1039    1029     966     967     961     951
       8    1046    1044    1029    1031     968     966     951     953
       8    1047    1046    1031    1017     969     968     953     939
       8    1048    1018    1016    1049     970     940     938     971
       8    1050    1049    1016    1015     972     971     938     937
       8    1026    1050    1015    1020     948     972     937     942
       8    1051    1028    1027    1040     973     950     949     962
       8    1052    1051    1040    1041     974     973     962     963
       8    1053    1052    1041    1042     975     974     963     964
       8    1054    1053    1042    1055     976     975     964     977
       8    1056    1055    1042    1043     978     977     964     965
       8    1035    1056    1043    1033     957     978     965     955
       8    1057    1036    1037    1039     979     958     959     961
       8    1058    1057    1039    1045     980     979     961     967
       8    1059    1058    1045    1060     981     980     967     982
       8    1061    1060    1045    1044     983     982     967     966
       8    1062    1061    1044    1046     984     983     966     968
       8    1063    1062    1046    1047     985     984     968     969
       8    1064    1063    1047    1065     986     985     969     987
       8    1019    1065    1047    1017     941     987     969     939
       8    1066    1067    1018    1048     988     989     940     970
       8    1068    1066    1048    1049     990     988     970     971
       8    1069    1068    1049    1050     991     990     971     972
       8    1070    1069    1050    1026     992     991     972     948
       8    1071    1070    1026    1025     993     992     948     947
       8    1072    1071    1025    1028     994     993     947     950
       8    1073    1072    1028    1051     995     994     950     973
       8    1074    1073    1051    1052     996     995     973     974
       8    1075    1074    1052    1053     997     996     974     975
       8    1076    1075    1053    1054     998     997     975     976
       8    1077    1076    1054    1055     999     998     976     977
       8    1078    1077    1055    1056    1000     999     977     978
       8    1079    1078    1056    1035    1001    1000     978     957
       8    1080    1079    1035    1034    1002    1001     957     956
       8    1081    1080    1034    1036    1003    1002     956     958
       8    1082    1081    1036    1057    1004    1003     958     979
       8    1083    1082    1057    1058    1005    1004     979     980
       8    1084    1083    1058    1059    1006    1005     980     981
       8    1085    1084    1059    1060    1007    1006     981     982
       8    1086    1085    1060    1061    1008    1007     982     983
       8    1087    1086    1061    1062    1009    1008     983     984
       8    1088    1087    1062    1063    1010    1009     984     985
       8    1089    1088    1063    1064    1011    1010     985     986
       8    1090    1089    1064    1065    1012    1011     986     987
       8    1091    1090    1065    1019    1013    1012     987     941
       8    1067    1091    1019    1018     989    1013     941     940
       8    1092    1093    1094    1095    1014    1015    1016    1017
       8    1094    1096    1097    1095    1016    1018    1019    1017
       8    1098    1093    1092    1099    1020    1015    1014    1021
       8    1092    1100    1101    1099    1014    1022    1023    1021
       8    1102    1103    1104    1098    1024    1025    1026    1020
       8    1105    1106    1103    1102    1027    1028    1025    1024
       8    1099    1105    1102    1098    1021    1027    1024    1020
       8    1107    1108    1100    1109    1029    1030    1022    1031
       8    1110    1111    1108    1107    1032    1033    1030    1029
       8    1112    1113    1111    1110    1034    1035    1033    1032
       8    1114    1112    1110    1115    1036    1034    1032    1037
       8    1116    1101    1100    1108    1038    1023    1022    1030
       8    1107    1117    1115    1110    1029    1039    1037    1032
       8    1092    1095    1109    1100    1014    1017    1031    1022
       8    1118    1105    1099    1101    1040    1027    1021    1023
       8    1119    1118    1101    1116    1041    1040    1023    1038
       8    1120    1119    1116    1121    1042    1041    1038    1043
       8    1111    1121    1116    1108    1033    1043    1038    1030
       8    1122    1123    1117    1107    1044    1045    1039    1029
       8    1124    1122    1107    1109    1046    1044    1029    1031
       8    1125    1124    1109    1095    1047    1046    1031    1017
       8    1126    1096    1094    1127    1048    1018    1016    1049
       8    1128    1127    1094    1093    1050    1049    1016    1015
       8    1104    1128    1093    1098    1026    1050    1015    1020
       8    1129    1106    1105    1118    1051    1028    1027    1040
       8    1130    1129    1118    1119    1052    1051    1040    1041
       8    1131    1130    1119    1120    1053    1052    1041    1042
       8    1132    1131    1120    1133    1054    1053    1042    1055
       8    1134    1133    1120    1121    1056    1055    1042    1043
       8    1113    1134    1121    1111    1035    1056    1043    1033
       8    1135    1114    1115    1117    1057    1036    1037    1039
       8    1136    1135    1117    1123    1058    1057    1039    1045
       8    1137    1136    1123    1138    1059    1058    1045    1060
       8    1139    1138    1123    1122    1061    1060    1045    1044
       8    1140    1139    1122    1124    1062    1061    1044    1046
       8    1141    1140    1124    1125    1063    1062    1046    1047
       8    1142    1141    1125    1143    1064    1063    1047    1065
       8    1097    1143    1125    1095    1019    1065    1047    1017
       8    1144    1145    1096    1126    1066    1067    1018    1048
       8    1146    1144    1126    1127    1068    1066    1048    1049
       8    1147    1146    1127    1128    1069    1068    1049    1050
       8    1148    1147    1128    1104    1070    1069    1050    1026
       8    1149    1148    1104    1103    1071    1070    1026    1025
       8    1150    1149    1103    1106    1072    1071    1025    1028
       8    1151    1150    1106    1129    1073    1072    1028    1051
       8    1152    1151    1129    1130    1074    1073    1051    1052
       8    1153    1152    1130    1131    1075    1074    1052    1053
       8    1154    1153    1131    1132    1076    1075    1053    1054
       8    1155    1154    1132    1133    1077    1076    1054    1055
       8    1156    1155    1133    1134    1078    1077    1055    1056
       8    1157    1156    1134    1113    1079    1078    1056    1035
       8    1158    1157    1113    1112    1080    1079    1035    1034
       8    1159    1158    1112    1114    1081    1080    1034    1036
       8    1160    1159    1114    1135    1082    1081    1036    1057
       8    1161    1160    1135    1136    1083    1082    1057    1058
       8    1162    1161    1136    1137    1084    1083    1058    1059
       8    1163    1162    1137    1138    1085    1084    1059    1060
       8    1164    1163    1138    1139    1086    1085    1060    1061
       8    1165    1164    1139    1140    1087    1086    1061    1062
       8    1166    1165    1140    1141    1088    1087    1062    1063
       8    1167    1166    1141    1142    1089    1088    1063    1064
       8    1168    1167    1142    1143    1090    1089    1064    1065
       8    1169    1168    1143    1097    1091    1090    1065    1019
       8    1145    1169    1097    1096    1067    1091    1019    1018
       8    1170    1171    1172    1173    1092    1093    1094    1095
       8    1172    1174    1175    1173    1094    1096    1097    1095
       8    1176    1171    1170    1177    1098    1093    1092    1099
       8    1170    1178    1179    1177    1092    1100    1101    1099
       8    1180    1181    1182    1176    1102    1103    1104    1098
       8    1183    1184    1181    1180    1105    1106    1103    1102
       8    1177    1183    1180    1176    1099    1105    1102    1098
       8    1185    1186    1178    1187    1107    1108    1100    1109
       8    1188    1189    1186    1185    1110    1111    1108    1107
       8    1190    1191    1189    1188    1112    1113    1111    1110
       8    1192    1190    1188    1193    1114    1112    1110    1115
       8    1194    1179    1178    1186    1116    1101    1100    1108
       8    1185    1195    1193    1188    1107    1117    1115    1110
       8    1170    1173    1187    1178    1092    1095    1109    1100
       8    1196    1183    1177    1179    1118    1105    1099    1101
       8    1197    1196    1179    1194    1119    1118    1101    1116
       8    1198    1197    1194    1199    1120    1119    1116    1121
       8    1189    1199    1194    1186    1111    1121    1116    1108
       8    1200    1201    1195    1185    1122    1123    1117    1107
       8    1202    1200    1185    1187    1124    1122    1107    1109
       8    1203    1202    1187    1173    1125    1124    1109    1095
       8    1204    1174    1172    1205    1126    1096    1094    1127
       8    1206    1205    1172    1171    1128    1127    1094    1093
       8    1182    1206    1171    1176    1104    1128    1093    1098
       8    1207    1184    1183    1196    1129    1106    1105    1118
       8    1208    1207    1196    1197    1130    1129    1118    1119
       8    1209    1208    1197    1198    1131    1130    1119    1120
       8    1210    1209    1198    1211    1132    1131    1120    1133
       8    1212    1211    1198    1199    1134    1133    1120    1121
       8    1191    1212    1199    1189    1113    1134    1121    1111
       8    1213    1192    1193    1195    1135    1114    1115    1117
       8    1214    1213    1195    1201    1136    1135    1117    1123
       8    1215    1214    1201    1216    1137    1136    1123    1138
       8    1217    1216    1201    1200    1139    1138    1123    1122
       8    1218    1217    1200    1202    1140    1139    1122    1124
       8    1219    1218    1202    1203    1141    1140    1124    1125
       8    1220    1219    1203    1221    1142    1141    1125    1143
       8    1175    1221    1203    1173    1097    1143    1125    1095
       8    1222    1223    1174    1204    1144    1145    1096    1126
       8    1224    1222    1204    1205    1146    1144    1126    1127
       8    1225    1224    1205    1206    1147    1146    1127    1128
       8    1226    1225    1206    1182    1148    1147    1128    1104
       8    1227    1226    1182    1181    1149    1148    1104    1103
       8    1228    1227    1181    1184    1150    1149    1103    1106
       8    1229    1228    1184    1207    1151    1150    1106    1129
       8    1230    1229    1207    1208    1152    1151    1129    1130
       8    1231    1230    1208    1209    1153    1152    1130    1131
       8    1232    1231    1209    1210    1154    1153    1131    1132
       8    1233    1232    1210    1211    1155    1154    1132    1133
       8    1234    1233    1211    1212    1156    1155    1133    1134
       8    1235    1234    1212    1191    1157    1156    1134    1113
       8    1236    1235    1191    1190    1158    1157    1113    1112
       8    1237    1236    1190    1192    1159    1158    1112    1114
       8    1238    1237    1192    1213    1160    1159    1114    1135
       8    1239    1238    1213    1214    1161    1160    1135    1136
       8    1240    1239    1214    1215    1162    1161    1136    1137
       8    1241    1240    1215    1216    1163    1162    1137    1138
       8    1242    1241    1216    1217    1164    1163    1138    1139
       8    1243    1242    1217    1218    1165    1164    1139    1140
       8    1244    1243    1218    1219    1166    1165    1140    1141
       8    1245    1244    1219    1220    1167    1166    1141    1142
       8    1246    1245    1220    1221    1168    1167    1142    1143
       8    1247    1246    1221    1175    1169    1168    1143    1097
       8    1223    1247    1175    1174    1145    1169    1097    1096
       8    1248    1249    1250    1251    1170    1171    1172    1173
       8    1250    1252    1253    1251    1172    1174    1175    1173
       8    1254    1249    1248    1255    1176    1171    1170    1177
       8    1248    1256    1257    1255    1170    1178    1179    1177
       8    1258    1259    1260    1254    1180    1181    1182    1176
       8    1261    1262    1259    1258    1183    1184    1181    1180
       8    1255    1261    1258    1254    1177    1183    1180    1176
       8    1263    1264    1256    1265    1185    1186    1178    1187
       8    1266    1267    1264    1263    1188    1189    1186    1185
       8    1268    1269    1267    1266    1190    1191    1189    1188
       8    1270    1268    1266    1271    1192    1190    1188    1193
       8    1272    1257    1256    1264    1194    1179    1178    1186
       8    1263    1273    1271    1266    1185    1195    1193    1188
       8    1248    1251    1265    1256    1170    1173    1187    1178
       8    1274    1261    1255    1257    1196    1183    1177    1179
       8    1275    1274    1257    1272    1197    1196    1179    1194
       8    1276    1275    1272    1277    1198    1197    1194    1199
       8    1267    1277    1272    1264    1189    1199    1194    1186
       8    1278    1279    1273    1263    1200    1201    1195    1185
       8    1280    1278    1263    1265    1202    1200    1185    1187
       8    1281    1280    1265    1251    1203    1202    1187    1173
       8    1282    1252    1250    1283    1204    1174    1172    1205
       8    1284    1283    1250    1249    1206    1205    1172    1171
       8    1260    1284    1249    1254    1182    1206    1171    1176
       8    1285    1262    1261    1274    1207    1184    1183    1196
       8    1286    1285    1274    1275    1208    1207    1196    1197
       8    1287    1286    1275    1276    1209    1208    1197    1198
       8    1288    1287    1276    1289    1210    1209    1198    1211
       8    1290    1289    1276    1277    1212    1211    1198    1199
       8    1269    1290    1277    1267    1191    1212    1199    1189
       8    1291    1270    1271    1273    1213    1192    1193    1195
       8    1292    1291    1273    1279    1214    1213    1195    1201
       8    1293    1292    1279    1294    1215    1214    1201    1216
       8    1295    1294    1279    1278    1217    1216    1201    1200
       8    1296    1295    1278    1280    1218    1217    1200    1202
       8    1297    1296    1280    1281    1219    1218    1202    1203
       8    1298    1297    1281    1299    1220    1219    1203    1221
       8    1253    1299    1281    1251    1175    1221    1203    1173
       8    1300    1301    1252    1282    1222    1223    1174    1204
       8    1302    1300    1282    1283    1224    1222    1204    1205
       8    1303    1302    1283    1284    1225    1224    1205    1206
       8    1304    1303    1284    1260    1226    1225    1206    1182
       8    1305    1304    1260    1259    1227    1226    1182    1181
       8    1306    1305    1259    1262    1228    1227    1181    1184
       8    1307    1306    1262    1285    1229    1228    1184    1207
       8    1308    1307    1285    1286    1230    1229    1207    1208
       8    1309    1308    1286    1287    1231    1230    1208    1209
       8    1310    1309    1287    1288    1232    1231    1209    1210
       8    1311    1310    1288    1289    1233    1232    1210    1211
       8    1312    1311    1289    1290    1234    1233    1211    1212
       8    1313    1312    1290    1269    1235    1234    1212    1191
       8    1314    1313    1269    1268    1236    1235    1191    1190
       8    1315    1314    1268    1270    1237    1236    1190    1192
       8    1316    1315    1270    1291    1238    1237    1192    1213
       8    1317    1316    1291    1292    1239    1238    1213    1214
       8    1318    1317    1292    1293    1240    1239    1214    1215
       8    1319    1318    1293    1294    1241    1240    1215    1216
       8    1320    1319    1294    1295    1242    1241    1216    1217
       8    1321    1320    1295    1296    1243    1242    1217    1218
       8    1322    1321    1296    1297    1244    1243    1218    1219
       8    1323    1322    1297    1298    1245    1244    1219    1220
       8    1324    1323    1298    1299    1246    1245    1220    1221
       8    1325    1324    1299    1253    1247    1246    1221    1175
       8    1301    1325    1253    1252    1223    1247    1175    1174
       8    1326    1327    1328    1329    1248    1249    1250    1251
       8    1328    1330    1331    1329    1250    1252    1253    1251
       8    1332    1327    1326    1333    1254    1249    1248    1255
       8    1326    1334    1335    1333    1248    1256    1257    1255
       8    1336    1337    1338    1332    1258    1259    1260    1254
       8    1339    1340    1337    1336    1261    1262    1259    1258
       8    1333    1339    1336    1332    1255    1261    1258    1254
       8    1341    1342    1334    1343    1263    1264    1256    1265
       8    1344    1345    1342    1341    1266    1267    1264    1263
       8    1346    1347    1345    1344    1268    1269    1267    1266
       8    1348    1346    1344    1349    1270    1268    1266    1271
       8    1350    1335    1334    1342    1272    1257    1256    1264
       8    1341    1351    1349    1344    1263    1273    1271    1266
       8    1326    1329    1343    1334    1248    1251    1265    1256
       8    1352    1339    1333    1335    1274    1261    1255    1257
       8    1353    1352    1335    1350    1275    1274    1257    1272
       8    1354    1353    1350    1355    1276    1275    1272    1277
       8    1345    1355    1350    1342    1267    1277    1272    1264
       8    1356    1357    1351    1341    1278    1279    1273    1263
       8    1358    1356    1341    1343    1280    1278    1263    1265
       8    1359    1358    1343    1329    1281    1280    1265    1251
       8    1360    1330    1328    1361    1282    1252    1250    1283
       8    1362    1361    1328    1327    1284    1283    1250    1249
       8    1338    1362    1327    1332    1260    1284    1249    1254
       8    1363    1340    1339    1352    1285    1262    1261    1274
       8    1364    1363    1352    1353    1286    1285    1274    1275
       8    1365    1364    1353    1354    1287    1286    1275    1276
       8    1366    1365    1354    1367    1288    1287    1276    1289
       8    1368    1367    1354    1355    1290    1289    1276    1277
       8    1347    1368    1355    1345    1269    1290    1277    1267
       8    1369    1348    1349    1351    1291    1270    1271    1273
       8    1370    1369    1351    1357    1292    1291    1273    1279
       8    1371    1370    1357    1372    1293    1292    1279    1294
       8    1373    1372    1357    1356    1295    1294    1279    1278
       8    1374    1373    1356    1358    1296    1295    1278    1280
       8    1375    1374    1358    1359    1297    1296    1280    1281
       8    1376    1375    1359    1377    1298    1297    1281    1299
       8    1331    1377    1359    1329    1253    1299    1281    1251
       8    1378    1379    1330    1360    1300    1301    1252    1282
       8    1380    1378    1360    1361    1302    1300    1282    1283
       8    1381    1380    1361    1362    1303    1302    1283    1284
       8    1382    1381    1362    1338    1304    1303    1284    1260
       8    1383    1382    1338    1337    1305    1304    1260    1259
       8    1384    1383    1337    1340    1306    1305    1259    1262
       8    1385    1384    1340    1363    1307    1306    1262    1285
       8    1386    1385    1363    1364    1308    1307    1285    1286
       8    1387    1386    1364    1365    1309    1308    1286    1287
       8    1388    1387    1365    1366    1310    1309    1287    1288
       8    1389    1388    1366    1367    1311    1310    1288    1289
       8    1390    1389    1367    1368    1312    1311    1289    1290
       8    1391    1390    1368    1347    1313    1312    1290    1269
       8    1392    1391    1347    1346    1314    1313    1269    1268
       8    1393    1392    1346    1348    1315    1314    1268    1270
       8    1394    1393    1348    1369    1316    1315    1270    1291
       8    1395    1394    1369    1370    1317    1316    1291    1292
       8    1396    1395    1370    1371    1318    1317    1292    1293
       8    1397    1396    1371    1372    1319    1318    1293    1294
       8    1398    1397    1372    1373    1320    1319    1294    1295
       8    1399    1398    1373    1374    1321    1320    1295    1296
       8    1400    1399    1374    1375    1322    1321    1296    1297
       8    1401    1400    1375    1376    1323    1322    1297    1298
       8    1402    1401    1376    1377    1324    1323    1298    1299
       8    1403    1402    1377    1331    1325    1324    1299    1253
       8    1379    1403    1331    1330    1301    1325    1253    1252
       8    1404    1405    1406    1407    1326    1327    1328    1329
       8    1406    1408    1409    1407    1328    1330    1331    1329
       8    1410    1405    1404    1411    1332    1327    1326    1333
       8    1404    1412    1413    1411    1326    1334    1335    1333
       8    1414    1415    1416    1410    1336    1337    1338    1332
       8    1417    1418    1415    1414    1339    1340    1337    1336
       8    1411    1417    1414    1410    1333    1339    1336    1332
       8    1419    1420    1412    1421    1341    1342    1334    1343
       8    1422    1423    1420    1419    1344    1345    1342    1341
       8    1424    1425    1423    1422    1346    1347    1345    1344
       8    1426    1424    1422    1427    1348    1346    1344    1349
       8    1428    1413    1412    1420    1350    1335    1334    1342
       8    1419    1429    1427    1422    1341    1351    1349    1344
       8    1404    1407    1421    1412    1326    1329    1343    1334
       8    1430    1417    1411    1413    1352    1339    1333    1335
       8    1431    1430    1413    1428    1353    1352    1335    1350
       8    1432    1431    1428    1433    1354    1353    1350    1355
       8    1423    1433    1428    1420    1345    1355    1350    1342
       8    1434    1435    1429    1419    1356    1357    1351    1341
       8    1436    1434    1419    1421    1358    1356    1341    1343
       8    1437    1436    1421    1407    1359    1358    1343    1329
       8    1438    1408    1406    1439    1360    1330    1328    1361
       8    1440    1439    1406    1405    1362    1361    1328    1327
       8    1416    1440    1405    1410    1338    1362    1327    1332
       8    1441    1418    1417    1430    1363    1340    1339    1352
       8    1442    1441    1430    1431    1364    1363    1352    1353
       8    1443    1442    1431    1432    1365    1364    1353    1354
       8    1444    1443    1432    1445    1366    1365    1354    1367
       8    1446    1445    1432    1433    1368    1367    1354    1355
       8    1425    1446    1433    1423    1347    1368    1355    1345
       8    1447    1426    1427    1429    1369    1348    1349    1351
       8    1448    1447    1429    1435    1370    1369    1351    1357
       8    1449    1448    1435    1450    1371    1370    1357    1372
       8    1451    1450    1435    1434    1373    1372    1357    1356
       8    1452    1451    1434    1436    1374    1373    1356    1358
       8    1453    1452    1436    1437    1375    1374    1358    1359
       8    1454    1453    1437    1455    1376    1375    1359    1377
       8    1409    1455    1437    1407    1331    1377    1359    1329
       8    1456    1457    1408    1438    1378    1379    1330    1360
       8    1458    1456    1438    1439    1380    1378    1360    1361
       8    1459    1458    1439    1440    1381    1380    1361    1362
       8    1460    1459    1440    1416    1382    1381    1362    1338
       8    1461    1460    1416    1415    1383    1382    1338    1337
       8    1462    1461    1415    1418    1384    1383    1337    1340
       8    1463    1462    1418    1441    1385    1384    1340    1363
       8    1464    1463    1441    1442    1386    1385    1363    1364
       8    1465    1464    1442    1443    1387    1386    1364    1365
       8    1466    1465    1443    1444    1388    1387    1365    1366
       8    1467    1466    1444    1445    1389    1388    1366    1367
       8    1468    1467    1445    1446    1390    1389    1367    1368
       8    1469    1468    1446    1425    1391    1390    1368    1347
       8    1470    1469    1425    1424    1392    1391    1347    1346
       8    1471    1470    1424    1426    1393    1392    1346    1348
       8    1472    1471    1426    1447    1394    1393    1348    1369
       8    1473    1472    1447    1448    1395    1394    1369    1370
       8    1474    1473    1448    1449    1396    1395    1370    1371
       8    1475    1474    1449    1450    1397    1396    1371    1372
       8    1476    1475    1450    1451    1398    1397    1372    1373
       8    1477    1476    1451    1452    1399    1398    1373    1374
       8    1478    1477    1452    1453    1400    1399    1374    1375
       8    1479    1478    1453    1454    1401    1400    1375    1376
       8    1480    1479    1454    1455    1402    1401    1376    1377
       8    1481    1480    1455    1409    1403    1402    1377    1331
       8    1457    1481    1409    1408    1379    1403    1331    1330
       8    1482    1483    1484    1485    1404    1405    1406    1407
       8    1484    1486    1487    1485    1406    1408    1409    1407
       8    1488    1483    1482    1489    1410    1405    1404    1411
       8    1482    1490    1491    1489    1404    1412    1413    1411
       8    1492    1493    1494    1488    1414    1415    1416    1410
       8    1495    1496    1493    1492    1417    1418    1415    1414
       8    1489    1495    1492    1488    1411    1417    1414    1410
       8    1497    1498    1490    1499    1419    1420    1412    1421
       8    1500    1501    1498    1497    1422    1423    1420    1419
       8    1502    1503    1501    1500    1424    1425    1423    1422
       8    1504    1502    1500    1505    1426    1424    1422    1427
       8    1506    1491    1490    1498    1428    1413    1412    1420
       8    1497    1507    1505    1500    1419    1429    1427    1422
       8    1482    1485    1499    1490    1404    1407    1421    1412
       8    1508    1495    1489    1491    1430    1417    1411    1413
       8    1509    1508    1491    1506    1431    1430    1413    1428
       8    1510    1509    1506    1511    1432    1431    1428    1433
       8    1501    1511    1506    1498    1423    1433    1428    1420
       8    1512    1513    1507    1497    1434    1435    1429    1419
       8    1514    1512    1497    1499    1436    1434    1419    1421
       8    1515    1514    1499    1485    1437    1436    1421    1407
       8    1516    1486    1484    1517    1438    1408    1406    1439
       8    1518    1517    1484    1483    1440    1439    1406    1405
       8    1494    1518    1483    1488    1416    1440    1405    1410
       8    1519    1496    1495    1508    1441    1418    1417    1430
       8    1520    1519    1508    1509    1442    1441    1430    1431
       8    1521    1520    1509    1510    1443    1442    1431    1432
       8    1522    1521    1510    1523    1444    1443    1432    1445
       8    1524    1523    1510    1511    1446    1445    1432    1433
       8    1503    1524    1511    1501    1425    1446    1433    1423
       8    1525    1504    1505    1507    1447    1426    1427    1429
       8    1526    1525    1507    1513    1448    1447    1429    1435
       8    1527    1526    1513    1528    1449    1448    1435    1450
       8    1529    1528    1513    1512    1451    1450    1435    1434
       8    1530    1529    1512    1514    1452    1451    1434    1436
       8    1531    1530    1514    1515    1453    1452    1436    1437
       8    1532    1531    1515    1533    1454    1453    1437    1455
       8    1487    1533    1515    1485    1409    1455    1437    1407
       8    1534    1535    1486    1516    1456    1457    1408    1438
       8    1536    1534    1516    1517    1458    1456    1438    1439
       8    1537    1536    1517    1518    1459    1458    1439    1440
       8    1538    1537    1518    1494    1460    1459    1440    1416
       8    1539    1538    1494    1493    1461    1460    1416    1415
       8    1540    1539    1493    1496    1462    1461    1415    1418
       8    1541    1540    1496    1519    1463    1462    1418    1441
       8    1542    1541    1519    1520    1464    1463    1441    1442
       8    1543    1542    1520    1521    1465    1464    1442    1443
       8    1544    1543    1521    1522    1466    1465    1443    1444
       8    1545    1544    1522    1523    1467    1466    1444    1445
       8    1546    1545    1523    1524    1468    1467    1445    1446
       8    1547    1546    1524    1503    1469    1468    1446    1425
       8    1548    1547    1503    1502    1470    1469    1425    1424
       8    1549    1548    1502    1504    1471    1470    1424    1426
       8    1550    1549    1504    1525    1472    1471    1426    1447
       8    1551    1550    1525    1526    1473    1472    1447    1448
       8    1552    1551    1526    1527    1474    1473    1448    1449
       8    1553    1552    1527    1528    1475    1474    1449    1450
       8    1554    1553    1528    1529    1476    1475    1450    1451
       8    1555    1554    1529    1530    1477    1476    1451    1452
       8    1556    1555    1530    1531    1478    1477    1452    1453
       8    1557    1556    1531    1532    1479    1478    1453    1454
       8    1558    1557    1532    1533    1480    1479    1454    1455
       8    1559    1558    1533    1487    1481    1480    1455    1409
       8    1535    1559    1487    1486    1457    1481    1409    1408
       8    1560    1561    1562    1563    1482    1483    1484    1485
       8    1562    1564    1565    1563    1484    1486    1487    1485
       8    1566    1561    1560    1567    1488    1483    1482    1489
       8    1560    1568    1569    1567    1482    1490    1491    1489
       8    1570    1571    1572    1566    1492    1493    1494    1488
       8    1573    1574    1571    1570    1495    1496    1493    1492
       8    1567    1573    1570    1566    1489    1495    1492    1488
       8    1575    1576    1568    1577    1497    1498    1490    1499
       8    1578    1579    1576    1575    1500    1501    1498    1497
       8    1580    1581    1579    1578    1502    1503    1501    1500
       8    1582    1580    1578    1583    1504    1502    1500    1505
       8    1584    1569    1568    1576    1506    1491    1490    1498
       8    1575    1585    1583    1578    1497    1507    1505    1500
       8    1560    1563    1577    1568    1482    1485    1499    1490
       8    1586    1573    1567    1569    1508    1495    1489    1491
       8    1587    1586    1569    1584    1509    1508    1491    1506
       8    1588    1587    1584    1589    1510    1509    1506    1511
       8    1579    1589    1584    1576    1501    1511    1506    1498
       8    1590    1591    1585    1575    1512    1513    1507    1497
       8    1592    1590    1575    1577    1514    1512    1497    1499
       8    1593    1592    1577    1563    1515    1514    1499    1485
       8    1594    1564    1562    1595    1516    1486    1484    1517
       8    1596    1595    1562    1561    1518    1517    1484    1483
       8    1572    1596    1561    1566    1494    1518    1483    1488
       8    1597    1574    1573    1586    1519    1496    1495    1508
       8    1598    1597    1586    1587    1520    1519    1508    1509
       8    1599    1598    1587    1588    1521    1520    1509    1510
       8    1600    1599    1588    1601    1522    1521    1510    1523
       8    1602    1601    1588    1589    1524    1523    1510    1511
       8    1581    1602    1589    1579    1503    1524    1511    1501
       8    1603    1582    1583    1585    1525    1504    1505    1507
       8    1604    1603    1585    1591    1526    1525    1507    1513
       8    1605    1604    1591    1606    1527    1526    1513    1528
       8    1607    1606    1591    1590    1529    1528    1513    1512
       8    1608    1607    1590    1592    1530    1529    1512    1514
       8    1609    1608    1592    1593    1531    1530    1514    1515
       8    1610    1609    1593    1611    1532    1531    1515    1533
       8    1565    1611    1593    1563    1487    1533    1515    1485
       8    1612    1613    1564    1594    1534    1535    1486    1516
       8    1614    1612    1594    1595    1536    1534    1516    1517
       8    1615    1614    1595    1596    1537    1536    1517    1518
       8    1616    1615    1596    1572    1538    1537    1518    1494
       8    1617    1616    1572    1571    1539    1538    1494    1493
       8    1618    1617    1571    1574    1540    1539    1493    1496
       8    1619    1618    1574    1597    1541    1540    1496    1519
       8    1620    1619    1597    1598    1542    1541    1519    1520
       8    1621    1620    1598    1599    1543    1542    1520    1521
       8    1622    1621    1599    1600    1544    1543    1521    1522
       8    1623    1622    1600    1601    1545    1544    1522    1523
       8    1624    1623    1601    1602    1546    1545    1523    1524
       8    1625    1624    1602    1581    1547    1546    1524    1503
       8    1626    1625    1581    1580    1548    1547    1503    1502
       8    1627    1626    1580    1582    1549    1548    1502    1504
       8    1628    1627    1582    1603    1550    1549    1504    1525
       8    1629    1628    1603    1604    1551    1550    1525    1526
       8    1630    1629    1604    1605    1552    1551    1526    1527
       8    1631    1630    1605    1606    1553    1552    1527    1528
       8    1632    1631    1606    1607    1554    1553    1528    1529
       8    1633    1632    1607    1608    1555    1554    1529    1530
       8    1634    1633    1608    1609    1556    1555    1530    1531
       8    1635    1634    1609    1610    1557    1556    1531    1532
       8    1636    1635    1610    1611    1558    1557    1532    1533
       8    1637    1636    1611    1565    1559    1558    1533    1487
       8    1613    1637    1565    1564    1535    1559    1487    1486
       8    1638    1639    1640    1641    1560    1561    1562    1563
       8    1640    1642    1643    1641    1562    1564    1565    1563
       8    1644    1639    1638    1645    1566    1561    1560    1567
       8    1638    1646    1647    1645    1560    1568    1569    1567
       8    1648    1649    1650    1644    1570    1571    1572    1566
       8    1651    1652    1649    1648    1573    1574    1571    1570
       8    1645    1651    1648    1644    1567    1573    1570    1566
       8    1653    1654    1646    1655    1575    1576    1568    1577
       8    1656    1657    1654    1653    1578    1579    1576    1575
       8    1658    1659    1657    1656    1580    1581    1579    1578
       8    1660    1658    1656    1661    1582    1580    1578    1583
       8    1662    1647    1646    1654    1584    1569    1568    1576
       8    1653    1663    1661    1656    1575    1585    1583    1578
       8    1638    1641    1655    1646    1560    1563    1577    1568
       8    1664    1651    1645    1647    1586    1573    1567    1569
       8    1665    1664    1647    1662    1587    1586    1569    1584
       8    1666    1665    1662    1667    1588    1587    1584    1589
       8    1657    1667    1662    1654    1579    1589    1584    1576
       8    1668    1669    1663    1653    1590    1591    1585    1575
       8    1670    1668    1653    1655    1592    1590    1575    1577
       8    1671    1670    1655    1641    1593    1592    1577    1563
       8    1672    1642    1640    1673    1594    1564    1562    1595
       8    1674    1673    1640    1639    1596    1595    1562    1561
       8    1650    1674    1639    1644    1572    1596    1561    1566
       8    1675    1652    1651    1664    1597    1574    1573    1586
       8    1676    1675    1664    1665    1598    1597    1586    1587
       8    1677    1676    1665    1666    1599    1598    1587    1588
       8    1678    1677    1666    1679    1600    1599    1588    1601
       8    1680    1679    1666    1667    1602    1601    1588    1589
       8    1659    1680    1667    1657    1581    1602    1589    1579
       8    1681    1660    1661    1663    1603    1582    1583    1585
       8    1682    1681    1663    1669    1604    1603    1585    1591
       8    1683    1682    1669    1684    1605    1604    1591    1606
       8    1685    1684    1669    1668    1607    1606    1591    1590
       8    1686    1685    1668    1670    1608    1607    1590    1592
       8    1687    1686    1670    1671    1609    1608    1592    1593
       8    1688    1687    1671    1689    1610    1609    1593    1611
       8    1643    1689    1671    1641    1565    1611    1593    1563
       8    1690    1691    1642    1672    1612    1613    1564    1594
       8    1692    1690    1672    1673    1614    1612    1594    1595
       8    1693    1692    1673    1674    1615    1614    1595    1596
       8    1694    1693    1674    1650    1616    1615    1596    1572
       8    1695    1694    1650    1649    1617    1616    1572    1571
       8    1696    1695    1649    1652    1618    1617    1571    1574
       8    1697    1696    1652    1675    1619    1618    1574    1597
       8    1698    1697    1675    1676    1620    1619    1597    1598
       8    1699    1698    1676    1677    1621    1620    1598    1599
       8    1700    1699    1677    1678    1622    1621    1599    1600
       8    1701    1700    1678    1679    1623    1622    1600    1601
       8    1702    1701    1679    1680    1624    1623    1601    1602
       8    1703    1702    1680    1659    1625    1624    1602    1581
       8    1704    1703    1659    1658    1626    1625    1581    1580
       8    1705    1704    1658    1660    1627    1626    1580    1582
       8    1706    1705    1660    1681    1628    1627    1582    1603
       8    1707    1706    1681    1682    1629    1628    1603    1604
       8    1708    1707    1682    1683    1630    1629    1604    1605
       8    1709    1708    1683    1684    1631    1630    1605    1606
       8    1710    1709    1684    1685    1632    1631    1606    1607
       8    1711    1710    1685    1686    1633    1632    1607    1608
       8    1712    1711    1686    1687    1634    1633    1608    1609
       8    1713    1712    1687    1688    1635    1634    1609    1610
       8    1714    1713    1688    1689    1636    1635    1610    1611
       8    1715    1714    1689    1643    1637    1636    1611    1565
       8    1691    1715    1643    1642    1613    1637    1565    1564
       8    1716    1717    1718    1719    1638    1639    1640    1641
       8    1718    1720    1721    1719    1640    1642    1643    1641
       8    1722    1717    1716    1723    1644    1639    1638    1645
       8    1716    1724    1725    1723    1638    1646    1647    1645
       8    1726    1727    1728    1722    1648    1649    1650    1644
       8    1729    1730    1727    1726    1651    1652    1649    1648
       8    1723    1729    1726    1722    1645    1651    1648    1644
       8    1731    1732    1724    1733    1653    1654    1646    1655
       8    1734    1735    1732    1731    1656    1657    1654    1653
       8    1736    1737    1735    1734    1658    1659    1657    1656
       8    1738    1736    1734    1739    1660    1658    1656    1661
       8    1740    1725    1724    1732    1662    1647    1646    1654
       8    1731    1741    1739    1734    1653    1663    1661    1656
       8    1716    1719    1733    1724    1638    1641    1655    1646
       8    1742    1729    1723    1725    1664    1651    1645    1647
       8    1743    1742    1725    1740    1665    1664    1647    1662
       8    1744    1743    1740    1745    1666    1665    1662    1667
       8    1735    1745    1740    1732    1657    1667    1662    1654
       8    1746    1747    1741    1731    1668    1669    1663    1653
       8    1748    1746    1731    1733    1670    1668    1653    1655
       8    1749    1748    1733    1719    1671    1670    1655    1641
       8    1750    1720    1718    1751    1672    1642    1640    1673
       8    1752    1751    1718    1717    1674    1673    1640    1639
       8    1728    1752    1717    1722    1650    1674    1639    1644
       8    1753    1730    1729    1742    1675    1652    1651    1664
       8    1754    1753    1742    1743    1676    1675    1664    1665
       8    1755    1754    1743    1744    1677    1676    1665    1666
       8    1756    1755    1744    1757    1678    1677    1666    1679
       8    1758    1757    1744    1745    1680    1679    1666    1667
       8    1737    1758    1745    1735    1659    1680    1667    1657
       8    1759    1738    1739    1741    1681    1660    1661    1663
       8    1760    1759    1741    1747    1682    1681    1663    1669
       8    1761    1760    1747    1762    1683    1682    1669    1684
       8    1763    1762    1747    1746    1685    1684    1669    1668
       8    1764    1763    1746    1748    1686    1685    1668    1670
       8    1765    1764    1748    1749    1687    1686    1670    1671
       8    1766    1765    1749    1767    1688    1687    1671    1689
       8    1721    1767    1749    1719    1643    1689    1671    1641
       8    1768    1769    1720    1750    1690    1691    1642    1672
       8    1770    1768    1750    1751    1692    1690    1672    1673
       8    1771    1770    1751    1752    1693    1692    1673    1674
       8    1772    1771    1752    1728    1694    1693    1674    1650
       8    1773    1772    1728    1727    1695    1694    1650    1649
       8    1774    1773    1727    1730    1696    1695    1649    1652
       8    1775    1774    1730    1753    1697    1696    1652    1675
       8    1776    1775    1753    1754    1698    1697    1675    1676
       8    1777    1776    1754    1755    1699    1698    1676    1677
       8    1778    1777    1755    1756    1700    1699    1677    1678
       8    1779    1778    1756    1757    1701    1700    1678    1679
       8    1780    1779    1757    1758    1702    1701    1679    1680
       8    1781    1780    1758    1737    1703    1702    1680    1659
       8    1782    1781    1737    1736    1704    1703    1659    1658
       8    1783    1782    1736    1738    1705    1704    1658    1660
       8    1784    1783    1738    1759    1706    1705    1660    1681
       8    1785    1784    1759    1760    1707    1706    1681    1682
       8    1786    1785    1760    1761    1708    1707    1682    1683
       8    1787    1786    1761    1762    1709    1708    1683    1684
       8    1788    1787    1762    1763    1710    1709    1684    1685
       8    1789    1788    1763    1764    1711    1710    1685    1686
       8    1790    1789    1764    1765    1712    1711    1686    1687
       8    1791    1790    1765    1766    1713    1712    1687    1688
       8    1792    1791    1766    1767    1714    1713    1688    1689
       8    1793    1792    1767    1721    1715    1714    1689    1643
       8    1769    1793    1721    1720    1691    1715    1643    1642
       8    1794    1795    1796    1797    1716    1717    1718    1719
       8    1796    1798    1799    1797    1718    1720    1721    1719
       8    1800    1795    1794    1801    1722    1717    1716    1723
       8    1794    1802    1803    1801    1716    1724    1725    1723
       8    1804    1805    1806    1800    1726    1727    1728    1722
       8    1807    1808    1805    1804    1729    1730    1727    1726
       8    1801    1807    1804    1800    1723    1729    1726    1722
       8    1809    1810    1802    1811    1731    1732    1724    1733
       8    1812    1813    1810    1809    1734    1735    1732    1731
       8    1814    1815    1813    1812    1736    1737    1735    1734
       8    1816    1814    1812    1817    1738    1736    1734    1739
       8    1818    1803    1802    1810    1740    1725    1724    1732
       8    1809    1819    1817    1812    1731    1741    1739    1734
       8    1794    1797    1811    1802    1716    1719    1733    1724
       8    1820    1807    1801    1803    1742    1729    1723    1725
       8    1821    1820    1803    1818    1743    1742    1725    1740
       8    1822    1821    1818    1823    1744    1743    1740    1745
       8    1813    1823    1818    1810    1735    1745    1740    1732
       8    1824    1825    1819    1809    1746    1747    1741    1731
       8    1826    1824    1809    1811    1748    1746    1731    1733
       8    1827    1826    1811    1797    1749    1748    1733    1719
       8    1828    1798    1796    1829    1750    1720    1718    1751
       8    1830    1829    1796    1795    1752    1751    1718    1717
       8    1806    1830    1795    1800    1728    1752    1717    1722
       8    1831    1808    1807    1820    1753    1730    1729    1742
       8    1832    1831    1820    1821    1754    1753    1742    1743
       8    1833    1832    1821    1822    1755    1754    1743    1744
       8    1834    1833    1822    1835    1756    1755    1744    1757
       8    1836    1835    1822    1823    1758    1757    1744    1745
       8    1815    1836    1823    1813    1737    1758    1745    1735
       8    1837    1816    1817    1819    1759    1738    1739    1741
       8    1838    1837    1819    1825    1760    1759    1741    1747
       8    1839    1838    1825    1840    1761    1760    1747    1762
       8    1841    1840    1825    1824    1763    1762    1747    1746
       8    1842    1841    1824    1826    1764    1763    1746    1748
       8    1843    1842    1826    1827    1765    1764    1748    1749
       8    1844    1843    1827    1845    1766    1765    1749    1767
       8    1799    1845    1827    1797    1721    1767    1749    1719
       8    1846    1847    1798    1828    1768    1769    1720    1750
       8    1848    1846    1828    1829    1770    1768    1750    1751
       8    1849    1848    1829    1830    1771    1770    1751    1752
       8    1850    1849    1830    1806    1772    1771    1752    1728
       8    1851    1850    1806    1805    1773    1772    1728    1727
       8    1852    1851    1805    1808    1774    1773    1727    1730
       8    1853    1852    1808    1831    1775    1774    1730    1753
       8    1854    1853    1831    1832    1776    1775    1753    1754
       8    1855    1854    1832    1833    1777    1776    1754    1755
       8    1856    1855    1833    1834    1778    1777    1755    1756
       8    1857    1856    1834    1835    1779    1778    1756    1757
       8    1858    1857    1835    1836    1780    1779    1757    1758
       8    1859    1858    1836    1815    1781    1780    1758    1737
       8    1860    1859    1815    1814    1782    1781    1737    1736
       8    1861    1860    1814    1816    1783    1782    1736    1738
       8    1862    1861    1816    1837    1784    1783    1738    1759
       8    1863    1862    1837    1838    1785    1784    1759    1760
       8    1864    1863    1838    1839    1786    1785    1760    1761
       8    1865    1864    1839    1840    1787    1786    1761    1762
       8    1866    1865    1840    1841    1788    1787    1762    1763
       8    1867    1866    1841    1842    1789    1788    1763    1764
       8    1868    1867    1842    1843    1790    1789    1764    1765
       8    1869    1868    1843    1844    1791    1790    1765    1766
       8    1870    1869    1844    1845    1792    1791    1766    1767
       8    1871    1870    1845    1799    1793    1792    1767    1721
       8    1847    1871    1799    1798    1769    1793    1721    1720
       8    1872    1873    1874    1875    1794    1795    1796    1797
       8    1874    1876    1877    1875    1796    1798    1799    1797
       8    1878    1873    1872    1879    1800    1795    1794    1801
       8    1872    1880    1881    1879    1794    1802    1803    1801
       8    1882    1883    1884    1878    1804    1805    1806    1800
       8    1885    1886    1883    1882    1807    1808    1805    1804
       8    1879    1885    1882    1878    1801    1807    1804    1800
       8    1887    1888    1880    1889    1809    1810    1802    1811
       8    1890    1891    1888    1887    1812    1813    1810    1809
       8    1892    1893    1891    1890    1814    1815    1813    1812
       8    1894    1892    1890    1895    1816    1814    1812    1817
       8    1896    1881    1880    1888    1818    1803    1802    1810
       8    1887    1897    1895    1890    1809    1819    1817    1812
       8    1872    1875    1889    1880    1794    1797    1811    1802
       8    1898    1885    1879    1881    1820    1807    1801    1803
       8    1899    1898    1881    1896    1821    1820    1803    1818
       8    1900    1899    1896    1901    1822    1821    1818    1823
       8    1891    1901    1896    1888    1813    1823    1818    1810
       8    1902    1903    1897    1887    1824    1825    1819    1809
       8    1904    1902    1887    1889    1826    1824    1809    1811
       8    1905    1904    1889    1875    1827    1826    1811    1797
       8    1906    1876    1874    1907    1828    1798    1796    1829
       8    1908    1907    1874    1873    1830    1829    1796    1795
       8    1884    1908    1873    1878    1806    1830    1795    1800
       8    1909    1886    1885    1898    1831    1808    1807    1820
       8    1910    1909    1898    1899    1832    1831    1820    1821
       8    1911    1910    1899    1900    1833    1832    1821    1822
       8    1912    1911    1900    1913    1834    1833    1822    1835
       8    1914    1913    1900    1901    1836    1835    1822    1823
       8    1893    1914    1901    1891    1815    1836    1823    1813
       8    1915    1894    1895    1897    1837    1816    1817    1819
       8    1916    1915    1897    1903    1838    1837    1819    1825
       8    1917    1916    1903    1918    1839    1838    1825    1840
       8    1919    1918    1903    1902    1841    1840    1825    1824
       8    1920    1919    1902    1904    1842    1841    1824    1826
       8    1921    1920    1904    1905    1843    1842    1826    1827
       8    1922    1921    1905    1923    1844    1843    1827    1845
       8    1877    1923    1905    1875    1799    1845    1827    1797
       8    1924    1925    1876    1906    1846    1847    1798    1828
       8    1926    1924    1906    1907    1848    1846    1828    1829
       8    1927    1926    1907    1908    1849    1848    1829    1830
       8    1928    1927    1908    1884    1850    1849    1830    1806
       8    1929    1928    1884    1883    1851    1850    1806    1805
       8    1930    1929    1883    1886    1852    1851    1805    1808
       8    1931    1930    1886    1909    1853    1852    1808    1831
       8    1932    1931    1909    1910    1854    1853    1831    1832
       8    1933    1932    1910    1911    1855    1854    1832    1833
       8    1934    1933    1911    1912    1856    1855    1833    1834
       8    1935    1934    1912    1913    1857    1856    1834    1835
       8    1936    1935    1913    1914    1858    1857    1835    1836
       8    1937    1936    1914    1893    1859    1858    1836    1815
       8    1938    1937    1893    1892    1860    1859    1815    1814
       8    1939    1938    1892    1894    1861    1860    1814    1816
       8    1940    1939    1894    1915    1862    1861    1816    1837
       8    1941    1940    1915    1916    1863    1862    1837    1838
       8    1942    1941    1916    1917    1864    1863    1838    1839
       8    1943    1942    1917    1918    1865    1864    1839    1840
       8    1944    1943    1918    1919    1866    1865    1840    1841
       8    1945    1944    1919    1920    1867    1866    1841    1842
       8    1946    1945    1920    1921    1868    1867    1842    1843
       8    1947    1946    1921    1922    1869    1868    1843    1844
       8    1948    1947    1922    1923    1870    1869    1844    1845
       8    1949    1948    1923    1877    1871    1870    1845    1799
       8    1925    1949    1877    1876    1847    1871    1799    1798
  
CELL_TYPES    3486
       1
       1
       1
       1
       1
       1
       1
       1
       1
       1
       1
       1
       1
       1
       1
       1
       1
       1
       1
       1
       1
       1
       1
       1
       1
       1
       1
       1
       1
       1
       1
       1
       1
       1
       1
       1
       1
       1
       1
       1
       1
       1
       1
       1
       1
       1
       1
       1
       1
       1
       1
       1
       1
       1
       1
       1
       1
       1
       1
       1
       1
       1
       1
       1
       1
       1
       1
       1
       1
       1
       1
       1
       1
       1
       1
       1
       1
       1
       1
       1
       1
       1
       1
       1
       1
       1
       1
       1
       1
       1
       1
       1
       1
       1
       1
       1
       1
       1
       1
       1
       1
       1
       1
       1
       1
       1
       1
       1
       1
       1
       1
       1
       1
       1
       1
       1
       1
       1
       1
       1
       1
       1
       1
       1
       1
       1
       1
       1
       1
       1
       1
       1
       1
       1
       1
       1
       1
       1
       1
       1
       1
       1
       1
       1
       1
       1
       1
       1
       1
       1
       1
       1
       1
       1
       1
       1
       1
       1
       1
       1
       1
       1
       1
       1
       1
       1
       1
       1
       1
       1
       1
       1
       1
       1
       1
       1
       1
       1
       1
       1
       1
       1
       1
       1
       1
       1
       1
       1
       1
       1
       1
       1
       1
       1
       1
       1
       1
       1
       1
       1
       1
       1
       1
       1
       1
       1
       1
       1
       1
       1
       1
       1
       1
       1
       1
       1
       1
       1
       1
       1
       1
       1
       1
       1
       1
       1
       1
       1
       1
       1
       1
       1
       1
       1
       1
       1
       1
       1
       1
       1
       1
       1
       1
       1
       1
       1
       1
       1
       1
       1
       1
       1
       1
       1
       1
       1
       1
       1
       1
       1
       1
       1
       1
       1
       1
       1
       1
       1
       1
       1
       1
       1
       1
       1
       1
       1
       1
       1
       1
       1
       1
       1
       1
       1
       1
       1
       1
       1
       1
       1
       1
       1
       1
       1
       1
       1
       1
       1
       1
       1
       1
       1
       1
       1
       1
       1
       1
       1
       1
       1
       1
       1
       1
       1
       1
       1
       1
       1
       1
       1
       1
       1
       1
       1
       1
       1
       1
       1
       1
       1
       1
       1
       1
       1
       1
       1
       1
       1
       1
       1
       1
       1
       1
       1
       1
       1
       1
       1
       1
       1
       1
       1
       1
       1
       1
       1
       1
       1
       1
       1
       1
       1
       1
       1
       1
       1
       1
       1
       1
       1
       1
       1
       1
       1
       1
       1
       1
       1
       1
       1
       1
       1
       1
       1
       1
       1
       1
       1
       1
       1
       1
       1
       1
       1
       1
       1
       1
       1
       1
       1
       1
       1
       1
       1
       1
       1
       1
       1
       1
       1
       1
       1
       1
       1
       1
       1
       1
       1
       1
       1
       1
       1
       1
       1
       1
       1
       1
       1
       1
       1
       1
       1
       1
       1
       1
       1
       1
       1
       1
       1
       1
       1
       1
       1
       1
       1
       1
       1
       1
       1
       1
       1
       1
       1
       1
       1
       1
       1
       1
       1
       1
       1
       1
       1
       1
       1
       1
       1
       1
       1
       1
       1
       1
       1
       1
       1
       1
       1
       1
       1
       1
       1
       1
       1
       1
       1
       1
       1
       1
       1
       1
       1
       1
       1
       1
       1
       1
       1
       1
       1
       1
       1
       1
       1
       1
       1
       1
       1
       1
       1
       1
       1
       1
       1
       1
       1
       1
       1
       1
       1
       1
       1
       1
       1
       1
       1
       1
       1
       1
       1
       1
       1
       1
       1
       1
       1
       1
       1
       1
       1
       1
       1
       1
       1
       1
       1
       1
       1
       1
       1
       1
       1
       1
       1
       1
       1
       1
       1
       1
       1
       1
       1
       1
       1
       1
       1
       1
       1
       1
       1
       1
       1
       1
       1
       1
       1
       1
       1
       1
       1
       1
       1
       1
       1
       1
       1
       1
       1
       1
       1
       1
       1
       1
       1
       1
       1
       1
       1
       1
       1
       1
       1
       1
       1
       1
       1
       1
       1
       1
       1
       1
       1
       1
       1
       1
       1
       1
       1
       1
       1
       1
       1
       1
       1
       1
       1
       1
       1
       1
       1
       1
       1
       1
       1
       1
       1
       1
       1
       1
       1
       1
       1
       1
       1
       1
       1
       1
       1
       1
       1
       1
       1
       1
       1
       1
       1
       1
       1
       1
       1
       1
       1
       1
       1
       1
       1
       1
       1
       1
       1
       1
       1
       1
       1
       1
       1
       1
       1
       1
       1
       1
       1
       1
       1
       1
       1
       1
       1
       1
       1
       1
       1
       1
       1
       1
       1
       1
       1
       1
       1
       1
       1
       1
       1
       1
       1
       1
       1
       1
       1
       1
       1
       1
       1
       1
       1
       1
       1
       1
       1
       1
       1
       1
       1
       1
       1
       1
       1
       1
       1
       1
       1
       1
       1
       1
       1
       1
       1
       1
       1
       1
       1
       1
       1
       1
       1
       1
       1
       1
       1
       1
       1
       1
       1
       1
       1
       1
       1
       1
       1
       1
       1
       1
       1
       1
       1
       1
       1
       1
       1
       1
       1
       1
       1
       1
       1
       1
       1
       1
       1
       1
       1
       1
       1
       1
       1
       1
       1
       1
       1
       1
       1
       1
       1
       1
       1
       1
       1
       1
       1
       1
       1
       1
       1
       1
       1
       1
       1
       1
       1
       1
       1
       1
       1
       1
       1
       1
       1
       1
       1
       1
       1
       1
       1
       1
       1
       1
       1
       1
       1
       1
       1
       1
       1
       1
       1
       1
       1
       1
       1
       1
       1
       1
       1
       1
       1
       1
       1
       1
       1
       1
       1
       1
       1
       1
       1
       1
       1
       1
       1
       1
       1
       1
       1
       1
       1
       1
       1
       1
       1
       1
       1
       1
       1
       1
       1
       1
       1
       1
       1
       1
       1
       1
       1
       1
       1
       1
       1
       1
       1
       1
       1
       1
       1
       1
       1
       1
       1
       1
       1
       1
       1
       1
       1
       1
       1
       1
       1
       1
       1
       1
       1
       1
       1
       1
       1
       1
       1
       1
       1
       1
       1
       1
       1
       1
       1
       1
       1
       1
       1
       1
       1
       1
       1
       1
       1
       1
       1
       1
       1
       1
       1
       1
       1
       1
       1
       1
       1
       1
       1
       1
       1
       1
       1
       1
       1
       1
       1
       1
       1
       1
       1
       1
       1
       1
       1
       1
       1
       1
       1
       1
       1
       1
       1
       1
       1
       1
       1
       1
       1
       1
       1
       1
       1
       1
       1
       1
       1
       1
       1
       1
       1
       1
       1
       1
       1
       1
       1
       1
       1
       1
       1
       1
       1
       1
       1
       1
       1
       1
       1
       1
       1
       1
       1
       1
       1
       1
       1
       1
       1
       1
       1
       1
       1
       1
       1
       1
       1
       1
       1
       1
       1
       1
       1
       1
       1
       1
       1
       1
       1
       1
       1
       1
       1
       1
       1
       1
       1
       1
       1
       1
       1
       1
       1
       1
       1
       1
       1
       1
       1
       1
       1
       1
       1
       1
       1
       1
       1
       1
       1
       1
       1
       1
       1
       1
       1
       1
       1
       1
       1
       1
       1
       1
       1
       1
       1
       1
       1
       1
       1
       1
       1
       1
       1
       1
       1
       1
       1
       1
       1
       1
       1
       1
       1
       1
       1
       1
       1
       1
       1
       1
       1
       1
       1
       1
       1
       1
       1
       1
       1
       1
       1
       1
       1
       1
       1
       1
       1
       1
       1
       1
       1
       1
       1
       1
       1
       1
       1
       1
       1
       1
       1
       1
       1
       1
       1
       1
       1
       1
       1
       1
       1
       1
       1
       1
       1
       1
       1
       1
       1
       1
       1
       1
       1
       1
       1
       1
       1
       1
       1
       1
       1
       1
       1
       1
       1
       1
       1
       1
       1
       1
       1
       1
       1
       1
       1
       1
       1
       1
       1
       1
       1
       1
       1
       1
       1
       1
       1
       1
       1
       1
       1
       1
       1
       1
       1
       1
       1
       1
       1
       1
       1
       1
       1
       1
       1
       1
       1
       1
       1
       1
       1
       1
       1
       1
       1
       1
       1
       1
       1
       1
       1
       1
       1
       1
       1
       1
       1
       1
       1
       1
       1
       1
       1
       1
       1
       1
       1
       1
       1
       1
       1
       1
       1
       1
       1
       1
       1
       1
       1
       1
       1
       1
       1
       1
       1
       1
       1
       1
       1
       1
       1
       1
       1
       1
       1
       1
       1
       1
       1
       1
       1
       1
       1
       1
       1
       1
       1
       1
       1
       1
       1
       1
       1
       1
       1
       1
       1
       1
       1
       1
       1
       1
       1
       1
       1
       1
       1
       1
       1
       1
       1
       1
       1
       1
       1
       1
       1
       1
       1
       1
       1
       1
       1
       1
       1
       1
       1
       1
       1
       1
       1
       1
       1
       1
       1
       1
       1
       1
       1
       1
       1
       1
       1
       1
       1
       1
       1
       1
       1
       1
       1
       1
       1
       1
       1
       1
       1
       1
       1
       1
       1
       1
       1
       1
       1
       1
       1
       1
       1
       1
       1
       1
       1
       1
       1
       1
       1
       1
       1
       1
       1
       1
       1
       1
       1
       1
       1
       1
       1
       1
       1
       1
       1
       1
       1
       1
       1
       1
       1
       1
       1
       1
       1
       1
       1
       1
       1
       1
       1
       1
       1
       1
       1
       1
       1
       1
       1
       1
       1
       1
       1
       1
       1
       1
       1
       1
       1
       1
       1
       1
       1
       1
       1
       1
       1
       1
       1
       1
       1
       1
       1
       1
       1
       1
       1
       1
       1
       1
       1
       1
       1
       1
       1
       1
       1
       1
       1
       1
       1
       1
       1
       1
       1
       1
       1
       1
       1
       1
       1
       1
       1
       1
       1
       1
       1
       1
       1
       1
       1
       1
       1
       1
       1
       1
       1
       1
       1
       1
       1
       1
       1
       1
       1
       1
       1
       1
       1
       1
       1
       1
       1
       1
       1
       1
       1
       1
       1
       1
       1
       1
       1
       1
       1
       1
       1
       1
       1
       1
       1
       1
       1
       1
       1
       1
       1
       1
       1
       1
       1
       1
       1
       1
       1
       1
       1
       1
       1
       1
       1
       1
       1
       1
       1
       1
       1
       1
       1
       1
       1
       1
       1
       1
       1
       1
       1
       1
       1
       1
       1
       1
       1
       1
       1
       1
       1
       1
       1
       1
       1
       1
       1
       1
       1
       1
       1
       1
       1
       1
       1
       1
       1
       1
       1
       1
       1
       1
       1
       1
       1
       1
       1
       1
       1
       1
       1
       1
       1
       1
       1
       1
       1
       1
       1
       1
       1
       1
       1
       1
       1
       1
       1
       1
       1
       1
       1
       1
       1
       1
       1
       1
       1
       1
       1
       1
       1
       1
       1
       1
       1
       1
       1
       1
       1
       1
       1
       1
       1
       1
       1
       1
       1
       1
       1
       1
       1
       1
       1
       1
       1
       1
       1
       1
       1
       1
       1
       1
       1
       1
       1
       1
       1
       1
       1
       1
       1
       1
       1
       1
       1
       1
       1
       1
       1
       1
       1
       1
       1
       1
       1
       1
       1
       1
       1
       1
       1
       1
       1
       1
       1
       1
       1
       1
       1
       1
       1
       1
       1
       1
       1
       1
       1
       1
       1
       1
       1
       1
       1
       1
       1
       1
       1
       1
       1
       1
       1
       1
       1
       1
       1
       1
       1
       1
       1
       1
       1
       1
       1
       1
       1
       1
       1
       1
       1
       1
       1
       1
       1
       1
       1
       1
       1
       1
       1
       1
       1
       1
       1
       1
       1
       1
       1
       1
       1
       1
       1
       1
       1
       1
       1
       1
       1
       1
       1
       1
       1
       1
       1
       1
       1
       1
       1
       1
       1
       1
       1
       1
       1
       1
       1
       1
       1
       1
       1
       1
       1
       1
       1
       1
       1
       1
       1
       1
       1
       1
       1
       1
       1
       1
       1
       1
       1
       1
       1
       1
       1
       1
       1
       1
       1
       1
       1
       1
       1
       1
       1
       1
       1
       1
       1
       1
       1
       1
       1
       1
       1
       1
       1
       1
       1
       1
       1
       1
       1
       1
       1
       1
       1
       1
       1
       1
       1
       1
       1
       1
       1
       1
       1
       1
       1
       1
       1
       1
       1
       1
       1
       1
       1
       1
       1
       1
       1
       1
       1
       1
       1
       1
       1
       1
       1
       1
       1
       1
       1
       1
       1
       1
       1
       1
       1
       1
       1
       1
       1
       1
       1
       1
       1
       1
       1
       1
       1
       1
       1
       1
       1
       1
       1
       1
       1
       1
       1
       1
       1
       1
       1
       1
       1
       1
       1
       1
       1
       1
       1
       1
       1
       1
       1
       1
       1
       1
       1
       1
       1
       1
       1
       1
       1
       1
       1
       1
       1
       1
       1
       1
       1
       1
       1
       1
       1
       1
       1
       1
       1
       1
       1
       1
       1
       1
       1
      12
      12
      12
      12
      12
      12
      12
      12
      12
      12
      12
      12
      12
      12
      12
      12
      12
      12
      12
      12
      12
      12
      12
      12
      12
      12
      12
      12
      12
      12
      12
      12
      12
      12
      12
      12
      12
      12
      12
      12
      12
      12
      12
      12
      12
      12
      12
      12
      12
      12
      12
      12
      12
      12
      12
      12
      12
      12
      12
      12
      12
      12
      12
      12
      12
      12
      12
      12
      12
      12
      12
      12
      12
      12
      12
      12
      12
      12
      12
      12
      12
      12
      12
      12
      12
      12
      12
      12
      12
      12
      12
      12
      12
      12
      12
      12
      12
      12
      12
      12
      12
      12
      12
      12
      12
      12
      12
      12
      12
      12
      12
      12
      12
      12
      12
      12
      12
      12
      12
      12
      12
      12
      12
      12
      12
      12
      12
      12
      12
      12
      12
      12
      12
      12
      12
      12
      12
      12
      12
      12
      12
      12
      12
      12
      12
      12
      12
      12
      12
      12
      12
      12
      12
      12
      12
      12
      12
      12
      12
      12
      12
      12
      12
      12
      12
      12
      12
      12
      12
      12
      12
      12
      12
      12
      12
      12
      12
      12
      12
      12
      12
      12
      12
      12
      12
      12
      12
      12
      12
      12
      12
      12
      12
      12
      12
      12
      12
      12
      12
      12
      12
      12
      12
      12
      12
      12
      12
      12
      12
      12
      12
      12
      12
      12
      12
      12
      12
      12
      12
      12
      12
      12
      12
      12
      12
      12
      12
      12
      12
      12
      12
      12
      12
      12
      12
      12
      12
      12
      12
      12
      12
      12
      12
      12
      12
      12
      12
      12
      12
      12
      12
      12
      12
      12
      12
      12
      12
      12
      12
      12
      12
      12
      12
      12
      12
      12
      12
      12
      12
      12
      12
      12
      12
      12
      12
      12
      12
      12
      12
      12
      12
      12
      12
      12
      12
      12
      12
      12
      12
      12
      12
      12
      12
      12
      12
      12
      12
      12
      12
      12
      12
      12
      12
      12
      12
      12
      12
      12
      12
      12
      12
      12
      12
      12
      12
      12
      12
      12
      12
      12
      12
      12
      12
      12
      12
      12
      12
      12
      12
      12
      12
      12
      12
      12
      12
      12
      12
      12
      12
      12
      12
      12
      12
      12
      12
      12
      12
      12
      12
      12
      12
      12
      12
      12
      12
      12
      12
      12
      12
      12
      12
      12
      12
      12
      12
      12
      12
      12
      12
      12
      12
      12
      12
      12
      12
      12
      12
      12
      12
      12
      12
      12
      12
      12
      12
      12
      12
      12
      12
      12
      12
      12
      12
      12
      12
      12
      12
      12
      12
      12
      12
      12
      12
      12
      12
      12
      12
      12
      12
      12
      12
      12
      12
      12
      12
      12
      12
      12
      12
      12
      12
      12
      12
      12
      12
      12
      12
      12
      12
      12
      12
      12
      12
      12
      12
      12
      12
      12
      12
      12
      12
      12
      12
      12
      12
      12
      12
      12
      12
      12
      12
      12
      12
      12
      12
      12
      12
      12
      12
      12
      12
      12
      12
      12
      12
      12
      12
      12
      12
      12
      12
      12
      12
      12
      12
      12
      12
      12
      12
      12
      12
      12
      12
      12
      12
      12
      12
      12
      12
      12
      12
      12
      12
      12
      12
      12
      12
      12
      12
      12
      12
      12
      12
      12
      12
      12
      12
      12
      12
      12
      12
      12
      12
      12
      12
      12
      12
      12
      12
      12
      12
      12
      12
      12
      12
      12
      12
      12
      12
      12
      12
      12
      12
      12
      12
      12
      12
      12
      12
      12
      12
      12
      12
      12
      12
      12
      12
      12
      12
      12
      12
      12
      12
      12
      12
      12
      12
      12
      12
      12
      12
      12
      12
      12
      12
      12
      12
      12
      12
      12
      12
      12
      12
      12
      12
      12
      12
      12
      12
      12
      12
      12
      12
      12
      12
      12
      12
      12
      12
      12
      12
      12
      12
      12
      12
      12
      12
      12
      12
      12
      12
      12
      12
      12
      12
      12
      12
      12
      12
      12
      12
      12
      12
      12
      12
      12
      12
      12
      12
      12
      12
      12
      12
      12
      12
      12
      12
      12
      12
      12
      12
      12
      12
      12
      12
      12
      12
      12
      12
      12
      12
      12
      12
      12
      12
      12
      12
      12
      12
      12
      12
      12
      12
      12
      12
      12
      12
      12
      12
      12
      12
      12
      12
      12
      12
      12
      12
      12
      12
      12
      12
      12
      12
      12
      12
      12
      12
      12
      12
      12
      12
      12
      12
      12
      12
      12
      12
      12
      12
      12
      12
      12
      12
      12
      12
      12
      12
      12
      12
      12
      12
      12
      12
      12
      12
      12
      12
      12
      12
      12
      12
      12
      12
      12
      12
      12
      12
      12
      12
      12
      12
      12
      12
      12
      12
      12
      12
      12
      12
      12
      12
      12
      12
      12
      12
      12
      12
      12
      12
      12
      12
      12
      12
      12
      12
      12
      12
      12
      12
      12
      12
      12
      12
      12
      12
      12
      12
      12
      12
      12
      12
      12
      12
      12
      12
      12
      12
      12
      12
      12
      12
      12
      12
      12
      12
      12
      12
      12
      12
      12
      12
      12
      12
      12
      12
      12
      12
      12
      12
      12
      12
      12
      12
      12
      12
      12
      12
      12
      12
      12
      12
      12
      12
      12
      12
      12
      12
      12
      12
      12
      12
      12
      12
      12
      12
      12
      12
      12
      12
      12
      12
      12
      12
      12
      12
      12
      12
      12
      12
      12
      12
      12
      12
      12
      12
      12
      12
      12
      12
      12
      12
      12
      12
      12
      12
      12
      12
      12
      12
      12
      12
      12
      12
      12
      12
      12
      12
      12
      12
      12
      12
      12
      12
      12
      12
      12
      12
      12
      12
      12
      12
      12
      12
      12
      12
      12
      12
      12
      12
      12
      12
      12
      12
      12
      12
      12
      12
      12
      12
      12
      12
      12
      12
      12
      12
      12
      12
      12
      12
      12
      12
      12
      12
      12
      12
      12
      12
      12
      12
      12
      12
      12
      12
      12
      12
      12
      12
      12
      12
      12
      12
      12
      12
      12
      12
      12
      12
      12
      12
      12
      12
      12
      12
      12
      12
      12
      12
      12
      12
      12
      12
      12
      12
      12
      12
      12
      12
      12
      12
      12
      12
      12
      12
      12
      12
      12
      12
      12
      12
      12
      12
      12
      12
      12
      12
      12
      12
      12
      12
      12
      12
      12
      12
      12
      12
      12
      12
      12
      12
      12
      12
      12
      12
      12
      12
      12
      12
      12
      12
      12
      12
      12
      12
      12
      12
      12
      12
      12
      12
      12
      12
      12
      12
      12
      12
      12
      12
      12
      12
      12
      12
      12
      12
      12
      12
      12
      12
      12
      12
      12
      12
      12
      12
      12
      12
      12
      12
      12
      12
      12
      12
      12
      12
      12
      12
      12
      12
      12
      12
      12
      12
      12
      12
      12
      12
      12
      12
      12
      12
      12
      12
      12
      12
      12
      12
      12
      12
      12
      12
      12
      12
      12
      12
      12
      12
      12
      12
      12
      12
      12
      12
      12
      12
      12
      12
      12
      12
      12
      12
      12
      12
      12
      12
      12
      12
      12
      12
      12
      12
      12
      12
      12
      12
      12
      12
      12
      12
      12
      12
      12
      12
      12
      12
      12
      12
      12
      12
      12
      12
      12
      12
      12
      12
      12
      12
      12
      12
      12
      12
      12
      12
      12
      12
      12
      12
      12
      12
      12
      12
      12
      12
      12
      12
      12
      12
      12
      12
      12
      12
      12
      12
      12
      12
      12
      12
      12
      12
      12
      12
      12
      12
      12
      12
      12
      12
      12
      12
      12
      12
      12
      12
      12
      12
      12
      12
      12
      12
      12
      12
      12
      12
      12
      12
      12
      12
      12
      12
      12
      12
      12
      12
      12
      12
      12
      12
      12
      12
      12
      12
      12
      12
      12
      12
      12
      12
      12
      12
      12
      12
      12
      12
      12
      12
      12
      12
      12
      12
      12
      12
      12
      12
      12
      12
      12
      12
      12
      12
      12
      12
      12
      12
      12
      12
      12
      12
      12
      12
      12
      12
      12
      12
      12
      12
      12
      12
      12
      12
      12
      12
      12
      12
      12
      12
      12
      12
      12
      12
      12
      12
      12
      12
      12
      12
      12
      12
      12
      12
      12
      12
      12
      12
      12
      12
      12
      12
      12
      12
      12
      12
      12
      12
      12
      12
      12
      12
      12
      12
      12
      12
      12
      12
      12
      12
      12
      12
      12
      12
      12
      12
      12
      12
      12
      12
      12
      12
      12
      12
      12
      12
      12
      12
      12
      12
      12
      12
      12
      12
      12
      12
      12
      12
      12
      12
      12
      12
      12
      12
      12
      12
      12
      12
      12
      12
      12
      12
      12
      12
      12
      12
      12
      12
      12
      12
      12
      12
      12
      12
      12
      12
      12
      12
      12
      12
      12
      12
      12
      12
      12
      12
      12
      12
      12
      12
      12
      12
      12
      12
      12
      12
      12
      12
      12
      12
      12
      12
      12
      12
      12
      12
      12
      12
      12
      12
      12
      12
      12
      12
      12
      12
      12
      12
      12
      12
      12
      12
      12
      12
      12
      12
      12
      12
      12
      12
      12
      12
      12
      12
      12
      12
      12
      12
      12
      12
      12
      12
      12
      12
      12
      12
      12
      12
      12
      12
      12
      12
      12
      12
      12
      12
      12
      12
      12
      12
      12
      12
      12
      12
      12
      12
      12
      12
      12
      12
      12
      12
      12
      12
      12
      12
      12
      12
      12
      12
      12
      12
      12
      12
      12
      12
      12
      12
      12
      12
      12
      12
      12
      12
      12
      12
      12
      12
      12
      12
      12
      12
      12
      12
      12
      12
      12
      12
      12
      12
      12
      12
      12
      12
      12
      12
      12
      12
      12
      12
      12
      12
      12
      12
      12
      12
      12
      12
      12
      12
      12
      12
      12
      12
      12
      12
      12
      12
      12
      12
      12
      12
      12
      12
      12
      12
      12
      12
      12
      12
      12
      12
      12
      12
      12
      12
      12
      12
      12
      12
      12
      12
      12
      12
      12
      12
      12
      12
      12
      12
      12
      12
      12
  
  
POINT_DATA       1950
  
SCALARS                  material_type  double 1
LOOKUP_TABLE default
                   2
                   2
                   2
                   2
                   2
                   2
                   2
                   2
                   2
                   2
                   2
                   2
                   2
                   2
                   2
                   2
                   2
                   2
                   2
                   2
                   2
                   2
                   2
                   2
                   2
                   2
                   2
                   2
                   2
                   2
                   2
                   2
                   2
                   2
                   2
                   2
                   2
                   2
                   2
                   2
                   2
                   2
                   2
                   2
                   2
                   2
                   2
                   2
                   2
                   2
                   2
                   2
                   2
                   2
                   2
                   2
                   2
                   2
                   2
                   2
                   2
                   2
                   2
                   2
                   2
                   2
                   2
                   2
                   2
                   2
                   2
                   2
                   2
                   2
                   2
                   2
                   2
                   2
                   2
                   2
                   2
                   2
                   2
                   2
                   2
                   2
                   2
                   2
                   2
                   2
                   2
                   2
                   2
                   2
                   2
                   2
                   2
                   2
                   2
                   2
                   2
                   2
                   2
                   2
                   2
                   2
                   2
                   2
                   2
                   2
                   2
                   2
                   2
                   2
                   2
                   2
                   2
                   2
                   2
                   2
                   2
                   2
                   2
                   2
                   2
                   2
                   2
                   2
                   2
                   2
                   2
                   2
                   2
                   2
                   2
                   2
                   2
                   2
                   2
                   2
                   2
                   2
                   2
                   2
                   2
                   2
                   2
                   2
                   2
                   2
                   2
                   2
                   2
                   2
                   2
                   2
                   2
                   2
                   2
                   2
                   2
                   2
                   2
                   2
                   2
                   2
                   2
                   2
                   2
                   2
                   2
                   2
                   2
                   2
                   2
                   2
                   2
                   2
                   2
                   2
                   2
                   2
                   2
                   2
                   2
                   2
                   2
                   2
                   2
                   2
                   2
                   2
                   2
                   2
                   2
                   2
                   2
                   2
                   2
                   2
                   2
                   2
                   2
                   2
                   2
                   2
                   2
                   2
                   2
                   2
                   2
                   2
                   2
                   2
                   2
                   2
                   2
                   2
                   2
                   2
                   2
                   2
                   2
                   2
                   2
                   2
                   2
                   2
                   2
                   2
                   2
                   2
                   2
                   2
                   2
                   2
                   2
                   2
                   2
                   2
                   2
                   2
                   2
                   2
                   2
                   2
                   2
                   2
                   2
                   2
                   2
                   2
                   2
                   2
                   2
                   2
                   2
                   2
                   2
                   2
                   2
                   2
                   2
                   2
                   2
                   2
                   2
                   2
                   2
                   2
                   2
                   2
                   2
                   2
                   2
                   2
                   2
                   2
                   2
                   2
                   2
                   2
                   2
                   2
                   2
                   2
                   2
                   2
                   2
                   2
                   2
                   2
                   2
                   2
                   2
                   2
                   2
                   2
                   2
                   2
                   2
                   2
                   2
                   2
                   2
                   2
                   2
                   2
                   2
                   2
                   2
                   2
                   2
                   2
                   2
                   2
                   2
                   2
                   2
                   2
                   2
                   2
                   2
                   2
                   2
                   2
                   2
                   2
                   2
                   2
                   2
                   2
                   2
                   2
                   2
                   2
                   2
                   2
                   2
                   2
                   2
                   2
                   2
                   2
                   2
                   2
                   2
                   2
                   2
                   2
                   2
                   2
                   2
                   2
                   2
                   2
                   2
                   2
                   2
                   2
                   2
                   2
                   2
                   2
                   2
                   2
                   2
                   2
                   2
                   2
                   2
                   2
                   2
                   2
                   2
                   2
                   2
                   2
                   2
                   2
                   2
                   2
                   2
                   2
                   2
                   2
                   2
                   2
                   2
                   2
                   2
                   2
                   2
                   2
                   2
                   2
                   2
                   2
                   2
                   2
                   2
                   2
                   2
                   2
                   2
                   2
                   2
                   2
                   2
                   2
                   2
                   2
                   2
                   2
                   2
                   2
                   2
                   2
                   2
                   2
                   2
                   2
                   2
                   2
                   2
                   2
                   2
                   2
                   2
                   2
                   2
                   2
                   2
                   2
                   2
                   2
                   2
                   2
                   2
                   2
                   2
                   2
                   2
                   2
                   2
                   2
                   2
                   2
                   2
                   2
                   2
                   2
                   2
                   2
                   2
                   2
                   2
                   2
                   2
                   2
                   2
                   2
                   2
                   2
                   2
                   2
                   2
                   2
                   2
                   2
                   2
                   2
                   2
                   2
                   2
                   2
                   2
                   2
                   2
                   2
                   2
                   2
                   2
                   2
                   2
                   2
                   2
                   2
                   2
                   2
                   2
                   2
                   2
                   2
                   2
                   2
                   2
                   2
                   2
                   2
                   2
                   2
                   2
                   2
                   2
                   2
                   2
                   2
                   2
                   2
                   2
                   2
                   2
                   2
                   2
                   2
                   2
                   2
                   2
                   2
                   2
                   2
                   2
                   2
                   2
                   2
                   2
                   2
                   2
                   2
                   2
                   2
                   2
                   2
                   2
                   2
                   2
                   2
                   2
                   2
                   2
                   2
                   2
                   2
                   2
                   2
                   2
                   2
                   2
                   2
                   2
                   2
                   2
                   2
                   2
                   2
                   2
                   2
                   2
                   2
                   2
                   2
                   2
                   2
                   2
                   2
                   2
                   2
                   2
                   2
                   2
                   2
                   2
                   2
                   2
                   2
                   2
                   2
                   2
                   2
                   2
                   2
                   2
                   2
                   2
                   2
                   2
                   2
                   2
                   2
                   2
                   2
                   2
                   2
                   2
                   2
                   2
                   2
                   2
                   2
                   2
                   2
                   2
                   2
                   2
                   2
                   2
                   2
                   2
                   2
                   2
                   2
                   2
                   2
                   2
                   2
                   2
                   2
                   2
                   2
                   2
                   2
                   2
                   2
                   2
                   2
                   2
                   2
                   2
                   2
                   2
                   2
                   2
                   2
                   2
                   2
                   2
                   2
                   2
                   2
                   2
                   2
                   2
                   2
                   2
                   2
                   2
                   2
                   2
                   2
                   2
                   2
                   2
                   2
                   2
                   2
                   2
                   2
                   2
                   2
                   2
                   2
                   2
                   2
                   2
                   2
                   2
                   2
                   2
                   2
                   2
                   2
                   2
                   2
                   2
                   2
                   2
                   2
                   2
                   2
                   2
                   2
                   2
                   2
                   2
                   2
                   2
                   2
                   2
                   2
                   2
                   2
                   2
                   2
                   2
                   2
                   2
                   2
                   2
                   2
                   2
                   2
                   2
                   2
                   2
                   2
                   2
                   2
                   2
                   2
                   2
                   2
                   2
                   2
                   2
                   2
                   2
                   2
                   2
                   2
                   2
                   2
                   2
                   2
                   2
                   2
                   2
                   2
                   2
                   2
                   2
                   2
                   2
                   2
                   2
                   2
                   2
                   2
                   2
                   2
                   2
                   2
                   2
                   2
                   2
                   2
                   2
                   2
                   2
                   2
                   2
                   2
                   2
                   2
                   2
                   2
                   2
                   2
                   2
                   2
                   2
                   2
                   2
                   2
                   2
                   2
                   2
                   2
                   2
                   2
                   2
                   2
                   2
                   2
                   2
                   2
                   2
                   2
                   2
                   2
                   2
                   2
                   2
                   2
                   2
                   2
                   2
                   2
                   2
                   2
                   2
                   2
                   2
                   2
                   2
                   2
                   2
                   2
                   2
                   2
                   2
                   2
                   2
                   2
                   2
                   2
                   2
                   2
                   2
                   2
                   2
                   2
                   2
                   2
                   2
                   2
                   2
                   2
                   2
                   2
                   2
                   2
                   2
                   2
                   2
                   2
                   2
                   2
                   2
                   2
                   2
                   2
                   2
                   2
                   2
                   2
                   2
                   2
                   2
                   2
                   2
                   2
                   2
                   2
                   2
                   2
                   2
                   2
                   2
                   2
                   2
                   2
                   2
                   2
                   2
                   2
                   2
                   2
                   2
                   2
                   2
                   2
                   2
                   2
                   2
                   2
                   2
                   2
                   2
                   2
                   2
                   2
                   2
                   2
                   2
                   2
                   2
                   2
                   2
                   2
                   2
                   2
                   2
                   2
                   2
                   2
                   2
                   2
                   2
                   2
                   2
                   2
                   2
                   2
                   2
                   2
                   2
                   2
                   2
                   2
                   2
                   2
                   2
                   2
                   2
                   2
                   2
                   2
                   2
                   2
                   2
                   2
                   2
                   2
                   2
                   2
                   2
                   2
                   2
                   2
                   2
                   2
                   2
                   2
                   2
                   2
                   2
                   2
                   2
                   2
                   2
                   2
                   2
                   2
                   2
                   2
                   2
                   2
                   2
                   2
                   2
                   2
                   2
                   2
                   2
                   2
                   2
                   2
                   2
                   2
                   2
                   2
                   2
                   2
                   2
                   2
                   2
                   2
                   2
                   2
                   2
                   2
                   2
                   2
                   2
                   2
                   2
                   2
                   2
                   2
                   2
                   2
                   2
                   2
                   2
                   2
                   2
                   2
                   2
                   2
                   2
                   2
                   2
                   2
                   2
                   2
                   2
                   2
                   2
                   2
                   2
                   2
                   2
                   2
                   2
                   2
                   2
                   2
                   2
                   2
                   2
                   2
                   2
                   2
                   2
                   2
                   2
                   2
                   2
                   2
                   2
                   2
                   2
                   2
                   2
                   2
                   2
                   2
                   2
                   2
                   2
                   2
                   2
                   2
                   2
                   2
                   2
                   2
                   2
                   2
                   2
                   2
                   2
                   2
                   2
                   2
                   2
                   2
                   2
                   2
                   2
                   2
                   2
                   2
                   2
                   2
                   2
                   2
                   2
                   2
                   2
                   2
                   2
                   2
                   2
                   2
                   2
                   2
                   2
                   2
                   2
                   2
                   2
                   2
                   2
                   2
                   2
                   2
                   2
                   2
                   2
                   2
                   2
                   2
                   2
                   2
                   2
                   2
                   2
                   2
                   2
                   2
                   2
                   2
                   2
                   2
                   2
                   2
                   2
                   2
                   2
                   2
                   2
                   2
                   2
                   2
                   2
                   2
                   2
                   2
                   2
                   2
                   2
                   2
                   2
                   2
                   2
                   2
                   2
                   2
                   2
                   2
                   2
                   2
                   2
                   2
                   2
                   2
                   2
                   2
                   2
                   2
                   2
                   2
                   2
                   2
                   2
                   2
                   2
                   2
                   2
                   2
                   2
                   2
                   2
                   2
                   2
                   2
                   2
                   2
                   2
                   2
                   2
                   2
                   2
                   2
                   2
                   2
                   2
                   2
                   2
                   2
                   2
                   2
                   2
                   2
                   2
                   2
                   2
                   2
                   2
                   2
                   2
                   2
                   2
                   2
                   2
                   2
                   2
                   2
                   2
                   2
                   2
                   2
                   2
                   2
                   2
                   2
                   2
                   2
                   2
                   2
                   2
                   2
                   2
                   2
                   2
                   2
                   2
                   2
                   2
                   2
                   2
                   2
                   2
                   2
                   2
                   2
                   2
                   2
                   2
                   2
                   2
                   2
                   2
                   2
                   2
                   2
                   2
                   2
                   2
                   2
                   2
                   2
                   2
                   2
                   2
                   2
                   2
                   2
                   2
                   2
                   2
                   2
                   2
                   2
                   2
                   2
                   2
                   2
                   2
                   2
                   2
                   2
                   2
                   2
                   2
                   2
                   2
                   2
                   2
                   2
                   2
                   2
                   2
                   2
                   2
                   2
                   2
                   2
                   2
                   2
                   2
                   2
                   2
                   2
                   2
                   2
                   2
                   2
                   2
                   2
                   2
                   2
                   2
                   2
                   2
                   2
                   2
                   2
                   2
                   2
                   2
                   2
                   2
                   2
                   2
                   2
                   2
                   2
                   2
                   2
                   2
                   2
                   2
                   2
                   2
                   2
                   2
                   2
                   2
                   2
                   2
                   2
                   2
                   2
                   2
                   2
                   2
                   2
                   2
                   2
                   2
                   2
                   2
                   2
                   2
                   2
                   2
                   2
                   2
                   2
                   2
                   2
                   2
                   2
                   2
                   2
                   2
                   2
                   2
                   2
                   2
                   2
                   2
                   2
                   2
                   2
                   2
                   2
                   2
                   2
                   2
                   2
                   2
                   2
                   2
                   2
                   2
                   2
                   2
                   2
                   2
                   2
                   2
                   2
                   2
                   2
                   2
                   2
                   2
                   2
                   2
                   2
                   2
                   2
                   2
                   2
                   2
                   2
                   2
                   2
                   2
                   2
                   2
                   2
                   2
                   2
                   2
                   2
                   2
                   2
                   2
                   2
                   2
                   2
                   2
                   2
                   2
                   2
                   2
                   2
                   2
                   2
                   2
                   2
                   2
                   2
                   2
                   2
                   2
                   2
                   2
                   2
                   2
                   2
                   2
                   2
                   2
                   2
                   2
                   2
                   2
                   2
                   2
                   2
                   2
                   2
                   2
                   2
                   2
                   2
                   2
                   2
                   2
                   2
                   2
                   2
                   2
                   2
                   2
                   2
                   2
                   2
                   2
                   2
                   2
                   2
                   2
                   2
                   2
                   2
                   2
                   2
                   2
                   2
                   2
                   2
                   2
                   2
                   2
                   2
                   2
                   2
                   2
                   2
                   2
                   2
                   2
                   2
                   2
                   2
                   2
                   2
                   2
                   2
                   2
                   2
                   2
                   2
                   2
                   2
                   2
                   2
                   2
                   2
                   2
                   2
                   2
                   2
                   2
                   2
                   2
                   2
                   2
                   2
                   2
                   2
                   2
                   2
                   2
                   2
                   2
                   2
                   2
                   2
                   2
                   2
                   2
                   2
                   2
                   2
                   2
                   2
                   2
                   2
                   2
                   2
                   2
                   2
                   2
                   2
                   2
                   2
                   2
                   2
                   2
                   2
                   2
                   2
                   2
                   2
                   2
                   2
                   2
                   2
                   2
                   2
                   2
                   2
                   2
                   2
                   2
                   2
                   2
                   2
                   2
                   2
                   2
                   2
                   2
                   2
                   2
                   2
                   2
                   2
                   2
                   2
                   2
                   2
                   2
                   2
                   2
                   2
                   2
                   2
                   2
                   2
                   2
                   2
                   2
                   2
                   2
                   2
                   2
                   2
                   2
                   2
                   2
                   2
                   2
                   2
                   2
                   2
                   2
                   2
                   2
                   2
                   2
                   2
                   2
                   2
                   2
                   2
                   2
                   2
                   2
                   2
                   2
                   2
                   2
                   2
                   2
                   2
                   2
                   2
                   2
                   2
                   2
                   2
                   2
                   2
                   2
                   2
                   2
                   2
                   2
                   2
                   2
                   2
                   2
                   2
                   2
                   2
                   2
                   2
                   2
                   2
                   2
                   2
                   2
                   2
                   2
                   2
                   2
                   2
                   2
                   2
                   2
                   2
                   2
                   2
                   2
                   2
                   2
                   2
                   2
                   2
                   2
                   2
                   2
                   2
                   2
                   2
                   2
                   2
                   2
                   2
                   2
                   2
                   2
                   2
                   2
                   2
                   2
                   2
                   2
                   2
                   2
                   2
                   2
                   2
                   2
                   2
                   2
                   2
                   2
                   2
                   2
                   2
                   2
                   2
                   2
                   2
                   2
                   2
                   2
                   2
                   2
                   2
                   2
                   2
                   2
                   2
                   2
                   2
                   2
                   2
                   2
                   2
                   2
                   2
                   2
                   2
                   2
                   2
                   2
                   2
                   2
                   2
                   2
                   2
                   2
                   2
                   2
                   2
                   2
                   2
                   2
                   2
                   2
                   2
                   2
                   2
                   2
                   2
                   2
                   2
                   2
                   2
                   2
                   2
                   2
                   2
                   2
                   2
                   2
                   2
                   2
                   2
                   2
                   2
                   2
                   2
                   2
                   2
                   2
                   2
                   2
                   2
                   2
                   2
                   2
                   2
                   2
                   2
                   2
                   2
                   2
                   2
                   2
                   2
                   2
                   2
                   2
                   2
                   2
                   2
                   2
                   2
                   2
                   2
                   2
                   2
                   2
                   2
                   2
                   2
                   2
                   2
                   2
                   2
                   2
                   2
                   2
                   2
                   2
                   2
                   2
                   2
                   2
                   2
                   2
                   2
                   2
                   2
                   2
                   2
                   2
                   2
                   2
                   2
                   2
                   2
                   2
                   2
                   2
                   2
                   2
                   2
                   2
                   2
                   2
                   2
                   2
                   2
                   2
                   2
                   2
                   2
                   2
                   2
                   2
                   2
                   2
                   2
                   2
                   2
                   2
                   2
                   2
                   2
                   2
                   2
                   2
                   2
                   2
                   2
                   2
                   2
                   2
                   2
                   2
                   2
                   2
                   2
                   2
                   2
                   2
                   2
                   2
                   2
                   2
                   2
                   2
                   2
                   2
                   2
                   2
                   2
                   2
                   2
                   2
                   2
                   2
                   2
                   2
                   2
                   2
                   2
                   2
                   2
                   2
                   2
                   2
                   2
                   2
                   2
                   2
                   2
                   2
                   2
                   2
                   2
                   2
                   2
                   2
                   2
                   2
                   2
                   2
                   2
                   2
                   2
                   2
                   2
                   2
                   2
                   2
                   2
                   2
                   2
                   2
                   2
                   2
                   2
                   2
                   2
                   2
                   2
                   2
                   2
                   2
                   2
                   2
                   2
                   2
                   2
                   2
                   2
                   2
                   2
                   2
                   2
                   2
                   2
                   2
                   2
                   2
                   2
                   2
                   2
                   2
                   2
                   2
                   2
                   2
                   2
                   2
                   2
                   2
                   2
                   2
                   2
                   2
                   2
                   2
                   2
                   2
                   2
                   2
                   2
                   2
                   2
                   2
                   2
                   2
                   2
                   2
                   2
                   2
                   2
                   2
                   2
                   2
                   2
                   2
                   2
                   2
                   2
  
SCALARS                        node_id  double 1
LOOKUP_TABLE default
                   1
                   2
                   3
                   4
                   5
                   6
                   7
                   8
                   9
                  10
                  11
                  12
                  13
                  14
                  15
                  16
                  17
                  18
                  19
                  20
                  21
                  22
                  23
                  24
                  25
                  26
                  27
                  28
                  29
                  30
                  31
                  32
                  33
                  34
                  35
                  36
                  37
                  38
                  39
                  40
                  41
                  42
                  43
                  44
                  45
                  46
                  47
                  48
                  49
                  50
                  51
                  52
                  53
                  54
                  55
                  56
                  57
                  58
                  59
                  60
                  61
                  62
                  63
                  64
                  65
                  66
                  67
                  68
                  69
                  70
                  71
                  72
                  73
                  74
                  75
                  76
                  77
                  78
                  79
                  80
                  81
                  82
                  83
                  84
                  85
                  86
                  87
                  88
                  89
                  90
                  91
                  92
                  93
                  94
                  95
                  96
                  97
                  98
                  99
                 100
                 101
                 102
                 103
                 104
                 105
                 106
                 107
                 108
                 109
                 110
                 111
                 112
                 113
                 114
                 115
                 116
                 117
                 118
                 119
                 120
                 121
                 122
                 123
                 124
                 125
                 126
                 127
                 128
                 129
                 130
                 131
                 132
                 133
                 134
                 135
                 136
                 137
                 138
                 139
                 140
                 141
                 142
                 143
                 144
                 145
                 146
                 147
                 148
                 149
                 150
                 151
                 152
                 153
                 154
                 155
                 156
                 157
                 158
                 159
                 160
                 161
                 162
                 163
                 164
                 165
                 166
                 167
                 168
                 169
                 170
                 171
                 172
                 173
                 174
                 175
                 176
                 177
                 178
                 179
                 180
                 181
                 182
                 183
                 184
                 185
                 186
                 187
                 188
                 189
                 190
                 191
                 192
                 193
                 194
                 195
                 196
                 197
                 198
                 199
                 200
                 201
                 202
                 203
                 204
                 205
                 206
                 207
                 208
                 209
                 210
                 211
                 212
                 213
                 214
                 215
                 216
                 217
                 218
                 219
                 220
                 221
                 222
                 223
                 224
                 225
                 226
                 227
                 228
                 229
                 230
                 231
                 232
                 233
                 234
                 235
                 236
                 237
                 238
                 239
                 240
                 241
                 242
                 243
                 244
                 245
                 246
                 247
                 248
                 249
                 250
                 251
                 252
                 253
                 254
                 255
                 256
                 257
                 258
                 259
                 260
                 261
                 262
                 263
                 264
                 265
                 266
                 267
                 268
                 269
                 270
                 271
                 272
                 273
                 274
                 275
                 276
                 277
                 278
                 279
                 280
                 281
                 282
                 283
                 284
                 285
                 286
                 287
                 288
                 289
                 290
                 291
                 292
                 293
                 294
                 295
                 296
                 297
                 298
                 299
                 300
                 301
                 302
                 303
                 304
                 305
                 306
                 307
                 308
                 309
                 310
                 311
                 312
                 313
                 314
                 315
                 316
                 317
                 318
                 319
                 320
                 321
                 322
                 323
                 324
                 325
                 326
                 327
                 328
                 329
                 330
                 331
                 332
                 333
                 334
                 335
                 336
                 337
                 338
                 339
                 340
                 341
                 342
                 343
                 344
                 345
                 346
                 347
                 348
                 349
                 350
                 351
                 352
                 353
                 354
                 355
                 356
                 357
                 358
                 359
                 360
                 361
                 362
                 363
                 364
                 365
                 366
                 367
                 368
                 369
                 370
                 371
                 372
                 373
                 374
                 375
                 376
                 377
                 378
                 379
                 380
                 381
                 382
                 383
                 384
                 385
                 386
                 387
                 388
                 389
                 390
                 391
                 392
                 393
                 394
                 395
                 396
                 397
                 398
                 399
                 400
                 401
                 402
                 403
                 404
                 405
                 406
                 407
                 408
                 409
                 410
                 411
                 412
                 413
                 414
                 415
                 416
                 417
                 418
                 419
                 420
                 421
                 422
                 423
                 424
                 425
                 426
                 427
                 428
                 429
                 430
                 431
                 432
                 433
                 434
                 435
                 436
                 437
                 438
                 439
                 440
                 441
                 442
                 443
                 444
                 445
                 446
                 447
                 448
                 449
                 450
                 451
                 452
                 453
                 454
                 455
                 456
                 457
                 458
                 459
                 460
                 461
                 462
                 463
                 464
                 465
                 466
                 467
                 468
                 469
                 470
                 471
                 472
                 473
                 474
                 475
                 476
                 477
                 478
                 479
                 480
                 481
                 482
                 483
                 484
                 485
                 486
                 487
                 488
                 489
                 490
                 491
                 492
                 493
                 494
                 495
                 496
                 497
                 498
                 499
                 500
                 501
                 502
                 503
                 504
                 505
                 506
                 507
                 508
                 509
                 510
                 511
                 512
                 513
                 514
                 515
                 516
                 517
                 518
                 519
                 520
                 521
                 522
                 523
                 524
                 525
                 526
                 527
                 528
                 529
                 530
                 531
                 532
                 533
                 534
                 535
                 536
                 537
                 538
                 539
                 540
                 541
                 542
                 543
                 544
                 545
                 546
                 547
                 548
                 549
                 550
                 551
                 552
                 553
                 554
                 555
                 556
                 557
                 558
                 559
                 560
                 561
                 562
                 563
                 564
                 565
                 566
                 567
                 568
                 569
                 570
                 571
                 572
                 573
                 574
                 575
                 576
                 577
                 578
                 579
                 580
                 581
                 582
                 583
                 584
                 585
                 586
                 587
                 588
                 589
                 590
                 591
                 592
                 593
                 594
                 595
                 596
                 597
                 598
                 599
                 600
                 601
                 602
                 603
                 604
                 605
                 606
                 607
                 608
                 609
                 610
                 611
                 612
                 613
                 614
                 615
                 616
                 617
                 618
                 619
                 620
                 621
                 622
                 623
                 624
                 625
                 626
                 627
                 628
                 629
                 630
                 631
                 632
                 633
                 634
                 635
                 636
                 637
                 638
                 639
                 640
                 641
                 642
                 643
                 644
                 645
                 646
                 647
                 648
                 649
                 650
                 651
                 652
                 653
                 654
                 655
                 656
                 657
                 658
                 659
                 660
                 661
                 662
                 663
                 664
                 665
                 666
                 667
                 668
                 669
                 670
                 671
                 672
                 673
                 674
                 675
                 676
                 677
                 678
                 679
                 680
                 681
                 682
                 683
                 684
                 685
                 686
                 687
                 688
                 689
                 690
                 691
                 692
                 693
                 694
                 695
                 696
                 697
                 698
                 699
                 700
                 701
                 702
                 703
                 704
                 705
                 706
                 707
                 708
                 709
                 710
                 711
                 712
                 713
                 714
                 715
                 716
                 717
                 718
                 719
                 720
                 721
                 722
                 723
                 724
                 725
                 726
                 727
                 728
                 729
                 730
                 731
                 732
                 733
                 734
                 735
                 736
                 737
                 738
                 739
                 740
                 741
                 742
                 743
                 744
                 745
                 746
                 747
                 748
                 749
                 750
                 751
                 752
                 753
                 754
                 755
                 756
                 757
                 758
                 759
                 760
                 761
                 762
                 763
                 764
                 765
                 766
                 767
                 768
                 769
                 770
                 771
                 772
                 773
                 774
                 775
                 776
                 777
                 778
                 779
                 780
                 781
                 782
                 783
                 784
                 785
                 786
                 787
                 788
                 789
                 790
                 791
                 792
                 793
                 794
                 795
                 796
                 797
                 798
                 799
                 800
                 801
                 802
                 803
                 804
                 805
                 806
                 807
                 808
                 809
                 810
                 811
                 812
                 813
                 814
                 815
                 816
                 817
                 818
                 819
                 820
                 821
                 822
                 823
                 824
                 825
                 826
                 827
                 828
                 829
                 830
                 831
                 832
                 833
                 834
                 835
                 836
                 837
                 838
                 839
                 840
                 841
                 842
                 843
                 844
                 845
                 846
                 847
                 848
                 849
                 850
                 851
                 852
                 853
                 854
                 855
                 856
                 857
                 858
                 859
                 860
                 861
                 862
                 863
                 864
                 865
                 866
                 867
                 868
                 869
                 870
                 871
                 872
                 873
                 874
                 875
                 876
                 877
                 878
                 879
                 880
                 881
                 882
                 883
                 884
                 885
                 886
                 887
                 888
                 889
                 890
                 891
                 892
                 893
                 894
                 895
                 896
                 897
                 898
                 899
                 900
                 901
                 902
                 903
                 904
                 905
                 906
                 907
                 908
                 909
                 910
                 911
                 912
                 913
                 914
                 915
                 916
                 917
                 918
                 919
                 920
                 921
                 922
                 923
                 924
                 925
                 926
                 927
                 928
                 929
                 930
                 931
                 932
                 933
                 934
                 935
                 936
                 937
                 938
                 939
                 940
                 941
                 942
                 943
                 944
                 945
                 946
                 947
                 948
                 949
                 950
                 951
                 952
                 953
                 954
                 955
                 956
                 957
                 958
                 959
                 960
                 961
                 962
                 963
                 964
                 965
                 966
                 967
                 968
                 969
                 970
                 971
                 972
                 973
                 974
                 975
                 976
                 977
                 978
                 979
                 980
                 981
                 982
                 983
                 984
                 985
                 986
                 987
                 988
                 989
                 990
                 991
                 992
                 993
                 994
                 995
                 996
                 997
                 998
                 999
                1000
                1001
                1002
                1003
                1004
                1005
                1006
                1007
                1008
                1009
                1010
                1011
                1012
                1013
                1014
                1015
                1016
                1017
                1018
                1019
                1020
                1021
                1022
                1023
                1024
                1025
                1026
                1027
                1028
                1029
                1030
                1031
                1032
                1033
                1034
                1035
                1036
                1037
                1038
                1039
                1040
                1041
                1042
                1043
                1044
                1045
                1046
                1047
                1048
                1049
                1050
                1051
                1052
                1053
                1054
                1055
                1056
                1057
                1058
                1059
                1060
                1061
                1062
                1063
                1064
                1065
                1066
                1067
                1068
                1069
                1070
                1071
                1072
                1073
                1074
                1075
                1076
                1077
                1078
                1079
                1080
                1081
                1082
                1083
                1084
                1085
                1086
                1087
                1088
                1089
                1090
                1091
                1092
                1093
                1094
                1095
                1096
                1097
                1098
                1099
                1100
                1101
                1102
                1103
                1104
                1105
                1106
                1107
                1108
                1109
                1110
                1111
                1112
                1113
                1114
                1115
                1116
                1117
                1118
                1119
                1120
                1121
                1122
                1123
                1124
                1125
                1126
                1127
                1128
                1129
                1130
                1131
                1132
                1133
                1134
                1135
                1136
                1137
                1138
                1139
                1140
                1141
                1142
                1143
                1144
                1145
                1146
                1147
                1148
                1149
                1150
                1151
                1152
                1153
                1154
                1155
                1156
                1157
                1158
                1159
                1160
                1161
                1162
                1163
                1164
                1165
                1166
                1167
                1168
                1169
                1170
                1171
                1172
                1173
                1174
                1175
                1176
                1177
                1178
                1179
                1180
                1181
                1182
                1183
                1184
                1185
                1186
                1187
                1188
                1189
                1190
                1191
                1192
                1193
                1194
                1195
                1196
                1197
                1198
                1199
                1200
                1201
                1202
                1203
                1204
                1205
                1206
                1207
                1208
                1209
                1210
                1211
                1212
                1213
                1214
                1215
                1216
                1217
                1218
                1219
                1220
                1221
                1222
                1223
                1224
                1225
                1226
                1227
                1228
                1229
                1230
                1231
                1232
                1233
                1234
                1235
                1236
                1237
                1238
                1239
                1240
                1241
                1242
                1243
                1244
                1245
                1246
                1247
                1248
                1249
                1250
                1251
                1252
                1253
                1254
                1255
                1256
                1257
                1258
                1259
                1260
                1261
                1262
                1263
                1264
                1265
                1266
                1267
                1268
                1269
                1270
                1271
                1272
                1273
                1274
                1275
                1276
                1277
                1278
                1279
                1280
                1281
                1282
                1283
                1284
                1285
                1286
                1287
                1288
                1289
                1290
                1291
                1292
                1293
                1294
                1295
                1296
                1297
                1298
                1299
                1300
                1301
                1302
                1303
                1304
                1305
                1306
                1307
                1308
                1309
                1310
                1311
                1312
                1313
                1314
                1315
                1316
                1317
                1318
                1319
                1320
                1321
                1322
                1323
                1324
                1325
                1326
                1327
                1328
                1329
                1330
                1331
                1332
                1333
                1334
                1335
                1336
                1337
                1338
                1339
                1340
                1341
                1342
                1343
                1344
                1345
                1346
                1347
                1348
                1349
                1350
                1351
                1352
                1353
                1354
                1355
                1356
                1357
                1358
                1359
                1360
                1361
                1362
                1363
                1364
                1365
                1366
                1367
                1368
                1369
                1370
                1371
                1372
                1373
                1374
                1375
                1376
                1377
                1378
                1379
                1380
                1381
                1382
                1383
                1384
                1385
                1386
                1387
                1388
                1389
                1390
                1391
                1392
                1393
                1394
                1395
                1396
                1397
                1398
                1399
                1400
                1401
                1402
                1403
                1404
                1405
                1406
                1407
                1408
                1409
                1410
                1411
                1412
                1413
                1414
                1415
                1416
                1417
                1418
                1419
                1420
                1421
                1422
                1423
                1424
                1425
                1426
                1427
                1428
                1429
                1430
                1431
                1432
                1433
                1434
                1435
                1436
                1437
                1438
                1439
                1440
                1441
                1442
                1443
                1444
                1445
                1446
                1447
                1448
                1449
                1450
                1451
                1452
                1453
                1454
                1455
                1456
                1457
                1458
                1459
                1460
                1461
                1462
                1463
                1464
                1465
                1466
                1467
                1468
                1469
                1470
                1471
                1472
                1473
                1474
                1475
                1476
                1477
                1478
                1479
                1480
                1481
                1482
                1483
                1484
                1485
                1486
                1487
                1488
                1489
                1490
                1491
                1492
                1493
                1494
                1495
                1496
                1497
                1498
                1499
                1500
                1501
                1502
                1503
                1504
                1505
                1506
                1507
                1508
                1509
                1510
                1511
                1512
                1513
                1514
                1515
                1516
                1517
                1518
                1519
                1520
                1521
                1522
                1523
                1524
                1525
                1526
                1527
                1528
                1529
                1530
                1531
                1532
                1533
                1534
                1535
                1536
                1537
                1538
                1539
                1540
                1541
                1542
                1543
                1544
                1545
                1546
                1547
                1548
                1549
                1550
                1551
                1552
                1553
                1554
                1555
                1556
                1557
                1558
                1559
                1560
                1561
                1562
                1563
                1564
                1565
                1566
                1567
                1568
                1569
                1570
                1571
                1572
                1573
                1574
                1575
                1576
                1577
                1578
                1579
                1580
                1581
                1582
                1583
                1584
                1585
                1586
                1587
                1588
                1589
                1590
                1591
                1592
                1593
                1594
                1595
                1596
                1597
                1598
                1599
                1600
                1601
                1602
                1603
                1604
                1605
                1606
                1607
                1608
                1609
                1610
                1611
                1612
                1613
                1614
                1615
                1616
                1617
                1618
                1619
                1620
                1621
                1622
                1623
                1624
                1625
                1626
                1627
                1628
                1629
                1630
                1631
                1632
                1633
                1634
                1635
                1636
                1637
                1638
                1639
                1640
                1641
                1642
                1643
                1644
                1645
                1646
                1647
                1648
                1649
                1650
                1651
                1652
                1653
                1654
                1655
                1656
                1657
                1658
                1659
                1660
                1661
                1662
                1663
                1664
                1665
                1666
                1667
                1668
                1669
                1670
                1671
                1672
                1673
                1674
                1675
                1676
                1677
                1678
                1679
                1680
                1681
                1682
                1683
                1684
                1685
                1686
                1687
                1688
                1689
                1690
                1691
                1692
                1693
                1694
                1695
                1696
                1697
                1698
                1699
                1700
                1701
                1702
                1703
                1704
                1705
                1706
                1707
                1708
                1709
                1710
                1711
                1712
                1713
                1714
                1715
                1716
                1717
                1718
                1719
                1720
                1721
                1722
                1723
                1724
                1725
                1726
                1727
                1728
                1729
                1730
                1731
                1732
                1733
                1734
                1735
                1736
                1737
                1738
                1739
                1740
                1741
                1742
                1743
                1744
                1745
                1746
                1747
                1748
                1749
                1750
                1751
                1752
                1753
                1754
                1755
                1756
                1757
                1758
                1759
                1760
                1761
                1762
                1763
                1764
                1765
                1766
                1767
                1768
                1769
                1770
                1771
                1772
                1773
                1774
                1775
                1776
                1777
                1778
                1779
                1780
                1781
                1782
                1783
                1784
                1785
                1786
                1787
                1788
                1789
                1790
                1791
                1792
                1793
                1794
                1795
                1796
                1797
                1798
                1799
                1800
                1801
                1802
                1803
                1804
                1805
                1806
                1807
                1808
                1809
                1810
                1811
                1812
                1813
                1814
                1815
                1816
                1817
                1818
                1819
                1820
                1821
                1822
                1823
                1824
                1825
                1826
                1827
                1828
                1829
                1830
                1831
                1832
                1833
                1834
                1835
                1836
                1837
                1838
                1839
                1840
                1841
                1842
                1843
                1844
                1845
                1846
                1847
                1848
                1849
                1850
                1851
                1852
                1853
                1854
                1855
                1856
                1857
                1858
                1859
                1860
                1861
                1862
                1863
                1864
                1865
                1866
                1867
                1868
                1869
                1870
                1871
                1872
                1873
                1874
                1875
                1876
                1877
                1878
                1879
                1880
                1881
                1882
                1883
                1884
                1885
                1886
                1887
                1888
                1889
                1890
                1891
                1892
                1893
                1894
                1895
                1896
                1897
                1898
                1899
                1900
                1901
                1902
                1903
                1904
                1905
                1906
                1907
                1908
                1909
                1910
                1911
                1912
                1913
                1914
                1915
                1916
                1917
                1918
                1919
                1920
                1921
                1922
                1923
                1924
                1925
                1926
                1927
                1928
                1929
                1930
                1931
                1932
                1933
                1934
                1935
                1936
                1937
                1938
                1939
                1940
                1941
                1942
                1943
                1944
                1945
                1946
                1947
                1948
                1949
                1950
  
SCALARS                         bodyid  double 1
LOOKUP_TABLE default
                   1
                   1
                   1
                   1
                   1
                   1
                   1
                   1
                   1
                   1
                   1
                   1
                   1
                   1
                   1
                   1
                   1
                   1
                   1
                   1
                   1
                   1
                   1
                   1
                   1
                   1
                   1
                   1
                   1
                   1
                   1
                   1
                   1
                   1
                   1
                   1
                   1
                   1
                   1
                   1
                   1
                   1
                   1
                   1
                   1
                   1
                   1
                   1
                   1
                   1
                   1
                   1
                   1
                   1
                   1
                   1
                   1
                   1
                   1
                   1
                   1
                   1
                   1
                   1
                   1
                   1
                   1
                   1
                   1
                   1
                   1
                   1
                   1
                   1
                   1
                   1
                   1
                   1
                   1
                   1
                   1
                   1
                   1
                   1
                   1
                   1
                   1
                   1
                   1
                   1
                   1
                   1
                   1
                   1
                   1
                   1
                   1
                   1
                   1
                   1
                   1
                   1
                   1
                   1
                   1
                   1
                   1
                   1
                   1
                   1
                   1
                   1
                   1
                   1
                   1
                   1
                   1
                   1
                   1
                   1
                   1
                   1
                   1
                   1
                   1
                   1
                   1
                   1
                   1
                   1
                   1
                   1
                   1
                   1
                   1
                   1
                   1
                   1
                   1
                   1
                   1
                   1
                   1
                   1
                   1
                   1
                   1
                   1
                   1
                   1
                   1
                   1
                   1
                   1
                   1
                   1
                   1
                   1
                   1
                   1
                   1
                   1
                   1
                   1
                   1
                   1
                   1
                   1
                   1
                   1
                   1
                   1
                   1
                   1
                   1
                   1
                   1
                   1
                   1
                   1
                   1
                   1
                   1
                   1
                   1
                   1
                   1
                   1
                   1
                   1
                   1
                   1
                   1
                   1
                   1
                   1
                   1
                   1
                   1
                   1
                   1
                   1
                   1
                   1
                   1
                   1
                   1
                   1
                   1
                   1
                   1
                   1
                   1
                   1
                   1
                   1
                   1
                   1
                   1
                   1
                   1
                   1
                   1
                   1
                   1
                   1
                   1
                   1
                   1
                   1
                   1
                   1
                   1
                   1
                   1
                   1
                   1
                   1
                   1
                   1
                   1
                   1
                   1
                   1
                   1
                   1
                   1
                   1
                   1
                   1
                   1
                   1
                   1
                   1
                   1
                   1
                   1
                   1
                   1
                   1
                   1
                   1
                   1
                   1
                   1
                   1
                   1
                   1
                   1
                   1
                   1
                   1
                   1
                   1
                   1
                   1
                   1
                   1
                   1
                   1
                   1
                   1
                   1
                   1
                   1
                   1
                   1
                   1
                   1
                   1
                   1
                   1
                   1
                   1
                   1
                   1
                   1
                   1
                   1
                   1
                   1
                   1
                   1
                   1
                   1
                   1
                   1
                   1
                   1
                   1
                   1
                   1
                   1
                   1
                   1
                   1
                   1
                   1
                   1
                   1
                   1
                   1
                   1
                   1
                   1
                   1
                   1
                   1
                   1
                   1
                   1
                   1
                   1
                   1
                   1
                   1
                   1
                   1
                   1
                   1
                   1
                   1
                   1
                   1
                   1
                   1
                   1
                   1
                   1
                   1
                   1
                   1
                   1
                   1
                   1
                   1
                   1
                   1
                   1
                   1
                   1
                   1
                   1
                   1
                   1
                   1
                   1
                   1
                   1
                   1
                   1
                   1
                   1
                   1
                   1
                   1
                   1
                   1
                   1
                   1
                   1
                   1
                   1
                   1
                   1
                   1
                   1
                   1
                   1
                   1
                   1
                   1
                   1
                   1
                   1
                   1
                   1
                   1
                   1
                   1
                   1
                   1
                   1
                   1
                   1
                   1
                   1
                   1
                   1
                   1
                   1
                   1
                   1
                   1
                   1
                   1
                   1
                   1
                   1
                   1
                   1
                   1
                   1
                   1
                   1
                   1
                   1
                   1
                   1
                   1
                   1
                   1
                   1
                   1
                   1
                   1
                   1
                   1
                   1
                   1
                   1
                   1
                   1
                   1
                   1
                   1
                   1
                   1
                   1
                   1
                   1
                   1
                   1
                   1
                   1
                   1
                   1
                   1
                   1
                   1
                   1
                   1
                   1
                   1
                   1
                   1
                   1
                   1
                   1
                   1
                   1
                   1
                   1
                   1
                   1
                   1
                   1
                   1
                   1
                   1
                   1
                   1
                   1
                   1
                   1
                   1
                   1
                   1
                   1
                   1
                   1
                   1
                   1
                   1
                   1
                   1
                   1
                   1
                   1
                   1
                   1
                   1
                   1
                   1
                   1
                   1
                   1
                   1
                   1
                   1
                   1
                   1
                   1
                   1
                   1
                   1
                   1
                   1
                   1
                   1
                   1
                   1
                   1
                   1
                   1
                   1
                   1
                   1
                   1
                   1
                   1
                   1
                   1
                   1
                   1
                   1
                   1
                   1
                   1
                   1
                   1
                   1
                   1
                   1
                   1
                   1
                   1
                   1
                   1
                   1
                   1
                   1
                   1
                   1
                   1
                   1
                   1
                   1
                   1
                   1
                   1
                   1
                   1
                   1
                   1
                   1
                   1
                   1
                   1
                   1
                   1
                   1
                   1
                   1
                   1
                   1
                   1
                   1
                   1
                   1
                   1
                   1
                   1
                   1
                   1
                   1
                   1
                   1
                   1
                   1
                   1
                   1
                   1
                   1
                   1
                   1
                   1
                   1
                   1
                   1
                   1
                   1
                   1
                   1
                   1
                   1
                   1
                   1
                   1
                   1
                   1
                   1
                   1
                   1
                   1
                   1
                   1
                   1
                   1
                   1
                   1
                   1
                   1
                   1
                   1
                   1
                   1
                   1
                   1
                   1
                   1
                   1
                   1
                   1
                   1
                   1
                   1
                   1
                   1
                   1
                   1
                   1
                   1
                   1
                   1
                   1
                   1
                   1
                   1
                   1
                   1
                   1
                   1
                   1
                   1
                   1
                   1
                   1
                   1
                   1
                   1
                   1
                   1
                   1
                   1
                   1
                   1
                   1
                   1
                   1
                   1
                   1
                   1
                   1
                   1
                   1
                   1
                   1
                   1
                   1
                   1
                   1
                   1
                   1
                   1
                   1
                   1
                   1
                   1
                   1
                   1
                   1
                   1
                   1
                   1
                   1
                   1
                   1
                   1
                   1
                   1
                   1
                   1
                   1
                   1
                   1
                   1
                   1
                   1
                   1
                   1
                   1
                   1
                   1
                   1
                   1
                   1
                   1
                   1
                   1
                   1
                   1
                   1
                   1
                   1
                   1
                   1
                   1
                   1
                   1
                   1
                   1
                   1
                   1
                   1
                   1
                   1
                   1
                   1
                   1
                   1
                   1
                   1
                   1
                   1
                   1
                   1
                   1
                   1
                   1
                   1
                   1
                   1
                   1
                   1
                   1
                   1
                   1
                   1
                   1
                   1
                   1
                   1
                   1
                   1
                   1
                   1
                   1
                   1
                   1
                   1
                   1
                   1
                   1
                   1
                   1
                   1
                   1
                   1
                   1
                   1
                   1
                   1
                   1
                   1
                   1
                   1
                   1
                   1
                   1
                   1
                   1
                   1
                   1
                   1
                   1
                   1
                   1
                   1
                   1
                   1
                   1
                   1
                   1
                   1
                   1
                   1
                   1
                   1
                   1
                   1
                   1
                   1
                   1
                   1
                   1
                   1
                   1
                   1
                   1
                   1
                   1
                   1
                   1
                   1
                   1
                   1
                   1
                   1
                   1
                   1
                   1
                   1
                   1
                   1
                   1
                   1
                   1
                   1
                   1
                   1
                   1
                   1
                   1
                   1
                   1
                   1
                   1
                   1
                   1
                   1
                   1
                   1
                   1
                   1
                   1
                   1
                   1
                   1
                   1
                   1
                   1
                   1
                   1
                   1
                   1
                   1
                   1
                   1
                   1
                   1
                   1
                   1
                   1
                   1
                   1
                   1
                   1
                   1
                   1
                   1
                   1
                   1
                   1
                   1
                   1
                   1
                   1
                   1
                   1
                   1
                   1
                   1
                   1
                   1
                   1
                   1
                   1
                   1
                   1
                   1
                   1
                   1
                   1
                   1
                   1
                   1
                   1
                   1
                   1
                   1
                   1
                   1
                   1
                   1
                   1
                   1
                   1
                   1
                   1
                   1
                   1
                   1
                   1
                   1
                   1
                   1
                   1
                   1
                   1
                   1
                   1
                   1
                   1
                   1
                   1
                   1
                   1
                   1
                   1
                   1
                   1
                   1
                   1
                   1
                   1
                   1
                   1
                   1
                   1
                   1
                   1
                   1
                   1
                   1
                   1
                   1
                   1
                   1
                   1
                   1
                   1
                   1
                   1
                   1
                   1
                   1
                   1
                   1
                   1
                   1
                   1
                   1
                   1
                   1
                   1
                   1
                   1
                   1
                   1
                   1
                   1
                   1
                   1
                   1
                   1
                   1
                   1
                   1
                   1
                   1
                   1
                   1
                   1
                   1
                   1
                   1
                   1
                   1
                   1
                   1
                   1
                   1
                   1
                   1
                   1
                   1
                   1
                   1
                   1
                   1
                   1
                   1
                   1
                   1
                   1
                   1
                   1
                   1
                   1
                   1
                   1
                   1
                   1
                   1
                   1
                   1
                   1
                   1
                   1
                   1
                   1
                   1
                   1
                   1
                   1
                   1
                   1
                   1
                   1
                   1
                   1
                   1
                   1
                   1
                   1
                   1
                   1
                   1
                   1
                   1
                   1
                   1
                   1
                   1
                   1
                   1
                   1
                   1
                   1
                   1
                   1
                   1
                   1
                   1
                   1
                   1
                   1
                   1
                   1
                   1
                   1
                   1
                   1
                   1
                   1
                   1
                   1
                   1
                   1
                   1
                   1
                   1
                   1
                   1
                   1
                   1
                   1
                   1
                   1
                   1
                   1
                   1
                   1
                   1
                   1
                   1
                   1
                   1
                   1
                   1
                   1
                   1
                   1
                   1
                   1
                   1
                   1
                   1
                   1
                   1
                   1
                   1
                   1
                   1
                   1
                   1
                   1
                   1
                   1
                   1
                   1
                   1
                   1
                   1
                   1
                   1
                   1
                   1
                   1
                   1
                   1
                   1
                   1
                   1
                   1
                   1
                   1
                   1
                   1
                   1
                   1
                   1
                   1
                   1
                   1
                   1
                   1
                   1
                   1
                   1
                   1
                   1
                   1
                   1
                   1
                   1
                   1
                   1
                   1
                   1
                   1
                   1
                   1
                   1
                   1
                   1
                   1
                   1
                   1
                   1
                   1
                   1
                   1
                   1
                   1
                   1
                   1
                   1
                   1
                   1
                   1
                   1
                   1
                   1
                   1
                   1
                   1
                   1
                   1
                   1
                   1
                   1
                   1
                   1
                   1
                   1
                   1
                   1
                   1
                   1
                   1
                   1
                   1
                   1
                   1
                   1
                   1
                   1
                   1
                   1
                   1
                   1
                   1
                   1
                   1
                   1
                   1
                   1
                   1
                   1
                   1
                   1
                   1
                   1
                   1
                   1
                   1
                   1
                   1
                   1
                   1
                   1
                   1
                   1
                   1
                   1
                   1
                   1
                   1
                   1
                   1
                   1
                   1
                   1
                   1
                   1
                   1
                   1
                   1
                   1
                   1
                   1
                   1
                   1
                   1
                   1
                   1
                   1
                   1
                   1
                   1
                   1
                   1
                   1
                   1
                   1
                   1
                   1
                   1
                   1
                   1
                   1
                   1
                   1
                   1
                   1
                   1
                   1
                   1
                   1
                   1
                   1
                   1
                   1
                   1
                   1
                   1
                   1
                   1
                   1
                   1
                   1
                   1
                   1
                   1
                   1
                   1
                   1
                   1
                   1
                   1
                   1
                   1
                   1
                   1
                   1
                   1
                   1
                   1
                   1
                   1
                   1
                   1
                   1
                   1
                   1
                   1
                   1
                   1
                   1
                   1
                   1
                   1
                   1
                   1
                   1
                   1
                   1
                   1
                   1
                   1
                   1
                   1
                   1
                   1
                   1
                   1
                   1
                   1
                   1
                   1
                   1
                   1
                   1
                   1
                   1
                   1
                   1
                   1
                   1
                   1
                   1
                   1
                   1
                   1
                   1
                   1
                   1
                   1
                   1
                   1
                   1
                   1
                   1
                   1
                   1
                   1
                   1
                   1
                   1
                   1
                   1
                   1
                   1
                   1
                   1
                   1
                   1
                   1
                   1
                   1
                   1
                   1
                   1
                   1
                   1
                   1
                   1
                   1
                   1
                   1
                   1
                   1
                   1
                   1
                   1
                   1
                   1
                   1
                   1
                   1
                   1
                   1
                   1
                   1
                   1
                   1
                   1
                   1
                   1
                   1
                   1
                   1
                   1
                   1
                   1
                   1
                   1
                   1
                   1
                   1
                   1
                   1
                   1
                   1
                   1
                   1
                   1
                   1
                   1
                   1
                   1
                   1
                   1
                   1
                   1
                   1
                   1
                   1
                   1
                   1
                   1
                   1
                   1
                   1
                   1
                   1
                   1
                   1
                   1
                   1
                   1
                   1
                   1
                   1
                   1
                   1
                   1
                   1
                   1
                   1
                   1
                   1
                   1
                   1
                   1
                   1
                   1
                   1
                   1
                   1
                   1
                   1
                   1
                   1
                   1
                   1
                   1
                   1
                   1
                   1
                   1
                   1
                   1
                   1
                   1
                   1
                   1
                   1
                   1
                   1
                   1
                   1
                   1
                   1
                   1
                   1
                   1
                   1
                   1
                   1
                   1
                   1
                   1
                   1
                   1
                   1
                   1
                   1
                   1
                   1
                   1
                   1
                   1
                   1
                   1
                   1
                   1
                   1
                   1
                   1
                   1
                   1
                   1
                   1
                   1
                   1
                   1
                   1
                   1
                   1
                   1
                   1
                   1
                   1
                   1
                   1
                   1
                   1
                   1
                   1
                   1
                   1
                   1
                   1
                   1
                   1
                   1
                   1
                   1
                   1
                   1
                   1
                   1
                   1
                   1
                   1
                   1
                   1
                   1
                   1
                   1
                   1
                   1
                   1
                   1
                   1
                   1
                   1
                   1
                   1
                   1
                   1
                   1
                   1
                   1
                   1
                   1
                   1
                   1
                   1
                   1
                   1
                   1
                   1
                   1
                   1
                   1
                   1
                   1
                   1
                   1
                   1
                   1
                   1
                   1
                   1
                   1
                   1
                   1
                   1
                   1
                   1
                   1
                   1
                   1
                   1
                   1
                   1
                   1
                   1
                   1
                   1
                   1
                   1
                   1
                   1
                   1
                   1
                   1
                   1
                   1
                   1
                   1
                   1
                   1
                   1
                   1
                   1
                   1
                   1
                   1
                   1
                   1
                   1
                   1
                   1
                   1
                   1
                   1
                   1
                   1
                   1
                   1
                   1
                   1
                   1
                   1
                   1
                   1
                   1
                   1
                   1
                   1
                   1
                   1
                   1
                   1
                   1
                   1
                   1
                   1
                   1
                   1
                   1
                   1
                   1
                   1
                   1
                   1
                   1
                   1
                   1
                   1
                   1
                   1
                   1
                   1
                   1
                   1
                   1
                   1
                   1
                   1
                   1
                   1
                   1
                   1
                   1
                   1
                   1
                   1
                   1
                   1
                   1
                   1
                   1
                   1
                   1
                   1
                   1
                   1
                   1
                   1
                   1
                   1
                   1
                   1
                   1
                   1
                   1
                   1
                   1
                   1
                   1
                   1
                   1
                   1
                   1
                   1
                   1
                   1
                   1
                   1
                   1
                   1
                   1
                   1
                   1
                   1
                   1
                   1
                   1
                   1
                   1
                   1
                   1
                   1
                   1
                   1
                   1
                   1
                   1
                   1
                   1
                   1
                   1
                   1
                   1
                   1
                   1
                   1
                   1
                   1
                   1
                   1
                   1
                   1
                   1
                   1
                   1
                   1
                   1
                   1
                   1
                   1
                   1
                   1
                   1
                   1
                   1
                   1
                   1
                   1
                   1
                   1
                   1
                   1
                   1
                   1
                   1
                   1
                   1
                   1
                   1
                   1
                   1
                   1
                   1
                   1
                   1
                   1
                   1
                   1
                   1
                   1
                   1
                   1
                   1
                   1
                   1
                   1
                   1
                   1
                   1
                   1
                   1
                   1
                   1
                   1
                   1
                   1
                   1
                   1
                   1
                   1
                   1
                   1
                   1
                   1
                   1
                   1
                   1
                   1
                   1
                   1
                   1
                   1
                   1
                   1
                   1
                   1
                   1
                   1
                   1
                   1
                   1
                   1
                   1
                   1
                   1
                   1
                   1
                   1
                   1
                   1
                   1
                   1
                   1
                   1
                   1
                   1
                   1
                   1
                   1
                   1
                   1
                   1
                   1
                   1
                   1
                   1
                   1
                   1
                   1
                   1
                   1
                   1
                   1
                   1
                   1
                   1
                   1
                   1
                   1
                   1
                   1
                   1
                   1
                   1
                   1
                   1
                   1
                   1
                   1
                   1
                   1
                   1
                   1
                   1
                   1
                   1
                   1
                   1
                   1
                   1
                   1
                   1
                   1
                   1
                   1
                   1
                   1
                   1
                   1
                   1
                   1
                   1
                   1
                   1
                   1
                   1
                   1
                   1
                   1
                   1
                   1
                   1
                   1
                   1
                   1
                   1
                   1
                   1
                   1
                   1
                   1
                   1
                   1
                   1
                   1
                   1
                   1
                   1
                   1
                   1
                   1
                   1
                   1
                   1
                   1
                   1
                   1
                   1
                   1
                   1
                   1
                   1
                   1
  
SCALARS                  material_type  double 1
LOOKUP_TABLE default
                   2
                   2
                   2
                   2
                   2
                   2
                   2
                   2
                   2
                   2
                   2
                   2
                   2
                   2
                   2
                   2
                   2
                   2
                   2
                   2
                   2
                   2
                   2
                   2
                   2
                   2
                   2
                   2
                   2
                   2
                   2
                   2
                   2
                   2
                   2
                   2
                   2
                   2
                   2
                   2
                   2
                   2
                   2
                   2
                   2
                   2
                   2
                   2
                   2
                   2
                   2
                   2
                   2
                   2
                   2
                   2
                   2
                   2
                   2
                   2
                   2
                   2
                   2
                   2
                   2
                   2
                   2
                   2
                   2
                   2
                   2
                   2
                   2
                   2
                   2
                   2
                   2
                   2
                   2
                   2
                   2
                   2
                   2
                   2
                   2
                   2
                   2
                   2
                   2
                   2
                   2
                   2
                   2
                   2
                   2
                   2
                   2
                   2
                   2
                   2
                   2
                   2
                   2
                   2
                   2
                   2
                   2
                   2
                   2
                   2
                   2
                   2
                   2
                   2
                   2
                   2
                   2
                   2
                   2
                   2
                   2
                   2
                   2
                   2
                   2
                   2
                   2
                   2
                   2
                   2
                   2
                   2
                   2
                   2
                   2
                   2
                   2
                   2
                   2
                   2
                   2
                   2
                   2
                   2
                   2
                   2
                   2
                   2
                   2
                   2
                   2
                   2
                   2
                   2
                   2
                   2
                   2
                   2
                   2
                   2
                   2
                   2
                   2
                   2
                   2
                   2
                   2
                   2
                   2
                   2
                   2
                   2
                   2
                   2
                   2
                   2
                   2
                   2
                   2
                   2
                   2
                   2
                   2
                   2
                   2
                   2
                   2
                   2
                   2
                   2
                   2
                   2
                   2
                   2
                   2
                   2
                   2
                   2
                   2
                   2
                   2
                   2
                   2
                   2
                   2
                   2
                   2
                   2
                   2
                   2
                   2
                   2
                   2
                   2
                   2
                   2
                   2
                   2
                   2
                   2
                   2
                   2
                   2
                   2
                   2
                   2
                   2
                   2
                   2
                   2
                   2
                   2
                   2
                   2
                   2
                   2
                   2
                   2
                   2
                   2
                   2
                   2
                   2
                   2
                   2
                   2
                   2
                   2
                   2
                   2
                   2
                   2
                   2
                   2
                   2
                   2
                   2
                   2
                   2
                   2
                   2
                   2
                   2
                   2
                   2
                   2
                   2
                   2
                   2
                   2
                   2
                   2
                   2
                   2
                   2
                   2
                   2
                   2
                   2
                   2
                   2
                   2
                   2
                   2
                   2
                   2
                   2
                   2
                   2
                   2
                   2
                   2
                   2
                   2
                   2
                   2
                   2
                   2
                   2
                   2
                   2
                   2
                   2
                   2
                   2
                   2
                   2
                   2
                   2
                   2
                   2
                   2
                   2
                   2
                   2
                   2
                   2
                   2
                   2
                   2
                   2
                   2
                   2
                   2
                   2
                   2
                   2
                   2
                   2
                   2
                   2
                   2
                   2
                   2
                   2
                   2
                   2
                   2
                   2
                   2
                   2
                   2
                   2
                   2
                   2
                   2
                   2
                   2
                   2
                   2
                   2
                   2
                   2
                   2
                   2
                   2
                   2
                   2
                   2
                   2
                   2
                   2
                   2
                   2
                   2
                   2
                   2
                   2
                   2
                   2
                   2
                   2
                   2
                   2
                   2
                   2
                   2
                   2
                   2
                   2
                   2
                   2
                   2
                   2
                   2
                   2
                   2
                   2
                   2
                   2
                   2
                   2
                   2
                   2
                   2
                   2
                   2
                   2
                   2
                   2
                   2
                   2
                   2
                   2
                   2
                   2
                   2
                   2
                   2
                   2
                   2
                   2
                   2
                   2
                   2
                   2
                   2
                   2
                   2
                   2
                   2
                   2
                   2
                   2
                   2
                   2
                   2
                   2
                   2
                   2
                   2
                   2
                   2
                   2
                   2
                   2
                   2
                   2
                   2
                   2
                   2
                   2
                   2
                   2
                   2
                   2
                   2
                   2
                   2
                   2
                   2
                   2
                   2
                   2
                   2
                   2
                   2
                   2
                   2
                   2
                   2
                   2
                   2
                   2
                   2
                   2
                   2
                   2
                   2
                   2
                   2
                   2
                   2
                   2
                   2
                   2
                   2
                   2
                   2
                   2
                   2
                   2
                   2
                   2
                   2
                   2
                   2
                   2
                   2
                   2
                   2
                   2
                   2
                   2
                   2
                   2
                   2
                   2
                   2
                   2
                   2
                   2
                   2
                   2
                   2
                   2
                   2
                   2
                   2
                   2
                   2
                   2
                   2
                   2
                   2
                   2
                   2
                   2
                   2
                   2
                   2
                   2
                   2
                   2
                   2
                   2
                   2
                   2
                   2
                   2
                   2
                   2
                   2
                   2
                   2
                   2
                   2
                   2
                   2
                   2
                   2
                   2
                   2
                   2
                   2
                   2
                   2
                   2
                   2
                   2
                   2
                   2
                   2
                   2
                   2
                   2
                   2
                   2
                   2
                   2
                   2
                   2
                   2
                   2
                   2
                   2
                   2
                   2
                   2
                   2
                   2
                   2
                   2
                   2
                   2
                   2
                   2
                   2
                   2
                   2
                   2
                   2
                   2
                   2
                   2
                   2
                   2
                   2
                   2
                   2
                   2
                   2
                   2
                   2
                   2
                   2
                   2
                   2
                   2
                   2
                   2
                   2
                   2
                   2
                   2
                   2
                   2
                   2
                   2
                   2
                   2
                   2
                   2
                   2
                   2
                   2
                   2
                   2
                   2
                   2
                   2
                   2
                   2
                   2
                   2
                   2
                   2
                   2
                   2
                   2
                   2
                   2
                   2
                   2
                   2
                   2
                   2
                   2
                   2
                   2
                   2
                   2
                   2
                   2
                   2
                   2
                   2
                   2
                   2
                   2
                   2
                   2
                   2
                   2
                   2
                   2
                   2
                   2
                   2
                   2
                   2
                   2
                   2
                   2
                   2
                   2
                   2
                   2
                   2
                   2
                   2
                   2
                   2
                   2
                   2
                   2
                   2
                   2
                   2
                   2
                   2
                   2
                   2
                   2
                   2
                   2
                   2
                   2
                   2
                   2
                   2
                   2
                   2
                   2
                   2
                   2
                   2
                   2
                   2
                   2
                   2
                   2
                   2
                   2
                   2
                   2
                   2
                   2
                   2
                   2
                   2
                   2
                   2
                   2
                   2
                   2
                   2
                   2
                   2
                   2
                   2
                   2
                   2
                   2
                   2
                   2
                   2
                   2
                   2
                   2
                   2
                   2
                   2
                   2
                   2
                   2
                   2
                   2
                   2
                   2
                   2
                   2
                   2
                   2
                   2
                   2
                   2
                   2
                   2
                   2
                   2
                   2
                   2
                   2
                   2
                   2
                   2
                   2
                   2
                   2
                   2
                   2
                   2
                   2
                   2
                   2
                   2
                   2
                   2
                   2
                   2
                   2
                   2
                   2
                   2
                   2
                   2
                   2
                   2
                   2
                   2
                   2
                   2
                   2
                   2
                   2
                   2
                   2
                   2
                   2
                   2
                   2
                   2
                   2
                   2
                   2
                   2
                   2
                   2
                   2
                   2
                   2
                   2
                   2
                   2
                   2
                   2
                   2
                   2
                   2
                   2
                   2
                   2
                   2
                   2
                   2
                   2
                   2
                   2
                   2
                   2
                   2
                   2
                   2
                   2
                   2
                   2
                   2
                   2
                   2
                   2
                   2
                   2
                   2
                   2
                   2
                   2
                   2
                   2
                   2
                   2
                   2
                   2
                   2
                   2
                   2
                   2
                   2
                   2
                   2
                   2
                   2
                   2
                   2
                   2
                   2
                   2
                   2
                   2
                   2
                   2
                   2
                   2
                   2
                   2
                   2
                   2
                   2
                   2
                   2
                   2
                   2
                   2
                   2
                   2
                   2
                   2
                   2
                   2
                   2
                   2
                   2
                   2
                   2
                   2
                   2
                   2
                   2
                   2
                   2
                   2
                   2
                   2
                   2
                   2
                   2
                   2
                   2
                   2
                   2
                   2
                   2
                   2
                   2
                   2
                   2
                   2
                   2
                   2
                   2
                   2
                   2
                   2
                   2
                   2
                   2
                   2
                   2
                   2
                   2
                   2
                   2
                   2
                   2
                   2
                   2
                   2
                   2
                   2
                   2
                   2
                   2
                   2
                   2
                   2
                   2
                   2
                   2
                   2
                   2
                   2
                   2
                   2
                   2
                   2
                   2
                   2
                   2
                   2
                   2
                   2
                   2
                   2
                   2
                   2
                   2
                   2
                   2
                   2
                   2
                   2
                   2
                   2
                   2
                   2
                   2
                   2
                   2
                   2
                   2
                   2
                   2
                   2
                   2
                   2
                   2
                   2
                   2
                   2
                   2
                   2
                   2
                   2
                   2
                   2
                   2
                   2
                   2
                   2
                   2
                   2
                   2
                   2
                   2
                   2
                   2
                   2
                   2
                   2
                   2
                   2
                   2
                   2
                   2
                   2
                   2
                   2
                   2
                   2
                   2
                   2
                   2
                   2
                   2
                   2
                   2
                   2
                   2
                   2
                   2
                   2
                   2
                   2
                   2
                   2
                   2
                   2
                   2
                   2
                   2
                   2
                   2
                   2
                   2
                   2
                   2
                   2
                   2
                   2
                   2
                   2
                   2
                   2
                   2
                   2
                   2
                   2
                   2
                   2
                   2
                   2
                   2
                   2
                   2
                   2
                   2
                   2
                   2
                   2
                   2
                   2
                   2
                   2
                   2
                   2
                   2
                   2
                   2
                   2
                   2
                   2
                   2
                   2
                   2
                   2
                   2
                   2
                   2
                   2
                   2
                   2
                   2
                   2
                   2
                   2
                   2
                   2
                   2
                   2
                   2
                   2
                   2
                   2
                   2
                   2
                   2
                   2
                   2
                   2
                   2
                   2
                   2
                   2
                   2
                   2
                   2
                   2
                   2
                   2
                   2
                   2
                   2
                   2
                   2
                   2
                   2
                   2
                   2
                   2
                   2
                   2
                   2
                   2
                   2
                   2
                   2
                   2
                   2
                   2
                   2
                   2
                   2
                   2
                   2
                   2
                   2
                   2
                   2
                   2
                   2
                   2
                   2
                   2
                   2
                   2
                   2
                   2
                   2
                   2
                   2
                   2
                   2
                   2
                   2
                   2
                   2
                   2
                   2
                   2
                   2
                   2
                   2
                   2
                   2
                   2
                   2
                   2
                   2
                   2
                   2
                   2
                   2
                   2
                   2
                   2
                   2
                   2
                   2
                   2
                   2
                   2
                   2
                   2
                   2
                   2
                   2
                   2
                   2
                   2
                   2
                   2
                   2
                   2
                   2
                   2
                   2
                   2
                   2
                   2
                   2
                   2
                   2
                   2
                   2
                   2
                   2
                   2
                   2
                   2
                   2
                   2
                   2
                   2
                   2
                   2
                   2
                   2
                   2
                   2
                   2
                   2
                   2
                   2
                   2
                   2
                   2
                   2
                   2
                   2
                   2
                   2
                   2
                   2
                   2
                   2
                   2
                   2
                   2
                   2
                   2
                   2
                   2
                   2
                   2
                   2
                   2
                   2
                   2
                   2
                   2
                   2
                   2
                   2
                   2
                   2
                   2
                   2
                   2
                   2
                   2
                   2
                   2
                   2
                   2
                   2
                   2
                   2
                   2
                   2
                   2
                   2
                   2
                   2
                   2
                   2
                   2
                   2
                   2
                   2
                   2
                   2
                   2
                   2
                   2
                   2
                   2
                   2
                   2
                   2
                   2
                   2
                   2
                   2
                   2
                   2
                   2
                   2
                   2
                   2
                   2
                   2
                   2
                   2
                   2
                   2
                   2
                   2
                   2
                   2
                   2
                   2
                   2
                   2
                   2
                   2
                   2
                   2
                   2
                   2
                   2
                   2
                   2
                   2
                   2
                   2
                   2
                   2
                   2
                   2
                   2
                   2
                   2
                   2
                   2
                   2
                   2
                   2
                   2
                   2
                   2
                   2
                   2
                   2
                   2
                   2
                   2
                   2
                   2
                   2
                   2
                   2
                   2
                   2
                   2
                   2
                   2
                   2
                   2
                   2
                   2
                   2
                   2
                   2
                   2
                   2
                   2
                   2
                   2
                   2
                   2
                   2
                   2
                   2
                   2
                   2
                   2
                   2
                   2
                   2
                   2
                   2
                   2
                   2
                   2
                   2
                   2
                   2
                   2
                   2
                   2
                   2
                   2
                   2
                   2
                   2
                   2
                   2
                   2
                   2
                   2
                   2
                   2
                   2
                   2
                   2
                   2
                   2
                   2
                   2
                   2
                   2
                   2
                   2
                   2
                   2
                   2
                   2
                   2
                   2
                   2
                   2
                   2
                   2
                   2
                   2
                   2
                   2
                   2
                   2
                   2
                   2
                   2
                   2
                   2
                   2
                   2
                   2
                   2
                   2
                   2
                   2
                   2
                   2
                   2
                   2
                   2
                   2
                   2
                   2
                   2
                   2
                   2
                   2
                   2
                   2
                   2
                   2
                   2
                   2
                   2
                   2
                   2
                   2
                   2
                   2
                   2
                   2
                   2
                   2
                   2
                   2
                   2
                   2
                   2
                   2
                   2
                   2
                   2
                   2
                   2
                   2
                   2
                   2
                   2
                   2
                   2
                   2
                   2
                   2
                   2
                   2
                   2
                   2
                   2
                   2
                   2
                   2
                   2
                   2
                   2
                   2
                   2
                   2
                   2
                   2
                   2
                   2
                   2
                   2
                   2
                   2
                   2
                   2
                   2
                   2
                   2
                   2
                   2
                   2
                   2
                   2
                   2
                   2
                   2
                   2
                   2
                   2
                   2
                   2
                   2
                   2
                   2
                   2
                   2
                   2
                   2
                   2
                   2
                   2
                   2
                   2
                   2
                   2
                   2
                   2
                   2
                   2
                   2
                   2
                   2
                   2
                   2
                   2
                   2
                   2
                   2
                   2
                   2
                   2
                   2
                   2
                   2
                   2
                   2
                   2
                   2
                   2
                   2
                   2
                   2
                   2
                   2
                   2
                   2
                   2
                   2
                   2
                   2
                   2
                   2
                   2
                   2
                   2
                   2
                   2
                   2
                   2
                   2
                   2
                   2
                   2
                   2
                   2
                   2
                   2
                   2
                   2
                   2
                   2
                   2
                   2
                   2
                   2
                   2
                   2
                   2
                   2
                   2
                   2
                   2
                   2
                   2
                   2
                   2
                   2
                   2
                   2
                   2
                   2
                   2
                   2
                   2
                   2
                   2
                   2
                   2
                   2
                   2
                   2
                   2
                   2
                   2
                   2
                   2
                   2
                   2
                   2
                   2
                   2
                   2
                   2
                   2
                   2
                   2
                   2
                   2
                   2
                   2
                   2
                   2
                   2
                   2
                   2
                   2
                   2
                   2
                   2
                   2
                   2
                   2
                   2
                   2
                   2
                   2
                   2
                   2
                   2
                   2
                   2
                   2
                   2
                   2
                   2
                   2
                   2
                   2
                   2
                   2
                   2
                   2
                   2
                   2
                   2
                   2
                   2
                   2
                   2
                   2
                   2
                   2
                   2
                   2
                   2
                   2
                   2
                   2
                   2
                   2
                   2
                   2
                   2
                   2
                   2
                   2
                   2
                   2
                   2
                   2
                   2
                   2
                   2
                   2
                   2
                   2
                   2
                   2
                   2
                   2
                   2
                   2
                   2
                   2
                   2
                   2
                   2
                   2
                   2
                   2
                   2
                   2
                   2
                   2
                   2
                   2
                   2
                   2
                   2
                   2
                   2
                   2
                   2
                   2
                   2
                   2
                   2
                   2
                   2
                   2
                   2
                   2
                   2
                   2
                   2
                   2
                   2
                   2
                   2
                   2
                   2
                   2
                   2
                   2
                   2
                   2
                   2
                   2
                   2
                   2
                   2
                   2
                   2
                   2
                   2
                   2
                   2
                   2
                   2
                   2
                   2
                   2
                   2
                   2
                   2
                   2
                   2
                   2
                   2
                   2
                   2
                   2
                   2
                   2
                   2
                   2
                   2
                   2
                   2
                   2
                   2
                   2
                   2
                   2
                   2
                   2
                   2
                   2
                   2
                   2
                   2
                   2
                   2
                   2
                   2
                   2
                   2
                   2
                   2
                   2
                   2
                   2
                   2
                   2
                   2
                   2
                   2
                   2
                   2
                   2
                   2
                   2
                   2
                   2
                   2
                   2
                   2
                   2
                   2
                   2
                   2
                   2
                   2
                   2
                   2
                   2
                   2
                   2
                   2
                   2
                   2
                   2
                   2
                   2
                   2
                   2
                   2
                   2
                   2
                   2
                   2
                   2
                   2
                   2
                   2
                   2
                   2
                   2
                   2
                   2
                   2
                   2
                   2
                   2
                   2
                   2
                   2
                   2
                   2
                   2
                   2
                   2
                   2
                   2
                   2
                   2
                   2
                   2
                   2
                   2
                   2
                   2
                   2
                   2
                   2
                   2
                   2
                   2
                   2
                   2
                   2
                   2
                   2
                   2
                   2
                   2
                   2
                   2
                   2
                   2
                   2
                   2
                   2
                   2
                   2
                   2
                   2
                   2
                   2
                   2
                   2
                   2
                   2
                   2
                   2
                   2
                   2
                   2
                   2
                   2
                   2
                   2
                   2
                   2
                   2
                   2
                   2
                   2
                   2
                   2
                   2
                   2
                   2
                   2
                   2
                   2
                   2
                   2
                   2
                   2
                   2
                   2
  
SCALARS                       fixity_x  double 1
LOOKUP_TABLE default
                   0
                   0
                   0
                   0
                   0
                   0
                   0
                   0
                   0
                   0
                   0
                   0
                   0
                   0
                   0
                   0
                   0
                   0
                   0
                   0
                   0
                   0
                   0
                   0
                   0
                   0
                   0
                   0
                   0
                   0
                   0
                   0
                   0
                   0
                   0
                   0
                   0
                   0
                   0
                   0
                   0
                   0
                   0
                   0
                   0
                   0
                   0
                   0
                   0
                   0
                   0
                   0
                   0
                   0
                   0
                   0
                   0
                   0
                   0
                   0
                   0
                   0
                   0
                   0
                   0
                   0
                   0
                   0
                   0
                   0
                   0
                   0
                   0
                   0
                   0
                   0
                   0
                   0
                   0
                   0
                   0
                   0
                   0
                   0
                   0
                   0
                   0
                   0
                   0
                   0
                   0
                   0
                   0
                   0
                   0
                   0
                   0
                   0
                   0
                   0
                   0
                   0
                   0
                   0
                   0
                   0
                   0
                   0
                   0
                   0
                   0
                   0
                   0
                   0
                   0
                   0
                   0
                   0
                   0
                   0
                   0
                   0
                   0
                   0
                   0
                   0
                   0
                   0
                   0
                   0
                   0
                   0
                   0
                   0
                   0
                   0
                   0
                   0
                   0
                   0
                   0
                   0
                   0
                   0
                   0
                   0
                   0
                   0
                   0
                   0
                   0
                   0
                   0
                   0
                   0
                   0
                   0
                   0
                   0
                   0
                   0
                   0
                   0
                   0
                   0
                   0
                   0
                   0
                   0
                   0
                   0
                   0
                   0
                   0
                   0
                   0
                   0
                   0
                   0
                   0
                   0
                   0
                   0
                   0
                   0
                   0
                   0
                   0
                   0
                   0
                   0
                   0
                   0
                   0
                   0
                   0
                   0
                   0
                   0
                   0
                   0
                   0
                   0
                   0
                   0
                   0
                   0
                   0
                   0
                   0
                   0
                   0
                   0
                   0
                   0
                   0
                   0
                   0
                   0
                   0
                   0
                   0
                   0
                   0
                   0
                   0
                   0
                   0
                   0
                   0
                   0
                   0
                   0
                   0
                   0
                   0
                   0
                   0
                   0
                   0
                   0
                   0
                   0
                   0
                   0
                   0
                   0
                   0
                   0
                   0
                   0
                   0
                   0
                   0
                   0
                   0
                   0
                   0
                   0
                   0
                   0
                   0
                   0
                   0
                   0
                   0
                   0
                   0
                   0
                   0
                   0
                   0
                   0
                   0
                   0
                   0
                   0
                   0
                   0
                   0
                   0
                   0
                   0
                   0
                   0
                   0
                   0
                   0
                   0
                   0
                   0
                   0
                   0
                   0
                   0
                   0
                   0
                   0
                   0
                   0
                   0
                   0
                   0
                   0
                   0
                   0
                   0
                   0
                   0
                   0
                   0
                   0
                   0
                   0
                   0
                   0
                   0
                   0
                   0
                   0
                   0
                   0
                   0
                   0
                   0
                   0
                   0
                   0
                   0
                   0
                   0
                   0
                   0
                   0
                   0
                   0
                   0
                   0
                   0
                   0
                   0
                   0
                   0
                   0
                   0
                   0
                   0
                   0
                   0
                   0
                   0
                   0
                   0
                   0
                   0
                   0
                   0
                   0
                   0
                   0
                   0
                   0
                   0
                   0
                   0
                   0
                   0
                   0
                   0
                   0
                   0
                   0
                   0
                   0
                   0
                   0
                   0
                   0
                   0
                   0
                   0
                   0
                   0
                   0
                   0
                   0
                   0
                   0
                   0
                   0
                   0
                   0
                   0
                   0
                   0
                   0
                   0
                   0
                   0
                   0
                   0
                   0
                   0
                   0
                   0
                   0
                   0
                   0
                   0
                   0
                   0
                   0
                   0
                   0
                   0
                   0
                   0
                   0
                   0
                   0
                   0
                   0
                   0
                   0
                   0
                   0
                   0
                   0
                   0
                   0
                   0
                   0
                   0
                   0
                   0
                   0
                   0
                   0
                   0
                   0
                   0
                   0
                   0
                   0
                   0
                   0
                   0
                   0
                   0
                   0
                   0
                   0
                   0
                   0
                   0
                   0
                   0
                   0
                   0
                   0
                   0
                   0
                   0
                   0
                   0
                   0
                   0
                   0
                   0
                   0
                   0
                   0
                   0
                   0
                   0
                   0
                   0
                   0
                   0
                   0
                   0
                   0
                   0
                   0
                   0
                   0
                   0
                   0
                   0
                   0
                   0
                   0
                   0
                   0
                   0
                   0
                   0
                   0
                   0
                   0
                   0
                   0
                   0
                   0
                   0
                   0
                   0
                   0
                   0
                   0
                   0
                   0
                   0
                   0
                   0
                   0
                   0
                   0
                   0
                   0
                   0
                   0
                   0
                   0
                   0
                   0
                   0
                   0
                   0
                   0
                   0
                   0
                   0
                   0
                   0
                   0
                   0
                   0
                   0
                   0
                   0
                   0
                   0
                   0
                   0
                   0
                   0
                   0
                   0
                   0
                   0
                   0
                   0
                   0
                   0
                   0
                   0
                   0
                   0
                   0
                   0
                   0
                   0
                   0
                   0
                   0
                   0
                   0
                   0
                   0
                   0
                   0
                   0
                   0
                   0
                   0
                   0
                   0
                   0
                   0
                   0
                   0
                   0
                   0
                   0
                   0
                   0
                   0
                   0
                   0
                   0
                   0
                   0
                   0
                   0
                   0
                   0
                   0
                   0
                   0
                   0
                   0
                   0
                   0
                   0
                   0
                   0
                   0
                   0
                   0
                   0
                   0
                   0
                   0
                   0
                   0
                   0
                   0
                   0
                   0
                   0
                   0
                   0
                   0
                   0
                   0
                   0
                   0
                   0
                   0
                   0
                   0
                   0
                   0
                   0
                   0
                   0
                   0
                   0
                   0
                   0
                   0
                   0
                   0
                   0
                   0
                   0
                   0
                   0
                   0
                   0
                   0
                   0
                   0
                   0
                   0
                   0
                   0
                   0
                   0
                   0
                   0
                   0
                   0
                   0
                   0
                   0
                   0
                   0
                   0
                   0
                   0
                   0
                   0
                   0
                   0
                   0
                   0
                   0
                   0
                   0
                   0
                   0
                   0
                   0
                   0
                   0
                   0
                   0
                   0
                   0
                   0
                   0
                   0
                   0
                   0
                   0
                   0
                   0
                   0
                   0
                   0
                   0
                   0
                   0
                   0
                   0
                   0
                   0
                   0
                   0
                   0
                   0
                   0
                   0
                   0
                   0
                   0
                   0
                   0
                   0
                   0
                   0
                   0
                   0
                   0
                   0
                   0
                   0
                   0
                   0
                   0
                   0
                   0
                   0
                   0
                   0
                   0
                   0
                   0
                   0
                   0
                   0
                   0
                   0
                   0
                   0
                   0
                   0
                   0
                   0
                   0
                   0
                   0
                   0
                   0
                   0
                   0
                   0
                   0
                   0
                   0
                   0
                   0
                   0
                   0
                   0
                   0
                   0
                   0
                   0
                   0
                   0
                   0
                   0
                   0
                   0
                   0
                   0
                   0
                   0
                   0
                   0
                   0
                   0
                   0
                   0
                   0
                   0
                   0
                   0
                   0
                   0
                   0
                   0
                   0
                   0
                   0
                   0
                   0
                   0
                   0
                   0
                   0
                   0
                   0
                   0
                   0
                   0
                   0
                   0
                   0
                   0
                   0
                   0
                   0
                   0
                   0
                   0
                   0
                   0
                   0
                   0
                   0
                   0
                   0
                   0
                   0
                   0
                   0
                   0
                   0
                   0
                   0
                   0
                   0
                   0
                   0
                   0
                   0
                   0
                   0
                   0
                   0
                   0
                   0
                   0
                   0
                   0
                   0
                   0
                   0
                   0
                   0
                   0
                   0
                   0
                   0
                   0
                   0
                   0
                   0
                   0
                   0
                   0
                   0
                   0
                   0
                   0
                   0
                   0
                   0
                   0
                   0
                   0
                   0
                   0
                   0
                   0
                   0
                   0
                   0
                   0
                   0
                   0
                   0
                   0
                   0
                   0
                   0
                   0
                   0
                   0
                   0
                   0
                   0
                   0
                   0
                   0
                   0
                   0
                   0
                   0
                   0
                   0
                   0
                   0
                   0
                   0
                   0
                   0
                   0
                   0
                   0
                   0
                   0
                   0
                   0
                   0
                   0
                   0
                   0
                   0
                   0
                   0
                   0
                   0
                   0
                   0
                   0
                   0
                   0
                   0
                   0
                   0
                   0
                   0
                   0
                   0
                   0
                   0
                   0
                   0
                   0
                   0
                   0
                   0
                   0
                   0
                   0
                   0
                   0
                   0
                   0
                   0
                   0
                   0
                   0
                   0
                   0
                   0
                   0
                   0
                   0
                   0
                   0
                   0
                   0
                   0
                   0
                   0
                   0
                   0
                   0
                   0
                   0
                   0
                   0
                   0
                   0
                   0
                   0
                   0
                   0
                   0
                   0
                   0
                   0
                   0
                   0
                   0
                   0
                   0
                   0
                   0
                   0
                   0
                   0
                   0
                   0
                   0
                   0
                   0
                   0
                   0
                   0
                   0
                   0
                   0
                   0
                   0
                   0
                   0
                   0
                   0
                   0
                   0
                   0
                   0
                   0
                   0
                   0
                   0
                   0
                   0
                   0
                   0
                   0
                   0
                   0
                   0
                   0
                   0
                   0
                   0
                   0
                   0
                   0
                   0
                   0
                   0
                   0
                   0
                   0
                   0
                   0
                   0
                   0
                   0
                   0
                   0
                   0
                   0
                   0
                   0
                   0
                   0
                   0
                   0
                   0
                   0
                   0
                   0
                   0
                   0
                   0
                   0
                   0
                   0
                   0
                   0
                   0
                   0
                   0
                   0
                   0
                   0
                   0
                   0
                   0
                   0
                   0
                   0
                   0
                   0
                   0
                   0
                   0
                   0
                   0
                   0
                   0
                   0
                   0
                   0
                   0
                   0
                   0
                   0
                   0
                   0
                   0
                   0
                   0
                   0
                   0
                   0
                   0
                   0
                   0
                   0
                   0
                   0
                   0
                   0
                   0
                   0
                   0
                   0
                   0
                   0
                   0
                   0
                   0
                   0
                   0
                   0
                   0
                   0
                   0
                   0
                   0
                   0
                   0
                   0
                   0
                   0
                   0
                   0
                   0
                   0
                   0
                   0
                   0
                   0
                   0
                   0
                   0
                   0
                   0
                   0
                   0
                   0
                   0
                   0
                   0
                   0
                   0
                   0
                   0
                   0
                   0
                   0
                   0
                   0
                   0
                   0
                   0
                   0
                   0
                   0
                   0
                   0
                   0
                   0
                   0
                   0
                   0
                   0
                   0
                   0
                   0
                   0
                   0
                   0
                   0
                   0
                   0
                   0
                   0
                   0
                   0
                   0
                   0
                   0
                   0
                   0
                   0
                   0
                   0
                   0
                   0
                   0
                   0
                   0
                   0
                   0
                   0
                   0
                   0
                   0
                   0
                   0
                   0
                   0
                   0
                   0
                   0
                   0
                   0
                   0
                   0
                   0
                   0
                   0
                   0
                   0
                   0
                   0
                   0
                   0
                   0
                   0
                   0
                   0
                   0
                   0
                   0
                   0
                   0
                   0
                   0
                   0
                   0
                   0
                   0
                   0
                   0
                   0
                   0
                   0
                   0
                   0
                   0
                   0
                   0
                   0
                   0
                   0
                   0
                   0
                   0
                   0
                   0
                   0
                   0
                   0
                   0
                   0
                   0
                   0
                   0
                   0
                   0
                   0
                   0
                   0
                   0
                   0
                   0
                   0
                   0
                   0
                   0
                   0
                   0
                   0
                   0
                   0
                   0
                   0
                   0
                   0
                   0
                   0
                   0
                   0
                   0
                   0
                   0
                   0
                   0
                   0
                   0
                   0
                   0
                   0
                   0
                   0
                   0
                   0
                   0
                   0
                   0
                   0
                   0
                   0
                   0
                   0
                   0
                   0
                   0
                   0
                   0
                   0
                   0
                   0
                   0
                   0
                   0
                   0
                   0
                   0
                   0
                   0
                   0
                   0
                   0
                   0
                   0
                   0
                   0
                   0
                   0
                   0
                   0
                   0
                   0
                   0
                   0
                   0
                   0
                   0
                   0
                   0
                   0
                   0
                   0
                   0
                   0
                   0
                   0
                   0
                   0
                   0
                   0
                   0
                   0
                   0
                   0
                   0
                   0
                   0
                   0
                   0
                   0
                   0
                   0
                   0
                   0
                   0
                   0
                   0
                   0
                   0
                   0
                   0
                   0
                   0
                   0
                   0
                   0
                   0
                   0
                   0
                   0
                   0
                   0
                   0
                   0
                   0
                   0
                   0
                   0
                   0
                   0
                   0
                   0
                   0
                   0
                   0
                   0
                   0
                   0
                   0
                   0
                   0
                   0
                   0
                   0
                   0
                   0
                   0
                   0
                   0
                   0
                   0
                   0
                   0
                   0
                   0
                   0
                   0
                   0
                   0
                   0
                   0
                   0
                   0
                   0
                   0
                   0
                   0
                   0
                   0
                   0
                   0
                   0
                   0
                   0
                   0
                   0
                   0
                   0
                   0
                   0
                   0
                   0
                   0
                   0
                   0
                   0
                   0
                   0
                   0
                   0
                   0
                   0
                   0
                   0
                   0
                   0
                   0
                   0
                   0
                   0
                   0
                   0
                   0
                   0
                   0
                   0
                   0
                   0
                   0
                   0
                   0
                   0
                   0
                   0
                   0
                   0
                   0
                   0
                   0
                   0
                   0
                   0
                   0
                   0
                   0
                   0
                   0
                   0
                   0
                   0
                   0
                   0
                   0
                   0
                   0
                   0
                   0
                   0
                   0
                   0
                   0
                   0
                   0
                   0
                   0
                   0
                   0
                   0
                   0
                   0
                   0
                   0
                   0
                   0
                   0
                   0
                   0
                   0
                   0
                   0
                   0
                   0
                   0
                   0
                   0
                   0
                   0
                   0
                   0
                   0
                   0
                   0
                   0
                   0
                   0
                   0
                   0
                   0
                   0
                   0
                   0
                   0
                   0
                   0
                   0
                   0
                   0
                   0
                   0
                   0
                   0
                   0
                   0
                   0
                   0
                   0
                   0
                   0
                   0
                   0
                   0
                   0
                   0
                   0
                   0
                   0
                   0
                   0
                   0
                   0
                   0
                   0
                   0
                   0
                   0
                   0
                   0
                   0
                   0
                   0
                   0
                   0
                   0
                   0
                   0
                   0
                   0
                   0
                   0
                   0
                   0
                   0
                   0
                   0
                   0
                   0
                   0
                   0
                   0
                   0
                   0
                   0
                   0
                   0
                   0
                   0
                   0
                   0
                   0
                   0
                   0
                   0
                   0
                   0
                   0
                   0
                   0
                   0
                   0
                   0
                   0
                   0
                   0
                   0
                   0
                   0
                   0
                   0
                   0
                   0
                   0
                   0
                   0
                   0
                   0
                   0
                   0
                   0
                   0
                   0
                   0
                   0
                   0
                   0
                   0
                   0
                   0
                   0
                   0
                   0
                   0
                   0
                   0
                   0
                   0
                   0
                   0
                   0
                   0
                   0
                   0
                   0
                   0
                   0
                   0
                   0
                   0
                   0
                   0
                   0
                   0
                   0
                   0
                   0
                   0
                   0
                   0
                   0
                   0
                   0
                   0
                   0
                   0
                   0
                   0
                   0
                   0
                   0
                   0
                   0
                   0
                   0
                   0
                   0
                   0
                   0
                   0
                   0
                   0
                   0
                   0
                   0
                   0
                   0
                   0
                   0
                   0
                   0
                   0
                   0
                   0
                   0
                   0
                   0
                   0
                   0
                   0
                   0
                   0
                   0
                   0
                   0
                   0
                   0
                   0
                   0
                   0
                   0
                   0
                   0
                   0
                   0
                   0
                   0
                   0
                   0
                   0
                   0
                   0
                   0
                   0
                   0
                   0
                   0
                   0
                   0
                   0
                   0
                   0
                   0
                   0
                   0
                   0
                   0
                   0
                   0
                   0
                   0
                   0
                   0
                   0
                   0
                   0
                   0
                   0
                   0
                   0
                   0
                   0
                   0
                   0
                   0
                   0
                   0
                   0
                   0
                   0
                   0
                   0
                   0
                   0
                   0
                   0
                   0
                   0
                   0
                   0
                   0
                   0
                   0
                   0
                   0
                   0
                   0
                   0
                   0
                   0
                   0
                   0
                   0
                   0
                   0
                   0
                   0
                   0
                   0
                   0
                   0
                   0
                   0
                   0
                   0
                   0
                   0
                   0
                   0
                   0
                   0
                   0
                   0
                   0
                   0
                   0
                   0
                   0
                   0
                   0
                   0
                   0
                   0
                   0
                   0
                   0
                   0
                   0
                   0
                   0
                   0
                   0
                   0
                   0
                   0
                   0
                   0
                   0
                   0
                   0
                   0
                   0
                   0
                   0
                   0
                   0
                   0
                   0
                   0
                   0
                   0
                   0
                   0
                   0
                   0
                   0
                   0
                   0
                   0
                   0
                   0
                   0
                   0
                   0
                   0
                   0
                   0
                   0
                   0
                   0
                   0
                   0
                   0
                   0
                   0
                   0
                   0
                   0
                   0
                   0
                   0
                   0
                   0
                   0
                   0
                   0
                   0
                   0
                   0
                   0
                   0
                   0
                   0
                   0
                   0
                   0
                   0
                   0
                   0
                   0
                   0
                   0
                   0
                   0
                   0
                   0
                   0
                   0
                   0
                   0
                   0
                   0
                   0
                   0
                   0
                   0
                   0
                   0
                   0
                   0
                   0
                   0
                   0
                   0
                   0
                   0
                   0
  
SCALARS                       fixity_y  double 1
LOOKUP_TABLE default
                   0
                   0
                   0
                   0
                   0
                   0
                   0
                   0
                   0
                   0
                   0
                   0
                   0
                   0
                   0
                   0
                   0
                   0
                   0
                   0
                   0
                   0
                   0
                   0
                   0
                   0
                   0
                   0
                   0
                   0
                   0
                   0
                   0
                   0
                   0
                   0
                   0
                   0
                   0
                   0
                   0
                   0
                   0
                   0
                   0
                   0
                   0
                   0
                   0
                   0
                   0
                   0
                   0
                   0
                   0
                   0
                   0
                   0
                   0
                   0
                   0
                   0
                   0
                   0
                   0
                   0
                   0
                   0
                   0
                   0
                   0
                   0
                   0
                   0
                   0
                   0
                   0
                   0
                   0
                   0
                   0
                   0
                   0
                   0
                   0
                   0
                   0
                   0
                   0
                   0
                   0
                   0
                   0
                   0
                   0
                   0
                   0
                   0
                   0
                   0
                   0
                   0
                   0
                   0
                   0
                   0
                   0
                   0
                   0
                   0
                   0
                   0
                   0
                   0
                   0
                   0
                   0
                   0
                   0
                   0
                   0
                   0
                   0
                   0
                   0
                   0
                   0
                   0
                   0
                   0
                   0
                   0
                   0
                   0
                   0
                   0
                   0
                   0
                   0
                   0
                   0
                   0
                   0
                   0
                   0
                   0
                   0
                   0
                   0
                   0
                   0
                   0
                   0
                   0
                   0
                   0
                   0
                   0
                   0
                   0
                   0
                   0
                   0
                   0
                   0
                   0
                   0
                   0
                   0
                   0
                   0
                   0
                   0
                   0
                   0
                   0
                   0
                   0
                   0
                   0
                   0
                   0
                   0
                   0
                   0
                   0
                   0
                   0
                   0
                   0
                   0
                   0
                   0
                   0
                   0
                   0
                   0
                   0
                   0
                   0
                   0
                   0
                   0
                   0
                   0
                   0
                   0
                   0
                   0
                   0
                   0
                   0
                   0
                   0
                   0
                   0
                   0
                   0
                   0
                   0
                   0
                   0
                   0
                   0
                   0
                   0
                   0
                   0
                   0
                   0
                   0
                   0
                   0
                   0
                   0
                   0
                   0
                   0
                   0
                   0
                   0
                   0
                   0
                   0
                   0
                   0
                   0
                   0
                   0
                   0
                   0
                   0
                   0
                   0
                   0
                   0
                   0
                   0
                   0
                   0
                   0
                   0
                   0
                   0
                   0
                   0
                   0
                   0
                   0
                   0
                   0
                   0
                   0
                   0
                   0
                   0
                   0
                   0
                   0
                   0
                   0
                   0
                   0
                   0
                   0
                   0
                   0
                   0
                   0
                   0
                   0
                   0
                   0
                   0
                   0
                   0
                   0
                   0
                   0
                   0
                   0
                   0
                   0
                   0
                   0
                   0
                   0
                   0
                   0
                   0
                   0
                   0
                   0
                   0
                   0
                   0
                   0
                   0
                   0
                   0
                   0
                   0
                   0
                   0
                   0
                   0
                   0
                   0
                   0
                   0
                   0
                   0
                   0
                   0
                   0
                   0
                   0
                   0
                   0
                   0
                   0
                   0
                   0
                   0
                   0
                   0
                   0
                   0
                   0
                   0
                   0
                   0
                   0
                   0
                   0
                   0
                   0
                   0
                   0
                   0
                   0
                   0
                   0
                   0
                   0
                   0
                   0
                   0
                   0
                   0
                   0
                   0
                   0
                   0
                   0
                   0
                   0
                   0
                   0
                   0
                   0
                   0
                   0
                   0
                   0
                   0
                   0
                   0
                   0
                   0
                   0
                   0
                   0
                   0
                   0
                   0
                   0
                   0
                   0
                   0
                   0
                   0
                   0
                   0
                   0
                   0
                   0
                   0
                   0
                   0
                   0
                   0
                   0
                   0
                   0
                   0
                   0
                   0
                   0
                   0
                   0
                   0
                   0
                   0
                   0
                   0
                   0
                   0
                   0
                   0
                   0
                   0
                   0
                   0
                   0
                   0
                   0
                   0
                   0
                   0
                   0
                   0
                   0
                   0
                   0
                   0
                   0
                   0
                   0
                   0
                   0
                   0
                   0
                   0
                   0
                   0
                   0
                   0
                   0
                   0
                   0
                   0
                   0
                   0
                   0
                   0
                   0
                   0
                   0
                   0
                   0
                   0
                   0
                   0
                   0
                   0
                   0
                   0
                   0
                   0
                   0
                   0
                   0
                   0
                   0
                   0
                   0
                   0
                   0
                   0
                   0
                   0
                   0
                   0
                   0
                   0
                   0
                   0
                   0
                   0
                   0
                   0
                   0
                   0
                   0
                   0
                   0
                   0
                   0
                   0
                   0
                   0
                   0
                   0
                   0
                   0
                   0
                   0
                   0
                   0
                   0
                   0
                   0
                   0
                   0
                   0
                   0
                   0
                   0
                   0
                   0
                   0
                   0
                   0
                   0
                   0
                   0
                   0
                   0
                   0
                   0
                   0
                   0
                   0
                   0
                   0
                   0
                   0
                   0
                   0
                   0
                   0
                   0
                   0
                   0
                   0
                   0
                   0
                   0
                   0
                   0
                   0
                   0
                   0
                   0
                   0
                   0
                   0
                   0
                   0
                   0
                   0
                   0
                   0
                   0
                   0
                   0
                   0
                   0
                   0
                   0
                   0
                   0
                   0
                   0
                   0
                   0
                   0
                   0
                   0
                   0
                   0
                   0
                   0
                   0
                   0
                   0
                   0
                   0
                   0
                   0
                   0
                   0
                   0
                   0
                   0
                   0
                   0
                   0
                   0
                   0
                   0
                   0
                   0
                   0
                   0
                   0
                   0
                   0
                   0
                   0
                   0
                   0
                   0
                   0
                   0
                   0
                   0
                   0
                   0
                   0
                   0
                   0
                   0
                   0
                   0
                   0
                   0
                   0
                   0
                   0
                   0
                   0
                   0
                   0
                   0
                   0
                   0
                   0
                   0
                   0
                   0
                   0
                   0
                   0
                   0
                   0
                   0
                   0
                   0
                   0
                   0
                   0
                   0
                   0
                   0
                   0
                   0
                   0
                   0
                   0
                   0
                   0
                   0
                   0
                   0
                   0
                   0
                   0
                   0
                   0
                   0
                   0
                   0
                   0
                   0
                   0
                   0
                   0
                   0
                   0
                   0
                   0
                   0
                   0
                   0
                   0
                   0
                   0
                   0
                   0
                   0
                   0
                   0
                   0
                   0
                   0
                   0
                   0
                   0
                   0
                   0
                   0
                   0
                   0
                   0
                   0
                   0
                   0
                   0
                   0
                   0
                   0
                   0
                   0
                   0
                   0
                   0
                   0
                   0
                   0
                   0
                   0
                   0
                   0
                   0
                   0
                   0
                   0
                   0
                   0
                   0
                   0
                   0
                   0
                   0
                   0
                   0
                   0
                   0
                   0
                   0
                   0
                   0
                   0
                   0
                   0
                   0
                   0
                   0
                   0
                   0
                   0
                   0
                   0
                   0
                   0
                   0
                   0
                   0
                   0
                   0
                   0
                   0
                   0
                   0
                   0
                   0
                   0
                   0
                   0
                   0
                   0
                   0
                   0
                   0
                   0
                   0
                   0
                   0
                   0
                   0
                   0
                   0
                   0
                   0
                   0
                   0
                   0
                   0
                   0
                   0
                   0
                   0
                   0
                   0
                   0
                   0
                   0
                   0
                   0
                   0
                   0
                   0
                   0
                   0
                   0
                   0
                   0
                   0
                   0
                   0
                   0
                   0
                   0
                   0
                   0
                   0
                   0
                   0
                   0
                   0
                   0
                   0
                   0
                   0
                   0
                   0
                   0
                   0
                   0
                   0
                   0
                   0
                   0
                   0
                   0
                   0
                   0
                   0
                   0
                   0
                   0
                   0
                   0
                   0
                   0
                   0
                   0
                   0
                   0
                   0
                   0
                   0
                   0
                   0
                   0
                   0
                   0
                   0
                   0
                   0
                   0
                   0
                   0
                   0
                   0
                   0
                   0
                   0
                   0
                   0
                   0
                   0
                   0
                   0
                   0
                   0
                   0
                   0
                   0
                   0
                   0
                   0
                   0
                   0
                   0
                   0
                   0
                   0
                   0
                   0
                   0
                   0
                   0
                   0
                   0
                   0
                   0
                   0
                   0
                   0
                   0
                   0
                   0
                   0
                   0
                   0
                   0
                   0
                   0
                   0
                   0
                   0
                   0
                   0
                   0
                   0
                   0
                   0
                   0
                   0
                   0
                   0
                   0
                   0
                   0
                   0
                   0
                   0
                   0
                   0
                   0
                   0
                   0
                   0
                   0
                   0
                   0
                   0
                   0
                   0
                   0
                   0
                   0
                   0
                   0
                   0
                   0
                   0
                   0
                   0
                   0
                   0
                   0
                   0
                   0
                   0
                   0
                   0
                   0
                   0
                   0
                   0
                   0
                   0
                   0
                   0
                   0
                   0
                   0
                   0
                   0
                   0
                   0
                   0
                   0
                   0
                   0
                   0
                   0
                   0
                   0
                   0
                   0
                   0
                   0
                   0
                   0
                   0
                   0
                   0
                   0
                   0
                   0
                   0
                   0
                   0
                   0
                   0
                   0
                   0
                   0
                   0
                   0
                   0
                   0
                   0
                   0
                   0
                   0
                   0
                   0
                   0
                   0
                   0
                   0
                   0
                   0
                   0
                   0
                   0
                   0
                   0
                   0
                   0
                   0
                   0
                   0
                   0
                   0
                   0
                   0
                   0
                   0
                   0
                   0
                   0
                   0
                   0
                   0
                   0
                   0
                   0
                   0
                   0
                   0
                   0
                   0
                   0
                   0
                   0
                   0
                   0
                   0
                   0
                   0
                   0
                   0
                   0
                   0
                   0
                   0
                   0
                   0
                   0
                   0
                   0
                   0
                   0
                   0
                   0
                   0
                   0
                   0
                   0
                   0
                   0
                   0
                   0
                   0
                   0
                   0
                   0
                   0
                   0
                   0
                   0
                   0
                   0
                   0
                   0
                   0
                   0
                   0
                   0
                   0
                   0
                   0
                   0
                   0
                   0
                   0
                   0
                   0
                   0
                   0
                   0
                   0
                   0
                   0
                   0
                   0
                   0
                   0
                   0
                   0
                   0
                   0
                   0
                   0
                   0
                   0
                   0
                   0
                   0
                   0
                   0
                   0
                   0
                   0
                   0
                   0
                   0
                   0
                   0
                   0
                   0
                   0
                   0
                   0
                   0
                   0
                   0
                   0
                   0
                   0
                   0
                   0
                   0
                   0
                   0
                   0
                   0
                   0
                   0
                   0
                   0
                   0
                   0
                   0
                   0
                   0
                   0
                   0
                   0
                   0
                   0
                   0
                   0
                   0
                   0
                   0
                   0
                   0
                   0
                   0
                   0
                   0
                   0
                   0
                   0
                   0
                   0
                   0
                   0
                   0
                   0
                   0
                   0
                   0
                   0
                   0
                   0
                   0
                   0
                   0
                   0
                   0
                   0
                   0
                   0
                   0
                   0
                   0
                   0
                   0
                   0
                   0
                   0
                   0
                   0
                   0
                   0
                   0
                   0
                   0
                   0
                   0
                   0
                   0
                   0
                   0
                   0
                   0
                   0
                   0
                   0
                   0
                   0
                   0
                   0
                   0
                   0
                   0
                   0
                   0
                   0
                   0
                   0
                   0
                   0
                   0
                   0
                   0
                   0
                   0
                   0
                   0
                   0
                   0
                   0
                   0
                   0
                   0
                   0
                   0
                   0
                   0
                   0
                   0
                   0
                   0
                   0
                   0
                   0
                   0
                   0
                   0
                   0
                   0
                   0
                   0
                   0
                   0
                   0
                   0
                   0
                   0
                   0
                   0
                   0
                   0
                   0
                   0
                   0
                   0
                   0
                   0
                   0
                   0
                   0
                   0
                   0
                   0
                   0
                   0
                   0
                   0
                   0
                   0
                   0
                   0
                   0
                   0
                   0
                   0
                   0
                   0
                   0
                   0
                   0
                   0
                   0
                   0
                   0
                   0
                   0
                   0
                   0
                   0
                   0
                   0
                   0
                   0
                   0
                   0
                   0
                   0
                   0
                   0
                   0
                   0
                   0
                   0
                   0
                   0
                   0
                   0
                   0
                   0
                   0
                   0
                   0
                   0
                   0
                   0
                   0
                   0
                   0
                   0
                   0
                   0
                   0
                   0
                   0
                   0
                   0
                   0
                   0
                   0
                   0
                   0
                   0
                   0
                   0
                   0
                   0
                   0
                   0
                   0
                   0
                   0
                   0
                   0
                   0
                   0
                   0
                   0
                   0
                   0
                   0
                   0
                   0
                   0
                   0
                   0
                   0
                   0
                   0
                   0
                   0
                   0
                   0
                   0
                   0
                   0
                   0
                   0
                   0
                   0
                   0
                   0
                   0
                   0
                   0
                   0
                   0
                   0
                   0
                   0
                   0
                   0
                   0
                   0
                   0
                   0
                   0
                   0
                   0
                   0
                   0
                   0
                   0
                   0
                   0
                   0
                   0
                   0
                   0
                   0
                   0
                   0
                   0
                   0
                   0
                   0
                   0
                   0
                   0
                   0
                   0
                   0
                   0
                   0
                   0
                   0
                   0
                   0
                   0
                   0
                   0
                   0
                   0
                   0
                   0
                   0
                   0
                   0
                   0
                   0
                   0
                   0
                   0
                   0
                   0
                   0
                   0
                   0
                   0
                   0
                   0
                   0
                   0
                   0
                   0
                   0
                   0
                   0
                   0
                   0
                   0
                   0
                   0
                   0
                   0
                   0
                   0
                   0
                   0
                   0
                   0
                   0
                   0
                   0
                   0
                   0
                   0
                   0
                   0
                   0
                   0
                   0
                   0
                   0
                   0
                   0
                   0
                   0
                   0
                   0
                   0
                   0
                   0
                   0
                   0
                   0
                   0
                   0
                   0
                   0
                   0
                   0
                   0
                   0
                   0
                   0
                   0
                   0
                   0
                   0
                   0
                   0
                   0
                   0
                   0
                   0
                   0
                   0
                   0
                   0
                   0
                   0
                   0
                   0
                   0
                   0
                   0
                   0
                   0
                   0
                   0
                   0
                   0
                   0
                   0
                   0
                   0
                   0
                   0
                   0
                   0
                   0
                   0
                   0
                   0
                   0
                   0
                   0
                   0
                   0
                   0
                   0
                   0
                   0
                   0
                   0
                   0
                   0
                   0
                   0
                   0
                   0
                   0
                   0
                   0
                   0
                   0
                   0
                   0
                   0
                   0
                   0
                   0
                   0
                   0
                   0
                   0
                   0
                   0
                   0
                   0
                   0
                   0
                   0
                   0
                   0
                   0
                   0
                   0
                   0
                   0
                   0
                   0
                   0
                   0
                   0
                   0
                   0
                   0
                   0
                   0
                   0
                   0
                   0
                   0
                   0
                   0
                   0
                   0
                   0
                   0
                   0
                   0
                   0
                   0
                   0
                   0
                   0
                   0
                   0
                   0
                   0
                   0
                   0
                   0
                   0
                   0
                   0
                   0
                   0
                   0
                   0
                   0
                   0
                   0
                   0
                   0
                   0
                   0
                   0
                   0
                   0
                   0
                   0
                   0
                   0
                   0
                   0
                   0
                   0
                   0
                   0
                   0
                   0
                   0
                   0
                   0
                   0
                   0
                   0
                   0
                   0
                   0
                   0
                   0
                   0
                   0
                   0
                   0
                   0
                   0
                   0
                   0
                   0
                   0
                   0
                   0
                   0
                   0
                   0
                   0
                   0
                   0
                   0
                   0
                   0
                   0
                   0
                   0
                   0
                   0
                   0
                   0
                   0
                   0
                   0
                   0
                   0
                   0
                   0
                   0
                   0
                   0
                   0
                   0
                   0
                   0
                   0
                   0
                   0
                   0
                   0
                   0
                   0
                   0
                   0
                   0
                   0
                   0
                   0
                   0
                   0
                   0
                   0
                   0
                   0
                   0
                   0
                   0
                   0
                   0
                   0
                   0
                   0
                   0
                   0
                   0
                   0
                   0
                   0
                   0
                   0
                   0
                   0
                   0
                   0
                   0
                   0
                   0
                   0
                   0
                   0
                   0
                   0
                   0
                   0
                   0
                   0
                   0
                   0
                   0
                   0
                   0
                   0
                   0
                   0
                   0
                   0
                   0
                   0
                   0
                   0
                   0
                   0
                   0
                   0
                   0
                   0
                   0
                   0
                   0
                   0
                   0
                   0
                   0
                   0
                   0
                   0
                   0
                   0
                   0
                   0
                   0
                   0
                   0
                   0
                   0
                   0
                   0
                   0
                   0
                   0
                   0
                   0
                   0
                   0
                   0
                   0
                   0
                   0
                   0
                   0
                   0
                   0
                   0
                   0
                   0
                   0
                   0
                   0
                   0
                   0
                   0
                   0
                   0
                   0
                   0
                   0
                   0
                   0
                   0
                   0
                   0
                   0
                   0
                   0
                   0
                   0
                   0
                   0
                   0
                   0
                   0
                   0
                   0
                   0
                   0
                   0
                   0
                   0
                   0
                   0
                   0
                   0
                   0
                   0
                   0
                   0
                   0
                   0
                   0
                   0
                   0
                   0
                   0
                   0
                   0
                   0
                   0
                   0
                   0
                   0
                   0
                   0
                   0
                   0
                   0
                   0
                   0
                   0
                   0
                   0
                   0
                   0
                   0
                   0
                   0
                   0
                   0
                   0
                   0
                   0
                   0
                   0
                   0
                   0
                   0
                   0
                   0
                   0
                   0
                   0
                   0
                   0
                   0
                   0
                   0
                   0
                   0
                   0
                   0
                   0
                   0
                   0
                   0
                   0
                   0
                   0
                   0
  
SCALARS                       fixity_z  double 1
LOOKUP_TABLE default
                   0
                   0
                   0
                   0
                   1
                   1
                   1
                   1
                   0
                   0
                   1
                   1
                   0
                   0
                   1
                   1
                   0
                   0
                   1
                   1
                   0
                   0
                   0
                   1
                   1
                   1
                   0
                   0
                   1
                   1
                   0
                   0
                   0
                   1
                   1
                   1
                   0
                   0
                   1
                   1
                   0
                   0
                   1
                   1
                   0
                   0
                   1
                   1
                   0
                   1
                   0
                   1
                   0
                   1
                   0
                   1
                   0
                   0
                   1
                   1
                   0
                   0
                   1
                   1
                   0
                   1
                   0
                   1
                   0
                   0
                   1
                   1
                   0
                   1
                   0
                   1
                   0
                   1
                   0
                   1
                   0
                   0
                   1
                   1
                   0
                   1
                   0
                   1
                   0
                   1
                   0
                   0
                   1
                   1
                   0
                   1
                   0
                   1
                   0
                   1
                   0
                   0
                   1
                   1
                   0
                   0
                   1
                   1
                   0
                   1
                   0
                   1
                   0
                   1
                   0
                   1
                   0
                   1
                   0
                   1
                   0
                   1
                   0
                   1
                   0
                   1
                   0
                   1
                   0
                   1
                   0
                   1
                   0
                   1
                   0
                   1
                   0
                   1
                   0
                   1
                   0
                   1
                   0
                   1
                   0
                   1
                   0
                   1
                   0
                   1
                   0
                   1
                   0
                   1
                   0
                   1
                   0
                   0
                   0
                   0
                   0
                   0
                   0
                   0
                   0
                   0
                   0
                   0
                   0
                   0
                   0
                   0
                   0
                   0
                   0
                   0
                   0
                   0
                   0
                   0
                   0
                   0
                   0
                   0
                   0
                   0
                   0
                   0
                   0
                   0
                   0
                   0
                   0
                   0
                   0
                   0
                   0
                   0
                   0
                   0
                   0
                   0
                   0
                   0
                   0
                   0
                   0
                   0
                   0
                   0
                   0
                   0
                   0
                   0
                   0
                   0
                   0
                   0
                   0
                   0
                   0
                   0
                   0
                   0
                   0
                   0
                   0
                   0
                   0
                   0
                   0
                   0
                   0
                   0
                   0
                   0
                   0
                   0
                   0
                   0
                   0
                   0
                   0
                   0
                   0
                   0
                   0
                   0
                   0
                   0
                   0
                   0
                   0
                   0
                   0
                   0
                   0
                   0
                   0
                   0
                   0
                   0
                   0
                   0
                   0
                   0
                   0
                   0
                   0
                   0
                   0
                   0
                   0
                   0
                   0
                   0
                   0
                   0
                   0
                   0
                   0
                   0
                   0
                   0
                   0
                   0
                   0
                   0
                   0
                   0
                   0
                   0
                   0
                   0
                   0
                   0
                   0
                   0
                   0
                   0
                   0
                   0
                   0
                   0
                   0
                   0
                   0
                   0
                   0
                   0
                   0
                   0
                   0
                   0
                   0
                   0
                   0
                   0
                   0
                   0
                   0
                   0
                   0
                   0
                   0
                   0
                   0
                   0
                   0
                   0
                   0
                   0
                   0
                   0
                   0
                   0
                   0
                   0
                   0
                   0
                   0
                   0
                   0
                   0
                   0
                   0
                   0
                   0
                   0
                   0
                   0
                   0
                   0
                   0
                   0
                   0
                   0
                   0
                   0
                   0
                   0
                   0
                   0
                   0
                   0
                   0
                   0
                   0
                   0
                   0
                   0
                   0
                   0
                   0
                   0
                   0
                   0
                   0
                   0
                   0
                   0
                   0
                   0
                   0
                   0
                   0
                   0
                   0
                   0
                   0
                   0
                   0
                   0
                   0
                   0
                   0
                   0
                   0
                   0
                   0
                   0
                   0
                   0
                   0
                   0
                   0
                   0
                   0
                   0
                   0
                   0
                   0
                   0
                   0
                   0
                   0
                   0
                   0
                   0
                   0
                   0
                   0
                   0
                   0
                   0
                   0
                   0
                   0
                   0
                   0
                   0
                   0
                   0
                   0
                   0
                   0
                   0
                   0
                   0
                   0
                   0
                   0
                   0
                   0
                   0
                   0
                   0
                   0
                   0
                   0
                   0
                   0
                   0
                   0
                   0
                   0
                   0
                   0
                   0
                   0
                   0
                   0
                   0
                   0
                   0
                   0
                   0
                   0
                   0
                   0
                   0
                   0
                   0
                   0
                   0
                   0
                   0
                   0
                   0
                   0
                   0
                   0
                   0
                   0
                   0
                   0
                   0
                   0
                   0
                   0
                   0
                   0
                   0
                   0
                   0
                   0
                   0
                   0
                   0
                   0
                   0
                   0
                   0
                   0
                   0
                   0
                   0
                   0
                   0
                   0
                   0
                   0
                   0
                   0
                   0
                   0
                   0
                   0
                   0
                   0
                   0
                   0
                   0
                   0
                   0
                   0
                   0
                   0
                   0
                   0
                   0
                   0
                   0
                   0
                   0
                   0
                   0
                   0
                   0
                   0
                   0
                   0
                   0
                   0
                   0
                   0
                   0
                   0
                   0
                   0
                   0
                   0
                   0
                   0
                   0
                   0
                   0
                   0
                   0
                   0
                   0
                   0
                   0
                   0
                   0
                   0
                   0
                   0
                   0
                   0
                   0
                   0
                   0
                   0
                   0
                   0
                   0
                   0
                   0
                   0
                   0
                   0
                   0
                   0
                   0
                   0
                   0
                   0
                   0
                   0
                   0
                   0
                   0
                   0
                   0
                   0
                   0
                   0
                   0
                   0
                   0
                   0
                   0
                   0
                   0
                   0
                   0
                   0
                   0
                   0
                   0
                   0
                   0
                   0
                   0
                   0
                   0
                   0
                   0
                   0
                   0
                   0
                   0
                   0
                   0
                   0
                   0
                   0
                   0
                   0
                   0
                   0
                   0
                   0
                   0
                   0
                   0
                   0
                   0
                   0
                   0
                   0
                   0
                   0
                   0
                   0
                   0
                   0
                   0
                   0
                   0
                   0
                   0
                   0
                   0
                   0
                   0
                   0
                   0
                   0
                   0
                   0
                   0
                   0
                   0
                   0
                   0
                   0
                   0
                   0
                   0
                   0
                   0
                   0
                   0
                   0
                   0
                   0
                   0
                   0
                   0
                   0
                   0
                   0
                   0
                   0
                   0
                   0
                   0
                   0
                   0
                   0
                   0
                   0
                   0
                   0
                   0
                   0
                   0
                   0
                   0
                   0
                   0
                   0
                   0
                   0
                   0
                   0
                   0
                   0
                   0
                   0
                   0
                   0
                   0
                   0
                   0
                   0
                   0
                   0
                   0
                   0
                   0
                   0
                   0
                   0
                   0
                   0
                   0
                   0
                   0
                   0
                   0
                   0
                   0
                   0
                   0
                   0
                   0
                   0
                   0
                   0
                   0
                   0
                   0
                   0
                   0
                   0
                   0
                   0
                   0
                   0
                   0
                   0
                   0
                   0
                   0
                   0
                   0
                   0
                   0
                   0
                   0
                   0
                   0
                   0
                   0
                   0
                   0
                   0
                   0
                   0
                   0
                   0
                   0
                   0
                   0
                   0
                   0
                   0
                   0
                   0
                   0
                   0
                   0
                   0
                   0
                   0
                   0
                   0
                   0
                   0
                   0
                   0
                   0
                   0
                   0
                   0
                   0
                   0
                   0
                   0
                   0
                   0
                   0
                   0
                   0
                   0
                   0
                   0
                   0
                   0
                   0
                   0
                   0
                   0
                   0
                   0
                   0
                   0
                   0
                   0
                   0
                   0
                   0
                   0
                   0
                   0
                   0
                   0
                   0
                   0
                   0
                   0
                   0
                   0
                   0
                   0
                   0
                   0
                   0
                   0
                   0
                   0
                   0
                   0
                   0
                   0
                   0
                   0
                   0
                   0
                   0
                   0
                   0
                   0
                   0
                   0
                   0
                   0
                   0
                   0
                   0
                   0
                   0
                   0
                   0
                   0
                   0
                   0
                   0
                   0
                   0
                   0
                   0
                   0
                   0
                   0
                   0
                   0
                   0
                   0
                   0
                   0
                   0
                   0
                   0
                   0
                   0
                   0
                   0
                   0
                   0
                   0
                   0
                   0
                   0
                   0
                   0
                   0
                   0
                   0
                   0
                   0
                   0
                   0
                   0
                   0
                   0
                   0
                   0
                   0
                   0
                   0
                   0
                   0
                   0
                   0
                   0
                   0
                   0
                   0
                   0
                   0
                   0
                   0
                   0
                   0
                   0
                   0
                   0
                   0
                   0
                   0
                   0
                   0
                   0
                   0
                   0
                   0
                   0
                   0
                   0
                   0
                   0
                   0
                   0
                   0
                   0
                   0
                   0
                   0
                   0
                   0
                   0
                   0
                   0
                   0
                   0
                   0
                   0
                   0
                   0
                   0
                   0
                   0
                   0
                   0
                   0
                   0
                   0
                   0
                   0
                   0
                   0
                   0
                   0
                   0
                   0
                   0
                   0
                   0
                   0
                   0
                   0
                   0
                   0
                   0
                   0
                   0
                   0
                   0
                   0
                   0
                   0
                   0
                   0
                   0
                   0
                   0
                   0
                   0
                   0
                   0
                   0
                   0
                   0
                   0
                   0
                   0
                   0
                   0
                   0
                   0
                   0
                   0
                   0
                   0
                   0
                   0
                   0
                   0
                   0
                   0
                   0
                   0
                   0
                   0
                   0
                   0
                   0
                   0
                   0
                   0
                   0
                   0
                   0
                   0
                   0
                   0
                   0
                   0
                   0
                   0
                   0
                   0
                   0
                   0
                   0
                   0
                   0
                   0
                   0
                   0
                   0
                   0
                   0
                   0
                   0
                   0
                   0
                   0
                   0
                   0
                   0
                   0
                   0
                   0
                   0
                   0
                   0
                   0
                   0
                   0
                   0
                   0
                   0
                   0
                   0
                   0
                   0
                   0
                   0
                   0
                   0
                   0
                   0
                   0
                   0
                   0
                   0
                   0
                   0
                   0
                   0
                   0
                   0
                   0
                   0
                   0
                   0
                   0
                   0
                   0
                   0
                   0
                   0
                   0
                   0
                   0
                   0
                   0
                   0
                   0
                   0
                   0
                   0
                   0
                   0
                   0
                   0
                   0
                   0
                   0
                   0
                   0
                   0
                   0
                   0
                   0
                   0
                   0
                   0
                   0
                   0
                   0
                   0
                   0
                   0
                   0
                   0
                   0
                   0
                   0
                   0
                   0
                   0
                   0
                   0
                   0
                   0
                   0
                   0
                   0
                   0
                   0
                   0
                   0
                   0
                   0
                   0
                   0
                   0
                   0
                   0
                   0
                   0
                   0
                   0
                   0
                   0
                   0
                   0
                   0
                   0
                   0
                   0
                   0
                   0
                   0
                   0
                   0
                   0
                   0
                   0
                   0
                   0
                   0
                   0
                   0
                   0
                   0
                   0
                   0
                   0
                   0
                   0
                   0
                   0
                   0
                   0
                   0
                   0
                   0
                   0
                   0
                   0
                   0
                   0
                   0
                   0
                   0
                   0
                   0
                   0
                   0
                   0
                   0
                   0
                   0
                   0
                   0
                   0
                   0
                   0
                   0
                   0
                   0
                   0
                   0
                   0
                   0
                   0
                   0
                   0
                   0
                   0
                   0
                   0
                   0
                   0
                   0
                   0
                   0
                   0
                   0
                   0
                   0
                   0
                   0
                   0
                   0
                   0
                   0
                   0
                   0
                   0
                   0
                   0
                   0
                   0
                   0
                   0
                   0
                   0
                   0
                   0
                   0
                   0
                   0
                   0
                   0
                   0
                   0
                   0
                   0
                   0
                   0
                   0
                   0
                   0
                   0
                   0
                   0
                   0
                   0
                   0
                   0
                   0
                   0
                   0
                   0
                   0
                   0
                   0
                   0
                   0
                   0
                   0
                   0
                   0
                   0
                   0
                   0
                   0
                   0
                   0
                   0
                   0
                   0
                   0
                   0
                   0
                   0
                   0
                   0
                   0
                   0
                   0
                   0
                   0
                   0
                   0
                   0
                   0
                   0
                   0
                   0
                   0
                   0
                   0
                   0
                   0
                   0
                   0
                   0
                   0
                   0
                   0
                   0
                   0
                   0
                   0
                   0
                   0
                   0
                   0
                   0
                   0
                   0
                   0
                   0
                   0
                   0
                   0
                   0
                   0
                   0
                   0
                   0
                   0
                   0
                   0
                   0
                   0
                   0
                   0
                   0
                   0
                   0
                   0
                   0
                   0
                   0
                   0
                   0
                   0
                   0
                   0
                   0
                   0
                   0
                   0
                   0
                   0
                   0
                   0
                   0
                   0
                   0
                   0
                   0
                   0
                   0
                   0
                   0
                   0
                   0
                   0
                   0
                   0
                   0
                   0
                   0
                   0
                   0
                   0
                   0
                   0
                   0
                   0
                   0
                   0
                   0
                   0
                   0
                   0
                   0
                   0
                   0
                   0
                   0
                   0
                   0
                   0
                   0
                   0
                   0
                   0
                   0
                   0
                   0
                   0
                   0
                   0
                   0
                   0
                   0
                   0
                   0
                   0
                   0
                   0
                   0
                   0
                   0
                   0
                   0
                   0
                   0
                   0
                   0
                   0
                   0
                   0
                   0
                   0
                   0
                   0
                   0
                   0
                   0
                   0
                   0
                   0
                   0
                   0
                   0
                   0
                   0
                   0
                   0
                   0
                   0
                   0
                   0
                   0
                   0
                   0
                   0
                   0
                   0
                   0
                   0
                   0
                   0
                   0
                   0
                   0
                   0
                   0
                   0
                   0
                   0
                   0
                   0
                   0
                   0
                   0
                   0
                   0
                   0
                   0
                   0
                   0
                   0
                   0
                   0
                   0
                   0
                   0
                   0
                   0
                   0
                   0
                   0
                   0
                   0
                   0
                   0
                   0
                   0
                   0
                   0
                   0
                   0
                   0
                   0
                   0
                   0
                   0
                   0
                   0
                   0
                   0
                   0
                   0
                   0
                   0
                   0
                   0
                   0
                   0
                   0
                   0
                   0
                   0
                   0
                   0
                   0
                   0
                   0
                   0
                   0
                   0
                   0
                   0
                   0
                   0
                   0
                   0
                   0
                   0
                   0
                   0
                   0
                   0
                   0
                   0
                   0
                   0
                   0
                   0
                   0
                   0
                   0
                   0
                   0
                   0
                   0
                   0
                   0
                   0
                   0
                   0
                   0
                   0
                   0
                   0
                   0
                   0
                   0
                   0
                   0
                   0
                   0
                   0
                   0
                   0
                   0
                   0
                   0
                   0
                   0
                   0
                   0
                   0
                   0
                   0
                   0
                   0
                   0
                   0
                   0
                   0
                   0
                   0
                   0
                   0
                   0
                   0
                   0
                   0
                   0
                   0
                   0
                   0
                   0
                   0
                   0
                   0
                   0
                   0
                   0
                   0
                   0
                   0
                   0
                   0
                   0
                   0
                   0
                   0
                   0
                   0
                   0
                   0
                   0
                   0
                   0
                   0
                   0
                   0
                   0
                   0
                   0
                   0
                   0
                   0
                   0
                   0
                   0
                   0
                   0
                   0
                   0
                   0
                   0
                   0
                   0
                   0
                   0
                   0
                   0
                   0
                   0
                   0
                   0
                   0
                   0
                   0
                   0
                   0
                   0
                   0
                   0
                   0
                   0
                   0
                   0
                   0
                   0
                   0
                   0
                   0
                   0
                   0
                   0
                   0
                   0
                   0
                   0
                   0
                   0
                   0
                   0
                   0
                   0
                   0
                   0
                   0
                   0
                   0
                   0
                   0
                   0
                   0
                   0
                   0
                   0
                   0
                   0
                   0
                   0
                   0
                   0
                   0
                   0
                   0
                   0
                   0
                   0
                   0
                   0
                   0
                   0
                   0
                   0
                   0
                   0
                   0
                   0
                   0
                   0
                   0
                   0
                   0
                   0
                   0
                   0
                   0
                   0
                   0
                   0
                   0
                   0
                   0
                   0
                   0
                   0
                   0
                   0
                   0
                   0
                   0
                   0
                   0
                   0
                   0
                   0
                   0
                   0
                   0
                   0
                   0
                   0
                   0
                   0
                   0
                   0
                   0
                   0
                   0
                   0
                   0
                   0
                   0
                   0
                   0
                   0
                   0
                   0
                   0
                   0
                   0
                   0
                   0
                   0
                   0
                   0
                   0
                   0
                   0
                   0
                   0
                   0
                   0
                   0
                   0
                   0
                   0
                   0
                   0
                   0
                   0
                   0
                   0
                   0
                   0
                   0
                   0
                   0
                   0
                   0
                   0
                   0
                   0
                   0
                   0
                   0
                   0
                   0
                   0
                   0
                   0
                   0
                   0
                   0
                   0
                   0
                   0
                   0
                   0
                   0
                   0
                   0
                   0
                   0
                   0
                   0
                   0
                   0
                   0
                   0
                   0
                   0
                   0
                   0
                   0
                   0
                   0
                   0
                   0
                   0
                   0
                   0
                   0
                   0
                   0
                   0
                   0
                   0
                   0
                   0
                   0
                   0
                   0
                   0
                   0
                   0
                   0
                   0
                   0
                   0
                   0
                   0
                   0
                   0
                   0
                   0
                   0
                   0
                   0
                   0
                   0
                   0
                   0
                   0
                   0
                   0
                   0
                   0
                   0
                   0
                   0
                   0
                   0
                   0
                   0
                   0
                   0
                   0
                   0
                   0
                   0
                   0
                   0
                   0
                   0
                   0
                   0
                   0
                   0
                   0
                   0
                   0
                   0
                   0
                   0
                   0
                   0
                   0
                   0
                   0
                   0
                   0
                   0
                   0
                   0
                   0
                   0
                   0
                   0
                   0
                   0
                   0
                   0
                   0
                   0
                   0
  
SCALARS                         Ispace  double 1
LOOKUP_TABLE default
                  12
                  12
                  12
                  12
                  12
                  12
                  12
                  12
                  12
                  12
                  12
                  12
                  12
                  11
                  12
                  11
                  11
                  11
                  11
                  11
                  11
                  12
                  12
                  11
                  12
                  12
                  11
                  11
                  11
                  11
                  11
                  11
                  11
                  11
                  11
                  11
                  11
                  11
                  11
                  11
                  11
                  11
                  11
                  11
                  11
                  11
                  11
                  11
                  11
                  11
                  11
                  11
                  11
                  11
                  11
                  11
                  11
                  11
                  11
                  11
                  11
                  11
                  11
                  11
                  11
                  11
                  12
                  12
                  12
                  12
                  12
                  12
                  12
                  12
                  11
                  11
                  11
                  11
                  11
                  11
                  11
                  11
                  11
                  11
                  11
                  11
                  11
                  11
                  11
                  11
                  11
                  11
                  11
                  11
                  11
                  11
                  12
                  12
                  12
                  12
                  12
                  12
                  12
                  12
                  12
                  12
                  12
                  12
                  12
                  12
                  12
                  12
                  12
                  12
                  12
                  12
                  11
                  11
                  11
                  11
                  11
                  11
                  11
                  11
                  11
                  11
                  11
                  11
                  11
                  11
                  11
                  11
                  11
                  11
                  11
                  11
                  11
                  11
                  11
                  11
                  11
                  11
                  11
                  11
                  11
                  11
                  12
                  12
                  12
                  12
                  12
                  12
                  12
                  12
                  12
                  12
                  12
                  12
                  12
                  12
                  12
                  12
                  12
                  11
                  11
                  11
                  11
                  12
                  12
                  11
                  11
                  11
                  11
                  11
                  11
                  11
                  11
                  11
                  11
                  11
                  11
                  11
                  11
                  11
                  11
                  11
                  11
                  11
                  11
                  12
                  12
                  12
                  12
                  11
                  11
                  11
                  11
                  11
                  11
                  11
                  11
                  11
                  11
                  11
                  12
                  12
                  12
                  12
                  12
                  12
                  12
                  12
                  12
                  12
                  11
                  11
                  11
                  11
                  11
                  11
                  11
                  11
                  11
                  11
                  11
                  11
                  11
                  11
                  11
                  12
                  12
                  12
                  12
                  12
                  12
                  12
                  12
                  12
                  12
                  12
                  12
                  11
                  11
                  11
                  11
                  12
                  12
                  11
                  11
                  11
                  11
                  11
                  11
                  11
                  11
                  11
                  11
                  11
                  11
                  11
                  11
                  11
                  11
                  11
                  11
                  11
                  11
                  12
                  12
                  12
                  12
                  11
                  11
                  11
                  11
                  11
                  11
                  11
                  11
                  11
                  11
                  11
                  12
                  12
                  12
                  12
                  12
                  12
                  12
                  12
                  12
                  12
                  11
                  11
                  11
                  11
                  11
                  11
                  11
                  11
                  11
                  11
                  11
                  11
                  11
                  11
                  11
                  12
                  12
                  12
                  12
                  12
                  12
                  12
                  12
                  12
                  12
                  12
                  12
                  11
                  11
                  11
                  11
                  12
                  12
                  11
                  11
                  11
                  11
                  11
                  11
                  11
                  11
                  11
                  11
                  11
                  11
                  11
                  11
                  11
                  11
                  11
                  11
                  11
                  11
                  12
                  12
                  12
                  12
                  11
                  11
                  11
                  11
                  11
                  11
                  11
                  11
                  11
                  11
                  11
                  12
                  12
                  12
                  12
                  12
                  12
                  12
                  12
                  12
                  12
                  11
                  11
                  11
                  11
                  11
                  11
                  11
                  11
                  11
                  11
                  11
                  11
                  11
                  11
                  11
                  12
                  12
                  12
                  12
                  12
                  12
                  12
                  12
                  12
                  12
                  12
                  12
                  11
                  11
                  11
                  11
                  12
                  12
                  11
                  11
                  11
                  11
                  11
                  11
                  11
                  11
                  11
                  11
                  11
                  11
                  11
                  11
                  11
                  11
                  11
                  11
                  11
                  11
                  12
                  12
                  12
                  12
                  11
                  11
                  11
                  11
                  11
                  11
                  11
                  11
                  11
                  11
                  11
                  12
                  12
                  12
                  12
                  12
                  12
                  12
                  12
                  12
                  12
                  11
                  11
                  11
                  11
                  11
                  11
                  11
                  11
                  11
                  11
                  11
                  11
                  11
                  11
                  11
                  12
                  12
                  12
                  12
                  12
                  12
                  12
                  12
                  12
                  12
                  12
                  12
                  11
                  11
                  11
                  11
                  12
                  12
                  11
                  11
                  11
                  11
                  11
                  11
                  11
                  11
                  11
                  11
                  11
                  11
                  11
                  11
                  11
                  11
                  11
                  11
                  11
                  11
                  12
                  12
                  12
                  12
                  11
                  11
                  11
                  11
                  11
                  11
                  11
                  11
                  11
                  11
                  11
                  12
                  12
                  12
                  12
                  12
                  12
                  12
                  12
                  12
                  12
                  11
                  11
                  11
                  11
                  11
                  11
                  11
                  11
                  11
                  11
                  11
                  11
                  11
                  11
                  11
                  12
                  12
                  12
                  12
                  12
                  12
                  12
                  12
                  12
                  12
                  12
                  12
                  11
                  11
                  11
                  11
                  12
                  12
                  11
                  11
                  11
                  11
                  11
                  11
                  11
                  11
                  11
                  11
                  11
                  11
                  11
                  11
                  11
                  11
                  11
                  11
                  11
                  11
                  12
                  12
                  12
                  12
                  11
                  11
                  11
                  11
                  11
                  11
                  11
                  11
                  11
                  11
                  11
                  12
                  12
                  12
                  12
                  12
                  12
                  12
                  12
                  12
                  12
                  11
                  11
                  11
                  11
                  11
                  11
                  11
                  11
                  11
                  11
                  11
                  11
                  11
                  11
                  11
                  12
                  12
                  12
                  12
                  12
                  12
                  12
                  12
                  12
                  12
                  12
                  12
                  11
                  11
                  11
                  11
                  12
                  12
                  11
                  11
                  11
                  11
                  11
                  11
                  11
                  11
                  11
                  11
                  11
                  11
                  11
                  11
                  11
                  11
                  11
                  11
                  11
                  11
                  12
                  12
                  12
                  12
                  11
                  11
                  11
                  11
                  11
                  11
                  11
                  11
                  11
                  11
                  11
                  12
                  12
                  12
                  12
                  12
                  12
                  12
                  12
                  12
                  12
                  11
                  11
                  11
                  11
                  11
                  11
                  11
                  11
                  11
                  11
                  11
                  11
                  11
                  11
                  11
                  12
                  12
                  12
                  12
                  12
                  12
                  12
                  12
                  12
                  12
                  12
                  12
                  11
                  11
                  11
                  11
                  12
                  12
                  11
                  11
                  11
                  11
                  11
                  11
                  11
                  11
                  11
                  11
                  11
                  11
                  11
                  11
                  11
                  11
                  11
                  11
                  11
                  11
                  12
                  12
                  12
                  12
                  11
                  11
                  11
                  11
                  11
                  11
                  11
                  11
                  11
                  11
                  11
                  12
                  12
                  12
                  12
                  12
                  12
                  12
                  12
                  12
                  12
                  11
                  11
                  11
                  11
                  11
                  11
                  11
                  11
                  11
                  11
                  11
                  11
                  11
                  11
                  11
                  12
                  12
                  12
                  12
                  12
                  12
                  12
                  12
                  12
                  12
                  12
                  12
                  11
                  11
                  11
                  11
                  12
                  12
                  11
                  11
                  11
                  11
                  11
                  11
                  11
                  11
                  11
                  11
                  11
                  11
                  11
                  11
                  11
                  11
                  11
                  11
                  11
                  11
                  12
                  12
                  12
                  12
                  11
                  11
                  11
                  11
                  11
                  11
                  11
                  11
                  11
                  11
                  11
                  12
                  12
                  12
                  12
                  12
                  12
                  12
                  12
                  12
                  12
                  11
                  11
                  11
                  11
                  11
                  11
                  11
                  11
                  11
                  11
                  11
                  11
                  11
                  11
                  11
                  12
                  12
                  12
                  12
                  12
                  12
                  12
                  12
                  12
                  12
                  12
                  12
                  11
                  11
                  11
                  11
                  12
                  12
                  11
                  11
                  11
                  11
                  11
                  11
                  11
                  11
                  11
                  11
                  11
                  11
                  11
                  11
                  11
                  11
                  11
                  11
                  11
                  11
                  12
                  12
                  12
                  12
                  11
                  11
                  11
                  11
                  11
                  11
                  11
                  11
                  11
                  11
                  11
                  12
                  12
                  12
                  12
                  12
                  12
                  12
                  12
                  12
                  12
                  11
                  11
                  11
                  11
                  11
                  11
                  11
                  11
                  11
                  11
                  11
                  11
                  11
                  11
                  11
                  12
                  12
                  12
                  12
                  12
                  12
                  12
                  12
                  12
                  12
                  12
                  12
                  11
                  11
                  11
                  11
                  12
                  12
                  11
                  11
                  11
                  11
                  11
                  11
                  11
                  11
                  11
                  11
                  11
                  11
                  11
                  11
                  11
                  11
                  11
                  11
                  11
                  11
                  12
                  12
                  12
                  12
                  11
                  11
                  11
                  11
                  11
                  11
                  11
                  11
                  11
                  11
                  11
                  12
                  12
                  12
                  12
                  12
                  12
                  12
                  12
                  12
                  12
                  11
                  11
                  11
                  11
                  11
                  11
                  11
                  11
                  11
                  11
                  11
                  11
                  11
                  11
                  11
                  12
                  12
                  12
                  12
                  12
                  12
                  12
                  12
                  12
                  12
                  12
                  12
                  11
                  11
                  11
                  11
                  12
                  12
                  11
                  11
                  11
                  11
                  11
                  11
                  11
                  11
                  11
                  11
                  11
                  11
                  11
                  11
                  11
                  11
                  11
                  11
                  11
                  11
                  12
                  12
                  12
                  12
                  11
                  11
                  11
                  11
                  11
                  11
                  11
                  11
                  11
                  11
                  11
                  12
                  12
                  12
                  12
                  12
                  12
                  12
                  12
                  12
                  12
                  11
                  11
                  11
                  11
                  11
                  11
                  11
                  11
                  11
                  11
                  11
                  11
                  11
                  11
                  11
                  12
                  12
                  12
                  12
                  12
                  12
                  12
                  12
                  12
                  12
                  12
                  12
                  11
                  11
                  11
                  11
                  12
                  12
                  11
                  11
                  11
                  11
                  11
                  11
                  11
                  11
                  11
                  11
                  11
                  11
                  11
                  11
                  11
                  11
                  11
                  11
                  11
                  11
                  12
                  12
                  12
                  12
                  11
                  11
                  11
                  11
                  11
                  11
                  11
                  11
                  11
                  11
                  11
                  12
                  12
                  12
                  12
                  12
                  12
                  12
                  12
                  12
                  12
                  11
                  11
                  11
                  11
                  11
                  11
                  11
                  11
                  11
                  11
                  11
                  11
                  11
                  11
                  11
                  12
                  12
                  12
                  12
                  12
                  12
                  12
                  12
                  12
                  12
                  12
                  12
                  11
                  11
                  11
                  11
                  12
                  12
                  11
                  11
                  11
                  11
                  11
                  11
                  11
                  11
                  11
                  11
                  11
                  11
                  11
                  11
                  11
                  11
                  11
                  11
                  11
                  11
                  12
                  12
                  12
                  12
                  11
                  11
                  11
                  11
                  11
                  11
                  11
                  11
                  11
                  11
                  11
                  12
                  12
                  12
                  12
                  12
                  12
                  12
                  12
                  12
                  12
                  11
                  11
                  11
                  11
                  11
                  11
                  11
                  11
                  11
                  11
                  11
                  11
                  11
                  11
                  11
                  12
                  12
                  12
                  12
                  12
                  12
                  12
                  12
                  12
                  12
                  12
                  12
                  11
                  11
                  11
                  11
                  12
                  12
                  11
                  11
                  11
                  11
                  11
                  11
                  11
                  11
                  11
                  11
                  11
                  11
                  11
                  11
                  11
                  11
                  11
                  11
                  11
                  11
                  12
                  12
                  12
                  12
                  11
                  11
                  11
                  11
                  11
                  11
                  11
                  11
                  11
                  11
                  11
                  12
                  12
                  12
                  12
                  12
                  12
                  12
                  12
                  12
                  12
                  11
                  11
                  11
                  11
                  11
                  11
                  11
                  11
                  11
                  11
                  11
                  11
                  11
                  11
                  11
                  12
                  12
                  12
                  12
                  12
                  12
                  12
                  12
                  12
                  12
                  12
                  12
                  11
                  11
                  11
                  11
                  12
                  12
                  11
                  11
                  11
                  11
                  11
                  11
                  11
                  11
                  11
                  11
                  11
                  11
                  11
                  11
                  11
                  11
                  11
                  11
                  11
                  11
                  12
                  12
                  12
                  12
                  11
                  11
                  11
                  11
                  11
                  11
                  11
                  11
                  11
                  11
                  11
                  12
                  12
                  12
                  12
                  12
                  12
                  12
                  12
                  12
                  12
                  11
                  11
                  11
                  11
                  11
                  11
                  11
                  11
                  11
                  11
                  11
                  11
                  11
                  11
                  11
                  12
                  12
                  12
                  12
                  12
                  12
                  12
                  12
                  12
                  12
                  12
                  12
                  11
                  11
                  11
                  11
                  12
                  12
                  11
                  11
                  11
                  11
                  11
                  11
                  11
                  11
                  11
                  11
                  11
                  11
                  11
                  11
                  11
                  11
                  11
                  11
                  11
                  11
                  12
                  12
                  12
                  12
                  11
                  11
                  11
                  11
                  11
                  11
                  11
                  11
                  11
                  11
                  11
                  12
                  12
                  12
                  12
                  12
                  12
                  12
                  12
                  12
                  12
                  11
                  11
                  11
                  11
                  11
                  11
                  11
                  11
                  11
                  11
                  11
                  11
                  11
                  11
                  11
                  12
                  12
                  12
                  12
                  12
                  12
                  12
                  12
                  12
                  12
                  12
                  12
                  11
                  11
                  11
                  11
                  12
                  12
                  11
                  11
                  11
                  11
                  11
                  11
                  11
                  11
                  11
                  11
                  11
                  11
                  11
                  11
                  11
                  11
                  11
                  11
                  11
                  11
                  12
                  12
                  12
                  12
                  11
                  11
                  11
                  11
                  11
                  11
                  11
                  11
                  11
                  11
                  11
                  12
                  12
                  12
                  12
                  12
                  12
                  12
                  12
                  12
                  12
                  11
                  11
                  11
                  11
                  11
                  11
                  11
                  11
                  11
                  11
                  11
                  11
                  11
                  11
                  11
                  12
                  12
                  12
                  12
                  12
                  12
                  12
                  12
                  12
                  12
                  12
                  12
                  11
                  11
                  11
                  11
                  12
                  12
                  11
                  11
                  11
                  11
                  11
                  11
                  11
                  11
                  11
                  11
                  11
                  11
                  11
                  11
                  11
                  11
                  11
                  11
                  11
                  11
                  12
                  12
                  12
                  12
                  11
                  11
                  11
                  11
                  11
                  11
                  11
                  11
                  11
                  11
                  11
                  12
                  12
                  12
                  12
                  12
                  12
                  12
                  12
                  12
                  12
                  11
                  11
                  11
                  11
                  11
                  11
                  11
                  11
                  11
                  11
                  11
                  11
                  11
                  11
                  11
                  12
                  12
                  12
                  12
                  12
                  12
                  12
                  12
                  12
                  12
                  12
                  12
                  11
                  11
                  11
                  11
                  12
                  12
                  11
                  11
                  11
                  11
                  11
                  11
                  11
                  11
                  11
                  11
                  11
                  11
                  11
                  11
                  11
                  11
                  11
                  11
                  11
                  11
                  12
                  12
                  12
                  12
                  11
                  11
                  11
                  11
                  11
                  11
                  11
                  11
                  11
                  11
                  11
                  12
                  12
                  12
                  12
                  12
                  12
                  12
                  12
                  12
                  12
                  11
                  11
                  11
                  11
                  11
                  11
                  11
                  11
                  11
                  11
                  11
                  11
                  11
                  11
                  11
                  12
                  12
                  12
                  12
                  12
                  12
                  12
                  12
                  12
                  12
                  12
                  12
                  11
                  11
                  11
                  11
                  12
                  12
                  11
                  11
                  11
                  11
                  11
                  11
                  11
                  11
                  11
                  11
                  11
                  11
                  11
                  11
                  11
                  11
                  11
                  11
                  11
                  11
                  12
                  12
                  12
                  12
                  11
                  11
                  11
                  11
                  11
                  11
                  11
                  11
                  11
                  11
                  11
                  12
                  12
                  12
                  12
                  12
                  12
                  12
                  12
                  12
                  12
                  11
                  11
                  11
                  11
                  11
                  11
                  11
                  11
                  11
                  11
                  11
                  11
                  11
                  11
                  11
                  12
                  12
                  12
                  12
                  12
                  12
                  12
                  12
                  12
                  12
                  12
                  12
                  11
                  11
                  11
                  11
                  12
                  12
                  11
                  11
                  11
                  11
                  11
                  11
                  11
                  11
                  11
                  11
                  11
                  11
                  11
                  11
                  11
                  11
                  11
                  11
                  11
                  11
                  12
                  12
                  12
                  12
                  11
                  11
                  11
                  11
                  11
                  11
                  11
                  11
                  11
                  11
                  11
                  12
                  12
                  12
                  12
                  12
                  12
                  12
                  12
                  12
                  12
                  11
                  11
                  11
                  11
                  11
                  11
                  11
                  11
                  11
                  11
                  11
                  11
                  11
                  11
                  11
                  12
                  12
                  12
                  12
                  12
                  12
                  12
                  12
                  12
                  12
                  12
                  12
                  11
                  11
                  11
                  11
                  12
                  12
                  11
                  11
                  11
                  11
                  11
                  11
                  11
                  11
                  11
                  11
                  11
                  11
                  11
                  11
                  11
                  11
                  11
                  11
                  11
                  11
                  12
                  12
                  12
                  12
                  11
                  11
                  11
                  11
                  11
                  11
                  11
                  11
                  11
                  11
                  11
                  12
                  12
                  12
                  12
                  12
                  12
                  12
                  12
                  12
                  12
                  11
                  11
                  11
                  11
                  11
                  11
                  11
                  11
                  11
                  11
                  11
                  11
                  11
                  11
                  11
                  12
                  12
                  12
                  12
                  12
  
SCALARS                         Jspace  double 1
LOOKUP_TABLE default
                  11
                  12
                  11
                  11
                  11
                  12
                  11
                  11
                  11
                  11
                  11
                  11
                  12
                  12
                  12
                  12
                  11
                  12
                  11
                  12
                  12
                  12
                  12
                  12
                  12
                  12
                  12
                  12
                  12
                  12
                  11
                  11
                  11
                  11
                  11
                  11
                  11
                  11
                  11
                  11
                  11
                  11
                  11
                  11
                  11
                  11
                  11
                  11
                  11
                  11
                  11
                  11
                  12
                  12
                  12
                  12
                  12
                  11
                  12
                  11
                  11
                  11
                  11
                  11
                  11
                  11
                  11
                  11
                  11
                  12
                  11
                  12
                  12
                  12
                  12
                  12
                  12
                  12
                  12
                  12
                  12
                  12
                  12
                  12
                  11
                  11
                  11
                  11
                  11
                  11
                  11
                  11
                  11
                  11
                  11
                  11
                  11
                  11
                  11
                  11
                  11
                  11
                  11
                  11
                  11
                  11
                  11
                  11
                  12
                  12
                  12
                  12
                  12
                  12
                  12
                  12
                  12
                  12
                  12
                  12
                  12
                  12
                  12
                  12
                  12
                  12
                  12
                  12
                  11
                  11
                  11
                  11
                  11
                  11
                  11
                  11
                  11
                  11
                  11
                  11
                  11
                  11
                  11
                  11
                  11
                  11
                  11
                  11
                  11
                  11
                  11
                  11
                  11
                  11
                  11
                  11
                  11
                  12
                  11
                  11
                  11
                  11
                  12
                  12
                  11
                  12
                  12
                  12
                  12
                  12
                  12
                  11
                  11
                  11
                  11
                  11
                  11
                  11
                  11
                  11
                  11
                  11
                  12
                  12
                  12
                  11
                  11
                  11
                  11
                  11
                  11
                  12
                  12
                  12
                  12
                  12
                  12
                  12
                  11
                  11
                  11
                  11
                  11
                  11
                  11
                  11
                  11
                  11
                  11
                  11
                  12
                  12
                  12
                  12
                  12
                  12
                  12
                  12
                  12
                  12
                  11
                  11
                  11
                  11
                  11
                  11
                  11
                  11
                  11
                  11
                  11
                  11
                  11
                  11
                  11
                  12
                  11
                  11
                  11
                  11
                  12
                  12
                  11
                  12
                  12
                  12
                  12
                  12
                  12
                  11
                  11
                  11
                  11
                  11
                  11
                  11
                  11
                  11
                  11
                  11
                  12
                  12
                  12
                  11
                  11
                  11
                  11
                  11
                  11
                  12
                  12
                  12
                  12
                  12
                  12
                  12
                  11
                  11
                  11
                  11
                  11
                  11
                  11
                  11
                  11
                  11
                  11
                  11
                  12
                  12
                  12
                  12
                  12
                  12
                  12
                  12
                  12
                  12
                  11
                  11
                  11
                  11
                  11
                  11
                  11
                  11
                  11
                  11
                  11
                  11
                  11
                  11
                  11
                  12
                  11
                  11
                  11
                  11
                  12
                  12
                  11
                  12
                  12
                  12
                  12
                  12
                  12
                  11
                  11
                  11
                  11
                  11
                  11
                  11
                  11
                  11
                  11
                  11
                  12
                  12
                  12
                  11
                  11
                  11
                  11
                  11
                  11
                  12
                  12
                  12
                  12
                  12
                  12
                  12
                  11
                  11
                  11
                  11
                  11
                  11
                  11
                  11
                  11
                  11
                  11
                  11
                  12
                  12
                  12
                  12
                  12
                  12
                  12
                  12
                  12
                  12
                  11
                  11
                  11
                  11
                  11
                  11
                  11
                  11
                  11
                  11
                  11
                  11
                  11
                  11
                  11
                  12
                  11
                  11
                  11
                  11
                  12
                  12
                  11
                  12
                  12
                  12
                  12
                  12
                  12
                  11
                  11
                  11
                  11
                  11
                  11
                  11
                  11
                  11
                  11
                  11
                  12
                  12
                  12
                  11
                  11
                  11
                  11
                  11
                  11
                  12
                  12
                  12
                  12
                  12
                  12
                  12
                  11
                  11
                  11
                  11
                  11
                  11
                  11
                  11
                  11
                  11
                  11
                  11
                  12
                  12
                  12
                  12
                  12
                  12
                  12
                  12
                  12
                  12
                  11
                  11
                  11
                  11
                  11
                  11
                  11
                  11
                  11
                  11
                  11
                  11
                  11
                  11
                  11
                  12
                  11
                  11
                  11
                  11
                  12
                  12
                  11
                  12
                  12
                  12
                  12
                  12
                  12
                  11
                  11
                  11
                  11
                  11
                  11
                  11
                  11
                  11
                  11
                  11
                  12
                  12
                  12
                  11
                  11
                  11
                  11
                  11
                  11
                  12
                  12
                  12
                  12
                  12
                  12
                  12
                  11
                  11
                  11
                  11
                  11
                  11
                  11
                  11
                  11
                  11
                  11
                  11
                  12
                  12
                  12
                  12
                  12
                  12
                  12
                  12
                  12
                  12
                  11
                  11
                  11
                  11
                  11
                  11
                  11
                  11
                  11
                  11
                  11
                  11
                  11
                  11
                  11
                  12
                  11
                  11
                  11
                  11
                  12
                  12
                  11
                  12
                  12
                  12
                  12
                  12
                  12
                  11
                  11
                  11
                  11
                  11
                  11
                  11
                  11
                  11
                  11
                  11
                  12
                  12
                  12
                  11
                  11
                  11
                  11
                  11
                  11
                  12
                  12
                  12
                  12
                  12
                  12
                  12
                  11
                  11
                  11
                  11
                  11
                  11
                  11
                  11
                  11
                  11
                  11
                  11
                  12
                  12
                  12
                  12
                  12
                  12
                  12
                  12
                  12
                  12
                  11
                  11
                  11
                  11
                  11
                  11
                  11
                  11
                  11
                  11
                  11
                  11
                  11
                  11
                  11
                  12
                  11
                  11
                  11
                  11
                  12
                  12
                  11
                  12
                  12
                  12
                  12
                  12
                  12
                  11
                  11
                  11
                  11
                  11
                  11
                  11
                  11
                  11
                  11
                  11
                  12
                  12
                  12
                  11
                  11
                  11
                  11
                  11
                  11
                  12
                  12
                  12
                  12
                  12
                  12
                  12
                  11
                  11
                  11
                  11
                  11
                  11
                  11
                  11
                  11
                  11
                  11
                  11
                  12
                  12
                  12
                  12
                  12
                  12
                  12
                  12
                  12
                  12
                  11
                  11
                  11
                  11
                  11
                  11
                  11
                  11
                  11
                  11
                  11
                  11
                  11
                  11
                  11
                  12
                  11
                  11
                  11
                  11
                  12
                  12
                  11
                  12
                  12
                  12
                  12
                  12
                  12
                  11
                  11
                  11
                  11
                  11
                  11
                  11
                  11
                  11
                  11
                  11
                  12
                  12
                  12
                  11
                  11
                  11
                  11
                  11
                  11
                  12
                  12
                  12
                  12
                  12
                  12
                  12
                  11
                  11
                  11
                  11
                  11
                  11
                  11
                  11
                  11
                  11
                  11
                  11
                  12
                  12
                  12
                  12
                  12
                  12
                  12
                  12
                  12
                  12
                  11
                  11
                  11
                  11
                  11
                  11
                  11
                  11
                  11
                  11
                  11
                  11
                  11
                  11
                  11
                  12
                  11
                  11
                  11
                  11
                  12
                  12
                  11
                  12
                  12
                  12
                  12
                  12
                  12
                  11
                  11
                  11
                  11
                  11
                  11
                  11
                  11
                  11
                  11
                  11
                  12
                  12
                  12
                  11
                  11
                  11
                  11
                  11
                  11
                  12
                  12
                  12
                  12
                  12
                  12
                  12
                  11
                  11
                  11
                  11
                  11
                  11
                  11
                  11
                  11
                  11
                  11
                  11
                  12
                  12
                  12
                  12
                  12
                  12
                  12
                  12
                  12
                  12
                  11
                  11
                  11
                  11
                  11
                  11
                  11
                  11
                  11
                  11
                  11
                  11
                  11
                  11
                  11
                  12
                  11
                  11
                  11
                  11
                  12
                  12
                  11
                  12
                  12
                  12
                  12
                  12
                  12
                  11
                  11
                  11
                  11
                  11
                  11
                  11
                  11
                  11
                  11
                  11
                  12
                  12
                  12
                  11
                  11
                  11
                  11
                  11
                  11
                  12
                  12
                  12
                  12
                  12
                  12
                  12
                  11
                  11
                  11
                  11
                  11
                  11
                  11
                  11
                  11
                  11
                  11
                  11
                  12
                  12
                  12
                  12
                  12
                  12
                  12
                  12
                  12
                  12
                  11
                  11
                  11
                  11
                  11
                  11
                  11
                  11
                  11
                  11
                  11
                  11
                  11
                  11
                  11
                  12
                  11
                  11
                  11
                  11
                  12
                  12
                  11
                  12
                  12
                  12
                  12
                  12
                  12
                  11
                  11
                  11
                  11
                  11
                  11
                  11
                  11
                  11
                  11
                  11
                  12
                  12
                  12
                  11
                  11
                  11
                  11
                  11
                  11
                  12
                  12
                  12
                  12
                  12
                  12
                  12
                  11
                  11
                  11
                  11
                  11
                  11
                  11
                  11
                  11
                  11
                  11
                  11
                  12
                  12
                  12
                  12
                  12
                  12
                  12
                  12
                  12
                  12
                  11
                  11
                  11
                  11
                  11
                  11
                  11
                  11
                  11
                  11
                  11
                  11
                  11
                  11
                  11
                  12
                  11
                  11
                  11
                  11
                  12
                  12
                  11
                  12
                  12
                  12
                  12
                  12
                  12
                  11
                  11
                  11
                  11
                  11
                  11
                  11
                  11
                  11
                  11
                  11
                  12
                  12
                  12
                  11
                  11
                  11
                  11
                  11
                  11
                  12
                  12
                  12
                  12
                  12
                  12
                  12
                  11
                  11
                  11
                  11
                  11
                  11
                  11
                  11
                  11
                  11
                  11
                  11
                  12
                  12
                  12
                  12
                  12
                  12
                  12
                  12
                  12
                  12
                  11
                  11
                  11
                  11
                  11
                  11
                  11
                  11
                  11
                  11
                  11
                  11
                  11
                  11
                  11
                  12
                  11
                  11
                  11
                  11
                  12
                  12
                  11
                  12
                  12
                  12
                  12
                  12
                  12
                  11
                  11
                  11
                  11
                  11
                  11
                  11
                  11
                  11
                  11
                  11
                  12
                  12
                  12
                  11
                  11
                  11
                  11
                  11
                  11
                  12
                  12
                  12
                  12
                  12
                  12
                  12
                  11
                  11
                  11
                  11
                  11
                  11
                  11
                  11
                  11
                  11
                  11
                  11
                  12
                  12
                  12
                  12
                  12
                  12
                  12
                  12
                  12
                  12
                  11
                  11
                  11
                  11
                  11
                  11
                  11
                  11
                  11
                  11
                  11
                  11
                  11
                  11
                  11
                  12
                  11
                  11
                  11
                  11
                  12
                  12
                  11
                  12
                  12
                  12
                  12
                  12
                  12
                  11
                  11
                  11
                  11
                  11
                  11
                  11
                  11
                  11
                  11
                  11
                  12
                  12
                  12
                  11
                  11
                  11
                  11
                  11
                  11
                  12
                  12
                  12
                  12
                  12
                  12
                  12
                  11
                  11
                  11
                  11
                  11
                  11
                  11
                  11
                  11
                  11
                  11
                  11
                  12
                  12
                  12
                  12
                  12
                  12
                  12
                  12
                  12
                  12
                  11
                  11
                  11
                  11
                  11
                  11
                  11
                  11
                  11
                  11
                  11
                  11
                  11
                  11
                  11
                  12
                  11
                  11
                  11
                  11
                  12
                  12
                  11
                  12
                  12
                  12
                  12
                  12
                  12
                  11
                  11
                  11
                  11
                  11
                  11
                  11
                  11
                  11
                  11
                  11
                  12
                  12
                  12
                  11
                  11
                  11
                  11
                  11
                  11
                  12
                  12
                  12
                  12
                  12
                  12
                  12
                  11
                  11
                  11
                  11
                  11
                  11
                  11
                  11
                  11
                  11
                  11
                  11
                  12
                  12
                  12
                  12
                  12
                  12
                  12
                  12
                  12
                  12
                  11
                  11
                  11
                  11
                  11
                  11
                  11
                  11
                  11
                  11
                  11
                  11
                  11
                  11
                  11
                  12
                  11
                  11
                  11
                  11
                  12
                  12
                  11
                  12
                  12
                  12
                  12
                  12
                  12
                  11
                  11
                  11
                  11
                  11
                  11
                  11
                  11
                  11
                  11
                  11
                  12
                  12
                  12
                  11
                  11
                  11
                  11
                  11
                  11
                  12
                  12
                  12
                  12
                  12
                  12
                  12
                  11
                  11
                  11
                  11
                  11
                  11
                  11
                  11
                  11
                  11
                  11
                  11
                  12
                  12
                  12
                  12
                  12
                  12
                  12
                  12
                  12
                  12
                  11
                  11
                  11
                  11
                  11
                  11
                  11
                  11
                  11
                  11
                  11
                  11
                  11
                  11
                  11
                  12
                  11
                  11
                  11
                  11
                  12
                  12
                  11
                  12
                  12
                  12
                  12
                  12
                  12
                  11
                  11
                  11
                  11
                  11
                  11
                  11
                  11
                  11
                  11
                  11
                  12
                  12
                  12
                  11
                  11
                  11
                  11
                  11
                  11
                  12
                  12
                  12
                  12
                  12
                  12
                  12
                  11
                  11
                  11
                  11
                  11
                  11
                  11
                  11
                  11
                  11
                  11
                  11
                  12
                  12
                  12
                  12
                  12
                  12
                  12
                  12
                  12
                  12
                  11
                  11
                  11
                  11
                  11
                  11
                  11
                  11
                  11
                  11
                  11
                  11
                  11
                  11
                  11
                  12
                  11
                  11
                  11
                  11
                  12
                  12
                  11
                  12
                  12
                  12
                  12
                  12
                  12
                  11
                  11
                  11
                  11
                  11
                  11
                  11
                  11
                  11
                  11
                  11
                  12
                  12
                  12
                  11
                  11
                  11
                  11
                  11
                  11
                  12
                  12
                  12
                  12
                  12
                  12
                  12
                  11
                  11
                  11
                  11
                  11
                  11
                  11
                  11
                  11
                  11
                  11
                  11
                  12
                  12
                  12
                  12
                  12
                  12
                  12
                  12
                  12
                  12
                  11
                  11
                  11
                  11
                  11
                  11
                  11
                  11
                  11
                  11
                  11
                  11
                  11
                  11
                  11
                  12
                  11
                  11
                  11
                  11
                  12
                  12
                  11
                  12
                  12
                  12
                  12
                  12
                  12
                  11
                  11
                  11
                  11
                  11
                  11
                  11
                  11
                  11
                  11
                  11
                  12
                  12
                  12
                  11
                  11
                  11
                  11
                  11
                  11
                  12
                  12
                  12
                  12
                  12
                  12
                  12
                  11
                  11
                  11
                  11
                  11
                  11
                  11
                  11
                  11
                  11
                  11
                  11
                  12
                  12
                  12
                  12
                  12
                  12
                  12
                  12
                  12
                  12
                  11
                  11
                  11
                  11
                  11
                  11
                  11
                  11
                  11
                  11
                  11
                  11
                  11
                  11
                  11
                  12
                  11
                  11
                  11
                  11
                  12
                  12
                  11
                  12
                  12
                  12
                  12
                  12
                  12
                  11
                  11
                  11
                  11
                  11
                  11
                  11
                  11
                  11
                  11
                  11
                  12
                  12
                  12
                  11
                  11
                  11
                  11
                  11
                  11
                  12
                  12
                  12
                  12
                  12
                  12
                  12
                  11
                  11
                  11
                  11
                  11
                  11
                  11
                  11
                  11
                  11
                  11
                  11
                  12
                  12
                  12
                  12
                  12
                  12
                  12
                  12
                  12
                  12
                  11
                  11
                  11
                  11
                  11
                  11
                  11
                  11
                  11
                  11
                  11
                  11
                  11
                  11
                  11
                  12
                  11
                  11
                  11
                  11
                  12
                  12
                  11
                  12
                  12
                  12
                  12
                  12
                  12
                  11
                  11
                  11
                  11
                  11
                  11
                  11
                  11
                  11
                  11
                  11
                  12
                  12
                  12
                  11
                  11
                  11
                  11
                  11
                  11
                  12
                  12
                  12
                  12
                  12
                  12
                  12
                  11
                  11
                  11
                  11
                  11
                  11
                  11
                  11
                  11
                  11
                  11
                  11
                  12
                  12
                  12
                  12
                  12
                  12
                  12
                  12
                  12
                  12
                  11
                  11
                  11
                  11
                  11
                  11
                  11
                  11
                  11
                  11
                  11
                  11
                  11
                  11
                  11
                  12
                  11
                  11
                  11
                  11
                  12
                  12
                  11
                  12
                  12
                  12
                  12
                  12
                  12
                  11
                  11
                  11
                  11
                  11
                  11
                  11
                  11
                  11
                  11
                  11
                  12
                  12
                  12
                  11
                  11
                  11
                  11
                  11
                  11
                  12
                  12
                  12
                  12
                  12
                  12
                  12
                  11
                  11
                  11
                  11
                  11
                  11
                  11
                  11
                  11
                  11
                  11
                  11
                  12
                  12
                  12
                  12
                  12
                  12
                  12
                  12
                  12
                  12
                  11
                  11
                  11
                  11
                  11
                  11
                  11
                  11
                  11
                  11
                  11
                  11
                  11
                  11
                  11
                  12
                  11
                  11
                  11
                  11
                  12
                  12
                  11
                  12
                  12
                  12
                  12
                  12
                  12
                  11
                  11
                  11
                  11
                  11
                  11
                  11
                  11
                  11
                  11
                  11
                  12
                  12
                  12
                  11
                  11
                  11
                  11
                  11
                  11
                  12
                  12
                  12
                  12
                  12
                  12
                  12
                  11
                  11
                  11
                  11
                  11
                  11
                  11
                  11
                  11
                  11
                  11
                  11
                  12
                  12
                  12
                  12
                  12
                  12
                  12
                  12
                  12
                  12
                  11
                  11
                  11
                  11
                  11
                  11
                  11
                  11
                  11
                  11
                  11
                  11
                  11
                  11
  
SCALARS                         Kspace  double 1
LOOKUP_TABLE default
                  11
                  11
                  11
                  11
                  11
                  11
                  11
                  11
                  11
                  11
                  11
                  11
                  11
                  11
                  11
                  11
                  11
                  11
                  11
                  11
                  11
                  11
                  11
                  11
                  11
                  11
                  11
                  11
                  11
                  11
                  11
                  11
                  11
                  11
                  11
                  11
                  11
                  11
                  11
                  11
                  11
                  11
                  11
                  11
                  11
                  11
                  11
                  11
                  11
                  11
                  11
                  11
                  11
                  11
                  11
                  11
                  11
                  11
                  11
                  11
                  11
                  11
                  11
                  11
                  11
                  11
                  11
                  11
                  11
                  11
                  11
                  11
                  11
                  11
                  11
                  11
                  11
                  11
                  11
                  11
                  11
                  11
                  11
                  11
                  11
                  11
                  11
                  11
                  11
                  11
                  11
                  11
                  11
                  11
                  11
                  11
                  11
                  11
                  11
                  11
                  11
                  11
                  11
                  11
                  11
                  11
                  11
                  11
                  11
                  11
                  11
                  11
                  11
                  11
                  11
                  11
                  11
                  11
                  11
                  11
                  11
                  11
                  11
                  11
                  11
                  11
                  11
                  11
                  11
                  11
                  11
                  11
                  11
                  11
                  11
                  11
                  11
                  11
                  11
                  11
                  11
                  11
                  11
                  11
                  11
                  11
                  11
                  11
                  11
                  11
                  11
                  11
                  11
                  11
                  11
                  11
                  11
                  11
                  11
                  11
                  11
                  11
                  11
                  11
                  11
                  11
                  11
                  11
                  11
                  11
                  11
                  11
                  11
                  11
                  11
                  11
                  11
                  11
                  11
                  11
                  11
                  11
                  11
                  11
                  11
                  11
                  11
                  11
                  11
                  11
                  11
                  11
                  11
                  11
                  11
                  11
                  11
                  11
                  11
                  11
                  11
                  11
                  11
                  11
                  11
                  11
                  11
                  11
                  11
                  11
                  11
                  11
                  11
                  11
                  11
                  11
                  11
                  11
                  11
                  11
                  11
                  11
                  11
                  11
                  11
                  11
                  11
                  11
                  11
                  11
                  11
                  11
                  11
                  11
                  11
                  11
                  11
                  11
                  11
                  11
                  11
                  11
                  11
                  11
                  11
                  11
                  11
                  11
                  11
                  11
                  11
                  11
                  11
                  11
                  11
                  11
                  11
                  11
                  11
                  11
                  11
                  11
                  11
                  11
                  11
                  11
                  11
                  11
                  11
                  11
                  11
                  11
                  11
                  11
                  11
                  11
                  11
                  11
                  11
                  11
                  11
                  11
                  11
                  11
                  11
                  11
                  11
                  11
                  11
                  11
                  11
                  11
                  11
                  11
                  11
                  11
                  11
                  11
                  11
                  11
                  11
                  11
                  11
                  11
                  11
                  11
                  11
                  11
                  11
                  11
                  11
                  11
                  12
                  12
                  12
                  12
                  12
                  12
                  12
                  12
                  12
                  12
                  12
                  12
                  12
                  12
                  12
                  12
                  12
                  12
                  12
                  12
                  12
                  12
                  12
                  12
                  12
                  12
                  12
                  12
                  12
                  12
                  12
                  12
                  12
                  12
                  12
                  12
                  12
                  12
                  12
                  12
                  12
                  12
                  12
                  12
                  12
                  12
                  12
                  12
                  12
                  12
                  12
                  12
                  12
                  12
                  12
                  12
                  12
                  12
                  12
                  12
                  12
                  12
                  12
                  12
                  12
                  12
                  12
                  12
                  12
                  12
                  12
                  12
                  12
                  12
                  12
                  12
                  12
                  12
                  12
                  12
                  12
                  12
                  12
                  12
                  12
                  12
                  12
                  12
                  12
                  12
                  12
                  12
                  12
                  12
                  12
                  12
                  12
                  12
                  12
                  12
                  12
                  12
                  12
                  12
                  12
                  12
                  12
                  12
                  12
                  12
                  12
                  12
                  12
                  12
                  12
                  12
                  12
                  12
                  12
                  12
                  12
                  12
                  12
                  12
                  12
                  12
                  12
                  12
                  12
                  12
                  12
                  12
                  12
                  12
                  12
                  12
                  12
                  12
                  12
                  12
                  12
                  12
                  12
                  12
                  12
                  12
                  12
                  12
                  12
                  12
                  12
                  12
                  12
                  12
                  12
                  12
                  12
                  12
                  12
                  12
                  12
                  12
                  12
                  12
                  12
                  12
                  12
                  12
                  12
                  12
                  12
                  12
                  12
                  12
                  12
                  12
                  12
                  12
                  12
                  12
                  12
                  12
                  12
                  12
                  12
                  12
                  12
                  12
                  12
                  12
                  12
                  12
                  12
                  12
                  12
                  12
                  12
                  12
                  12
                  12
                  12
                  12
                  12
                  12
                  12
                  12
                  12
                  12
                  12
                  12
                  12
                  12
                  12
                  12
                  12
                  12
                  12
                  12
                  12
                  12
                  12
                  12
                  12
                  12
                  12
                  12
                  12
                  12
                  12
                  12
                  12
                  12
                  12
                  12
                  13
                  13
                  13
                  13
                  13
                  13
                  13
                  13
                  13
                  13
                  13
                  13
                  13
                  13
                  13
                  13
                  13
                  13
                  13
                  13
                  13
                  13
                  13
                  13
                  13
                  13
                  13
                  13
                  13
                  13
                  13
                  13
                  13
                  13
                  13
                  13
                  13
                  13
                  13
                  13
                  13
                  13
                  13
                  13
                  13
                  13
                  13
                  13
                  13
                  13
                  13
                  13
                  13
                  13
                  13
                  13
                  13
                  13
                  13
                  13
                  13
                  13
                  13
                  13
                  13
                  13
                  13
                  13
                  13
                  13
                  13
                  13
                  13
                  13
                  13
                  13
                  13
                  13
                  13
                  13
                  13
                  13
                  13
                  13
                  13
                  13
                  13
                  13
                  13
                  13
                  13
                  13
                  13
                  13
                  13
                  13
                  13
                  13
                  13
                  13
                  13
                  13
                  13
                  13
                  13
                  13
                  13
                  13
                  13
                  13
                  13
                  13
                  13
                  13
                  13
                  13
                  13
                  13
                  13
                  13
                  13
                  13
                  13
                  13
                  13
                  13
                  13
                  13
                  13
                  13
                  13
                  13
                  13
                  13
                  13
                  13
                  13
                  13
                  13
                  13
                  13
                  13
                  13
                  13
                  13
                  13
                  13
                  13
                  13
                  13
                  13
                  13
                  13
                  13
                  13
                  13
                  13
                  13
                  13
                  13
                  13
                  13
                  13
                  13
                  13
                  13
                  13
                  13
                  13
                  13
                  13
                  13
                  13
                  13
                  13
                  13
                  13
                  13
                  13
                  13
                  13
                  13
                  13
                  13
                  13
                  13
                  13
                  13
                  13
                  13
                  13
                  13
                  13
                  13
                  13
                  13
                  13
                  13
                  13
                  13
                  13
                  13
                  13
                  13
                  13
                  13
                  13
                  13
                  13
                  13
                  13
                  13
                  13
                  13
                  13
                  13
                  13
                  13
                  13
                  13
                  13
                  13
                  13
                  13
                  13
                  13
                  13
                  13
                  13
                  13
                  13
                  13
                  13
                  13
                  14
                  14
                  14
                  14
                  14
                  14
                  14
                  14
                  14
                  14
                  14
                  14
                  14
                  14
                  14
                  14
                  14
                  14
                  14
                  14
                  14
                  14
                  14
                  14
                  14
                  14
                  14
                  14
                  14
                  14
                  14
                  14
                  14
                  14
                  14
                  14
                  14
                  14
                  14
                  14
                  14
                  14
                  14
                  14
                  14
                  14
                  14
                  14
                  14
                  14
                  14
                  14
                  14
                  14
                  14
                  14
                  14
                  14
                  14
                  14
                  14
                  14
                  14
                  14
                  14
                  14
                  14
                  14
                  14
                  14
                  14
                  14
                  14
                  14
                  14
                  14
                  14
                  14
                  14
                  14
                  14
                  14
                  14
                  14
                  14
                  14
                  14
                  14
                  14
                  14
                  14
                  14
                  14
                  14
                  14
                  14
                  14
                  14
                  14
                  14
                  14
                  14
                  14
                  14
                  14
                  14
                  14
                  14
                  14
                  14
                  14
                  14
                  14
                  14
                  14
                  14
                  14
                  14
                  14
                  14
                  14
                  14
                  14
                  14
                  14
                  14
                  14
                  14
                  14
                  14
                  14
                  14
                  14
                  14
                  14
                  14
                  14
                  14
                  14
                  14
                  14
                  14
                  14
                  14
                  14
                  14
                  14
                  14
                  14
                  14
                  14
                  14
                  14
                  14
                  14
                  14
                  14
                  14
                  14
                  14
                  14
                  14
                  14
                  14
                  14
                  14
                  14
                  14
                  14
                  14
                  14
                  14
                  14
                  14
                  14
                  14
                  14
                  14
                  14
                  14
                  14
                  14
                  14
                  14
                  14
                  14
                  14
                  14
                  14
                  14
                  14
                  14
                  14
                  14
                  14
                  14
                  14
                  14
                  14
                  14
                  14
                  14
                  14
                  14
                  14
                  14
                  14
                  14
                  14
                  14
                  14
                  14
                  14
                  14
                  14
                  14
                  14
                  14
                  14
                  14
                  14
                  14
                  14
                  14
                  14
                  14
                  14
                  14
                  14
                  14
                  14
                  14
                  14
                  14
                  15
                  15
                  15
                  15
                  15
                  15
                  15
                  15
                  15
                  15
                  15
                  15
                  15
                  15
                  15
                  15
                  15
                  15
                  15
                  15
                  15
                  15
                  15
                  15
                  15
                  15
                  15
                  15
                  15
                  15
                  15
                  15
                  15
                  15
                  15
                  15
                  15
                  15
                  15
                  15
                  15
                  15
                  15
                  15
                  15
                  15
                  15
                  15
                  15
                  15
                  15
                  15
                  15
                  15
                  15
                  15
                  15
                  15
                  15
                  15
                  15
                  15
                  15
                  15
                  15
                  15
                  15
                  15
                  15
                  15
                  15
                  15
                  15
                  15
                  15
                  15
                  15
                  15
                  15
                  15
                  15
                  15
                  15
                  15
                  15
                  15
                  15
                  15
                  15
                  15
                  15
                  15
                  15
                  15
                  15
                  15
                  15
                  15
                  15
                  15
                  15
                  15
                  15
                  15
                  15
                  15
                  15
                  15
                  15
                  15
                  15
                  15
                  15
                  15
                  15
                  15
                  15
                  15
                  15
                  15
                  15
                  15
                  15
                  15
                  15
                  15
                  15
                  15
                  15
                  15
                  15
                  15
                  15
                  15
                  15
                  15
                  15
                  15
                  15
                  15
                  15
                  15
                  15
                  15
                  15
                  15
                  15
                  15
                  15
                  15
                  15
                  15
                  15
                  15
                  15
                  15
                  15
                  15
                  15
                  15
                  15
                  15
                  15
                  15
                  15
                  15
                  15
                  15
                  15
                  15
                  15
                  15
                  15
                  15
                  15
                  15
                  15
                  15
                  15
                  15
                  15
                  15
                  15
                  15
                  15
                  15
                  15
                  15
                  15
                  15
                  15
                  15
                  15
                  15
                  15
                  15
                  15
                  15
                  15
                  15
                  15
                  15
                  15
                  15
                  15
                  15
                  15
                  15
                  15
                  15
                  15
                  15
                  15
                  15
                  15
                  15
                  15
                  15
                  15
                  15
                  15
                  15
                  15
                  15
                  15
                  15
                  15
                  15
                  15
                  15
                  15
                  15
                  15
                  15
                  15
                  15
                  15
                  15
                  15
                  15
                  15
                  15
                  15
                  15
                  15
                  15
                  15
                  15
                  15
                  15
                  15
                  15
                  15
                  15
                  15
                  15
                  15
                  15
                  15
                  15
                  15
                  15
                  15
                  15
                  15
                  15
                  15
                  15
                  15
                  15
                  15
                  15
                  15
                  15
                  15
                  15
                  15
                  15
                  15
                  15
                  15
                  15
                  15
                  15
                  15
                  15
                  15
                  15
                  15
                  15
                  15
                  15
                  15
                  15
                  15
                  15
                  15
                  15
                  15
                  15
                  15
                  15
                  15
                  15
                  15
                  15
                  15
                  15
                  15
                  15
                  15
                  15
                  16
                  16
                  16
                  16
                  16
                  16
                  16
                  16
                  16
                  16
                  16
                  16
                  16
                  16
                  16
                  16
                  16
                  16
                  16
                  16
                  16
                  16
                  16
                  16
                  16
                  16
                  16
                  16
                  16
                  16
                  16
                  16
                  16
                  16
                  16
                  16
                  16
                  16
                  16
                  16
                  16
                  16
                  16
                  16
                  16
                  16
                  16
                  16
                  16
                  16
                  16
                  16
                  16
                  16
                  16
                  16
                  16
                  16
                  16
                  16
                  16
                  16
                  16
                  16
                  16
                  16
                  16
                  16
                  16
                  16
                  16
                  16
                  16
                  16
                  16
                  16
                  16
                  16
                  16
                  16
                  16
                  16
                  16
                  16
                  16
                  16
                  16
                  16
                  16
                  16
                  16
                  16
                  16
                  16
                  16
                  16
                  16
                  16
                  16
                  16
                  16
                  16
                  16
                  16
                  16
                  16
                  16
                  16
                  16
                  16
                  16
                  16
                  16
                  16
                  16
                  16
                  16
                  16
                  16
                  16
                  16
                  16
                  16
                  16
                  16
                  16
                  16
                  16
                  16
                  16
                  16
                  16
                  16
                  16
                  16
                  16
                  16
                  16
                  16
                  16
                  16
                  16
                  16
                  16
                  16
                  16
                  16
                  16
                  16
                  16
                  16
                  16
                  16
                  16
                  16
                  16
                  16
                  16
                  16
                  16
                  16
                  16
                  16
                  16
                  16
                  16
                  16
                  16
                  16
                  16
                  16
                  16
                  16
                  16
                  16
                  16
                  16
                  16
                  16
                  16
                  16
                  16
                  16
                  16
                  16
                  16
                  16
                  16
                  16
                  16
                  16
                  16
                  16
                  16
                  16
                  16
                  16
                  16
                  16
                  16
                  16
                  16
                  16
                  16
                  16
                  16
                  16
                  16
                  16
                  16
                  16
                  16
                  16
                  16
                  16
                  16
                  16
                  16
                  16
                  16
                  16
                  16
                  16
                  16
                  16
                  16
                  16
                  16
                  16
                  16
                  16
                  16
                  16
                  16
                  17
                  17
                  17
                  17
                  17
                  17
                  17
                  17
                  17
                  17
                  17
                  17
                  17
                  17
                  17
                  17
                  17
                  17
                  17
                  17
                  17
                  17
                  17
                  17
                  17
                  17
                  17
                  17
                  17
                  17
                  17
                  17
                  17
                  17
                  17
                  17
                  17
                  17
                  17
                  17
                  17
                  17
                  17
                  17
                  17
                  17
                  17
                  17
                  17
                  17
                  17
                  17
                  17
                  17
                  17
                  17
                  17
                  17
                  17
                  17
                  17
                  17
                  17
                  17
                  17
                  17
                  17
                  17
                  17
                  17
                  17
                  17
                  17
                  17
                  17
                  17
                  17
                  17
                  17
                  17
                  17
                  17
                  17
                  17
                  17
                  17
                  17
                  17
                  17
                  17
                  17
                  17
                  17
                  17
                  17
                  17
                  17
                  17
                  17
                  17
                  17
                  17
                  17
                  17
                  17
                  17
                  17
                  17
                  17
                  17
                  17
                  17
                  17
                  17
                  17
                  17
                  17
                  17
                  17
                  17
                  17
                  17
                  17
                  17
                  17
                  17
                  17
                  17
                  17
                  17
                  17
                  17
                  17
                  17
                  17
                  17
                  17
                  17
                  17
                  17
                  17
                  17
                  17
                  17
                  17
                  17
                  17
                  17
                  17
                  17
                  17
                  17
                  17
                  17
                  17
                  17
                  17
                  17
                  17
                  17
                  17
                  17
                  17
                  17
                  17
                  17
                  17
                  17
                  17
                  17
                  17
                  17
                  17
                  17
                  17
                  17
                  17
                  17
                  17
                  17
                  17
                  17
                  17
                  17
                  17
                  17
                  17
                  17
                  17
                  17
                  17
                  17
                  17
                  17
                  17
                  17
                  17
                  17
                  17
                  17
                  17
                  17
                  17
                  17
                  17
                  17
                  17
                  17
                  17
                  17
                  17
                  17
                  17
                  17
                  17
                  17
                  17
                  17
                  17
                  17
                  17
                  17
                  17
                  17
                  17
                  17
                  17
                  17
                  17
                  17
                  17
                  17
                  17
                  17
                  18
                  18
                  18
                  18
                  18
                  18
                  18
                  18
                  18
                  18
                  18
                  18
                  18
                  18
                  18
                  18
                  18
                  18
                  18
                  18
                  18
                  18
                  18
                  18
                  18
                  18
                  18
                  18
                  18
                  18
                  18
                  18
                  18
                  18
                  18
                  18
                  18
                  18
                  18
                  18
                  18
                  18
                  18
                  18
                  18
                  18
                  18
                  18
                  18
                  18
                  18
                  18
                  18
                  18
                  18
                  18
                  18
                  18
                  18
                  18
                  18
                  18
                  18
                  18
                  18
                  18
                  18
                  18
                  18
                  18
                  18
                  18
                  18
                  18
                  18
                  18
                  18
                  18
                  18
                  18
                  18
                  18
                  18
                  18
                  18
                  18
                  18
                  18
                  18
                  18
                  18
                  18
                  18
                  18
                  18
                  18
                  18
                  18
                  18
                  18
                  18
                  18
                  18
                  18
                  18
                  18
                  18
                  18
                  18
                  18
                  18
                  18
                  18
                  18
                  18
                  18
                  18
                  18
                  18
                  18
                  18
                  18
                  18
                  18
                  18
                  18
                  18
                  18
                  18
                  18
                  18
                  18
                  18
                  18
                  18
                  18
                  18
                  18
                  18
                  18
                  18
                  18
                  18
                  18
                  18
                  18
                  18
                  18
                  18
                  18
                  18
                  18
                  18
                  18
                  18
                  18
  
SCALARS                 displacement_x  double 1
LOOKUP_TABLE default
         0.00000E+00
         0.00000E+00
         0.00000E+00
         0.00000E+00
         0.00000E+00
         0.00000E+00
         0.00000E+00
         0.00000E+00
         0.00000E+00
         0.00000E+00
         0.00000E+00
         0.00000E+00
         0.00000E+00
         0.00000E+00
         0.00000E+00
         0.00000E+00
         0.00000E+00
         0.00000E+00
         0.00000E+00
         0.00000E+00
         0.00000E+00
         0.00000E+00
         0.00000E+00
         0.00000E+00
         0.00000E+00
         0.00000E+00
         0.00000E+00
         0.00000E+00
         0.00000E+00
         0.00000E+00
         0.00000E+00
         0.00000E+00
         0.00000E+00
         0.00000E+00
         0.00000E+00
         0.00000E+00
         0.00000E+00
         0.00000E+00
         0.00000E+00
         0.00000E+00
         0.00000E+00
         0.00000E+00
         0.00000E+00
         0.00000E+00
         0.00000E+00
         0.00000E+00
         0.00000E+00
         0.00000E+00
         0.00000E+00
         0.00000E+00
         0.00000E+00
         0.00000E+00
         0.00000E+00
         0.00000E+00
         0.00000E+00
         0.00000E+00
         0.00000E+00
         0.00000E+00
         0.00000E+00
         0.00000E+00
         0.00000E+00
         0.00000E+00
         0.00000E+00
         0.00000E+00
         0.00000E+00
         0.00000E+00
         0.00000E+00
         0.00000E+00
         0.00000E+00
         0.00000E+00
         0.00000E+00
         0.00000E+00
         0.00000E+00
         0.00000E+00
         0.00000E+00
         0.00000E+00
         0.00000E+00
         0.00000E+00
         0.00000E+00
         0.00000E+00
         0.00000E+00
         0.00000E+00
         0.00000E+00
         0.00000E+00
         0.00000E+00
         0.00000E+00
         0.00000E+00
         0.00000E+00
         0.00000E+00
         0.00000E+00
         0.00000E+00
         0.00000E+00
         0.00000E+00
         0.00000E+00
         0.00000E+00
         0.00000E+00
         0.00000E+00
         0.00000E+00
         0.00000E+00
         0.00000E+00
         0.00000E+00
         0.00000E+00
         0.00000E+00
         0.00000E+00
         0.00000E+00
         0.00000E+00
         0.00000E+00
         0.00000E+00
         0.00000E+00
         0.00000E+00
         0.00000E+00
         0.00000E+00
         0.00000E+00
         0.00000E+00
         0.00000E+00
         0.00000E+00
         0.00000E+00
         0.00000E+00
         0.00000E+00
         0.00000E+00
         0.00000E+00
         0.00000E+00
         0.00000E+00
         0.00000E+00
         0.00000E+00
         0.00000E+00
         0.00000E+00
         0.00000E+00
         0.00000E+00
         0.00000E+00
         0.00000E+00
         0.00000E+00
         0.00000E+00
         0.00000E+00
         0.00000E+00
         0.00000E+00
         0.00000E+00
         0.00000E+00
         0.00000E+00
         0.00000E+00
         0.00000E+00
         0.00000E+00
         0.00000E+00
         0.00000E+00
         0.00000E+00
         0.00000E+00
         0.00000E+00
         0.00000E+00
         0.00000E+00
         0.00000E+00
         0.00000E+00
         0.00000E+00
         0.00000E+00
         0.00000E+00
         0.00000E+00
         0.00000E+00
         0.00000E+00
         0.00000E+00
         0.00000E+00
         0.00000E+00
         0.00000E+00
         0.00000E+00
         0.00000E+00
         0.00000E+00
         0.00000E+00
         0.00000E+00
         0.00000E+00
         0.00000E+00
         0.00000E+00
         0.00000E+00
         0.00000E+00
         0.00000E+00
         0.00000E+00
         0.00000E+00
         0.00000E+00
         0.00000E+00
         0.00000E+00
         0.00000E+00
         0.00000E+00
         0.00000E+00
         0.00000E+00
         0.00000E+00
         0.00000E+00
         0.00000E+00
         0.00000E+00
         0.00000E+00
         0.00000E+00
         0.00000E+00
         0.00000E+00
         0.00000E+00
         0.00000E+00
         0.00000E+00
         0.00000E+00
         0.00000E+00
         0.00000E+00
         0.00000E+00
         0.00000E+00
         0.00000E+00
         0.00000E+00
         0.00000E+00
         0.00000E+00
         0.00000E+00
         0.00000E+00
         0.00000E+00
         0.00000E+00
         0.00000E+00
         0.00000E+00
         0.00000E+00
         0.00000E+00
         0.00000E+00
         0.00000E+00
         0.00000E+00
         0.00000E+00
         0.00000E+00
         0.00000E+00
         0.00000E+00
         0.00000E+00
         0.00000E+00
         0.00000E+00
         0.00000E+00
         0.00000E+00
         0.00000E+00
         0.00000E+00
         0.00000E+00
         0.00000E+00
         0.00000E+00
         0.00000E+00
         0.00000E+00
         0.00000E+00
         0.00000E+00
         0.00000E+00
         0.00000E+00
         0.00000E+00
         0.00000E+00
         0.00000E+00
         0.00000E+00
         0.00000E+00
         0.00000E+00
         0.00000E+00
         0.00000E+00
         0.00000E+00
         0.00000E+00
         0.00000E+00
         0.00000E+00
         0.00000E+00
         0.00000E+00
         0.00000E+00
         0.00000E+00
         0.00000E+00
         0.00000E+00
         0.00000E+00
         0.00000E+00
         0.00000E+00
         0.00000E+00
         0.00000E+00
         0.00000E+00
         0.00000E+00
         0.00000E+00
         0.00000E+00
         0.00000E+00
         0.00000E+00
         0.00000E+00
         0.00000E+00
         0.00000E+00
         0.00000E+00
         0.00000E+00
         0.00000E+00
         0.00000E+00
         0.00000E+00
         0.00000E+00
         0.00000E+00
         0.00000E+00
         0.00000E+00
         0.00000E+00
         0.00000E+00
         0.00000E+00
         0.00000E+00
         0.00000E+00
         0.00000E+00
         0.00000E+00
         0.00000E+00
         0.00000E+00
         0.00000E+00
         0.00000E+00
         0.00000E+00
         0.00000E+00
         0.00000E+00
         0.00000E+00
         0.00000E+00
         0.00000E+00
         0.00000E+00
         0.00000E+00
         0.00000E+00
         0.00000E+00
         0.00000E+00
         0.00000E+00
         0.00000E+00
         0.00000E+00
         0.00000E+00
         0.00000E+00
         0.00000E+00
         0.00000E+00
         0.00000E+00
         0.00000E+00
         0.00000E+00
         0.00000E+00
         0.00000E+00
         0.00000E+00
         0.00000E+00
         0.00000E+00
         0.00000E+00
         0.00000E+00
         0.00000E+00
         0.00000E+00
         0.00000E+00
         0.00000E+00
         0.00000E+00
         0.00000E+00
         0.00000E+00
         0.00000E+00
         0.00000E+00
         0.00000E+00
         0.00000E+00
         0.00000E+00
         0.00000E+00
         0.00000E+00
         0.00000E+00
         0.00000E+00
         0.00000E+00
         0.00000E+00
         0.00000E+00
         0.00000E+00
         0.00000E+00
         0.00000E+00
         0.00000E+00
         0.00000E+00
         0.00000E+00
         0.00000E+00
         0.00000E+00
         0.00000E+00
         0.00000E+00
         0.00000E+00
         0.00000E+00
         0.00000E+00
         0.00000E+00
         0.00000E+00
         0.00000E+00
         0.00000E+00
         0.00000E+00
         0.00000E+00
         0.00000E+00
         0.00000E+00
         0.00000E+00
         0.00000E+00
         0.00000E+00
         0.00000E+00
         0.00000E+00
         0.00000E+00
         0.00000E+00
         0.00000E+00
         0.00000E+00
         0.00000E+00
         0.00000E+00
         0.00000E+00
         0.00000E+00
         0.00000E+00
         0.00000E+00
         0.00000E+00
         0.00000E+00
         0.00000E+00
         0.00000E+00
         0.00000E+00
         0.00000E+00
         0.00000E+00
         0.00000E+00
         0.00000E+00
         0.00000E+00
         0.00000E+00
         0.00000E+00
         0.00000E+00
         0.00000E+00
         0.00000E+00
         0.00000E+00
         0.00000E+00
         0.00000E+00
         0.00000E+00
         0.00000E+00
         0.00000E+00
         0.00000E+00
         0.00000E+00
         0.00000E+00
         0.00000E+00
         0.00000E+00
         0.00000E+00
         0.00000E+00
         0.00000E+00
         0.00000E+00
         0.00000E+00
         0.00000E+00
         0.00000E+00
         0.00000E+00
         0.00000E+00
         0.00000E+00
         0.00000E+00
         0.00000E+00
         0.00000E+00
         0.00000E+00
         0.00000E+00
         0.00000E+00
         0.00000E+00
         0.00000E+00
         0.00000E+00
         0.00000E+00
         0.00000E+00
         0.00000E+00
         0.00000E+00
         0.00000E+00
         0.00000E+00
         0.00000E+00
         0.00000E+00
         0.00000E+00
         0.00000E+00
         0.00000E+00
         0.00000E+00
         0.00000E+00
         0.00000E+00
         0.00000E+00
         0.00000E+00
         0.00000E+00
         0.00000E+00
         0.00000E+00
         0.00000E+00
         0.00000E+00
         0.00000E+00
         0.00000E+00
         0.00000E+00
         0.00000E+00
         0.00000E+00
         0.00000E+00
         0.00000E+00
         0.00000E+00
         0.00000E+00
         0.00000E+00
         0.00000E+00
         0.00000E+00
         0.00000E+00
         0.00000E+00
         0.00000E+00
         0.00000E+00
         0.00000E+00
         0.00000E+00
         0.00000E+00
         0.00000E+00
         0.00000E+00
         0.00000E+00
         0.00000E+00
         0.00000E+00
         0.00000E+00
         0.00000E+00
         0.00000E+00
         0.00000E+00
         0.00000E+00
         0.00000E+00
         0.00000E+00
         0.00000E+00
         0.00000E+00
         0.00000E+00
         0.00000E+00
         0.00000E+00
         0.00000E+00
         0.00000E+00
         0.00000E+00
         0.00000E+00
         0.00000E+00
         0.00000E+00
         0.00000E+00
         0.00000E+00
         0.00000E+00
         0.00000E+00
         0.00000E+00
         0.00000E+00
         0.00000E+00
         0.00000E+00
         0.00000E+00
         0.00000E+00
         0.00000E+00
         0.00000E+00
         0.00000E+00
         0.00000E+00
         0.00000E+00
         0.00000E+00
         0.00000E+00
         0.00000E+00
         0.00000E+00
         0.00000E+00
         0.00000E+00
         0.00000E+00
         0.00000E+00
         0.00000E+00
         0.00000E+00
         0.00000E+00
         0.00000E+00
         0.00000E+00
         0.00000E+00
         0.00000E+00
         0.00000E+00
         0.00000E+00
         0.00000E+00
         0.00000E+00
         0.00000E+00
         0.00000E+00
         0.00000E+00
         0.00000E+00
         0.00000E+00
         0.00000E+00
         0.00000E+00
         0.00000E+00
         0.00000E+00
         0.00000E+00
         0.00000E+00
         0.00000E+00
         0.00000E+00
         0.00000E+00
         0.00000E+00
         0.00000E+00
         0.00000E+00
         0.00000E+00
         0.00000E+00
         0.00000E+00
         0.00000E+00
         0.00000E+00
         0.00000E+00
         0.00000E+00
         0.00000E+00
         0.00000E+00
         0.00000E+00
         0.00000E+00
         0.00000E+00
         0.00000E+00
         0.00000E+00
         0.00000E+00
         0.00000E+00
         0.00000E+00
         0.00000E+00
         0.00000E+00
         0.00000E+00
         0.00000E+00
         0.00000E+00
         0.00000E+00
         0.00000E+00
         0.00000E+00
         0.00000E+00
         0.00000E+00
         0.00000E+00
         0.00000E+00
         0.00000E+00
         0.00000E+00
         0.00000E+00
         0.00000E+00
         0.00000E+00
         0.00000E+00
         0.00000E+00
         0.00000E+00
         0.00000E+00
         0.00000E+00
         0.00000E+00
         0.00000E+00
         0.00000E+00
         0.00000E+00
         0.00000E+00
         0.00000E+00
         0.00000E+00
         0.00000E+00
         0.00000E+00
         0.00000E+00
         0.00000E+00
         0.00000E+00
         0.00000E+00
         0.00000E+00
         0.00000E+00
         0.00000E+00
         0.00000E+00
         0.00000E+00
         0.00000E+00
         0.00000E+00
         0.00000E+00
         0.00000E+00
         0.00000E+00
         0.00000E+00
         0.00000E+00
         0.00000E+00
         0.00000E+00
         0.00000E+00
         0.00000E+00
         0.00000E+00
         0.00000E+00
         0.00000E+00
         0.00000E+00
         0.00000E+00
         0.00000E+00
         0.00000E+00
         0.00000E+00
         0.00000E+00
         0.00000E+00
         0.00000E+00
         0.00000E+00
         0.00000E+00
         0.00000E+00
         0.00000E+00
         0.00000E+00
         0.00000E+00
         0.00000E+00
         0.00000E+00
         0.00000E+00
         0.00000E+00
         0.00000E+00
         0.00000E+00
         0.00000E+00
         0.00000E+00
         0.00000E+00
         0.00000E+00
         0.00000E+00
         0.00000E+00
         0.00000E+00
         0.00000E+00
         0.00000E+00
         0.00000E+00
         0.00000E+00
         0.00000E+00
         0.00000E+00
         0.00000E+00
         0.00000E+00
         0.00000E+00
         0.00000E+00
         0.00000E+00
         0.00000E+00
         0.00000E+00
         0.00000E+00
         0.00000E+00
         0.00000E+00
         0.00000E+00
         0.00000E+00
         0.00000E+00
         0.00000E+00
         0.00000E+00
         0.00000E+00
         0.00000E+00
         0.00000E+00
         0.00000E+00
         0.00000E+00
         0.00000E+00
         0.00000E+00
         0.00000E+00
         0.00000E+00
         0.00000E+00
         0.00000E+00
         0.00000E+00
         0.00000E+00
         0.00000E+00
         0.00000E+00
         0.00000E+00
         0.00000E+00
         0.00000E+00
         0.00000E+00
         0.00000E+00
         0.00000E+00
         0.00000E+00
         0.00000E+00
         0.00000E+00
         0.00000E+00
         0.00000E+00
         0.00000E+00
         0.00000E+00
         0.00000E+00
         0.00000E+00
         0.00000E+00
         0.00000E+00
         0.00000E+00
         0.00000E+00
         0.00000E+00
         0.00000E+00
         0.00000E+00
         0.00000E+00
         0.00000E+00
         0.00000E+00
         0.00000E+00
         0.00000E+00
         0.00000E+00
         0.00000E+00
         0.00000E+00
         0.00000E+00
         0.00000E+00
         0.00000E+00
         0.00000E+00
         0.00000E+00
         0.00000E+00
         0.00000E+00
         0.00000E+00
         0.00000E+00
         0.00000E+00
         0.00000E+00
         0.00000E+00
         0.00000E+00
         0.00000E+00
         0.00000E+00
         0.00000E+00
         0.00000E+00
         0.00000E+00
         0.00000E+00
         0.00000E+00
         0.00000E+00
         0.00000E+00
         0.00000E+00
         0.00000E+00
         0.00000E+00
         0.00000E+00
         0.00000E+00
         0.00000E+00
         0.00000E+00
         0.00000E+00
         0.00000E+00
         0.00000E+00
         0.00000E+00
         0.00000E+00
         0.00000E+00
         0.00000E+00
         0.00000E+00
         0.00000E+00
         0.00000E+00
         0.00000E+00
         0.00000E+00
         0.00000E+00
         0.00000E+00
         0.00000E+00
         0.00000E+00
         0.00000E+00
         0.00000E+00
         0.00000E+00
         0.00000E+00
         0.00000E+00
         0.00000E+00
         0.00000E+00
         0.00000E+00
         0.00000E+00
         0.00000E+00
         0.00000E+00
         0.00000E+00
         0.00000E+00
         0.00000E+00
         0.00000E+00
         0.00000E+00
         0.00000E+00
         0.00000E+00
         0.00000E+00
         0.00000E+00
         0.00000E+00
         0.00000E+00
         0.00000E+00
         0.00000E+00
         0.00000E+00
         0.00000E+00
         0.00000E+00
         0.00000E+00
         0.00000E+00
         0.00000E+00
         0.00000E+00
         0.00000E+00
         0.00000E+00
         0.00000E+00
         0.00000E+00
         0.00000E+00
         0.00000E+00
         0.00000E+00
         0.00000E+00
         0.00000E+00
         0.00000E+00
         0.00000E+00
         0.00000E+00
         0.00000E+00
         0.00000E+00
         0.00000E+00
         0.00000E+00
         0.00000E+00
         0.00000E+00
         0.00000E+00
         0.00000E+00
         0.00000E+00
         0.00000E+00
         0.00000E+00
         0.00000E+00
         0.00000E+00
         0.00000E+00
         0.00000E+00
         0.00000E+00
         0.00000E+00
         0.00000E+00
         0.00000E+00
         0.00000E+00
         0.00000E+00
         0.00000E+00
         0.00000E+00
         0.00000E+00
         0.00000E+00
         0.00000E+00
         0.00000E+00
         0.00000E+00
         0.00000E+00
         0.00000E+00
         0.00000E+00
         0.00000E+00
         0.00000E+00
         0.00000E+00
         0.00000E+00
         0.00000E+00
         0.00000E+00
         0.00000E+00
         0.00000E+00
         0.00000E+00
         0.00000E+00
         0.00000E+00
         0.00000E+00
         0.00000E+00
         0.00000E+00
         0.00000E+00
         0.00000E+00
         0.00000E+00
         0.00000E+00
         0.00000E+00
         0.00000E+00
         0.00000E+00
         0.00000E+00
         0.00000E+00
         0.00000E+00
         0.00000E+00
         0.00000E+00
         0.00000E+00
         0.00000E+00
         0.00000E+00
         0.00000E+00
         0.00000E+00
         0.00000E+00
         0.00000E+00
         0.00000E+00
         0.00000E+00
         0.00000E+00
         0.00000E+00
         0.00000E+00
         0.00000E+00
         0.00000E+00
         0.00000E+00
         0.00000E+00
         0.00000E+00
         0.00000E+00
         0.00000E+00
         0.00000E+00
         0.00000E+00
         0.00000E+00
         0.00000E+00
         0.00000E+00
         0.00000E+00
         0.00000E+00
         0.00000E+00
         0.00000E+00
         0.00000E+00
         0.00000E+00
         0.00000E+00
         0.00000E+00
         0.00000E+00
         0.00000E+00
         0.00000E+00
         0.00000E+00
         0.00000E+00
         0.00000E+00
         0.00000E+00
         0.00000E+00
         0.00000E+00
         0.00000E+00
         0.00000E+00
         0.00000E+00
         0.00000E+00
         0.00000E+00
         0.00000E+00
         0.00000E+00
         0.00000E+00
         0.00000E+00
         0.00000E+00
         0.00000E+00
         0.00000E+00
         0.00000E+00
         0.00000E+00
         0.00000E+00
         0.00000E+00
         0.00000E+00
         0.00000E+00
         0.00000E+00
         0.00000E+00
         0.00000E+00
         0.00000E+00
         0.00000E+00
         0.00000E+00
         0.00000E+00
         0.00000E+00
         0.00000E+00
         0.00000E+00
         0.00000E+00
         0.00000E+00
         0.00000E+00
         0.00000E+00
         0.00000E+00
         0.00000E+00
         0.00000E+00
         0.00000E+00
         0.00000E+00
         0.00000E+00
         0.00000E+00
         0.00000E+00
         0.00000E+00
         0.00000E+00
         0.00000E+00
         0.00000E+00
         0.00000E+00
         0.00000E+00
         0.00000E+00
         0.00000E+00
         0.00000E+00
         0.00000E+00
         0.00000E+00
         0.00000E+00
         0.00000E+00
         0.00000E+00
         0.00000E+00
         0.00000E+00
         0.00000E+00
         0.00000E+00
         0.00000E+00
         0.00000E+00
         0.00000E+00
         0.00000E+00
         0.00000E+00
         0.00000E+00
         0.00000E+00
         0.00000E+00
         0.00000E+00
         0.00000E+00
         0.00000E+00
         0.00000E+00
         0.00000E+00
         0.00000E+00
         0.00000E+00
         0.00000E+00
         0.00000E+00
         0.00000E+00
         0.00000E+00
         0.00000E+00
         0.00000E+00
         0.00000E+00
         0.00000E+00
         0.00000E+00
         0.00000E+00
         0.00000E+00
         0.00000E+00
         0.00000E+00
         0.00000E+00
         0.00000E+00
         0.00000E+00
         0.00000E+00
         0.00000E+00
         0.00000E+00
         0.00000E+00
         0.00000E+00
         0.00000E+00
         0.00000E+00
         0.00000E+00
         0.00000E+00
         0.00000E+00
         0.00000E+00
         0.00000E+00
         0.00000E+00
         0.00000E+00
         0.00000E+00
         0.00000E+00
         0.00000E+00
         0.00000E+00
         0.00000E+00
         0.00000E+00
         0.00000E+00
         0.00000E+00
         0.00000E+00
         0.00000E+00
         0.00000E+00
         0.00000E+00
         0.00000E+00
         0.00000E+00
         0.00000E+00
         0.00000E+00
         0.00000E+00
         0.00000E+00
         0.00000E+00
         0.00000E+00
         0.00000E+00
         0.00000E+00
         0.00000E+00
         0.00000E+00
         0.00000E+00
         0.00000E+00
         0.00000E+00
         0.00000E+00
         0.00000E+00
         0.00000E+00
         0.00000E+00
         0.00000E+00
         0.00000E+00
         0.00000E+00
         0.00000E+00
         0.00000E+00
         0.00000E+00
         0.00000E+00
         0.00000E+00
         0.00000E+00
         0.00000E+00
         0.00000E+00
         0.00000E+00
         0.00000E+00
         0.00000E+00
         0.00000E+00
         0.00000E+00
         0.00000E+00
         0.00000E+00
         0.00000E+00
         0.00000E+00
         0.00000E+00
         0.00000E+00
         0.00000E+00
         0.00000E+00
         0.00000E+00
         0.00000E+00
         0.00000E+00
         0.00000E+00
         0.00000E+00
         0.00000E+00
         0.00000E+00
         0.00000E+00
         0.00000E+00
         0.00000E+00
         0.00000E+00
         0.00000E+00
         0.00000E+00
         0.00000E+00
         0.00000E+00
         0.00000E+00
         0.00000E+00
         0.00000E+00
         0.00000E+00
         0.00000E+00
         0.00000E+00
         0.00000E+00
         0.00000E+00
         0.00000E+00
         0.00000E+00
         0.00000E+00
         0.00000E+00
         0.00000E+00
         0.00000E+00
         0.00000E+00
         0.00000E+00
         0.00000E+00
         0.00000E+00
         0.00000E+00
         0.00000E+00
         0.00000E+00
         0.00000E+00
         0.00000E+00
         0.00000E+00
         0.00000E+00
         0.00000E+00
         0.00000E+00
         0.00000E+00
         0.00000E+00
         0.00000E+00
         0.00000E+00
         0.00000E+00
         0.00000E+00
         0.00000E+00
         0.00000E+00
         0.00000E+00
         0.00000E+00
         0.00000E+00
         0.00000E+00
         0.00000E+00
         0.00000E+00
         0.00000E+00
         0.00000E+00
         0.00000E+00
         0.00000E+00
         0.00000E+00
         0.00000E+00
         0.00000E+00
         0.00000E+00
         0.00000E+00
         0.00000E+00
         0.00000E+00
         0.00000E+00
         0.00000E+00
         0.00000E+00
         0.00000E+00
         0.00000E+00
         0.00000E+00
         0.00000E+00
         0.00000E+00
         0.00000E+00
         0.00000E+00
         0.00000E+00
         0.00000E+00
         0.00000E+00
         0.00000E+00
         0.00000E+00
         0.00000E+00
         0.00000E+00
         0.00000E+00
         0.00000E+00
         0.00000E+00
         0.00000E+00
         0.00000E+00
         0.00000E+00
         0.00000E+00
         0.00000E+00
         0.00000E+00
         0.00000E+00
         0.00000E+00
         0.00000E+00
         0.00000E+00
         0.00000E+00
         0.00000E+00
         0.00000E+00
         0.00000E+00
         0.00000E+00
         0.00000E+00
         0.00000E+00
         0.00000E+00
         0.00000E+00
         0.00000E+00
         0.00000E+00
         0.00000E+00
         0.00000E+00
         0.00000E+00
         0.00000E+00
         0.00000E+00
         0.00000E+00
         0.00000E+00
         0.00000E+00
         0.00000E+00
         0.00000E+00
         0.00000E+00
         0.00000E+00
         0.00000E+00
         0.00000E+00
         0.00000E+00
         0.00000E+00
         0.00000E+00
         0.00000E+00
         0.00000E+00
         0.00000E+00
         0.00000E+00
         0.00000E+00
         0.00000E+00
         0.00000E+00
         0.00000E+00
         0.00000E+00
         0.00000E+00
         0.00000E+00
         0.00000E+00
         0.00000E+00
         0.00000E+00
         0.00000E+00
         0.00000E+00
         0.00000E+00
         0.00000E+00
         0.00000E+00
         0.00000E+00
         0.00000E+00
         0.00000E+00
         0.00000E+00
         0.00000E+00
         0.00000E+00
         0.00000E+00
         0.00000E+00
         0.00000E+00
         0.00000E+00
         0.00000E+00
         0.00000E+00
         0.00000E+00
         0.00000E+00
         0.00000E+00
         0.00000E+00
         0.00000E+00
         0.00000E+00
         0.00000E+00
         0.00000E+00
         0.00000E+00
         0.00000E+00
         0.00000E+00
         0.00000E+00
         0.00000E+00
         0.00000E+00
         0.00000E+00
         0.00000E+00
         0.00000E+00
         0.00000E+00
         0.00000E+00
         0.00000E+00
         0.00000E+00
         0.00000E+00
         0.00000E+00
         0.00000E+00
         0.00000E+00
         0.00000E+00
         0.00000E+00
         0.00000E+00
         0.00000E+00
         0.00000E+00
         0.00000E+00
         0.00000E+00
         0.00000E+00
         0.00000E+00
         0.00000E+00
         0.00000E+00
         0.00000E+00
         0.00000E+00
         0.00000E+00
         0.00000E+00
         0.00000E+00
         0.00000E+00
         0.00000E+00
         0.00000E+00
         0.00000E+00
         0.00000E+00
         0.00000E+00
         0.00000E+00
         0.00000E+00
         0.00000E+00
         0.00000E+00
         0.00000E+00
         0.00000E+00
         0.00000E+00
         0.00000E+00
         0.00000E+00
         0.00000E+00
         0.00000E+00
         0.00000E+00
         0.00000E+00
         0.00000E+00
         0.00000E+00
         0.00000E+00
         0.00000E+00
         0.00000E+00
         0.00000E+00
         0.00000E+00
         0.00000E+00
         0.00000E+00
         0.00000E+00
         0.00000E+00
         0.00000E+00
         0.00000E+00
         0.00000E+00
         0.00000E+00
         0.00000E+00
         0.00000E+00
         0.00000E+00
         0.00000E+00
         0.00000E+00
         0.00000E+00
         0.00000E+00
         0.00000E+00
         0.00000E+00
         0.00000E+00
         0.00000E+00
         0.00000E+00
         0.00000E+00
         0.00000E+00
         0.00000E+00
         0.00000E+00
         0.00000E+00
         0.00000E+00
         0.00000E+00
         0.00000E+00
         0.00000E+00
         0.00000E+00
         0.00000E+00
         0.00000E+00
         0.00000E+00
         0.00000E+00
         0.00000E+00
         0.00000E+00
         0.00000E+00
         0.00000E+00
         0.00000E+00
         0.00000E+00
         0.00000E+00
         0.00000E+00
         0.00000E+00
         0.00000E+00
         0.00000E+00
         0.00000E+00
         0.00000E+00
         0.00000E+00
         0.00000E+00
         0.00000E+00
         0.00000E+00
         0.00000E+00
         0.00000E+00
         0.00000E+00
         0.00000E+00
         0.00000E+00
         0.00000E+00
         0.00000E+00
         0.00000E+00
         0.00000E+00
         0.00000E+00
         0.00000E+00
         0.00000E+00
         0.00000E+00
         0.00000E+00
         0.00000E+00
         0.00000E+00
         0.00000E+00
         0.00000E+00
         0.00000E+00
         0.00000E+00
         0.00000E+00
         0.00000E+00
         0.00000E+00
         0.00000E+00
         0.00000E+00
         0.00000E+00
         0.00000E+00
         0.00000E+00
         0.00000E+00
         0.00000E+00
         0.00000E+00
         0.00000E+00
         0.00000E+00
         0.00000E+00
         0.00000E+00
         0.00000E+00
         0.00000E+00
         0.00000E+00
         0.00000E+00
         0.00000E+00
         0.00000E+00
         0.00000E+00
         0.00000E+00
         0.00000E+00
         0.00000E+00
         0.00000E+00
         0.00000E+00
         0.00000E+00
         0.00000E+00
         0.00000E+00
         0.00000E+00
         0.00000E+00
         0.00000E+00
         0.00000E+00
         0.00000E+00
         0.00000E+00
         0.00000E+00
         0.00000E+00
         0.00000E+00
         0.00000E+00
         0.00000E+00
         0.00000E+00
         0.00000E+00
         0.00000E+00
         0.00000E+00
         0.00000E+00
         0.00000E+00
         0.00000E+00
         0.00000E+00
         0.00000E+00
         0.00000E+00
         0.00000E+00
         0.00000E+00
         0.00000E+00
         0.00000E+00
         0.00000E+00
         0.00000E+00
         0.00000E+00
         0.00000E+00
         0.00000E+00
         0.00000E+00
         0.00000E+00
         0.00000E+00
         0.00000E+00
         0.00000E+00
         0.00000E+00
         0.00000E+00
         0.00000E+00
         0.00000E+00
         0.00000E+00
         0.00000E+00
         0.00000E+00
         0.00000E+00
         0.00000E+00
         0.00000E+00
         0.00000E+00
         0.00000E+00
         0.00000E+00
         0.00000E+00
         0.00000E+00
         0.00000E+00
         0.00000E+00
         0.00000E+00
         0.00000E+00
         0.00000E+00
         0.00000E+00
         0.00000E+00
         0.00000E+00
         0.00000E+00
         0.00000E+00
         0.00000E+00
         0.00000E+00
         0.00000E+00
         0.00000E+00
         0.00000E+00
         0.00000E+00
         0.00000E+00
         0.00000E+00
         0.00000E+00
         0.00000E+00
         0.00000E+00
         0.00000E+00
         0.00000E+00
         0.00000E+00
         0.00000E+00
         0.00000E+00
         0.00000E+00
         0.00000E+00
         0.00000E+00
         0.00000E+00
         0.00000E+00
         0.00000E+00
         0.00000E+00
         0.00000E+00
         0.00000E+00
         0.00000E+00
         0.00000E+00
         0.00000E+00
         0.00000E+00
         0.00000E+00
         0.00000E+00
         0.00000E+00
         0.00000E+00
         0.00000E+00
         0.00000E+00
         0.00000E+00
         0.00000E+00
         0.00000E+00
         0.00000E+00
         0.00000E+00
         0.00000E+00
         0.00000E+00
         0.00000E+00
         0.00000E+00
         0.00000E+00
         0.00000E+00
         0.00000E+00
         0.00000E+00
         0.00000E+00
         0.00000E+00
         0.00000E+00
         0.00000E+00
         0.00000E+00
         0.00000E+00
         0.00000E+00
         0.00000E+00
         0.00000E+00
         0.00000E+00
         0.00000E+00
         0.00000E+00
         0.00000E+00
         0.00000E+00
         0.00000E+00
         0.00000E+00
         0.00000E+00
         0.00000E+00
         0.00000E+00
         0.00000E+00
         0.00000E+00
         0.00000E+00
         0.00000E+00
         0.00000E+00
         0.00000E+00
         0.00000E+00
         0.00000E+00
         0.00000E+00
         0.00000E+00
         0.00000E+00
         0.00000E+00
         0.00000E+00
         0.00000E+00
         0.00000E+00
         0.00000E+00
         0.00000E+00
         0.00000E+00
         0.00000E+00
         0.00000E+00
         0.00000E+00
         0.00000E+00
         0.00000E+00
         0.00000E+00
         0.00000E+00
         0.00000E+00
         0.00000E+00
         0.00000E+00
         0.00000E+00
         0.00000E+00
         0.00000E+00
         0.00000E+00
         0.00000E+00
         0.00000E+00
         0.00000E+00
         0.00000E+00
         0.00000E+00
         0.00000E+00
         0.00000E+00
         0.00000E+00
         0.00000E+00
         0.00000E+00
         0.00000E+00
         0.00000E+00
         0.00000E+00
         0.00000E+00
         0.00000E+00
         0.00000E+00
         0.00000E+00
         0.00000E+00
         0.00000E+00
         0.00000E+00
         0.00000E+00
         0.00000E+00
         0.00000E+00
         0.00000E+00
         0.00000E+00
         0.00000E+00
         0.00000E+00
         0.00000E+00
         0.00000E+00
         0.00000E+00
         0.00000E+00
         0.00000E+00
         0.00000E+00
         0.00000E+00
         0.00000E+00
         0.00000E+00
         0.00000E+00
         0.00000E+00
         0.00000E+00
         0.00000E+00
         0.00000E+00
         0.00000E+00
         0.00000E+00
         0.00000E+00
         0.00000E+00
         0.00000E+00
         0.00000E+00
         0.00000E+00
         0.00000E+00
         0.00000E+00
         0.00000E+00
         0.00000E+00
         0.00000E+00
         0.00000E+00
         0.00000E+00
         0.00000E+00
         0.00000E+00
         0.00000E+00
         0.00000E+00
         0.00000E+00
         0.00000E+00
         0.00000E+00
         0.00000E+00
         0.00000E+00
         0.00000E+00
         0.00000E+00
         0.00000E+00
         0.00000E+00
         0.00000E+00
         0.00000E+00
         0.00000E+00
         0.00000E+00
         0.00000E+00
         0.00000E+00
         0.00000E+00
         0.00000E+00
         0.00000E+00
         0.00000E+00
         0.00000E+00
         0.00000E+00
         0.00000E+00
         0.00000E+00
         0.00000E+00
         0.00000E+00
         0.00000E+00
         0.00000E+00
         0.00000E+00
         0.00000E+00
         0.00000E+00
         0.00000E+00
         0.00000E+00
         0.00000E+00
         0.00000E+00
         0.00000E+00
         0.00000E+00
         0.00000E+00
         0.00000E+00
         0.00000E+00
         0.00000E+00
         0.00000E+00
         0.00000E+00
         0.00000E+00
         0.00000E+00
         0.00000E+00
         0.00000E+00
         0.00000E+00
         0.00000E+00
         0.00000E+00
         0.00000E+00
         0.00000E+00
         0.00000E+00
         0.00000E+00
         0.00000E+00
         0.00000E+00
         0.00000E+00
         0.00000E+00
         0.00000E+00
         0.00000E+00
         0.00000E+00
         0.00000E+00
         0.00000E+00
         0.00000E+00
         0.00000E+00
         0.00000E+00
         0.00000E+00
         0.00000E+00
         0.00000E+00
         0.00000E+00
         0.00000E+00
         0.00000E+00
         0.00000E+00
         0.00000E+00
         0.00000E+00
         0.00000E+00
         0.00000E+00
         0.00000E+00
         0.00000E+00
         0.00000E+00
         0.00000E+00
         0.00000E+00
         0.00000E+00
         0.00000E+00
         0.00000E+00
         0.00000E+00
         0.00000E+00
         0.00000E+00
         0.00000E+00
         0.00000E+00
         0.00000E+00
         0.00000E+00
         0.00000E+00
         0.00000E+00
         0.00000E+00
         0.00000E+00
         0.00000E+00
         0.00000E+00
         0.00000E+00
         0.00000E+00
         0.00000E+00
         0.00000E+00
         0.00000E+00
         0.00000E+00
         0.00000E+00
         0.00000E+00
         0.00000E+00
         0.00000E+00
         0.00000E+00
         0.00000E+00
         0.00000E+00
         0.00000E+00
         0.00000E+00
         0.00000E+00
         0.00000E+00
         0.00000E+00
         0.00000E+00
         0.00000E+00
         0.00000E+00
         0.00000E+00
         0.00000E+00
         0.00000E+00
         0.00000E+00
         0.00000E+00
         0.00000E+00
         0.00000E+00
         0.00000E+00
         0.00000E+00
         0.00000E+00
         0.00000E+00
         0.00000E+00
         0.00000E+00
         0.00000E+00
         0.00000E+00
         0.00000E+00
         0.00000E+00
         0.00000E+00
         0.00000E+00
         0.00000E+00
         0.00000E+00
         0.00000E+00
         0.00000E+00
         0.00000E+00
         0.00000E+00
         0.00000E+00
         0.00000E+00
         0.00000E+00
         0.00000E+00
         0.00000E+00
         0.00000E+00
         0.00000E+00
         0.00000E+00
         0.00000E+00
         0.00000E+00
         0.00000E+00
         0.00000E+00
         0.00000E+00
         0.00000E+00
         0.00000E+00
         0.00000E+00
         0.00000E+00
         0.00000E+00
         0.00000E+00
         0.00000E+00
         0.00000E+00
         0.00000E+00
         0.00000E+00
         0.00000E+00
         0.00000E+00
         0.00000E+00
         0.00000E+00
         0.00000E+00
         0.00000E+00
         0.00000E+00
         0.00000E+00
         0.00000E+00
         0.00000E+00
         0.00000E+00
         0.00000E+00
         0.00000E+00
         0.00000E+00
         0.00000E+00
         0.00000E+00
         0.00000E+00
         0.00000E+00
         0.00000E+00
         0.00000E+00
         0.00000E+00
         0.00000E+00
         0.00000E+00
         0.00000E+00
         0.00000E+00
         0.00000E+00
         0.00000E+00
         0.00000E+00
         0.00000E+00
         0.00000E+00
         0.00000E+00
         0.00000E+00
         0.00000E+00
         0.00000E+00
         0.00000E+00
         0.00000E+00
         0.00000E+00
         0.00000E+00
         0.00000E+00
         0.00000E+00
         0.00000E+00
         0.00000E+00
         0.00000E+00
         0.00000E+00
         0.00000E+00
         0.00000E+00
         0.00000E+00
         0.00000E+00
         0.00000E+00
         0.00000E+00
         0.00000E+00
         0.00000E+00
         0.00000E+00
         0.00000E+00
         0.00000E+00
         0.00000E+00
         0.00000E+00
         0.00000E+00
         0.00000E+00
         0.00000E+00
         0.00000E+00
         0.00000E+00
         0.00000E+00
         0.00000E+00
         0.00000E+00
         0.00000E+00
         0.00000E+00
         0.00000E+00
         0.00000E+00
         0.00000E+00
         0.00000E+00
         0.00000E+00
         0.00000E+00
         0.00000E+00
         0.00000E+00
         0.00000E+00
         0.00000E+00
         0.00000E+00
         0.00000E+00
         0.00000E+00
         0.00000E+00
         0.00000E+00
         0.00000E+00
         0.00000E+00
         0.00000E+00
         0.00000E+00
         0.00000E+00
         0.00000E+00
         0.00000E+00
         0.00000E+00
         0.00000E+00
         0.00000E+00
         0.00000E+00
         0.00000E+00
         0.00000E+00
         0.00000E+00
         0.00000E+00
         0.00000E+00
         0.00000E+00
         0.00000E+00
         0.00000E+00
         0.00000E+00
         0.00000E+00
         0.00000E+00
         0.00000E+00
         0.00000E+00
         0.00000E+00
         0.00000E+00
         0.00000E+00
         0.00000E+00
         0.00000E+00
         0.00000E+00
         0.00000E+00
         0.00000E+00
         0.00000E+00
         0.00000E+00
         0.00000E+00
         0.00000E+00
         0.00000E+00
         0.00000E+00
         0.00000E+00
         0.00000E+00
         0.00000E+00
         0.00000E+00
         0.00000E+00
         0.00000E+00
         0.00000E+00
         0.00000E+00
         0.00000E+00
         0.00000E+00
         0.00000E+00
         0.00000E+00
         0.00000E+00
         0.00000E+00
         0.00000E+00
         0.00000E+00
         0.00000E+00
         0.00000E+00
         0.00000E+00
         0.00000E+00
         0.00000E+00
         0.00000E+00
         0.00000E+00
         0.00000E+00
         0.00000E+00
         0.00000E+00
         0.00000E+00
         0.00000E+00
         0.00000E+00
         0.00000E+00
         0.00000E+00
         0.00000E+00
         0.00000E+00
         0.00000E+00
         0.00000E+00
         0.00000E+00
         0.00000E+00
         0.00000E+00
         0.00000E+00
         0.00000E+00
         0.00000E+00
         0.00000E+00
         0.00000E+00
         0.00000E+00
         0.00000E+00
         0.00000E+00
         0.00000E+00
         0.00000E+00
         0.00000E+00
         0.00000E+00
         0.00000E+00
         0.00000E+00
         0.00000E+00
         0.00000E+00
         0.00000E+00
         0.00000E+00
         0.00000E+00
         0.00000E+00
         0.00000E+00
         0.00000E+00
         0.00000E+00
         0.00000E+00
         0.00000E+00
         0.00000E+00
         0.00000E+00
         0.00000E+00
         0.00000E+00
         0.00000E+00
         0.00000E+00
         0.00000E+00
         0.00000E+00
         0.00000E+00
         0.00000E+00
         0.00000E+00
         0.00000E+00
         0.00000E+00
         0.00000E+00
         0.00000E+00
         0.00000E+00
         0.00000E+00
         0.00000E+00
         0.00000E+00
         0.00000E+00
         0.00000E+00
         0.00000E+00
         0.00000E+00
         0.00000E+00
         0.00000E+00
  
SCALARS                 displacement_y  double 1
LOOKUP_TABLE default
         0.00000E+00
         0.00000E+00
         0.00000E+00
         0.00000E+00
         0.00000E+00
         0.00000E+00
         0.00000E+00
         0.00000E+00
         0.00000E+00
         0.00000E+00
         0.00000E+00
         0.00000E+00
         0.00000E+00
         0.00000E+00
         0.00000E+00
         0.00000E+00
         0.00000E+00
         0.00000E+00
         0.00000E+00
         0.00000E+00
         0.00000E+00
         0.00000E+00
         0.00000E+00
         0.00000E+00
         0.00000E+00
         0.00000E+00
         0.00000E+00
         0.00000E+00
         0.00000E+00
         0.00000E+00
         0.00000E+00
         0.00000E+00
         0.00000E+00
         0.00000E+00
         0.00000E+00
         0.00000E+00
         0.00000E+00
         0.00000E+00
         0.00000E+00
         0.00000E+00
         0.00000E+00
         0.00000E+00
         0.00000E+00
         0.00000E+00
         0.00000E+00
         0.00000E+00
         0.00000E+00
         0.00000E+00
         0.00000E+00
         0.00000E+00
         0.00000E+00
         0.00000E+00
         0.00000E+00
         0.00000E+00
         0.00000E+00
         0.00000E+00
         0.00000E+00
         0.00000E+00
         0.00000E+00
         0.00000E+00
         0.00000E+00
         0.00000E+00
         0.00000E+00
         0.00000E+00
         0.00000E+00
         0.00000E+00
         0.00000E+00
         0.00000E+00
         0.00000E+00
         0.00000E+00
         0.00000E+00
         0.00000E+00
         0.00000E+00
         0.00000E+00
         0.00000E+00
         0.00000E+00
         0.00000E+00
         0.00000E+00
         0.00000E+00
         0.00000E+00
         0.00000E+00
         0.00000E+00
         0.00000E+00
         0.00000E+00
         0.00000E+00
         0.00000E+00
         0.00000E+00
         0.00000E+00
         0.00000E+00
         0.00000E+00
         0.00000E+00
         0.00000E+00
         0.00000E+00
         0.00000E+00
         0.00000E+00
         0.00000E+00
         0.00000E+00
         0.00000E+00
         0.00000E+00
         0.00000E+00
         0.00000E+00
         0.00000E+00
         0.00000E+00
         0.00000E+00
         0.00000E+00
         0.00000E+00
         0.00000E+00
         0.00000E+00
         0.00000E+00
         0.00000E+00
         0.00000E+00
         0.00000E+00
         0.00000E+00
         0.00000E+00
         0.00000E+00
         0.00000E+00
         0.00000E+00
         0.00000E+00
         0.00000E+00
         0.00000E+00
         0.00000E+00
         0.00000E+00
         0.00000E+00
         0.00000E+00
         0.00000E+00
         0.00000E+00
         0.00000E+00
         0.00000E+00
         0.00000E+00
         0.00000E+00
         0.00000E+00
         0.00000E+00
         0.00000E+00
         0.00000E+00
         0.00000E+00
         0.00000E+00
         0.00000E+00
         0.00000E+00
         0.00000E+00
         0.00000E+00
         0.00000E+00
         0.00000E+00
         0.00000E+00
         0.00000E+00
         0.00000E+00
         0.00000E+00
         0.00000E+00
         0.00000E+00
         0.00000E+00
         0.00000E+00
         0.00000E+00
         0.00000E+00
         0.00000E+00
         0.00000E+00
         0.00000E+00
         0.00000E+00
         0.00000E+00
         0.00000E+00
         0.00000E+00
         0.00000E+00
         0.00000E+00
         0.00000E+00
         0.00000E+00
         0.00000E+00
         0.00000E+00
         0.00000E+00
         0.00000E+00
         0.00000E+00
         0.00000E+00
         0.00000E+00
         0.00000E+00
         0.00000E+00
         0.00000E+00
         0.00000E+00
         0.00000E+00
         0.00000E+00
         0.00000E+00
         0.00000E+00
         0.00000E+00
         0.00000E+00
         0.00000E+00
         0.00000E+00
         0.00000E+00
         0.00000E+00
         0.00000E+00
         0.00000E+00
         0.00000E+00
         0.00000E+00
         0.00000E+00
         0.00000E+00
         0.00000E+00
         0.00000E+00
         0.00000E+00
         0.00000E+00
         0.00000E+00
         0.00000E+00
         0.00000E+00
         0.00000E+00
         0.00000E+00
         0.00000E+00
         0.00000E+00
         0.00000E+00
         0.00000E+00
         0.00000E+00
         0.00000E+00
         0.00000E+00
         0.00000E+00
         0.00000E+00
         0.00000E+00
         0.00000E+00
         0.00000E+00
         0.00000E+00
         0.00000E+00
         0.00000E+00
         0.00000E+00
         0.00000E+00
         0.00000E+00
         0.00000E+00
         0.00000E+00
         0.00000E+00
         0.00000E+00
         0.00000E+00
         0.00000E+00
         0.00000E+00
         0.00000E+00
         0.00000E+00
         0.00000E+00
         0.00000E+00
         0.00000E+00
         0.00000E+00
         0.00000E+00
         0.00000E+00
         0.00000E+00
         0.00000E+00
         0.00000E+00
         0.00000E+00
         0.00000E+00
         0.00000E+00
         0.00000E+00
         0.00000E+00
         0.00000E+00
         0.00000E+00
         0.00000E+00
         0.00000E+00
         0.00000E+00
         0.00000E+00
         0.00000E+00
         0.00000E+00
         0.00000E+00
         0.00000E+00
         0.00000E+00
         0.00000E+00
         0.00000E+00
         0.00000E+00
         0.00000E+00
         0.00000E+00
         0.00000E+00
         0.00000E+00
         0.00000E+00
         0.00000E+00
         0.00000E+00
         0.00000E+00
         0.00000E+00
         0.00000E+00
         0.00000E+00
         0.00000E+00
         0.00000E+00
         0.00000E+00
         0.00000E+00
         0.00000E+00
         0.00000E+00
         0.00000E+00
         0.00000E+00
         0.00000E+00
         0.00000E+00
         0.00000E+00
         0.00000E+00
         0.00000E+00
         0.00000E+00
         0.00000E+00
         0.00000E+00
         0.00000E+00
         0.00000E+00
         0.00000E+00
         0.00000E+00
         0.00000E+00
         0.00000E+00
         0.00000E+00
         0.00000E+00
         0.00000E+00
         0.00000E+00
         0.00000E+00
         0.00000E+00
         0.00000E+00
         0.00000E+00
         0.00000E+00
         0.00000E+00
         0.00000E+00
         0.00000E+00
         0.00000E+00
         0.00000E+00
         0.00000E+00
         0.00000E+00
         0.00000E+00
         0.00000E+00
         0.00000E+00
         0.00000E+00
         0.00000E+00
         0.00000E+00
         0.00000E+00
         0.00000E+00
         0.00000E+00
         0.00000E+00
         0.00000E+00
         0.00000E+00
         0.00000E+00
         0.00000E+00
         0.00000E+00
         0.00000E+00
         0.00000E+00
         0.00000E+00
         0.00000E+00
         0.00000E+00
         0.00000E+00
         0.00000E+00
         0.00000E+00
         0.00000E+00
         0.00000E+00
         0.00000E+00
         0.00000E+00
         0.00000E+00
         0.00000E+00
         0.00000E+00
         0.00000E+00
         0.00000E+00
         0.00000E+00
         0.00000E+00
         0.00000E+00
         0.00000E+00
         0.00000E+00
         0.00000E+00
         0.00000E+00
         0.00000E+00
         0.00000E+00
         0.00000E+00
         0.00000E+00
         0.00000E+00
         0.00000E+00
         0.00000E+00
         0.00000E+00
         0.00000E+00
         0.00000E+00
         0.00000E+00
         0.00000E+00
         0.00000E+00
         0.00000E+00
         0.00000E+00
         0.00000E+00
         0.00000E+00
         0.00000E+00
         0.00000E+00
         0.00000E+00
         0.00000E+00
         0.00000E+00
         0.00000E+00
         0.00000E+00
         0.00000E+00
         0.00000E+00
         0.00000E+00
         0.00000E+00
         0.00000E+00
         0.00000E+00
         0.00000E+00
         0.00000E+00
         0.00000E+00
         0.00000E+00
         0.00000E+00
         0.00000E+00
         0.00000E+00
         0.00000E+00
         0.00000E+00
         0.00000E+00
         0.00000E+00
         0.00000E+00
         0.00000E+00
         0.00000E+00
         0.00000E+00
         0.00000E+00
         0.00000E+00
         0.00000E+00
         0.00000E+00
         0.00000E+00
         0.00000E+00
         0.00000E+00
         0.00000E+00
         0.00000E+00
         0.00000E+00
         0.00000E+00
         0.00000E+00
         0.00000E+00
         0.00000E+00
         0.00000E+00
         0.00000E+00
         0.00000E+00
         0.00000E+00
         0.00000E+00
         0.00000E+00
         0.00000E+00
         0.00000E+00
         0.00000E+00
         0.00000E+00
         0.00000E+00
         0.00000E+00
         0.00000E+00
         0.00000E+00
         0.00000E+00
         0.00000E+00
         0.00000E+00
         0.00000E+00
         0.00000E+00
         0.00000E+00
         0.00000E+00
         0.00000E+00
         0.00000E+00
         0.00000E+00
         0.00000E+00
         0.00000E+00
         0.00000E+00
         0.00000E+00
         0.00000E+00
         0.00000E+00
         0.00000E+00
         0.00000E+00
         0.00000E+00
         0.00000E+00
         0.00000E+00
         0.00000E+00
         0.00000E+00
         0.00000E+00
         0.00000E+00
         0.00000E+00
         0.00000E+00
         0.00000E+00
         0.00000E+00
         0.00000E+00
         0.00000E+00
         0.00000E+00
         0.00000E+00
         0.00000E+00
         0.00000E+00
         0.00000E+00
         0.00000E+00
         0.00000E+00
         0.00000E+00
         0.00000E+00
         0.00000E+00
         0.00000E+00
         0.00000E+00
         0.00000E+00
         0.00000E+00
         0.00000E+00
         0.00000E+00
         0.00000E+00
         0.00000E+00
         0.00000E+00
         0.00000E+00
         0.00000E+00
         0.00000E+00
         0.00000E+00
         0.00000E+00
         0.00000E+00
         0.00000E+00
         0.00000E+00
         0.00000E+00
         0.00000E+00
         0.00000E+00
         0.00000E+00
         0.00000E+00
         0.00000E+00
         0.00000E+00
         0.00000E+00
         0.00000E+00
         0.00000E+00
         0.00000E+00
         0.00000E+00
         0.00000E+00
         0.00000E+00
         0.00000E+00
         0.00000E+00
         0.00000E+00
         0.00000E+00
         0.00000E+00
         0.00000E+00
         0.00000E+00
         0.00000E+00
         0.00000E+00
         0.00000E+00
         0.00000E+00
         0.00000E+00
         0.00000E+00
         0.00000E+00
         0.00000E+00
         0.00000E+00
         0.00000E+00
         0.00000E+00
         0.00000E+00
         0.00000E+00
         0.00000E+00
         0.00000E+00
         0.00000E+00
         0.00000E+00
         0.00000E+00
         0.00000E+00
         0.00000E+00
         0.00000E+00
         0.00000E+00
         0.00000E+00
         0.00000E+00
         0.00000E+00
         0.00000E+00
         0.00000E+00
         0.00000E+00
         0.00000E+00
         0.00000E+00
         0.00000E+00
         0.00000E+00
         0.00000E+00
         0.00000E+00
         0.00000E+00
         0.00000E+00
         0.00000E+00
         0.00000E+00
         0.00000E+00
         0.00000E+00
         0.00000E+00
         0.00000E+00
         0.00000E+00
         0.00000E+00
         0.00000E+00
         0.00000E+00
         0.00000E+00
         0.00000E+00
         0.00000E+00
         0.00000E+00
         0.00000E+00
         0.00000E+00
         0.00000E+00
         0.00000E+00
         0.00000E+00
         0.00000E+00
         0.00000E+00
         0.00000E+00
         0.00000E+00
         0.00000E+00
         0.00000E+00
         0.00000E+00
         0.00000E+00
         0.00000E+00
         0.00000E+00
         0.00000E+00
         0.00000E+00
         0.00000E+00
         0.00000E+00
         0.00000E+00
         0.00000E+00
         0.00000E+00
         0.00000E+00
         0.00000E+00
         0.00000E+00
         0.00000E+00
         0.00000E+00
         0.00000E+00
         0.00000E+00
         0.00000E+00
         0.00000E+00
         0.00000E+00
         0.00000E+00
         0.00000E+00
         0.00000E+00
         0.00000E+00
         0.00000E+00
         0.00000E+00
         0.00000E+00
         0.00000E+00
         0.00000E+00
         0.00000E+00
         0.00000E+00
         0.00000E+00
         0.00000E+00
         0.00000E+00
         0.00000E+00
         0.00000E+00
         0.00000E+00
         0.00000E+00
         0.00000E+00
         0.00000E+00
         0.00000E+00
         0.00000E+00
         0.00000E+00
         0.00000E+00
         0.00000E+00
         0.00000E+00
         0.00000E+00
         0.00000E+00
         0.00000E+00
         0.00000E+00
         0.00000E+00
         0.00000E+00
         0.00000E+00
         0.00000E+00
         0.00000E+00
         0.00000E+00
         0.00000E+00
         0.00000E+00
         0.00000E+00
         0.00000E+00
         0.00000E+00
         0.00000E+00
         0.00000E+00
         0.00000E+00
         0.00000E+00
         0.00000E+00
         0.00000E+00
         0.00000E+00
         0.00000E+00
         0.00000E+00
         0.00000E+00
         0.00000E+00
         0.00000E+00
         0.00000E+00
         0.00000E+00
         0.00000E+00
         0.00000E+00
         0.00000E+00
         0.00000E+00
         0.00000E+00
         0.00000E+00
         0.00000E+00
         0.00000E+00
         0.00000E+00
         0.00000E+00
         0.00000E+00
         0.00000E+00
         0.00000E+00
         0.00000E+00
         0.00000E+00
         0.00000E+00
         0.00000E+00
         0.00000E+00
         0.00000E+00
         0.00000E+00
         0.00000E+00
         0.00000E+00
         0.00000E+00
         0.00000E+00
         0.00000E+00
         0.00000E+00
         0.00000E+00
         0.00000E+00
         0.00000E+00
         0.00000E+00
         0.00000E+00
         0.00000E+00
         0.00000E+00
         0.00000E+00
         0.00000E+00
         0.00000E+00
         0.00000E+00
         0.00000E+00
         0.00000E+00
         0.00000E+00
         0.00000E+00
         0.00000E+00
         0.00000E+00
         0.00000E+00
         0.00000E+00
         0.00000E+00
         0.00000E+00
         0.00000E+00
         0.00000E+00
         0.00000E+00
         0.00000E+00
         0.00000E+00
         0.00000E+00
         0.00000E+00
         0.00000E+00
         0.00000E+00
         0.00000E+00
         0.00000E+00
         0.00000E+00
         0.00000E+00
         0.00000E+00
         0.00000E+00
         0.00000E+00
         0.00000E+00
         0.00000E+00
         0.00000E+00
         0.00000E+00
         0.00000E+00
         0.00000E+00
         0.00000E+00
         0.00000E+00
         0.00000E+00
         0.00000E+00
         0.00000E+00
         0.00000E+00
         0.00000E+00
         0.00000E+00
         0.00000E+00
         0.00000E+00
         0.00000E+00
         0.00000E+00
         0.00000E+00
         0.00000E+00
         0.00000E+00
         0.00000E+00
         0.00000E+00
         0.00000E+00
         0.00000E+00
         0.00000E+00
         0.00000E+00
         0.00000E+00
         0.00000E+00
         0.00000E+00
         0.00000E+00
         0.00000E+00
         0.00000E+00
         0.00000E+00
         0.00000E+00
         0.00000E+00
         0.00000E+00
         0.00000E+00
         0.00000E+00
         0.00000E+00
         0.00000E+00
         0.00000E+00
         0.00000E+00
         0.00000E+00
         0.00000E+00
         0.00000E+00
         0.00000E+00
         0.00000E+00
         0.00000E+00
         0.00000E+00
         0.00000E+00
         0.00000E+00
         0.00000E+00
         0.00000E+00
         0.00000E+00
         0.00000E+00
         0.00000E+00
         0.00000E+00
         0.00000E+00
         0.00000E+00
         0.00000E+00
         0.00000E+00
         0.00000E+00
         0.00000E+00
         0.00000E+00
         0.00000E+00
         0.00000E+00
         0.00000E+00
         0.00000E+00
         0.00000E+00
         0.00000E+00
         0.00000E+00
         0.00000E+00
         0.00000E+00
         0.00000E+00
         0.00000E+00
         0.00000E+00
         0.00000E+00
         0.00000E+00
         0.00000E+00
         0.00000E+00
         0.00000E+00
         0.00000E+00
         0.00000E+00
         0.00000E+00
         0.00000E+00
         0.00000E+00
         0.00000E+00
         0.00000E+00
         0.00000E+00
         0.00000E+00
         0.00000E+00
         0.00000E+00
         0.00000E+00
         0.00000E+00
         0.00000E+00
         0.00000E+00
         0.00000E+00
         0.00000E+00
         0.00000E+00
         0.00000E+00
         0.00000E+00
         0.00000E+00
         0.00000E+00
         0.00000E+00
         0.00000E+00
         0.00000E+00
         0.00000E+00
         0.00000E+00
         0.00000E+00
         0.00000E+00
         0.00000E+00
         0.00000E+00
         0.00000E+00
         0.00000E+00
         0.00000E+00
         0.00000E+00
         0.00000E+00
         0.00000E+00
         0.00000E+00
         0.00000E+00
         0.00000E+00
         0.00000E+00
         0.00000E+00
         0.00000E+00
         0.00000E+00
         0.00000E+00
         0.00000E+00
         0.00000E+00
         0.00000E+00
         0.00000E+00
         0.00000E+00
         0.00000E+00
         0.00000E+00
         0.00000E+00
         0.00000E+00
         0.00000E+00
         0.00000E+00
         0.00000E+00
         0.00000E+00
         0.00000E+00
         0.00000E+00
         0.00000E+00
         0.00000E+00
         0.00000E+00
         0.00000E+00
         0.00000E+00
         0.00000E+00
         0.00000E+00
         0.00000E+00
         0.00000E+00
         0.00000E+00
         0.00000E+00
         0.00000E+00
         0.00000E+00
         0.00000E+00
         0.00000E+00
         0.00000E+00
         0.00000E+00
         0.00000E+00
         0.00000E+00
         0.00000E+00
         0.00000E+00
         0.00000E+00
         0.00000E+00
         0.00000E+00
         0.00000E+00
         0.00000E+00
         0.00000E+00
         0.00000E+00
         0.00000E+00
         0.00000E+00
         0.00000E+00
         0.00000E+00
         0.00000E+00
         0.00000E+00
         0.00000E+00
         0.00000E+00
         0.00000E+00
         0.00000E+00
         0.00000E+00
         0.00000E+00
         0.00000E+00
         0.00000E+00
         0.00000E+00
         0.00000E+00
         0.00000E+00
         0.00000E+00
         0.00000E+00
         0.00000E+00
         0.00000E+00
         0.00000E+00
         0.00000E+00
         0.00000E+00
         0.00000E+00
         0.00000E+00
         0.00000E+00
         0.00000E+00
         0.00000E+00
         0.00000E+00
         0.00000E+00
         0.00000E+00
         0.00000E+00
         0.00000E+00
         0.00000E+00
         0.00000E+00
         0.00000E+00
         0.00000E+00
         0.00000E+00
         0.00000E+00
         0.00000E+00
         0.00000E+00
         0.00000E+00
         0.00000E+00
         0.00000E+00
         0.00000E+00
         0.00000E+00
         0.00000E+00
         0.00000E+00
         0.00000E+00
         0.00000E+00
         0.00000E+00
         0.00000E+00
         0.00000E+00
         0.00000E+00
         0.00000E+00
         0.00000E+00
         0.00000E+00
         0.00000E+00
         0.00000E+00
         0.00000E+00
         0.00000E+00
         0.00000E+00
         0.00000E+00
         0.00000E+00
         0.00000E+00
         0.00000E+00
         0.00000E+00
         0.00000E+00
         0.00000E+00
         0.00000E+00
         0.00000E+00
         0.00000E+00
         0.00000E+00
         0.00000E+00
         0.00000E+00
         0.00000E+00
         0.00000E+00
         0.00000E+00
         0.00000E+00
         0.00000E+00
         0.00000E+00
         0.00000E+00
         0.00000E+00
         0.00000E+00
         0.00000E+00
         0.00000E+00
         0.00000E+00
         0.00000E+00
         0.00000E+00
         0.00000E+00
         0.00000E+00
         0.00000E+00
         0.00000E+00
         0.00000E+00
         0.00000E+00
         0.00000E+00
         0.00000E+00
         0.00000E+00
         0.00000E+00
         0.00000E+00
         0.00000E+00
         0.00000E+00
         0.00000E+00
         0.00000E+00
         0.00000E+00
         0.00000E+00
         0.00000E+00
         0.00000E+00
         0.00000E+00
         0.00000E+00
         0.00000E+00
         0.00000E+00
         0.00000E+00
         0.00000E+00
         0.00000E+00
         0.00000E+00
         0.00000E+00
         0.00000E+00
         0.00000E+00
         0.00000E+00
         0.00000E+00
         0.00000E+00
         0.00000E+00
         0.00000E+00
         0.00000E+00
         0.00000E+00
         0.00000E+00
         0.00000E+00
         0.00000E+00
         0.00000E+00
         0.00000E+00
         0.00000E+00
         0.00000E+00
         0.00000E+00
         0.00000E+00
         0.00000E+00
         0.00000E+00
         0.00000E+00
         0.00000E+00
         0.00000E+00
         0.00000E+00
         0.00000E+00
         0.00000E+00
         0.00000E+00
         0.00000E+00
         0.00000E+00
         0.00000E+00
         0.00000E+00
         0.00000E+00
         0.00000E+00
         0.00000E+00
         0.00000E+00
         0.00000E+00
         0.00000E+00
         0.00000E+00
         0.00000E+00
         0.00000E+00
         0.00000E+00
         0.00000E+00
         0.00000E+00
         0.00000E+00
         0.00000E+00
         0.00000E+00
         0.00000E+00
         0.00000E+00
         0.00000E+00
         0.00000E+00
         0.00000E+00
         0.00000E+00
         0.00000E+00
         0.00000E+00
         0.00000E+00
         0.00000E+00
         0.00000E+00
         0.00000E+00
         0.00000E+00
         0.00000E+00
         0.00000E+00
         0.00000E+00
         0.00000E+00
         0.00000E+00
         0.00000E+00
         0.00000E+00
         0.00000E+00
         0.00000E+00
         0.00000E+00
         0.00000E+00
         0.00000E+00
         0.00000E+00
         0.00000E+00
         0.00000E+00
         0.00000E+00
         0.00000E+00
         0.00000E+00
         0.00000E+00
         0.00000E+00
         0.00000E+00
         0.00000E+00
         0.00000E+00
         0.00000E+00
         0.00000E+00
         0.00000E+00
         0.00000E+00
         0.00000E+00
         0.00000E+00
         0.00000E+00
         0.00000E+00
         0.00000E+00
         0.00000E+00
         0.00000E+00
         0.00000E+00
         0.00000E+00
         0.00000E+00
         0.00000E+00
         0.00000E+00
         0.00000E+00
         0.00000E+00
         0.00000E+00
         0.00000E+00
         0.00000E+00
         0.00000E+00
         0.00000E+00
         0.00000E+00
         0.00000E+00
         0.00000E+00
         0.00000E+00
         0.00000E+00
         0.00000E+00
         0.00000E+00
         0.00000E+00
         0.00000E+00
         0.00000E+00
         0.00000E+00
         0.00000E+00
         0.00000E+00
         0.00000E+00
         0.00000E+00
         0.00000E+00
         0.00000E+00
         0.00000E+00
         0.00000E+00
         0.00000E+00
         0.00000E+00
         0.00000E+00
         0.00000E+00
         0.00000E+00
         0.00000E+00
         0.00000E+00
         0.00000E+00
         0.00000E+00
         0.00000E+00
         0.00000E+00
         0.00000E+00
         0.00000E+00
         0.00000E+00
         0.00000E+00
         0.00000E+00
         0.00000E+00
         0.00000E+00
         0.00000E+00
         0.00000E+00
         0.00000E+00
         0.00000E+00
         0.00000E+00
         0.00000E+00
         0.00000E+00
         0.00000E+00
         0.00000E+00
         0.00000E+00
         0.00000E+00
         0.00000E+00
         0.00000E+00
         0.00000E+00
         0.00000E+00
         0.00000E+00
         0.00000E+00
         0.00000E+00
         0.00000E+00
         0.00000E+00
         0.00000E+00
         0.00000E+00
         0.00000E+00
         0.00000E+00
         0.00000E+00
         0.00000E+00
         0.00000E+00
         0.00000E+00
         0.00000E+00
         0.00000E+00
         0.00000E+00
         0.00000E+00
         0.00000E+00
         0.00000E+00
         0.00000E+00
         0.00000E+00
         0.00000E+00
         0.00000E+00
         0.00000E+00
         0.00000E+00
         0.00000E+00
         0.00000E+00
         0.00000E+00
         0.00000E+00
         0.00000E+00
         0.00000E+00
         0.00000E+00
         0.00000E+00
         0.00000E+00
         0.00000E+00
         0.00000E+00
         0.00000E+00
         0.00000E+00
         0.00000E+00
         0.00000E+00
         0.00000E+00
         0.00000E+00
         0.00000E+00
         0.00000E+00
         0.00000E+00
         0.00000E+00
         0.00000E+00
         0.00000E+00
         0.00000E+00
         0.00000E+00
         0.00000E+00
         0.00000E+00
         0.00000E+00
         0.00000E+00
         0.00000E+00
         0.00000E+00
         0.00000E+00
         0.00000E+00
         0.00000E+00
         0.00000E+00
         0.00000E+00
         0.00000E+00
         0.00000E+00
         0.00000E+00
         0.00000E+00
         0.00000E+00
         0.00000E+00
         0.00000E+00
         0.00000E+00
         0.00000E+00
         0.00000E+00
         0.00000E+00
         0.00000E+00
         0.00000E+00
         0.00000E+00
         0.00000E+00
         0.00000E+00
         0.00000E+00
         0.00000E+00
         0.00000E+00
         0.00000E+00
         0.00000E+00
         0.00000E+00
         0.00000E+00
         0.00000E+00
         0.00000E+00
         0.00000E+00
         0.00000E+00
         0.00000E+00
         0.00000E+00
         0.00000E+00
         0.00000E+00
         0.00000E+00
         0.00000E+00
         0.00000E+00
         0.00000E+00
         0.00000E+00
         0.00000E+00
         0.00000E+00
         0.00000E+00
         0.00000E+00
         0.00000E+00
         0.00000E+00
         0.00000E+00
         0.00000E+00
         0.00000E+00
         0.00000E+00
         0.00000E+00
         0.00000E+00
         0.00000E+00
         0.00000E+00
         0.00000E+00
         0.00000E+00
         0.00000E+00
         0.00000E+00
         0.00000E+00
         0.00000E+00
         0.00000E+00
         0.00000E+00
         0.00000E+00
         0.00000E+00
         0.00000E+00
         0.00000E+00
         0.00000E+00
         0.00000E+00
         0.00000E+00
         0.00000E+00
         0.00000E+00
         0.00000E+00
         0.00000E+00
         0.00000E+00
         0.00000E+00
         0.00000E+00
         0.00000E+00
         0.00000E+00
         0.00000E+00
         0.00000E+00
         0.00000E+00
         0.00000E+00
         0.00000E+00
         0.00000E+00
         0.00000E+00
         0.00000E+00
         0.00000E+00
         0.00000E+00
         0.00000E+00
         0.00000E+00
         0.00000E+00
         0.00000E+00
         0.00000E+00
         0.00000E+00
         0.00000E+00
         0.00000E+00
         0.00000E+00
         0.00000E+00
         0.00000E+00
         0.00000E+00
         0.00000E+00
         0.00000E+00
         0.00000E+00
         0.00000E+00
         0.00000E+00
         0.00000E+00
         0.00000E+00
         0.00000E+00
         0.00000E+00
         0.00000E+00
         0.00000E+00
         0.00000E+00
         0.00000E+00
         0.00000E+00
         0.00000E+00
         0.00000E+00
         0.00000E+00
         0.00000E+00
         0.00000E+00
         0.00000E+00
         0.00000E+00
         0.00000E+00
         0.00000E+00
         0.00000E+00
         0.00000E+00
         0.00000E+00
         0.00000E+00
         0.00000E+00
         0.00000E+00
         0.00000E+00
         0.00000E+00
         0.00000E+00
         0.00000E+00
         0.00000E+00
         0.00000E+00
         0.00000E+00
         0.00000E+00
         0.00000E+00
         0.00000E+00
         0.00000E+00
         0.00000E+00
         0.00000E+00
         0.00000E+00
         0.00000E+00
         0.00000E+00
         0.00000E+00
         0.00000E+00
         0.00000E+00
         0.00000E+00
         0.00000E+00
         0.00000E+00
         0.00000E+00
         0.00000E+00
         0.00000E+00
         0.00000E+00
         0.00000E+00
         0.00000E+00
         0.00000E+00
         0.00000E+00
         0.00000E+00
         0.00000E+00
         0.00000E+00
         0.00000E+00
         0.00000E+00
         0.00000E+00
         0.00000E+00
         0.00000E+00
         0.00000E+00
         0.00000E+00
         0.00000E+00
         0.00000E+00
         0.00000E+00
         0.00000E+00
         0.00000E+00
         0.00000E+00
         0.00000E+00
         0.00000E+00
         0.00000E+00
         0.00000E+00
         0.00000E+00
         0.00000E+00
         0.00000E+00
         0.00000E+00
         0.00000E+00
         0.00000E+00
         0.00000E+00
         0.00000E+00
         0.00000E+00
         0.00000E+00
         0.00000E+00
         0.00000E+00
         0.00000E+00
         0.00000E+00
         0.00000E+00
         0.00000E+00
         0.00000E+00
         0.00000E+00
         0.00000E+00
         0.00000E+00
         0.00000E+00
         0.00000E+00
         0.00000E+00
         0.00000E+00
         0.00000E+00
         0.00000E+00
         0.00000E+00
         0.00000E+00
         0.00000E+00
         0.00000E+00
         0.00000E+00
         0.00000E+00
         0.00000E+00
         0.00000E+00
         0.00000E+00
         0.00000E+00
         0.00000E+00
         0.00000E+00
         0.00000E+00
         0.00000E+00
         0.00000E+00
         0.00000E+00
         0.00000E+00
         0.00000E+00
         0.00000E+00
         0.00000E+00
         0.00000E+00
         0.00000E+00
         0.00000E+00
         0.00000E+00
         0.00000E+00
         0.00000E+00
         0.00000E+00
         0.00000E+00
         0.00000E+00
         0.00000E+00
         0.00000E+00
         0.00000E+00
         0.00000E+00
         0.00000E+00
         0.00000E+00
         0.00000E+00
         0.00000E+00
         0.00000E+00
         0.00000E+00
         0.00000E+00
         0.00000E+00
         0.00000E+00
         0.00000E+00
         0.00000E+00
         0.00000E+00
         0.00000E+00
         0.00000E+00
         0.00000E+00
         0.00000E+00
         0.00000E+00
         0.00000E+00
         0.00000E+00
         0.00000E+00
         0.00000E+00
         0.00000E+00
         0.00000E+00
         0.00000E+00
         0.00000E+00
         0.00000E+00
         0.00000E+00
         0.00000E+00
         0.00000E+00
         0.00000E+00
         0.00000E+00
         0.00000E+00
         0.00000E+00
         0.00000E+00
         0.00000E+00
         0.00000E+00
         0.00000E+00
         0.00000E+00
         0.00000E+00
         0.00000E+00
         0.00000E+00
         0.00000E+00
         0.00000E+00
         0.00000E+00
         0.00000E+00
         0.00000E+00
         0.00000E+00
         0.00000E+00
         0.00000E+00
         0.00000E+00
         0.00000E+00
         0.00000E+00
         0.00000E+00
         0.00000E+00
         0.00000E+00
         0.00000E+00
         0.00000E+00
         0.00000E+00
         0.00000E+00
         0.00000E+00
         0.00000E+00
         0.00000E+00
         0.00000E+00
         0.00000E+00
         0.00000E+00
         0.00000E+00
         0.00000E+00
         0.00000E+00
         0.00000E+00
         0.00000E+00
         0.00000E+00
         0.00000E+00
         0.00000E+00
         0.00000E+00
         0.00000E+00
         0.00000E+00
         0.00000E+00
         0.00000E+00
         0.00000E+00
         0.00000E+00
         0.00000E+00
         0.00000E+00
         0.00000E+00
         0.00000E+00
         0.00000E+00
         0.00000E+00
         0.00000E+00
         0.00000E+00
         0.00000E+00
         0.00000E+00
         0.00000E+00
         0.00000E+00
         0.00000E+00
         0.00000E+00
         0.00000E+00
         0.00000E+00
         0.00000E+00
         0.00000E+00
         0.00000E+00
         0.00000E+00
         0.00000E+00
         0.00000E+00
         0.00000E+00
         0.00000E+00
         0.00000E+00
         0.00000E+00
         0.00000E+00
         0.00000E+00
         0.00000E+00
         0.00000E+00
         0.00000E+00
         0.00000E+00
         0.00000E+00
         0.00000E+00
         0.00000E+00
         0.00000E+00
         0.00000E+00
         0.00000E+00
         0.00000E+00
         0.00000E+00
         0.00000E+00
         0.00000E+00
         0.00000E+00
         0.00000E+00
         0.00000E+00
         0.00000E+00
         0.00000E+00
         0.00000E+00
         0.00000E+00
         0.00000E+00
         0.00000E+00
         0.00000E+00
         0.00000E+00
         0.00000E+00
         0.00000E+00
         0.00000E+00
         0.00000E+00
         0.00000E+00
         0.00000E+00
         0.00000E+00
         0.00000E+00
         0.00000E+00
         0.00000E+00
         0.00000E+00
         0.00000E+00
         0.00000E+00
         0.00000E+00
         0.00000E+00
         0.00000E+00
         0.00000E+00
         0.00000E+00
         0.00000E+00
         0.00000E+00
         0.00000E+00
         0.00000E+00
         0.00000E+00
         0.00000E+00
         0.00000E+00
         0.00000E+00
         0.00000E+00
         0.00000E+00
         0.00000E+00
         0.00000E+00
         0.00000E+00
         0.00000E+00
         0.00000E+00
         0.00000E+00
         0.00000E+00
         0.00000E+00
         0.00000E+00
         0.00000E+00
         0.00000E+00
         0.00000E+00
         0.00000E+00
         0.00000E+00
         0.00000E+00
         0.00000E+00
         0.00000E+00
         0.00000E+00
         0.00000E+00
         0.00000E+00
         0.00000E+00
         0.00000E+00
         0.00000E+00
         0.00000E+00
         0.00000E+00
         0.00000E+00
         0.00000E+00
         0.00000E+00
         0.00000E+00
         0.00000E+00
         0.00000E+00
         0.00000E+00
         0.00000E+00
         0.00000E+00
         0.00000E+00
         0.00000E+00
         0.00000E+00
         0.00000E+00
         0.00000E+00
         0.00000E+00
         0.00000E+00
         0.00000E+00
         0.00000E+00
         0.00000E+00
         0.00000E+00
         0.00000E+00
         0.00000E+00
         0.00000E+00
         0.00000E+00
         0.00000E+00
         0.00000E+00
         0.00000E+00
         0.00000E+00
         0.00000E+00
         0.00000E+00
         0.00000E+00
         0.00000E+00
         0.00000E+00
         0.00000E+00
         0.00000E+00
         0.00000E+00
         0.00000E+00
         0.00000E+00
         0.00000E+00
         0.00000E+00
         0.00000E+00
         0.00000E+00
         0.00000E+00
         0.00000E+00
         0.00000E+00
         0.00000E+00
         0.00000E+00
         0.00000E+00
         0.00000E+00
         0.00000E+00
         0.00000E+00
         0.00000E+00
         0.00000E+00
         0.00000E+00
         0.00000E+00
         0.00000E+00
         0.00000E+00
         0.00000E+00
         0.00000E+00
         0.00000E+00
         0.00000E+00
         0.00000E+00
         0.00000E+00
         0.00000E+00
         0.00000E+00
         0.00000E+00
         0.00000E+00
         0.00000E+00
         0.00000E+00
         0.00000E+00
         0.00000E+00
         0.00000E+00
         0.00000E+00
         0.00000E+00
         0.00000E+00
         0.00000E+00
         0.00000E+00
         0.00000E+00
         0.00000E+00
         0.00000E+00
         0.00000E+00
         0.00000E+00
         0.00000E+00
         0.00000E+00
         0.00000E+00
         0.00000E+00
         0.00000E+00
         0.00000E+00
         0.00000E+00
         0.00000E+00
         0.00000E+00
         0.00000E+00
         0.00000E+00
         0.00000E+00
         0.00000E+00
         0.00000E+00
         0.00000E+00
         0.00000E+00
         0.00000E+00
         0.00000E+00
         0.00000E+00
         0.00000E+00
         0.00000E+00
         0.00000E+00
         0.00000E+00
         0.00000E+00
         0.00000E+00
         0.00000E+00
         0.00000E+00
         0.00000E+00
         0.00000E+00
         0.00000E+00
         0.00000E+00
         0.00000E+00
         0.00000E+00
         0.00000E+00
         0.00000E+00
         0.00000E+00
         0.00000E+00
         0.00000E+00
         0.00000E+00
         0.00000E+00
         0.00000E+00
         0.00000E+00
         0.00000E+00
         0.00000E+00
         0.00000E+00
         0.00000E+00
         0.00000E+00
         0.00000E+00
         0.00000E+00
         0.00000E+00
         0.00000E+00
         0.00000E+00
         0.00000E+00
         0.00000E+00
         0.00000E+00
         0.00000E+00
         0.00000E+00
         0.00000E+00
         0.00000E+00
         0.00000E+00
         0.00000E+00
         0.00000E+00
         0.00000E+00
         0.00000E+00
         0.00000E+00
         0.00000E+00
         0.00000E+00
         0.00000E+00
         0.00000E+00
         0.00000E+00
         0.00000E+00
         0.00000E+00
         0.00000E+00
         0.00000E+00
         0.00000E+00
         0.00000E+00
         0.00000E+00
         0.00000E+00
         0.00000E+00
         0.00000E+00
         0.00000E+00
         0.00000E+00
         0.00000E+00
         0.00000E+00
         0.00000E+00
         0.00000E+00
         0.00000E+00
         0.00000E+00
         0.00000E+00
         0.00000E+00
         0.00000E+00
         0.00000E+00
         0.00000E+00
         0.00000E+00
         0.00000E+00
         0.00000E+00
         0.00000E+00
         0.00000E+00
         0.00000E+00
         0.00000E+00
         0.00000E+00
         0.00000E+00
         0.00000E+00
         0.00000E+00
         0.00000E+00
         0.00000E+00
         0.00000E+00
         0.00000E+00
         0.00000E+00
         0.00000E+00
         0.00000E+00
         0.00000E+00
         0.00000E+00
         0.00000E+00
         0.00000E+00
         0.00000E+00
         0.00000E+00
         0.00000E+00
         0.00000E+00
         0.00000E+00
         0.00000E+00
         0.00000E+00
         0.00000E+00
         0.00000E+00
         0.00000E+00
         0.00000E+00
         0.00000E+00
         0.00000E+00
         0.00000E+00
         0.00000E+00
         0.00000E+00
         0.00000E+00
         0.00000E+00
         0.00000E+00
         0.00000E+00
         0.00000E+00
         0.00000E+00
         0.00000E+00
         0.00000E+00
         0.00000E+00
         0.00000E+00
         0.00000E+00
         0.00000E+00
         0.00000E+00
         0.00000E+00
         0.00000E+00
         0.00000E+00
         0.00000E+00
         0.00000E+00
         0.00000E+00
         0.00000E+00
         0.00000E+00
         0.00000E+00
         0.00000E+00
         0.00000E+00
         0.00000E+00
         0.00000E+00
         0.00000E+00
         0.00000E+00
         0.00000E+00
         0.00000E+00
         0.00000E+00
         0.00000E+00
         0.00000E+00
         0.00000E+00
         0.00000E+00
         0.00000E+00
         0.00000E+00
         0.00000E+00
         0.00000E+00
         0.00000E+00
         0.00000E+00
         0.00000E+00
         0.00000E+00
         0.00000E+00
         0.00000E+00
         0.00000E+00
         0.00000E+00
         0.00000E+00
         0.00000E+00
         0.00000E+00
         0.00000E+00
         0.00000E+00
         0.00000E+00
         0.00000E+00
         0.00000E+00
         0.00000E+00
         0.00000E+00
         0.00000E+00
         0.00000E+00
         0.00000E+00
         0.00000E+00
         0.00000E+00
         0.00000E+00
         0.00000E+00
         0.00000E+00
         0.00000E+00
         0.00000E+00
         0.00000E+00
         0.00000E+00
         0.00000E+00
         0.00000E+00
         0.00000E+00
         0.00000E+00
         0.00000E+00
         0.00000E+00
         0.00000E+00
         0.00000E+00
         0.00000E+00
         0.00000E+00
         0.00000E+00
         0.00000E+00
         0.00000E+00
         0.00000E+00
         0.00000E+00
         0.00000E+00
         0.00000E+00
         0.00000E+00
         0.00000E+00
         0.00000E+00
         0.00000E+00
         0.00000E+00
         0.00000E+00
         0.00000E+00
         0.00000E+00
         0.00000E+00
         0.00000E+00
         0.00000E+00
         0.00000E+00
         0.00000E+00
         0.00000E+00
         0.00000E+00
         0.00000E+00
         0.00000E+00
         0.00000E+00
         0.00000E+00
         0.00000E+00
         0.00000E+00
         0.00000E+00
         0.00000E+00
         0.00000E+00
         0.00000E+00
         0.00000E+00
         0.00000E+00
         0.00000E+00
         0.00000E+00
         0.00000E+00
         0.00000E+00
  
SCALARS                 displacement_z  double 1
LOOKUP_TABLE default
        -0.61780E-02
        -0.61682E-02
        -0.61667E-02
        -0.61849E-02
        -0.37965E-16
        -0.42571E-16
        -0.40764E-16
        -0.37033E-16
        -0.61482E-02
        -0.61700E-02
        -0.38283E-16
        -0.37048E-16
        -0.61575E-02
        -0.61714E-02
        -0.45487E-16
        -0.42769E-16
        -0.61788E-02
        -0.61815E-02
        -0.33611E-16
        -0.37279E-16
        -0.61500E-02
        -0.61416E-02
        -0.61457E-02
        -0.45082E-16
        -0.39371E-16
        -0.40656E-16
        -0.61673E-02
        -0.61617E-02
        -0.43249E-16
        -0.36474E-16
        -0.61866E-02
        -0.61914E-02
        -0.61833E-02
        -0.36909E-16
        -0.34313E-16
        -0.33361E-16
        -0.61670E-02
        -0.61870E-02
        -0.39048E-16
        -0.35631E-16
        -0.61612E-02
        -0.61780E-02
        -0.33748E-16
        -0.29877E-16
        -0.61457E-02
        -0.61536E-02
        -0.36983E-16
        -0.41323E-16
        -0.61928E-02
        -0.36129E-16
        -0.61645E-02
        -0.42454E-16
        -0.61854E-02
        -0.38152E-16
        -0.61915E-02
        -0.36596E-16
        -0.61748E-02
        -0.61881E-02
        -0.37288E-16
        -0.36315E-16
        -0.61822E-02
        -0.61644E-02
        -0.37391E-16
        -0.42270E-16
        -0.61811E-02
        -0.36081E-16
        -0.61737E-02
        -0.39378E-16
        -0.61207E-02
        -0.61421E-02
        -0.37904E-16
        -0.39716E-16
        -0.61501E-02
        -0.40049E-16
        -0.61731E-02
        -0.31641E-16
        -0.61710E-02
        -0.30713E-16
        -0.61508E-02
        -0.32384E-16
        -0.61278E-02
        -0.61566E-02
        -0.30855E-16
        -0.32168E-16
        -0.61800E-02
        -0.29960E-16
        -0.61477E-02
        -0.39288E-16
        -0.61393E-02
        -0.40211E-16
        -0.61184E-02
        -0.61469E-02
        -0.38615E-16
        -0.39066E-16
        -0.61662E-02
        -0.35484E-16
        -0.61634E-02
        -0.34977E-16
        -0.61480E-02
        -0.37444E-16
        -0.61259E-02
        -0.61517E-02
        -0.36719E-16
        -0.37797E-16
        -0.60618E-02
        -0.60720E-02
        -0.28508E-16
        -0.26814E-16
        -0.60708E-02
        -0.27222E-16
        -0.60634E-02
        -0.26101E-16
        -0.60641E-02
        -0.25738E-16
        -0.60631E-02
        -0.24323E-16
        -0.60690E-02
        -0.21608E-16
        -0.60716E-02
        -0.19457E-16
        -0.60701E-02
        -0.19322E-16
        -0.60688E-02
        -0.20953E-16
        -0.60599E-02
        -0.22021E-16
        -0.60713E-02
        -0.20108E-16
        -0.60754E-02
        -0.18125E-16
        -0.60743E-02
        -0.18104E-16
        -0.60697E-02
        -0.20236E-16
        -0.60652E-02
        -0.23073E-16
        -0.60628E-02
        -0.24788E-16
        -0.60699E-02
        -0.26771E-16
        -0.60631E-02
        -0.28681E-16
        -0.60734E-02
        -0.26274E-16
        -0.60699E-02
        -0.23049E-16
        -0.60666E-02
        -0.22978E-16
        -0.60724E-02
        -0.25140E-16
        -0.60642E-02
        -0.26802E-16
        -0.60724E-02
        -0.25435E-16
        -0.60726E-02
        -0.24590E-16
        -0.87077E-02
        -0.87060E-02
        -0.87058E-02
        -0.87084E-02
        -0.87031E-02
        -0.87063E-02
        -0.87043E-02
        -0.87064E-02
        -0.87082E-02
        -0.87084E-02
        -0.87035E-02
        -0.87023E-02
        -0.87025E-02
        -0.87058E-02
        -0.87052E-02
        -0.87086E-02
        -0.87098E-02
        -0.87085E-02
        -0.87059E-02
        -0.87091E-02
        -0.87050E-02
        -0.87078E-02
        -0.87026E-02
        -0.87040E-02
        -0.87099E-02
        -0.87054E-02
        -0.87088E-02
        -0.87095E-02
        -0.87069E-02
        -0.87091E-02
        -0.87083E-02
        -0.87053E-02
        -0.87081E-02
        -0.87066E-02
        -0.86993E-02
        -0.87019E-02
        -0.87031E-02
        -0.87071E-02
        -0.87066E-02
        -0.87033E-02
        -0.87001E-02
        -0.87042E-02
        -0.87080E-02
        -0.87027E-02
        -0.87015E-02
        -0.86989E-02
        -0.87026E-02
        -0.87057E-02
        -0.87052E-02
        -0.87028E-02
        -0.87000E-02
        -0.87035E-02
        -0.86929E-02
        -0.86946E-02
        -0.86945E-02
        -0.86936E-02
        -0.86937E-02
        -0.86937E-02
        -0.86946E-02
        -0.86948E-02
        -0.86942E-02
        -0.86938E-02
        -0.86924E-02
        -0.86944E-02
        -0.86953E-02
        -0.86952E-02
        -0.86945E-02
        -0.86938E-02
        -0.86935E-02
        -0.86944E-02
        -0.86933E-02
        -0.86950E-02
        -0.86949E-02
        -0.86941E-02
        -0.86947E-02
        -0.86933E-02
        -0.86947E-02
        -0.86952E-02
        -0.89150E-02
        -0.89150E-02
        -0.89150E-02
        -0.89150E-02
        -0.89150E-02
        -0.89150E-02
        -0.89150E-02
        -0.89150E-02
        -0.89150E-02
        -0.89150E-02
        -0.89150E-02
        -0.89150E-02
        -0.89150E-02
        -0.89150E-02
        -0.89150E-02
        -0.89150E-02
        -0.89150E-02
        -0.89150E-02
        -0.89150E-02
        -0.89150E-02
        -0.89150E-02
        -0.89150E-02
        -0.89150E-02
        -0.89150E-02
        -0.89150E-02
        -0.89150E-02
        -0.89150E-02
        -0.89150E-02
        -0.89150E-02
        -0.89150E-02
        -0.89150E-02
        -0.89150E-02
        -0.89150E-02
        -0.89150E-02
        -0.89150E-02
        -0.89150E-02
        -0.89150E-02
        -0.89150E-02
        -0.89150E-02
        -0.89150E-02
        -0.89150E-02
        -0.89150E-02
        -0.89150E-02
        -0.89150E-02
        -0.89150E-02
        -0.89150E-02
        -0.89150E-02
        -0.89150E-02
        -0.89150E-02
        -0.89150E-02
        -0.89150E-02
        -0.89150E-02
        -0.89150E-02
        -0.89150E-02
        -0.89150E-02
        -0.89150E-02
        -0.89150E-02
        -0.89150E-02
        -0.89150E-02
        -0.89150E-02
        -0.89150E-02
        -0.89150E-02
        -0.89150E-02
        -0.89150E-02
        -0.89150E-02
        -0.89150E-02
        -0.89150E-02
        -0.89150E-02
        -0.89150E-02
        -0.89150E-02
        -0.89150E-02
        -0.89150E-02
        -0.89150E-02
        -0.89150E-02
        -0.89150E-02
        -0.89150E-02
        -0.89150E-02
        -0.89150E-02
        -0.89150E-02
        -0.89150E-02
        -0.89150E-02
        -0.89150E-02
        -0.89150E-02
        -0.89150E-02
        -0.89150E-02
        -0.89150E-02
        -0.89150E-02
        -0.89150E-02
        -0.89150E-02
        -0.89150E-02
        -0.89150E-02
        -0.89150E-02
        -0.89150E-02
        -0.89150E-02
        -0.89150E-02
        -0.89150E-02
        -0.89150E-02
        -0.89150E-02
        -0.89150E-02
        -0.89150E-02
        -0.89150E-02
        -0.89150E-02
        -0.89150E-02
        -0.89150E-02
        -0.89150E-02
        -0.89150E-02
        -0.89150E-02
        -0.89150E-02
        -0.89150E-02
        -0.89150E-02
        -0.89150E-02
        -0.89150E-02
        -0.89150E-02
        -0.89150E-02
        -0.89150E-02
        -0.89150E-02
        -0.89150E-02
        -0.89150E-02
        -0.89150E-02
        -0.89150E-02
        -0.89150E-02
        -0.89150E-02
        -0.89150E-02
        -0.89150E-02
        -0.89150E-02
        -0.89150E-02
        -0.89150E-02
        -0.89150E-02
        -0.89150E-02
        -0.89150E-02
        -0.89150E-02
        -0.89150E-02
        -0.89150E-02
        -0.89150E-02
        -0.89150E-02
        -0.89150E-02
        -0.89150E-02
        -0.89150E-02
        -0.89150E-02
        -0.89150E-02
        -0.89150E-02
        -0.89150E-02
        -0.89150E-02
        -0.89150E-02
        -0.89150E-02
        -0.89150E-02
        -0.89150E-02
        -0.89150E-02
        -0.89150E-02
        -0.89150E-02
        -0.89150E-02
        -0.89150E-02
        -0.89150E-02
        -0.89150E-02
        -0.89150E-02
        -0.89150E-02
        -0.89150E-02
        -0.89150E-02
        -0.89150E-02
        -0.89150E-02
        -0.89150E-02
        -0.89150E-02
        -0.89150E-02
        -0.89150E-02
        -0.89150E-02
        -0.89150E-02
        -0.89150E-02
        -0.89150E-02
        -0.89150E-02
        -0.89150E-02
        -0.89150E-02
        -0.89150E-02
        -0.89150E-02
        -0.89150E-02
        -0.89150E-02
        -0.89150E-02
        -0.89150E-02
        -0.89150E-02
        -0.89150E-02
        -0.89150E-02
        -0.89150E-02
        -0.89150E-02
        -0.89150E-02
        -0.89150E-02
        -0.89150E-02
        -0.89150E-02
        -0.89150E-02
        -0.89150E-02
        -0.89150E-02
        -0.89150E-02
        -0.89150E-02
        -0.89150E-02
        -0.89150E-02
        -0.89150E-02
        -0.89150E-02
        -0.89150E-02
        -0.89150E-02
        -0.89150E-02
        -0.89150E-02
        -0.89150E-02
        -0.89150E-02
        -0.89150E-02
        -0.89150E-02
        -0.89150E-02
        -0.89150E-02
        -0.89150E-02
        -0.89150E-02
        -0.89150E-02
        -0.89150E-02
        -0.89150E-02
        -0.89150E-02
        -0.89150E-02
        -0.89150E-02
        -0.89150E-02
        -0.89150E-02
        -0.89150E-02
        -0.89150E-02
        -0.89150E-02
        -0.89150E-02
        -0.89150E-02
        -0.89150E-02
        -0.89150E-02
        -0.89150E-02
        -0.89150E-02
        -0.89150E-02
        -0.89150E-02
        -0.89150E-02
        -0.89150E-02
        -0.89150E-02
        -0.89150E-02
        -0.89150E-02
        -0.89150E-02
        -0.89150E-02
        -0.89150E-02
        -0.89150E-02
        -0.89150E-02
        -0.89150E-02
        -0.89150E-02
        -0.89150E-02
        -0.89150E-02
        -0.89150E-02
        -0.89150E-02
        -0.89150E-02
        -0.89150E-02
        -0.89150E-02
        -0.89150E-02
        -0.89150E-02
        -0.89150E-02
        -0.89150E-02
        -0.89150E-02
        -0.89150E-02
        -0.89150E-02
        -0.89150E-02
        -0.89150E-02
        -0.89150E-02
        -0.89150E-02
        -0.89150E-02
        -0.89150E-02
        -0.89150E-02
        -0.89150E-02
        -0.89150E-02
        -0.89150E-02
        -0.89150E-02
        -0.89150E-02
        -0.89150E-02
        -0.89150E-02
        -0.89150E-02
        -0.89150E-02
        -0.89150E-02
        -0.89150E-02
        -0.89150E-02
        -0.89150E-02
        -0.89150E-02
        -0.89150E-02
        -0.89150E-02
        -0.89150E-02
        -0.89150E-02
        -0.89150E-02
        -0.89150E-02
        -0.89150E-02
        -0.89150E-02
        -0.89150E-02
        -0.89150E-02
        -0.89150E-02
        -0.89150E-02
        -0.89150E-02
        -0.89150E-02
        -0.89150E-02
        -0.89150E-02
        -0.89150E-02
        -0.89150E-02
        -0.89150E-02
        -0.89150E-02
        -0.89150E-02
        -0.89150E-02
        -0.89150E-02
        -0.89150E-02
        -0.89150E-02
        -0.89150E-02
        -0.89150E-02
        -0.89150E-02
        -0.89150E-02
        -0.89150E-02
        -0.89150E-02
        -0.89150E-02
        -0.89150E-02
        -0.89150E-02
        -0.89150E-02
        -0.89150E-02
        -0.89150E-02
        -0.89150E-02
        -0.89150E-02
        -0.89150E-02
        -0.89150E-02
        -0.89150E-02
        -0.89150E-02
        -0.89150E-02
        -0.89150E-02
        -0.89150E-02
        -0.89150E-02
        -0.89150E-02
        -0.89150E-02
        -0.89150E-02
        -0.89150E-02
        -0.89150E-02
        -0.89150E-02
        -0.89150E-02
        -0.89150E-02
        -0.89150E-02
        -0.89150E-02
        -0.89150E-02
        -0.89150E-02
        -0.89150E-02
        -0.89150E-02
        -0.89150E-02
        -0.89150E-02
        -0.89150E-02
        -0.89150E-02
        -0.89150E-02
        -0.89150E-02
        -0.89150E-02
        -0.89150E-02
        -0.89150E-02
        -0.89150E-02
        -0.89150E-02
        -0.89150E-02
        -0.89150E-02
        -0.89150E-02
        -0.89150E-02
        -0.89150E-02
        -0.89150E-02
        -0.89150E-02
        -0.89150E-02
        -0.89150E-02
        -0.89150E-02
        -0.89150E-02
        -0.89150E-02
        -0.89150E-02
        -0.89150E-02
        -0.89150E-02
        -0.89150E-02
        -0.89150E-02
        -0.89150E-02
        -0.89150E-02
        -0.89150E-02
        -0.89150E-02
        -0.89150E-02
        -0.89150E-02
        -0.89150E-02
        -0.89150E-02
        -0.89150E-02
        -0.89150E-02
        -0.89150E-02
        -0.89150E-02
        -0.89150E-02
        -0.89150E-02
        -0.89150E-02
        -0.89150E-02
        -0.89150E-02
        -0.89150E-02
        -0.89150E-02
        -0.89150E-02
        -0.89150E-02
        -0.89150E-02
        -0.89150E-02
        -0.89150E-02
        -0.89150E-02
        -0.89150E-02
        -0.89150E-02
        -0.89150E-02
        -0.89150E-02
        -0.89150E-02
        -0.89150E-02
        -0.89150E-02
        -0.89150E-02
        -0.89150E-02
        -0.89150E-02
        -0.89150E-02
        -0.89150E-02
        -0.89150E-02
        -0.89150E-02
        -0.89150E-02
        -0.89150E-02
        -0.89150E-02
        -0.89150E-02
        -0.89150E-02
        -0.89150E-02
        -0.89150E-02
        -0.89150E-02
        -0.89150E-02
        -0.89150E-02
        -0.89150E-02
        -0.89150E-02
        -0.89150E-02
        -0.89150E-02
        -0.89150E-02
        -0.89150E-02
        -0.89150E-02
        -0.89150E-02
        -0.89150E-02
        -0.89150E-02
        -0.89150E-02
        -0.89150E-02
        -0.89150E-02
        -0.89150E-02
        -0.89150E-02
        -0.89150E-02
        -0.89150E-02
        -0.89150E-02
        -0.89150E-02
        -0.89150E-02
        -0.89150E-02
        -0.89150E-02
        -0.89150E-02
        -0.89150E-02
        -0.89150E-02
        -0.89150E-02
        -0.89150E-02
        -0.89150E-02
        -0.89150E-02
        -0.89150E-02
        -0.89150E-02
        -0.89150E-02
        -0.89150E-02
        -0.89150E-02
        -0.89150E-02
        -0.89150E-02
        -0.89150E-02
        -0.89150E-02
        -0.89150E-02
        -0.89150E-02
        -0.89150E-02
        -0.89150E-02
        -0.89150E-02
        -0.89150E-02
        -0.89150E-02
        -0.89150E-02
        -0.89150E-02
        -0.89150E-02
        -0.89150E-02
        -0.89150E-02
        -0.89150E-02
        -0.89150E-02
        -0.89150E-02
        -0.89150E-02
        -0.89150E-02
        -0.89150E-02
        -0.89150E-02
        -0.89150E-02
        -0.89150E-02
        -0.89150E-02
        -0.89150E-02
        -0.89150E-02
        -0.89150E-02
        -0.89150E-02
        -0.89150E-02
        -0.89150E-02
        -0.89150E-02
        -0.89150E-02
        -0.89150E-02
        -0.89150E-02
        -0.89150E-02
        -0.89150E-02
        -0.89150E-02
        -0.89150E-02
        -0.89150E-02
        -0.89150E-02
        -0.89150E-02
        -0.89150E-02
        -0.89150E-02
        -0.89150E-02
        -0.89150E-02
        -0.89150E-02
        -0.89150E-02
        -0.89150E-02
        -0.89150E-02
        -0.89150E-02
        -0.89150E-02
        -0.89150E-02
        -0.89150E-02
        -0.89150E-02
        -0.89150E-02
        -0.89150E-02
        -0.89150E-02
        -0.89150E-02
        -0.89150E-02
        -0.89150E-02
        -0.89150E-02
        -0.89150E-02
        -0.89150E-02
        -0.89150E-02
        -0.89150E-02
        -0.89150E-02
        -0.89150E-02
        -0.89150E-02
        -0.89150E-02
        -0.89150E-02
        -0.89150E-02
        -0.89150E-02
        -0.89150E-02
        -0.89150E-02
        -0.89150E-02
        -0.89150E-02
        -0.89150E-02
        -0.89150E-02
        -0.89150E-02
        -0.89150E-02
        -0.89150E-02
        -0.89150E-02
        -0.89150E-02
        -0.89150E-02
        -0.89150E-02
        -0.89150E-02
        -0.89150E-02
        -0.89150E-02
        -0.89150E-02
        -0.89150E-02
        -0.89150E-02
        -0.89150E-02
        -0.89150E-02
        -0.89150E-02
        -0.89150E-02
        -0.89150E-02
        -0.89150E-02
        -0.89150E-02
        -0.89150E-02
        -0.89150E-02
        -0.89150E-02
        -0.89150E-02
        -0.89150E-02
        -0.89150E-02
        -0.89150E-02
        -0.89150E-02
        -0.89150E-02
        -0.89150E-02
        -0.89150E-02
        -0.89150E-02
        -0.89150E-02
        -0.89150E-02
        -0.89150E-02
        -0.89150E-02
        -0.89150E-02
        -0.89150E-02
        -0.89150E-02
        -0.89150E-02
        -0.89150E-02
        -0.89150E-02
        -0.89150E-02
        -0.89150E-02
        -0.89150E-02
        -0.89150E-02
        -0.89150E-02
        -0.89150E-02
        -0.89150E-02
        -0.89150E-02
        -0.89150E-02
        -0.89150E-02
        -0.89150E-02
        -0.89150E-02
        -0.89150E-02
        -0.89150E-02
        -0.89150E-02
        -0.89150E-02
        -0.89150E-02
        -0.89150E-02
        -0.89150E-02
        -0.89150E-02
        -0.89150E-02
        -0.89150E-02
        -0.89150E-02
        -0.89150E-02
        -0.89150E-02
        -0.89150E-02
        -0.89150E-02
        -0.89150E-02
        -0.89150E-02
        -0.89150E-02
        -0.89150E-02
        -0.89150E-02
        -0.89150E-02
        -0.89150E-02
        -0.89150E-02
        -0.89150E-02
        -0.89150E-02
        -0.89150E-02
        -0.89150E-02
        -0.89150E-02
        -0.89150E-02
        -0.89150E-02
        -0.89150E-02
        -0.89150E-02
        -0.89150E-02
        -0.89150E-02
        -0.89150E-02
        -0.89150E-02
        -0.89150E-02
        -0.89150E-02
        -0.89150E-02
        -0.89150E-02
        -0.89150E-02
        -0.89150E-02
        -0.89150E-02
        -0.89150E-02
        -0.89150E-02
        -0.89150E-02
        -0.89150E-02
        -0.89150E-02
        -0.89150E-02
        -0.89150E-02
        -0.89150E-02
        -0.89150E-02
        -0.89150E-02
        -0.89150E-02
        -0.89150E-02
        -0.89150E-02
        -0.89150E-02
        -0.89150E-02
        -0.89150E-02
        -0.89150E-02
        -0.89150E-02
        -0.89150E-02
        -0.89150E-02
        -0.89150E-02
        -0.89150E-02
        -0.89150E-02
        -0.89150E-02
        -0.89150E-02
        -0.89150E-02
        -0.89150E-02
        -0.89150E-02
        -0.89150E-02
        -0.89150E-02
        -0.89150E-02
        -0.89150E-02
        -0.89150E-02
        -0.89150E-02
        -0.89150E-02
        -0.89150E-02
        -0.89150E-02
        -0.89150E-02
        -0.89150E-02
        -0.89150E-02
        -0.89150E-02
        -0.89150E-02
        -0.89150E-02
        -0.89150E-02
        -0.89150E-02
        -0.89150E-02
        -0.89150E-02
        -0.89150E-02
        -0.89150E-02
        -0.89150E-02
        -0.89150E-02
        -0.89150E-02
        -0.89150E-02
        -0.89150E-02
        -0.89150E-02
        -0.89150E-02
        -0.89150E-02
        -0.89150E-02
        -0.89150E-02
        -0.89150E-02
        -0.89150E-02
        -0.89150E-02
        -0.89150E-02
        -0.89150E-02
        -0.89150E-02
        -0.89150E-02
        -0.89150E-02
        -0.89150E-02
        -0.89150E-02
        -0.89150E-02
        -0.89150E-02
        -0.89150E-02
        -0.89150E-02
        -0.89150E-02
        -0.89150E-02
        -0.89150E-02
        -0.89150E-02
        -0.89150E-02
        -0.89150E-02
        -0.89150E-02
        -0.89150E-02
        -0.89150E-02
        -0.89150E-02
        -0.89150E-02
        -0.89150E-02
        -0.89150E-02
        -0.89150E-02
        -0.89150E-02
        -0.89150E-02
        -0.89150E-02
        -0.89150E-02
        -0.89150E-02
        -0.89150E-02
        -0.89150E-02
        -0.89150E-02
        -0.89150E-02
        -0.89150E-02
        -0.89150E-02
        -0.89150E-02
        -0.89150E-02
        -0.89150E-02
        -0.89150E-02
        -0.89150E-02
        -0.89150E-02
        -0.89150E-02
        -0.89150E-02
        -0.89150E-02
        -0.89150E-02
        -0.89150E-02
        -0.89150E-02
        -0.89150E-02
        -0.89150E-02
        -0.89150E-02
        -0.89150E-02
        -0.89150E-02
        -0.89150E-02
        -0.89150E-02
        -0.89150E-02
        -0.89150E-02
        -0.89150E-02
        -0.89150E-02
        -0.89150E-02
        -0.89150E-02
        -0.89150E-02
        -0.89150E-02
        -0.89150E-02
        -0.89150E-02
        -0.89150E-02
        -0.89150E-02
        -0.89150E-02
        -0.89150E-02
        -0.89150E-02
        -0.89150E-02
        -0.89150E-02
        -0.89150E-02
        -0.89150E-02
        -0.89150E-02
        -0.89150E-02
        -0.89150E-02
        -0.89150E-02
        -0.89150E-02
        -0.89150E-02
        -0.89150E-02
        -0.89150E-02
        -0.89150E-02
        -0.89150E-02
        -0.89150E-02
        -0.89150E-02
        -0.89150E-02
        -0.89150E-02
        -0.89150E-02
        -0.89150E-02
        -0.89150E-02
        -0.89150E-02
        -0.89150E-02
        -0.89150E-02
        -0.89150E-02
        -0.89150E-02
        -0.89150E-02
        -0.89150E-02
        -0.89150E-02
        -0.89150E-02
        -0.89150E-02
        -0.89150E-02
        -0.89150E-02
        -0.89150E-02
        -0.89150E-02
        -0.89150E-02
        -0.89150E-02
        -0.89150E-02
        -0.89150E-02
        -0.89150E-02
        -0.89150E-02
        -0.89150E-02
        -0.89150E-02
        -0.89150E-02
        -0.89150E-02
        -0.89150E-02
        -0.89150E-02
        -0.89150E-02
        -0.89150E-02
        -0.89150E-02
        -0.89150E-02
        -0.89150E-02
        -0.89150E-02
        -0.89150E-02
        -0.89150E-02
        -0.89150E-02
        -0.89150E-02
        -0.89150E-02
        -0.89150E-02
        -0.89150E-02
        -0.89150E-02
        -0.89150E-02
        -0.89150E-02
        -0.89150E-02
        -0.89150E-02
        -0.89150E-02
        -0.89150E-02
        -0.89150E-02
        -0.89150E-02
        -0.89150E-02
        -0.89150E-02
        -0.89150E-02
        -0.89150E-02
        -0.89150E-02
        -0.89150E-02
        -0.89150E-02
        -0.89150E-02
        -0.89150E-02
        -0.89150E-02
        -0.89150E-02
        -0.89150E-02
        -0.89150E-02
        -0.89150E-02
        -0.89150E-02
        -0.89150E-02
        -0.89150E-02
        -0.89150E-02
        -0.89150E-02
        -0.89150E-02
        -0.89150E-02
        -0.89150E-02
        -0.89150E-02
        -0.89150E-02
        -0.89150E-02
        -0.89150E-02
        -0.89150E-02
        -0.89150E-02
        -0.89150E-02
        -0.89150E-02
        -0.89150E-02
        -0.89150E-02
        -0.89150E-02
        -0.89150E-02
        -0.89150E-02
        -0.89150E-02
        -0.89150E-02
        -0.89150E-02
        -0.89150E-02
        -0.89150E-02
        -0.89150E-02
        -0.89150E-02
        -0.89150E-02
        -0.89150E-02
        -0.89150E-02
        -0.89150E-02
        -0.89150E-02
        -0.89150E-02
        -0.89150E-02
        -0.89150E-02
        -0.89150E-02
        -0.89150E-02
        -0.89150E-02
        -0.89150E-02
        -0.89150E-02
        -0.89150E-02
        -0.89150E-02
        -0.89150E-02
        -0.89150E-02
        -0.89150E-02
        -0.89150E-02
        -0.89150E-02
        -0.89150E-02
        -0.89150E-02
        -0.89150E-02
        -0.89150E-02
        -0.89150E-02
        -0.89150E-02
        -0.89150E-02
        -0.89150E-02
        -0.89150E-02
        -0.89150E-02
        -0.89150E-02
        -0.89150E-02
        -0.89150E-02
        -0.89150E-02
        -0.89150E-02
        -0.89150E-02
        -0.89150E-02
        -0.89150E-02
        -0.89150E-02
        -0.89150E-02
        -0.89150E-02
        -0.89150E-02
        -0.89150E-02
        -0.89150E-02
        -0.89150E-02
        -0.89150E-02
        -0.89150E-02
        -0.89150E-02
        -0.89150E-02
        -0.89150E-02
        -0.89150E-02
        -0.89150E-02
        -0.89150E-02
        -0.89150E-02
        -0.89150E-02
        -0.89150E-02
        -0.89150E-02
        -0.89150E-02
        -0.89150E-02
        -0.89150E-02
        -0.89150E-02
        -0.89150E-02
        -0.89150E-02
        -0.89150E-02
        -0.89150E-02
        -0.89150E-02
        -0.89150E-02
        -0.89150E-02
        -0.89150E-02
        -0.89150E-02
        -0.89150E-02
        -0.89150E-02
        -0.89150E-02
        -0.89150E-02
        -0.89150E-02
        -0.89150E-02
        -0.89150E-02
        -0.89150E-02
        -0.89150E-02
        -0.89150E-02
        -0.89150E-02
        -0.89150E-02
        -0.89150E-02
        -0.89150E-02
        -0.89150E-02
        -0.89150E-02
        -0.89150E-02
        -0.89150E-02
        -0.89150E-02
        -0.89150E-02
        -0.89150E-02
        -0.89150E-02
        -0.89150E-02
        -0.89150E-02
        -0.89150E-02
        -0.89150E-02
        -0.89150E-02
        -0.89150E-02
        -0.89150E-02
        -0.89150E-02
        -0.89150E-02
        -0.89150E-02
        -0.89150E-02
        -0.89150E-02
        -0.89150E-02
        -0.89150E-02
        -0.89150E-02
        -0.89150E-02
        -0.89150E-02
        -0.89150E-02
        -0.89150E-02
        -0.89150E-02
        -0.89150E-02
        -0.89150E-02
        -0.89150E-02
        -0.89150E-02
        -0.89150E-02
        -0.89150E-02
        -0.89150E-02
        -0.89150E-02
        -0.89150E-02
        -0.89150E-02
        -0.89150E-02
        -0.89150E-02
        -0.89150E-02
        -0.89150E-02
        -0.89150E-02
        -0.89150E-02
        -0.89150E-02
        -0.89150E-02
        -0.89150E-02
        -0.89150E-02
        -0.89150E-02
        -0.89150E-02
        -0.89150E-02
        -0.89150E-02
        -0.89150E-02
        -0.89150E-02
        -0.89150E-02
        -0.89150E-02
        -0.89150E-02
        -0.89150E-02
        -0.89150E-02
        -0.89150E-02
        -0.89150E-02
        -0.89150E-02
        -0.89150E-02
        -0.89150E-02
        -0.89150E-02
        -0.89150E-02
        -0.89150E-02
        -0.89150E-02
        -0.89150E-02
        -0.89150E-02
        -0.89150E-02
        -0.89150E-02
        -0.89150E-02
        -0.89150E-02
        -0.89150E-02
        -0.89150E-02
        -0.89150E-02
        -0.89150E-02
        -0.89150E-02
        -0.89150E-02
        -0.89150E-02
        -0.89150E-02
        -0.89150E-02
        -0.89150E-02
        -0.89150E-02
        -0.89150E-02
        -0.89150E-02
        -0.89150E-02
        -0.89150E-02
        -0.89150E-02
        -0.89150E-02
        -0.89150E-02
        -0.89150E-02
        -0.89150E-02
        -0.89150E-02
        -0.89150E-02
        -0.89150E-02
        -0.89150E-02
        -0.89150E-02
        -0.89150E-02
        -0.89150E-02
        -0.89150E-02
        -0.89150E-02
        -0.89150E-02
        -0.89150E-02
        -0.89150E-02
        -0.89150E-02
        -0.89150E-02
        -0.89150E-02
        -0.89150E-02
        -0.89150E-02
        -0.89150E-02
        -0.89150E-02
        -0.89150E-02
        -0.89150E-02
        -0.89150E-02
        -0.89150E-02
        -0.89150E-02
        -0.89150E-02
        -0.89150E-02
        -0.89150E-02
        -0.89150E-02
        -0.89150E-02
        -0.89150E-02
        -0.89150E-02
        -0.89150E-02
        -0.89150E-02
        -0.89150E-02
        -0.89150E-02
        -0.89150E-02
        -0.89150E-02
        -0.89150E-02
        -0.89150E-02
        -0.89150E-02
        -0.89150E-02
        -0.89150E-02
        -0.89150E-02
        -0.89150E-02
        -0.89150E-02
        -0.89150E-02
        -0.89150E-02
        -0.89150E-02
        -0.89150E-02
        -0.89150E-02
        -0.89150E-02
        -0.89150E-02
        -0.89150E-02
        -0.89150E-02
        -0.89150E-02
        -0.89150E-02
        -0.89150E-02
        -0.89150E-02
        -0.89150E-02
        -0.89150E-02
        -0.89150E-02
        -0.89150E-02
        -0.89150E-02
        -0.89150E-02
        -0.89150E-02
        -0.89150E-02
        -0.89150E-02
        -0.89150E-02
        -0.89150E-02
        -0.89150E-02
        -0.89150E-02
        -0.89150E-02
        -0.89150E-02
        -0.89150E-02
        -0.89150E-02
        -0.89150E-02
        -0.89150E-02
        -0.89150E-02
        -0.89150E-02
        -0.89150E-02
        -0.89150E-02
        -0.89150E-02
        -0.89150E-02
        -0.89150E-02
        -0.89150E-02
        -0.89150E-02
        -0.89150E-02
        -0.89150E-02
        -0.89150E-02
        -0.89150E-02
        -0.89150E-02
        -0.89150E-02
        -0.89150E-02
        -0.89150E-02
        -0.89150E-02
        -0.89150E-02
        -0.89150E-02
        -0.89150E-02
        -0.89150E-02
        -0.89150E-02
        -0.89150E-02
        -0.89150E-02
        -0.89150E-02
        -0.89150E-02
        -0.89150E-02
        -0.89150E-02
        -0.89150E-02
        -0.89150E-02
        -0.89150E-02
        -0.89150E-02
        -0.89150E-02
        -0.89150E-02
        -0.89150E-02
        -0.89150E-02
        -0.89150E-02
        -0.89150E-02
        -0.89150E-02
        -0.89150E-02
        -0.89150E-02
        -0.89150E-02
        -0.89150E-02
        -0.89150E-02
        -0.89150E-02
        -0.89150E-02
        -0.89150E-02
        -0.89150E-02
        -0.89150E-02
        -0.89150E-02
        -0.89150E-02
        -0.89150E-02
        -0.89150E-02
        -0.89150E-02
        -0.89150E-02
        -0.89150E-02
        -0.89150E-02
        -0.89150E-02
        -0.89150E-02
        -0.89150E-02
        -0.89150E-02
        -0.89150E-02
        -0.89150E-02
        -0.89150E-02
        -0.89150E-02
        -0.89150E-02
        -0.89150E-02
        -0.89150E-02
        -0.89150E-02
        -0.89150E-02
        -0.89150E-02
        -0.89150E-02
        -0.89150E-02
        -0.89150E-02
        -0.89150E-02
        -0.89150E-02
        -0.89150E-02
        -0.89150E-02
        -0.89150E-02
        -0.89150E-02
        -0.89150E-02
        -0.89150E-02
        -0.89150E-02
        -0.89150E-02
        -0.89150E-02
        -0.89150E-02
        -0.89150E-02
        -0.89150E-02
        -0.89150E-02
        -0.89150E-02
        -0.89150E-02
        -0.89150E-02
        -0.89150E-02
        -0.89150E-02
        -0.89150E-02
        -0.89150E-02
        -0.89150E-02
        -0.89150E-02
        -0.89150E-02
        -0.89150E-02
        -0.89150E-02
        -0.89150E-02
        -0.89150E-02
        -0.89150E-02
        -0.89150E-02
        -0.89150E-02
        -0.89150E-02
        -0.89150E-02
        -0.89150E-02
        -0.89150E-02
        -0.89150E-02
        -0.89150E-02
        -0.89150E-02
        -0.89150E-02
        -0.89150E-02
        -0.89150E-02
        -0.89150E-02
        -0.89150E-02
        -0.89150E-02
        -0.89150E-02
        -0.89150E-02
        -0.89150E-02
        -0.89150E-02
        -0.89150E-02
        -0.89150E-02
        -0.89150E-02
        -0.89150E-02
        -0.89150E-02
        -0.89150E-02
        -0.89150E-02
        -0.89150E-02
        -0.89150E-02
        -0.89150E-02
        -0.89150E-02
        -0.89150E-02
        -0.89150E-02
        -0.89150E-02
        -0.89150E-02
        -0.89150E-02
        -0.89150E-02
        -0.89150E-02
        -0.89150E-02
        -0.89150E-02
        -0.89150E-02
        -0.89150E-02
        -0.89150E-02
        -0.89150E-02
        -0.89150E-02
        -0.89150E-02
        -0.89150E-02
        -0.89150E-02
        -0.89150E-02
        -0.89150E-02
        -0.89150E-02
        -0.89150E-02
        -0.89150E-02
        -0.89150E-02
        -0.89150E-02
        -0.89150E-02
        -0.89150E-02
        -0.89150E-02
        -0.89150E-02
        -0.89150E-02
        -0.89150E-02
        -0.89150E-02
        -0.89150E-02
        -0.89150E-02
        -0.89150E-02
        -0.89150E-02
        -0.89150E-02
        -0.89150E-02
        -0.89150E-02
        -0.89150E-02
        -0.89150E-02
        -0.89150E-02
        -0.89150E-02
        -0.89150E-02
        -0.89150E-02
        -0.89150E-02
        -0.89150E-02
        -0.89150E-02
        -0.89150E-02
        -0.89150E-02
        -0.89150E-02
        -0.89150E-02
        -0.89150E-02
        -0.89150E-02
        -0.89150E-02
        -0.89150E-02
        -0.89150E-02
        -0.89150E-02
        -0.89150E-02
        -0.89150E-02
        -0.89150E-02
        -0.89150E-02
        -0.89150E-02
        -0.89150E-02
        -0.89150E-02
        -0.89150E-02
        -0.89150E-02
        -0.89150E-02
        -0.89150E-02
        -0.89150E-02
        -0.89150E-02
        -0.89150E-02
        -0.89150E-02
        -0.89150E-02
        -0.89150E-02
        -0.89150E-02
        -0.89150E-02
        -0.89150E-02
        -0.89150E-02
        -0.89150E-02
        -0.89150E-02
        -0.89150E-02
        -0.89150E-02
        -0.89150E-02
        -0.89150E-02
        -0.89150E-02
        -0.89150E-02
        -0.89150E-02
        -0.89150E-02
        -0.89150E-02
        -0.89150E-02
        -0.89150E-02
        -0.89150E-02
        -0.89150E-02
        -0.89150E-02
        -0.89150E-02
        -0.89150E-02
        -0.89150E-02
        -0.89150E-02
        -0.89150E-02
        -0.89150E-02
        -0.89150E-02
        -0.89150E-02
        -0.89150E-02
        -0.89150E-02
        -0.89150E-02
        -0.89150E-02
        -0.89150E-02
        -0.89150E-02
        -0.89150E-02
        -0.89150E-02
        -0.89150E-02
        -0.89150E-02
        -0.89150E-02
        -0.89150E-02
        -0.89150E-02
        -0.89150E-02
        -0.89150E-02
        -0.89150E-02
        -0.89150E-02
        -0.89150E-02
        -0.89150E-02
        -0.89150E-02
        -0.89150E-02
        -0.89150E-02
        -0.89150E-02
        -0.89150E-02
        -0.89150E-02
        -0.89150E-02
        -0.89150E-02
        -0.89150E-02
        -0.89150E-02
        -0.89150E-02
        -0.89150E-02
        -0.89150E-02
        -0.89150E-02
        -0.89150E-02
        -0.89150E-02
        -0.89150E-02
        -0.89150E-02
        -0.89150E-02
        -0.89150E-02
        -0.89150E-02
        -0.89150E-02
        -0.89150E-02
        -0.89150E-02
        -0.89150E-02
        -0.89150E-02
        -0.89150E-02
        -0.89150E-02
        -0.89150E-02
        -0.89150E-02
        -0.89150E-02
        -0.89150E-02
        -0.89150E-02
        -0.89150E-02
        -0.89150E-02
        -0.89150E-02
        -0.89150E-02
        -0.89150E-02
        -0.89150E-02
        -0.89150E-02
        -0.89150E-02
        -0.89150E-02
        -0.89150E-02
        -0.89150E-02
        -0.89150E-02
        -0.89150E-02
        -0.89150E-02
        -0.89150E-02
        -0.89150E-02
        -0.89150E-02
        -0.89150E-02
        -0.89150E-02
        -0.89150E-02
        -0.89150E-02
        -0.89150E-02
        -0.89150E-02
        -0.89150E-02
        -0.89150E-02
        -0.89150E-02
        -0.89150E-02
        -0.89150E-02
        -0.89150E-02
        -0.89150E-02
        -0.89150E-02
        -0.89150E-02
        -0.89150E-02
        -0.89150E-02
        -0.89150E-02
        -0.89150E-02
        -0.89150E-02
        -0.89150E-02
        -0.89150E-02
        -0.89150E-02
        -0.89150E-02
        -0.89150E-02
        -0.89150E-02
        -0.89150E-02
        -0.89150E-02
        -0.89150E-02
        -0.89150E-02
        -0.89150E-02
        -0.89150E-02
        -0.89150E-02
        -0.89150E-02
        -0.89150E-02
        -0.89150E-02
        -0.89150E-02
        -0.89150E-02
        -0.89150E-02
        -0.89150E-02
        -0.89150E-02
        -0.89150E-02
        -0.89150E-02
        -0.89150E-02
        -0.89150E-02
        -0.89150E-02
        -0.89150E-02
        -0.89150E-02
        -0.89150E-02
        -0.89150E-02
        -0.89150E-02
        -0.89150E-02
        -0.89150E-02
        -0.89150E-02
        -0.89150E-02
        -0.89150E-02
        -0.89150E-02
        -0.89150E-02
        -0.89150E-02
        -0.89150E-02
        -0.89150E-02
        -0.89150E-02
        -0.89150E-02
        -0.89150E-02
        -0.89150E-02
        -0.89150E-02
        -0.89150E-02
        -0.89150E-02
        -0.89150E-02
        -0.89150E-02
        -0.89150E-02
        -0.89150E-02
        -0.89150E-02
        -0.89150E-02
        -0.89150E-02
        -0.89150E-02
        -0.89150E-02
        -0.89150E-02
        -0.89150E-02
        -0.89150E-02
        -0.89150E-02
        -0.89150E-02
        -0.89150E-02
        -0.89150E-02
        -0.89150E-02
        -0.89150E-02
        -0.89150E-02
        -0.89150E-02
        -0.89150E-02
        -0.89150E-02
        -0.89150E-02
        -0.89150E-02
        -0.89150E-02
        -0.89150E-02
        -0.89150E-02
        -0.89150E-02
        -0.89150E-02
        -0.89150E-02
        -0.89150E-02
        -0.89150E-02
        -0.89150E-02
        -0.89150E-02
        -0.89150E-02
        -0.89150E-02
        -0.89150E-02
        -0.89150E-02
        -0.89150E-02
        -0.89150E-02
        -0.89150E-02
        -0.89150E-02
        -0.89150E-02
        -0.89150E-02
        -0.89150E-02
        -0.89150E-02
        -0.89150E-02
        -0.89150E-02
        -0.89150E-02
        -0.89150E-02
        -0.89150E-02
        -0.89150E-02
        -0.89150E-02
        -0.89150E-02
        -0.89150E-02
        -0.89150E-02
        -0.89150E-02
        -0.89150E-02
        -0.89150E-02
        -0.89150E-02
        -0.89150E-02
        -0.89150E-02
        -0.89150E-02
        -0.89150E-02
        -0.89150E-02
        -0.89150E-02
        -0.89150E-02
        -0.89150E-02
        -0.89150E-02
        -0.89150E-02
        -0.89150E-02
        -0.89150E-02
        -0.89150E-02
        -0.89150E-02
        -0.89150E-02
        -0.89150E-02
        -0.89150E-02
        -0.89150E-02
        -0.89150E-02
        -0.89150E-02
        -0.89150E-02
        -0.89150E-02
        -0.89150E-02
        -0.89150E-02
        -0.89150E-02
        -0.89150E-02
        -0.89150E-02
        -0.89150E-02
        -0.89150E-02
        -0.89150E-02
        -0.89150E-02
        -0.89150E-02
        -0.89150E-02
        -0.89150E-02
        -0.89150E-02
        -0.89150E-02
        -0.89150E-02
        -0.89150E-02
        -0.89150E-02
        -0.89150E-02
        -0.89150E-02
        -0.89150E-02
        -0.89150E-02
        -0.89150E-02
        -0.89150E-02
        -0.89150E-02
        -0.89150E-02
        -0.89150E-02
        -0.89150E-02
        -0.89150E-02
        -0.89150E-02
        -0.89150E-02
        -0.89150E-02
        -0.89150E-02
        -0.89150E-02
        -0.89150E-02
        -0.89150E-02
        -0.89150E-02
        -0.89150E-02
        -0.89150E-02
        -0.89150E-02
        -0.89150E-02
        -0.89150E-02
        -0.89150E-02
        -0.89150E-02
        -0.89150E-02
        -0.89150E-02
        -0.89150E-02
        -0.89150E-02
        -0.89150E-02
        -0.89150E-02
        -0.89150E-02
        -0.89150E-02
        -0.89150E-02
        -0.89150E-02
        -0.89150E-02
        -0.89150E-02
        -0.89150E-02
        -0.89150E-02
        -0.89150E-02
        -0.89150E-02
        -0.89150E-02
        -0.89150E-02
        -0.89150E-02
        -0.89150E-02
        -0.89150E-02
        -0.89150E-02
        -0.89150E-02
        -0.89150E-02
        -0.89150E-02
        -0.89150E-02
        -0.89150E-02
        -0.89150E-02
        -0.89150E-02
        -0.89150E-02
        -0.89150E-02
        -0.89150E-02
        -0.89150E-02
        -0.89150E-02
        -0.89150E-02
        -0.89150E-02
        -0.89150E-02
        -0.89150E-02
        -0.89150E-02
        -0.89150E-02
        -0.89150E-02
        -0.89150E-02
        -0.89150E-02
        -0.89150E-02
        -0.89150E-02
        -0.89150E-02
        -0.89150E-02
        -0.89150E-02
        -0.89150E-02
        -0.89150E-02
        -0.89150E-02
        -0.89150E-02
        -0.89150E-02
        -0.89150E-02
        -0.89150E-02
        -0.89150E-02
        -0.89150E-02
        -0.89150E-02
        -0.89150E-02
        -0.89150E-02
        -0.89150E-02
        -0.89150E-02
        -0.89150E-02
        -0.89150E-02
        -0.89150E-02
        -0.89150E-02
        -0.89150E-02
        -0.89150E-02
        -0.89150E-02
        -0.89150E-02
        -0.89150E-02
        -0.89150E-02
        -0.89150E-02
        -0.89150E-02
        -0.89150E-02
        -0.89150E-02
        -0.89150E-02
        -0.89150E-02
        -0.89150E-02
        -0.89150E-02
        -0.89150E-02
        -0.89150E-02
        -0.89150E-02
        -0.89150E-02
        -0.89150E-02
        -0.89150E-02
        -0.89150E-02
        -0.89150E-02
        -0.89150E-02
        -0.89150E-02
        -0.89150E-02
        -0.89150E-02
        -0.89150E-02
        -0.89150E-02
        -0.89150E-02
        -0.89150E-02
        -0.89150E-02
  
SCALARS                     velocity_x  double 1
LOOKUP_TABLE default
         0.00000E+00
         0.00000E+00
         0.00000E+00
         0.00000E+00
         0.00000E+00
         0.00000E+00
         0.00000E+00
         0.00000E+00
         0.00000E+00
         0.00000E+00
         0.00000E+00
         0.00000E+00
         0.00000E+00
         0.00000E+00
         0.00000E+00
         0.00000E+00
         0.00000E+00
         0.00000E+00
         0.00000E+00
         0.00000E+00
         0.00000E+00
         0.00000E+00
         0.00000E+00
         0.00000E+00
         0.00000E+00
         0.00000E+00
         0.00000E+00
         0.00000E+00
         0.00000E+00
         0.00000E+00
         0.00000E+00
         0.00000E+00
         0.00000E+00
         0.00000E+00
         0.00000E+00
         0.00000E+00
         0.00000E+00
         0.00000E+00
         0.00000E+00
         0.00000E+00
         0.00000E+00
         0.00000E+00
         0.00000E+00
         0.00000E+00
         0.00000E+00
         0.00000E+00
         0.00000E+00
         0.00000E+00
         0.00000E+00
         0.00000E+00
         0.00000E+00
         0.00000E+00
         0.00000E+00
         0.00000E+00
         0.00000E+00
         0.00000E+00
         0.00000E+00
         0.00000E+00
         0.00000E+00
         0.00000E+00
         0.00000E+00
         0.00000E+00
         0.00000E+00
         0.00000E+00
         0.00000E+00
         0.00000E+00
         0.00000E+00
         0.00000E+00
         0.00000E+00
         0.00000E+00
         0.00000E+00
         0.00000E+00
         0.00000E+00
         0.00000E+00
         0.00000E+00
         0.00000E+00
         0.00000E+00
         0.00000E+00
         0.00000E+00
         0.00000E+00
         0.00000E+00
         0.00000E+00
         0.00000E+00
         0.00000E+00
         0.00000E+00
         0.00000E+00
         0.00000E+00
         0.00000E+00
         0.00000E+00
         0.00000E+00
         0.00000E+00
         0.00000E+00
         0.00000E+00
         0.00000E+00
         0.00000E+00
         0.00000E+00
         0.00000E+00
         0.00000E+00
         0.00000E+00
         0.00000E+00
         0.00000E+00
         0.00000E+00
         0.00000E+00
         0.00000E+00
         0.00000E+00
         0.00000E+00
         0.00000E+00
         0.00000E+00
         0.00000E+00
         0.00000E+00
         0.00000E+00
         0.00000E+00
         0.00000E+00
         0.00000E+00
         0.00000E+00
         0.00000E+00
         0.00000E+00
         0.00000E+00
         0.00000E+00
         0.00000E+00
         0.00000E+00
         0.00000E+00
         0.00000E+00
         0.00000E+00
         0.00000E+00
         0.00000E+00
         0.00000E+00
         0.00000E+00
         0.00000E+00
         0.00000E+00
         0.00000E+00
         0.00000E+00
         0.00000E+00
         0.00000E+00
         0.00000E+00
         0.00000E+00
         0.00000E+00
         0.00000E+00
         0.00000E+00
         0.00000E+00
         0.00000E+00
         0.00000E+00
         0.00000E+00
         0.00000E+00
         0.00000E+00
         0.00000E+00
         0.00000E+00
         0.00000E+00
         0.00000E+00
         0.00000E+00
         0.00000E+00
         0.00000E+00
         0.00000E+00
         0.00000E+00
         0.00000E+00
         0.00000E+00
         0.00000E+00
         0.00000E+00
         0.00000E+00
         0.00000E+00
         0.00000E+00
         0.00000E+00
         0.00000E+00
         0.00000E+00
         0.00000E+00
         0.00000E+00
         0.00000E+00
         0.00000E+00
         0.00000E+00
         0.00000E+00
         0.00000E+00
         0.00000E+00
         0.00000E+00
         0.00000E+00
         0.00000E+00
         0.00000E+00
         0.00000E+00
         0.00000E+00
         0.00000E+00
         0.00000E+00
         0.00000E+00
         0.00000E+00
         0.00000E+00
         0.00000E+00
         0.00000E+00
         0.00000E+00
         0.00000E+00
         0.00000E+00
         0.00000E+00
         0.00000E+00
         0.00000E+00
         0.00000E+00
         0.00000E+00
         0.00000E+00
         0.00000E+00
         0.00000E+00
         0.00000E+00
         0.00000E+00
         0.00000E+00
         0.00000E+00
         0.00000E+00
         0.00000E+00
         0.00000E+00
         0.00000E+00
         0.00000E+00
         0.00000E+00
         0.00000E+00
         0.00000E+00
         0.00000E+00
         0.00000E+00
         0.00000E+00
         0.00000E+00
         0.00000E+00
         0.00000E+00
         0.00000E+00
         0.00000E+00
         0.00000E+00
         0.00000E+00
         0.00000E+00
         0.00000E+00
         0.00000E+00
         0.00000E+00
         0.00000E+00
         0.00000E+00
         0.00000E+00
         0.00000E+00
         0.00000E+00
         0.00000E+00
         0.00000E+00
         0.00000E+00
         0.00000E+00
         0.00000E+00
         0.00000E+00
         0.00000E+00
         0.00000E+00
         0.00000E+00
         0.00000E+00
         0.00000E+00
         0.00000E+00
         0.00000E+00
         0.00000E+00
         0.00000E+00
         0.00000E+00
         0.00000E+00
         0.00000E+00
         0.00000E+00
         0.00000E+00
         0.00000E+00
         0.00000E+00
         0.00000E+00
         0.00000E+00
         0.00000E+00
         0.00000E+00
         0.00000E+00
         0.00000E+00
         0.00000E+00
         0.00000E+00
         0.00000E+00
         0.00000E+00
         0.00000E+00
         0.00000E+00
         0.00000E+00
         0.00000E+00
         0.00000E+00
         0.00000E+00
         0.00000E+00
         0.00000E+00
         0.00000E+00
         0.00000E+00
         0.00000E+00
         0.00000E+00
         0.00000E+00
         0.00000E+00
         0.00000E+00
         0.00000E+00
         0.00000E+00
         0.00000E+00
         0.00000E+00
         0.00000E+00
         0.00000E+00
         0.00000E+00
         0.00000E+00
         0.00000E+00
         0.00000E+00
         0.00000E+00
         0.00000E+00
         0.00000E+00
         0.00000E+00
         0.00000E+00
         0.00000E+00
         0.00000E+00
         0.00000E+00
         0.00000E+00
         0.00000E+00
         0.00000E+00
         0.00000E+00
         0.00000E+00
         0.00000E+00
         0.00000E+00
         0.00000E+00
         0.00000E+00
         0.00000E+00
         0.00000E+00
         0.00000E+00
         0.00000E+00
         0.00000E+00
         0.00000E+00
         0.00000E+00
         0.00000E+00
         0.00000E+00
         0.00000E+00
         0.00000E+00
         0.00000E+00
         0.00000E+00
         0.00000E+00
         0.00000E+00
         0.00000E+00
         0.00000E+00
         0.00000E+00
         0.00000E+00
         0.00000E+00
         0.00000E+00
         0.00000E+00
         0.00000E+00
         0.00000E+00
         0.00000E+00
         0.00000E+00
         0.00000E+00
         0.00000E+00
         0.00000E+00
         0.00000E+00
         0.00000E+00
         0.00000E+00
         0.00000E+00
         0.00000E+00
         0.00000E+00
         0.00000E+00
         0.00000E+00
         0.00000E+00
         0.00000E+00
         0.00000E+00
         0.00000E+00
         0.00000E+00
         0.00000E+00
         0.00000E+00
         0.00000E+00
         0.00000E+00
         0.00000E+00
         0.00000E+00
         0.00000E+00
         0.00000E+00
         0.00000E+00
         0.00000E+00
         0.00000E+00
         0.00000E+00
         0.00000E+00
         0.00000E+00
         0.00000E+00
         0.00000E+00
         0.00000E+00
         0.00000E+00
         0.00000E+00
         0.00000E+00
         0.00000E+00
         0.00000E+00
         0.00000E+00
         0.00000E+00
         0.00000E+00
         0.00000E+00
         0.00000E+00
         0.00000E+00
         0.00000E+00
         0.00000E+00
         0.00000E+00
         0.00000E+00
         0.00000E+00
         0.00000E+00
         0.00000E+00
         0.00000E+00
         0.00000E+00
         0.00000E+00
         0.00000E+00
         0.00000E+00
         0.00000E+00
         0.00000E+00
         0.00000E+00
         0.00000E+00
         0.00000E+00
         0.00000E+00
         0.00000E+00
         0.00000E+00
         0.00000E+00
         0.00000E+00
         0.00000E+00
         0.00000E+00
         0.00000E+00
         0.00000E+00
         0.00000E+00
         0.00000E+00
         0.00000E+00
         0.00000E+00
         0.00000E+00
         0.00000E+00
         0.00000E+00
         0.00000E+00
         0.00000E+00
         0.00000E+00
         0.00000E+00
         0.00000E+00
         0.00000E+00
         0.00000E+00
         0.00000E+00
         0.00000E+00
         0.00000E+00
         0.00000E+00
         0.00000E+00
         0.00000E+00
         0.00000E+00
         0.00000E+00
         0.00000E+00
         0.00000E+00
         0.00000E+00
         0.00000E+00
         0.00000E+00
         0.00000E+00
         0.00000E+00
         0.00000E+00
         0.00000E+00
         0.00000E+00
         0.00000E+00
         0.00000E+00
         0.00000E+00
         0.00000E+00
         0.00000E+00
         0.00000E+00
         0.00000E+00
         0.00000E+00
         0.00000E+00
         0.00000E+00
         0.00000E+00
         0.00000E+00
         0.00000E+00
         0.00000E+00
         0.00000E+00
         0.00000E+00
         0.00000E+00
         0.00000E+00
         0.00000E+00
         0.00000E+00
         0.00000E+00
         0.00000E+00
         0.00000E+00
         0.00000E+00
         0.00000E+00
         0.00000E+00
         0.00000E+00
         0.00000E+00
         0.00000E+00
         0.00000E+00
         0.00000E+00
         0.00000E+00
         0.00000E+00
         0.00000E+00
         0.00000E+00
         0.00000E+00
         0.00000E+00
         0.00000E+00
         0.00000E+00
         0.00000E+00
         0.00000E+00
         0.00000E+00
         0.00000E+00
         0.00000E+00
         0.00000E+00
         0.00000E+00
         0.00000E+00
         0.00000E+00
         0.00000E+00
         0.00000E+00
         0.00000E+00
         0.00000E+00
         0.00000E+00
         0.00000E+00
         0.00000E+00
         0.00000E+00
         0.00000E+00
         0.00000E+00
         0.00000E+00
         0.00000E+00
         0.00000E+00
         0.00000E+00
         0.00000E+00
         0.00000E+00
         0.00000E+00
         0.00000E+00
         0.00000E+00
         0.00000E+00
         0.00000E+00
         0.00000E+00
         0.00000E+00
         0.00000E+00
         0.00000E+00
         0.00000E+00
         0.00000E+00
         0.00000E+00
         0.00000E+00
         0.00000E+00
         0.00000E+00
         0.00000E+00
         0.00000E+00
         0.00000E+00
         0.00000E+00
         0.00000E+00
         0.00000E+00
         0.00000E+00
         0.00000E+00
         0.00000E+00
         0.00000E+00
         0.00000E+00
         0.00000E+00
         0.00000E+00
         0.00000E+00
         0.00000E+00
         0.00000E+00
         0.00000E+00
         0.00000E+00
         0.00000E+00
         0.00000E+00
         0.00000E+00
         0.00000E+00
         0.00000E+00
         0.00000E+00
         0.00000E+00
         0.00000E+00
         0.00000E+00
         0.00000E+00
         0.00000E+00
         0.00000E+00
         0.00000E+00
         0.00000E+00
         0.00000E+00
         0.00000E+00
         0.00000E+00
         0.00000E+00
         0.00000E+00
         0.00000E+00
         0.00000E+00
         0.00000E+00
         0.00000E+00
         0.00000E+00
         0.00000E+00
         0.00000E+00
         0.00000E+00
         0.00000E+00
         0.00000E+00
         0.00000E+00
         0.00000E+00
         0.00000E+00
         0.00000E+00
         0.00000E+00
         0.00000E+00
         0.00000E+00
         0.00000E+00
         0.00000E+00
         0.00000E+00
         0.00000E+00
         0.00000E+00
         0.00000E+00
         0.00000E+00
         0.00000E+00
         0.00000E+00
         0.00000E+00
         0.00000E+00
         0.00000E+00
         0.00000E+00
         0.00000E+00
         0.00000E+00
         0.00000E+00
         0.00000E+00
         0.00000E+00
         0.00000E+00
         0.00000E+00
         0.00000E+00
         0.00000E+00
         0.00000E+00
         0.00000E+00
         0.00000E+00
         0.00000E+00
         0.00000E+00
         0.00000E+00
         0.00000E+00
         0.00000E+00
         0.00000E+00
         0.00000E+00
         0.00000E+00
         0.00000E+00
         0.00000E+00
         0.00000E+00
         0.00000E+00
         0.00000E+00
         0.00000E+00
         0.00000E+00
         0.00000E+00
         0.00000E+00
         0.00000E+00
         0.00000E+00
         0.00000E+00
         0.00000E+00
         0.00000E+00
         0.00000E+00
         0.00000E+00
         0.00000E+00
         0.00000E+00
         0.00000E+00
         0.00000E+00
         0.00000E+00
         0.00000E+00
         0.00000E+00
         0.00000E+00
         0.00000E+00
         0.00000E+00
         0.00000E+00
         0.00000E+00
         0.00000E+00
         0.00000E+00
         0.00000E+00
         0.00000E+00
         0.00000E+00
         0.00000E+00
         0.00000E+00
         0.00000E+00
         0.00000E+00
         0.00000E+00
         0.00000E+00
         0.00000E+00
         0.00000E+00
         0.00000E+00
         0.00000E+00
         0.00000E+00
         0.00000E+00
         0.00000E+00
         0.00000E+00
         0.00000E+00
         0.00000E+00
         0.00000E+00
         0.00000E+00
         0.00000E+00
         0.00000E+00
         0.00000E+00
         0.00000E+00
         0.00000E+00
         0.00000E+00
         0.00000E+00
         0.00000E+00
         0.00000E+00
         0.00000E+00
         0.00000E+00
         0.00000E+00
         0.00000E+00
         0.00000E+00
         0.00000E+00
         0.00000E+00
         0.00000E+00
         0.00000E+00
         0.00000E+00
         0.00000E+00
         0.00000E+00
         0.00000E+00
         0.00000E+00
         0.00000E+00
         0.00000E+00
         0.00000E+00
         0.00000E+00
         0.00000E+00
         0.00000E+00
         0.00000E+00
         0.00000E+00
         0.00000E+00
         0.00000E+00
         0.00000E+00
         0.00000E+00
         0.00000E+00
         0.00000E+00
         0.00000E+00
         0.00000E+00
         0.00000E+00
         0.00000E+00
         0.00000E+00
         0.00000E+00
         0.00000E+00
         0.00000E+00
         0.00000E+00
         0.00000E+00
         0.00000E+00
         0.00000E+00
         0.00000E+00
         0.00000E+00
         0.00000E+00
         0.00000E+00
         0.00000E+00
         0.00000E+00
         0.00000E+00
         0.00000E+00
         0.00000E+00
         0.00000E+00
         0.00000E+00
         0.00000E+00
         0.00000E+00
         0.00000E+00
         0.00000E+00
         0.00000E+00
         0.00000E+00
         0.00000E+00
         0.00000E+00
         0.00000E+00
         0.00000E+00
         0.00000E+00
         0.00000E+00
         0.00000E+00
         0.00000E+00
         0.00000E+00
         0.00000E+00
         0.00000E+00
         0.00000E+00
         0.00000E+00
         0.00000E+00
         0.00000E+00
         0.00000E+00
         0.00000E+00
         0.00000E+00
         0.00000E+00
         0.00000E+00
         0.00000E+00
         0.00000E+00
         0.00000E+00
         0.00000E+00
         0.00000E+00
         0.00000E+00
         0.00000E+00
         0.00000E+00
         0.00000E+00
         0.00000E+00
         0.00000E+00
         0.00000E+00
         0.00000E+00
         0.00000E+00
         0.00000E+00
         0.00000E+00
         0.00000E+00
         0.00000E+00
         0.00000E+00
         0.00000E+00
         0.00000E+00
         0.00000E+00
         0.00000E+00
         0.00000E+00
         0.00000E+00
         0.00000E+00
         0.00000E+00
         0.00000E+00
         0.00000E+00
         0.00000E+00
         0.00000E+00
         0.00000E+00
         0.00000E+00
         0.00000E+00
         0.00000E+00
         0.00000E+00
         0.00000E+00
         0.00000E+00
         0.00000E+00
         0.00000E+00
         0.00000E+00
         0.00000E+00
         0.00000E+00
         0.00000E+00
         0.00000E+00
         0.00000E+00
         0.00000E+00
         0.00000E+00
         0.00000E+00
         0.00000E+00
         0.00000E+00
         0.00000E+00
         0.00000E+00
         0.00000E+00
         0.00000E+00
         0.00000E+00
         0.00000E+00
         0.00000E+00
         0.00000E+00
         0.00000E+00
         0.00000E+00
         0.00000E+00
         0.00000E+00
         0.00000E+00
         0.00000E+00
         0.00000E+00
         0.00000E+00
         0.00000E+00
         0.00000E+00
         0.00000E+00
         0.00000E+00
         0.00000E+00
         0.00000E+00
         0.00000E+00
         0.00000E+00
         0.00000E+00
         0.00000E+00
         0.00000E+00
         0.00000E+00
         0.00000E+00
         0.00000E+00
         0.00000E+00
         0.00000E+00
         0.00000E+00
         0.00000E+00
         0.00000E+00
         0.00000E+00
         0.00000E+00
         0.00000E+00
         0.00000E+00
         0.00000E+00
         0.00000E+00
         0.00000E+00
         0.00000E+00
         0.00000E+00
         0.00000E+00
         0.00000E+00
         0.00000E+00
         0.00000E+00
         0.00000E+00
         0.00000E+00
         0.00000E+00
         0.00000E+00
         0.00000E+00
         0.00000E+00
         0.00000E+00
         0.00000E+00
         0.00000E+00
         0.00000E+00
         0.00000E+00
         0.00000E+00
         0.00000E+00
         0.00000E+00
         0.00000E+00
         0.00000E+00
         0.00000E+00
         0.00000E+00
         0.00000E+00
         0.00000E+00
         0.00000E+00
         0.00000E+00
         0.00000E+00
         0.00000E+00
         0.00000E+00
         0.00000E+00
         0.00000E+00
         0.00000E+00
         0.00000E+00
         0.00000E+00
         0.00000E+00
         0.00000E+00
         0.00000E+00
         0.00000E+00
         0.00000E+00
         0.00000E+00
         0.00000E+00
         0.00000E+00
         0.00000E+00
         0.00000E+00
         0.00000E+00
         0.00000E+00
         0.00000E+00
         0.00000E+00
         0.00000E+00
         0.00000E+00
         0.00000E+00
         0.00000E+00
         0.00000E+00
         0.00000E+00
         0.00000E+00
         0.00000E+00
         0.00000E+00
         0.00000E+00
         0.00000E+00
         0.00000E+00
         0.00000E+00
         0.00000E+00
         0.00000E+00
         0.00000E+00
         0.00000E+00
         0.00000E+00
         0.00000E+00
         0.00000E+00
         0.00000E+00
         0.00000E+00
         0.00000E+00
         0.00000E+00
         0.00000E+00
         0.00000E+00
         0.00000E+00
         0.00000E+00
         0.00000E+00
         0.00000E+00
         0.00000E+00
         0.00000E+00
         0.00000E+00
         0.00000E+00
         0.00000E+00
         0.00000E+00
         0.00000E+00
         0.00000E+00
         0.00000E+00
         0.00000E+00
         0.00000E+00
         0.00000E+00
         0.00000E+00
         0.00000E+00
         0.00000E+00
         0.00000E+00
         0.00000E+00
         0.00000E+00
         0.00000E+00
         0.00000E+00
         0.00000E+00
         0.00000E+00
         0.00000E+00
         0.00000E+00
         0.00000E+00
         0.00000E+00
         0.00000E+00
         0.00000E+00
         0.00000E+00
         0.00000E+00
         0.00000E+00
         0.00000E+00
         0.00000E+00
         0.00000E+00
         0.00000E+00
         0.00000E+00
         0.00000E+00
         0.00000E+00
         0.00000E+00
         0.00000E+00
         0.00000E+00
         0.00000E+00
         0.00000E+00
         0.00000E+00
         0.00000E+00
         0.00000E+00
         0.00000E+00
         0.00000E+00
         0.00000E+00
         0.00000E+00
         0.00000E+00
         0.00000E+00
         0.00000E+00
         0.00000E+00
         0.00000E+00
         0.00000E+00
         0.00000E+00
         0.00000E+00
         0.00000E+00
         0.00000E+00
         0.00000E+00
         0.00000E+00
         0.00000E+00
         0.00000E+00
         0.00000E+00
         0.00000E+00
         0.00000E+00
         0.00000E+00
         0.00000E+00
         0.00000E+00
         0.00000E+00
         0.00000E+00
         0.00000E+00
         0.00000E+00
         0.00000E+00
         0.00000E+00
         0.00000E+00
         0.00000E+00
         0.00000E+00
         0.00000E+00
         0.00000E+00
         0.00000E+00
         0.00000E+00
         0.00000E+00
         0.00000E+00
         0.00000E+00
         0.00000E+00
         0.00000E+00
         0.00000E+00
         0.00000E+00
         0.00000E+00
         0.00000E+00
         0.00000E+00
         0.00000E+00
         0.00000E+00
         0.00000E+00
         0.00000E+00
         0.00000E+00
         0.00000E+00
         0.00000E+00
         0.00000E+00
         0.00000E+00
         0.00000E+00
         0.00000E+00
         0.00000E+00
         0.00000E+00
         0.00000E+00
         0.00000E+00
         0.00000E+00
         0.00000E+00
         0.00000E+00
         0.00000E+00
         0.00000E+00
         0.00000E+00
         0.00000E+00
         0.00000E+00
         0.00000E+00
         0.00000E+00
         0.00000E+00
         0.00000E+00
         0.00000E+00
         0.00000E+00
         0.00000E+00
         0.00000E+00
         0.00000E+00
         0.00000E+00
         0.00000E+00
         0.00000E+00
         0.00000E+00
         0.00000E+00
         0.00000E+00
         0.00000E+00
         0.00000E+00
         0.00000E+00
         0.00000E+00
         0.00000E+00
         0.00000E+00
         0.00000E+00
         0.00000E+00
         0.00000E+00
         0.00000E+00
         0.00000E+00
         0.00000E+00
         0.00000E+00
         0.00000E+00
         0.00000E+00
         0.00000E+00
         0.00000E+00
         0.00000E+00
         0.00000E+00
         0.00000E+00
         0.00000E+00
         0.00000E+00
         0.00000E+00
         0.00000E+00
         0.00000E+00
         0.00000E+00
         0.00000E+00
         0.00000E+00
         0.00000E+00
         0.00000E+00
         0.00000E+00
         0.00000E+00
         0.00000E+00
         0.00000E+00
         0.00000E+00
         0.00000E+00
         0.00000E+00
         0.00000E+00
         0.00000E+00
         0.00000E+00
         0.00000E+00
         0.00000E+00
         0.00000E+00
         0.00000E+00
         0.00000E+00
         0.00000E+00
         0.00000E+00
         0.00000E+00
         0.00000E+00
         0.00000E+00
         0.00000E+00
         0.00000E+00
         0.00000E+00
         0.00000E+00
         0.00000E+00
         0.00000E+00
         0.00000E+00
         0.00000E+00
         0.00000E+00
         0.00000E+00
         0.00000E+00
         0.00000E+00
         0.00000E+00
         0.00000E+00
         0.00000E+00
         0.00000E+00
         0.00000E+00
         0.00000E+00
         0.00000E+00
         0.00000E+00
         0.00000E+00
         0.00000E+00
         0.00000E+00
         0.00000E+00
         0.00000E+00
         0.00000E+00
         0.00000E+00
         0.00000E+00
         0.00000E+00
         0.00000E+00
         0.00000E+00
         0.00000E+00
         0.00000E+00
         0.00000E+00
         0.00000E+00
         0.00000E+00
         0.00000E+00
         0.00000E+00
         0.00000E+00
         0.00000E+00
         0.00000E+00
         0.00000E+00
         0.00000E+00
         0.00000E+00
         0.00000E+00
         0.00000E+00
         0.00000E+00
         0.00000E+00
         0.00000E+00
         0.00000E+00
         0.00000E+00
         0.00000E+00
         0.00000E+00
         0.00000E+00
         0.00000E+00
         0.00000E+00
         0.00000E+00
         0.00000E+00
         0.00000E+00
         0.00000E+00
         0.00000E+00
         0.00000E+00
         0.00000E+00
         0.00000E+00
         0.00000E+00
         0.00000E+00
         0.00000E+00
         0.00000E+00
         0.00000E+00
         0.00000E+00
         0.00000E+00
         0.00000E+00
         0.00000E+00
         0.00000E+00
         0.00000E+00
         0.00000E+00
         0.00000E+00
         0.00000E+00
         0.00000E+00
         0.00000E+00
         0.00000E+00
         0.00000E+00
         0.00000E+00
         0.00000E+00
         0.00000E+00
         0.00000E+00
         0.00000E+00
         0.00000E+00
         0.00000E+00
         0.00000E+00
         0.00000E+00
         0.00000E+00
         0.00000E+00
         0.00000E+00
         0.00000E+00
         0.00000E+00
         0.00000E+00
         0.00000E+00
         0.00000E+00
         0.00000E+00
         0.00000E+00
         0.00000E+00
         0.00000E+00
         0.00000E+00
         0.00000E+00
         0.00000E+00
         0.00000E+00
         0.00000E+00
         0.00000E+00
         0.00000E+00
         0.00000E+00
         0.00000E+00
         0.00000E+00
         0.00000E+00
         0.00000E+00
         0.00000E+00
         0.00000E+00
         0.00000E+00
         0.00000E+00
         0.00000E+00
         0.00000E+00
         0.00000E+00
         0.00000E+00
         0.00000E+00
         0.00000E+00
         0.00000E+00
         0.00000E+00
         0.00000E+00
         0.00000E+00
         0.00000E+00
         0.00000E+00
         0.00000E+00
         0.00000E+00
         0.00000E+00
         0.00000E+00
         0.00000E+00
         0.00000E+00
         0.00000E+00
         0.00000E+00
         0.00000E+00
         0.00000E+00
         0.00000E+00
         0.00000E+00
         0.00000E+00
         0.00000E+00
         0.00000E+00
         0.00000E+00
         0.00000E+00
         0.00000E+00
         0.00000E+00
         0.00000E+00
         0.00000E+00
         0.00000E+00
         0.00000E+00
         0.00000E+00
         0.00000E+00
         0.00000E+00
         0.00000E+00
         0.00000E+00
         0.00000E+00
         0.00000E+00
         0.00000E+00
         0.00000E+00
         0.00000E+00
         0.00000E+00
         0.00000E+00
         0.00000E+00
         0.00000E+00
         0.00000E+00
         0.00000E+00
         0.00000E+00
         0.00000E+00
         0.00000E+00
         0.00000E+00
         0.00000E+00
         0.00000E+00
         0.00000E+00
         0.00000E+00
         0.00000E+00
         0.00000E+00
         0.00000E+00
         0.00000E+00
         0.00000E+00
         0.00000E+00
         0.00000E+00
         0.00000E+00
         0.00000E+00
         0.00000E+00
         0.00000E+00
         0.00000E+00
         0.00000E+00
         0.00000E+00
         0.00000E+00
         0.00000E+00
         0.00000E+00
         0.00000E+00
         0.00000E+00
         0.00000E+00
         0.00000E+00
         0.00000E+00
         0.00000E+00
         0.00000E+00
         0.00000E+00
         0.00000E+00
         0.00000E+00
         0.00000E+00
         0.00000E+00
         0.00000E+00
         0.00000E+00
         0.00000E+00
         0.00000E+00
         0.00000E+00
         0.00000E+00
         0.00000E+00
         0.00000E+00
         0.00000E+00
         0.00000E+00
         0.00000E+00
         0.00000E+00
         0.00000E+00
         0.00000E+00
         0.00000E+00
         0.00000E+00
         0.00000E+00
         0.00000E+00
         0.00000E+00
         0.00000E+00
         0.00000E+00
         0.00000E+00
         0.00000E+00
         0.00000E+00
         0.00000E+00
         0.00000E+00
         0.00000E+00
         0.00000E+00
         0.00000E+00
         0.00000E+00
         0.00000E+00
         0.00000E+00
         0.00000E+00
         0.00000E+00
         0.00000E+00
         0.00000E+00
         0.00000E+00
         0.00000E+00
         0.00000E+00
         0.00000E+00
         0.00000E+00
         0.00000E+00
         0.00000E+00
         0.00000E+00
         0.00000E+00
         0.00000E+00
         0.00000E+00
         0.00000E+00
         0.00000E+00
         0.00000E+00
         0.00000E+00
         0.00000E+00
         0.00000E+00
         0.00000E+00
         0.00000E+00
         0.00000E+00
         0.00000E+00
         0.00000E+00
         0.00000E+00
         0.00000E+00
         0.00000E+00
         0.00000E+00
         0.00000E+00
         0.00000E+00
         0.00000E+00
         0.00000E+00
         0.00000E+00
         0.00000E+00
         0.00000E+00
         0.00000E+00
         0.00000E+00
         0.00000E+00
         0.00000E+00
         0.00000E+00
         0.00000E+00
         0.00000E+00
         0.00000E+00
         0.00000E+00
         0.00000E+00
         0.00000E+00
         0.00000E+00
         0.00000E+00
         0.00000E+00
         0.00000E+00
         0.00000E+00
         0.00000E+00
         0.00000E+00
         0.00000E+00
         0.00000E+00
         0.00000E+00
         0.00000E+00
         0.00000E+00
         0.00000E+00
         0.00000E+00
         0.00000E+00
         0.00000E+00
         0.00000E+00
         0.00000E+00
         0.00000E+00
         0.00000E+00
         0.00000E+00
         0.00000E+00
         0.00000E+00
         0.00000E+00
         0.00000E+00
         0.00000E+00
         0.00000E+00
         0.00000E+00
         0.00000E+00
         0.00000E+00
         0.00000E+00
         0.00000E+00
         0.00000E+00
         0.00000E+00
         0.00000E+00
         0.00000E+00
         0.00000E+00
         0.00000E+00
         0.00000E+00
         0.00000E+00
         0.00000E+00
         0.00000E+00
         0.00000E+00
         0.00000E+00
         0.00000E+00
         0.00000E+00
         0.00000E+00
         0.00000E+00
         0.00000E+00
         0.00000E+00
         0.00000E+00
         0.00000E+00
         0.00000E+00
         0.00000E+00
         0.00000E+00
         0.00000E+00
         0.00000E+00
         0.00000E+00
         0.00000E+00
         0.00000E+00
         0.00000E+00
         0.00000E+00
         0.00000E+00
         0.00000E+00
         0.00000E+00
         0.00000E+00
         0.00000E+00
         0.00000E+00
         0.00000E+00
         0.00000E+00
         0.00000E+00
         0.00000E+00
         0.00000E+00
         0.00000E+00
         0.00000E+00
         0.00000E+00
         0.00000E+00
         0.00000E+00
         0.00000E+00
         0.00000E+00
         0.00000E+00
         0.00000E+00
         0.00000E+00
         0.00000E+00
         0.00000E+00
         0.00000E+00
         0.00000E+00
         0.00000E+00
         0.00000E+00
         0.00000E+00
         0.00000E+00
         0.00000E+00
         0.00000E+00
         0.00000E+00
         0.00000E+00
         0.00000E+00
         0.00000E+00
         0.00000E+00
         0.00000E+00
         0.00000E+00
         0.00000E+00
         0.00000E+00
         0.00000E+00
         0.00000E+00
         0.00000E+00
         0.00000E+00
         0.00000E+00
         0.00000E+00
         0.00000E+00
         0.00000E+00
         0.00000E+00
         0.00000E+00
         0.00000E+00
         0.00000E+00
         0.00000E+00
         0.00000E+00
         0.00000E+00
         0.00000E+00
         0.00000E+00
         0.00000E+00
         0.00000E+00
         0.00000E+00
         0.00000E+00
         0.00000E+00
         0.00000E+00
         0.00000E+00
         0.00000E+00
         0.00000E+00
         0.00000E+00
         0.00000E+00
         0.00000E+00
         0.00000E+00
         0.00000E+00
         0.00000E+00
         0.00000E+00
         0.00000E+00
         0.00000E+00
         0.00000E+00
         0.00000E+00
         0.00000E+00
         0.00000E+00
         0.00000E+00
         0.00000E+00
         0.00000E+00
         0.00000E+00
         0.00000E+00
         0.00000E+00
         0.00000E+00
         0.00000E+00
         0.00000E+00
         0.00000E+00
         0.00000E+00
         0.00000E+00
         0.00000E+00
         0.00000E+00
         0.00000E+00
         0.00000E+00
         0.00000E+00
         0.00000E+00
         0.00000E+00
         0.00000E+00
         0.00000E+00
         0.00000E+00
         0.00000E+00
         0.00000E+00
         0.00000E+00
         0.00000E+00
         0.00000E+00
         0.00000E+00
         0.00000E+00
         0.00000E+00
         0.00000E+00
         0.00000E+00
         0.00000E+00
         0.00000E+00
         0.00000E+00
         0.00000E+00
         0.00000E+00
         0.00000E+00
         0.00000E+00
         0.00000E+00
         0.00000E+00
         0.00000E+00
         0.00000E+00
         0.00000E+00
         0.00000E+00
         0.00000E+00
         0.00000E+00
         0.00000E+00
         0.00000E+00
         0.00000E+00
         0.00000E+00
         0.00000E+00
         0.00000E+00
         0.00000E+00
         0.00000E+00
         0.00000E+00
         0.00000E+00
         0.00000E+00
         0.00000E+00
         0.00000E+00
         0.00000E+00
         0.00000E+00
         0.00000E+00
         0.00000E+00
         0.00000E+00
         0.00000E+00
         0.00000E+00
         0.00000E+00
         0.00000E+00
         0.00000E+00
         0.00000E+00
         0.00000E+00
         0.00000E+00
         0.00000E+00
         0.00000E+00
         0.00000E+00
         0.00000E+00
         0.00000E+00
         0.00000E+00
         0.00000E+00
         0.00000E+00
         0.00000E+00
         0.00000E+00
         0.00000E+00
         0.00000E+00
         0.00000E+00
         0.00000E+00
         0.00000E+00
         0.00000E+00
         0.00000E+00
         0.00000E+00
         0.00000E+00
         0.00000E+00
         0.00000E+00
         0.00000E+00
         0.00000E+00
         0.00000E+00
         0.00000E+00
         0.00000E+00
         0.00000E+00
         0.00000E+00
         0.00000E+00
         0.00000E+00
         0.00000E+00
         0.00000E+00
         0.00000E+00
         0.00000E+00
         0.00000E+00
         0.00000E+00
         0.00000E+00
         0.00000E+00
         0.00000E+00
         0.00000E+00
         0.00000E+00
         0.00000E+00
         0.00000E+00
         0.00000E+00
         0.00000E+00
         0.00000E+00
         0.00000E+00
         0.00000E+00
         0.00000E+00
         0.00000E+00
         0.00000E+00
         0.00000E+00
         0.00000E+00
         0.00000E+00
         0.00000E+00
         0.00000E+00
         0.00000E+00
         0.00000E+00
         0.00000E+00
         0.00000E+00
         0.00000E+00
         0.00000E+00
         0.00000E+00
         0.00000E+00
         0.00000E+00
         0.00000E+00
         0.00000E+00
         0.00000E+00
         0.00000E+00
         0.00000E+00
         0.00000E+00
         0.00000E+00
         0.00000E+00
         0.00000E+00
         0.00000E+00
         0.00000E+00
         0.00000E+00
         0.00000E+00
         0.00000E+00
         0.00000E+00
         0.00000E+00
         0.00000E+00
         0.00000E+00
         0.00000E+00
         0.00000E+00
         0.00000E+00
         0.00000E+00
         0.00000E+00
         0.00000E+00
         0.00000E+00
         0.00000E+00
         0.00000E+00
         0.00000E+00
         0.00000E+00
         0.00000E+00
         0.00000E+00
         0.00000E+00
         0.00000E+00
         0.00000E+00
         0.00000E+00
         0.00000E+00
         0.00000E+00
         0.00000E+00
         0.00000E+00
         0.00000E+00
         0.00000E+00
         0.00000E+00
         0.00000E+00
         0.00000E+00
         0.00000E+00
         0.00000E+00
         0.00000E+00
         0.00000E+00
         0.00000E+00
         0.00000E+00
         0.00000E+00
         0.00000E+00
         0.00000E+00
         0.00000E+00
         0.00000E+00
         0.00000E+00
         0.00000E+00
         0.00000E+00
         0.00000E+00
         0.00000E+00
         0.00000E+00
         0.00000E+00
         0.00000E+00
         0.00000E+00
         0.00000E+00
         0.00000E+00
         0.00000E+00
         0.00000E+00
         0.00000E+00
         0.00000E+00
         0.00000E+00
         0.00000E+00
         0.00000E+00
         0.00000E+00
         0.00000E+00
         0.00000E+00
         0.00000E+00
         0.00000E+00
         0.00000E+00
         0.00000E+00
         0.00000E+00
         0.00000E+00
         0.00000E+00
         0.00000E+00
         0.00000E+00
         0.00000E+00
         0.00000E+00
         0.00000E+00
         0.00000E+00
         0.00000E+00
         0.00000E+00
         0.00000E+00
         0.00000E+00
         0.00000E+00
         0.00000E+00
         0.00000E+00
         0.00000E+00
         0.00000E+00
         0.00000E+00
         0.00000E+00
         0.00000E+00
         0.00000E+00
         0.00000E+00
         0.00000E+00
         0.00000E+00
         0.00000E+00
         0.00000E+00
         0.00000E+00
         0.00000E+00
         0.00000E+00
         0.00000E+00
         0.00000E+00
         0.00000E+00
         0.00000E+00
         0.00000E+00
         0.00000E+00
         0.00000E+00
         0.00000E+00
         0.00000E+00
         0.00000E+00
         0.00000E+00
         0.00000E+00
         0.00000E+00
         0.00000E+00
         0.00000E+00
         0.00000E+00
         0.00000E+00
         0.00000E+00
         0.00000E+00
         0.00000E+00
         0.00000E+00
         0.00000E+00
         0.00000E+00
         0.00000E+00
         0.00000E+00
         0.00000E+00
         0.00000E+00
         0.00000E+00
         0.00000E+00
         0.00000E+00
         0.00000E+00
         0.00000E+00
         0.00000E+00
         0.00000E+00
         0.00000E+00
         0.00000E+00
         0.00000E+00
         0.00000E+00
         0.00000E+00
         0.00000E+00
         0.00000E+00
         0.00000E+00
         0.00000E+00
         0.00000E+00
         0.00000E+00
         0.00000E+00
         0.00000E+00
         0.00000E+00
         0.00000E+00
         0.00000E+00
         0.00000E+00
         0.00000E+00
         0.00000E+00
         0.00000E+00
         0.00000E+00
         0.00000E+00
         0.00000E+00
         0.00000E+00
         0.00000E+00
         0.00000E+00
         0.00000E+00
         0.00000E+00
         0.00000E+00
         0.00000E+00
         0.00000E+00
         0.00000E+00
         0.00000E+00
         0.00000E+00
         0.00000E+00
         0.00000E+00
         0.00000E+00
         0.00000E+00
         0.00000E+00
         0.00000E+00
         0.00000E+00
         0.00000E+00
         0.00000E+00
         0.00000E+00
         0.00000E+00
         0.00000E+00
         0.00000E+00
         0.00000E+00
         0.00000E+00
         0.00000E+00
         0.00000E+00
         0.00000E+00
         0.00000E+00
         0.00000E+00
         0.00000E+00
         0.00000E+00
         0.00000E+00
         0.00000E+00
         0.00000E+00
         0.00000E+00
         0.00000E+00
         0.00000E+00
         0.00000E+00
         0.00000E+00
         0.00000E+00
         0.00000E+00
         0.00000E+00
         0.00000E+00
         0.00000E+00
         0.00000E+00
         0.00000E+00
         0.00000E+00
         0.00000E+00
         0.00000E+00
         0.00000E+00
         0.00000E+00
         0.00000E+00
         0.00000E+00
         0.00000E+00
         0.00000E+00
         0.00000E+00
         0.00000E+00
         0.00000E+00
         0.00000E+00
         0.00000E+00
         0.00000E+00
         0.00000E+00
         0.00000E+00
         0.00000E+00
         0.00000E+00
         0.00000E+00
         0.00000E+00
         0.00000E+00
         0.00000E+00
         0.00000E+00
         0.00000E+00
         0.00000E+00
         0.00000E+00
         0.00000E+00
         0.00000E+00
         0.00000E+00
         0.00000E+00
         0.00000E+00
         0.00000E+00
         0.00000E+00
         0.00000E+00
         0.00000E+00
         0.00000E+00
         0.00000E+00
         0.00000E+00
         0.00000E+00
         0.00000E+00
         0.00000E+00
         0.00000E+00
         0.00000E+00
         0.00000E+00
         0.00000E+00
         0.00000E+00
         0.00000E+00
         0.00000E+00
         0.00000E+00
         0.00000E+00
         0.00000E+00
         0.00000E+00
         0.00000E+00
         0.00000E+00
         0.00000E+00
         0.00000E+00
         0.00000E+00
         0.00000E+00
         0.00000E+00
         0.00000E+00
         0.00000E+00
         0.00000E+00
         0.00000E+00
         0.00000E+00
         0.00000E+00
         0.00000E+00
         0.00000E+00
         0.00000E+00
         0.00000E+00
         0.00000E+00
         0.00000E+00
         0.00000E+00
         0.00000E+00
         0.00000E+00
         0.00000E+00
         0.00000E+00
         0.00000E+00
         0.00000E+00
         0.00000E+00
         0.00000E+00
         0.00000E+00
         0.00000E+00
  
SCALARS                     velocity_y  double 1
LOOKUP_TABLE default
         0.00000E+00
         0.00000E+00
         0.00000E+00
         0.00000E+00
         0.00000E+00
         0.00000E+00
         0.00000E+00
         0.00000E+00
         0.00000E+00
         0.00000E+00
         0.00000E+00
         0.00000E+00
         0.00000E+00
         0.00000E+00
         0.00000E+00
         0.00000E+00
         0.00000E+00
         0.00000E+00
         0.00000E+00
         0.00000E+00
         0.00000E+00
         0.00000E+00
         0.00000E+00
         0.00000E+00
         0.00000E+00
         0.00000E+00
         0.00000E+00
         0.00000E+00
         0.00000E+00
         0.00000E+00
         0.00000E+00
         0.00000E+00
         0.00000E+00
         0.00000E+00
         0.00000E+00
         0.00000E+00
         0.00000E+00
         0.00000E+00
         0.00000E+00
         0.00000E+00
         0.00000E+00
         0.00000E+00
         0.00000E+00
         0.00000E+00
         0.00000E+00
         0.00000E+00
         0.00000E+00
         0.00000E+00
         0.00000E+00
         0.00000E+00
         0.00000E+00
         0.00000E+00
         0.00000E+00
         0.00000E+00
         0.00000E+00
         0.00000E+00
         0.00000E+00
         0.00000E+00
         0.00000E+00
         0.00000E+00
         0.00000E+00
         0.00000E+00
         0.00000E+00
         0.00000E+00
         0.00000E+00
         0.00000E+00
         0.00000E+00
         0.00000E+00
         0.00000E+00
         0.00000E+00
         0.00000E+00
         0.00000E+00
         0.00000E+00
         0.00000E+00
         0.00000E+00
         0.00000E+00
         0.00000E+00
         0.00000E+00
         0.00000E+00
         0.00000E+00
         0.00000E+00
         0.00000E+00
         0.00000E+00
         0.00000E+00
         0.00000E+00
         0.00000E+00
         0.00000E+00
         0.00000E+00
         0.00000E+00
         0.00000E+00
         0.00000E+00
         0.00000E+00
         0.00000E+00
         0.00000E+00
         0.00000E+00
         0.00000E+00
         0.00000E+00
         0.00000E+00
         0.00000E+00
         0.00000E+00
         0.00000E+00
         0.00000E+00
         0.00000E+00
         0.00000E+00
         0.00000E+00
         0.00000E+00
         0.00000E+00
         0.00000E+00
         0.00000E+00
         0.00000E+00
         0.00000E+00
         0.00000E+00
         0.00000E+00
         0.00000E+00
         0.00000E+00
         0.00000E+00
         0.00000E+00
         0.00000E+00
         0.00000E+00
         0.00000E+00
         0.00000E+00
         0.00000E+00
         0.00000E+00
         0.00000E+00
         0.00000E+00
         0.00000E+00
         0.00000E+00
         0.00000E+00
         0.00000E+00
         0.00000E+00
         0.00000E+00
         0.00000E+00
         0.00000E+00
         0.00000E+00
         0.00000E+00
         0.00000E+00
         0.00000E+00
         0.00000E+00
         0.00000E+00
         0.00000E+00
         0.00000E+00
         0.00000E+00
         0.00000E+00
         0.00000E+00
         0.00000E+00
         0.00000E+00
         0.00000E+00
         0.00000E+00
         0.00000E+00
         0.00000E+00
         0.00000E+00
         0.00000E+00
         0.00000E+00
         0.00000E+00
         0.00000E+00
         0.00000E+00
         0.00000E+00
         0.00000E+00
         0.00000E+00
         0.00000E+00
         0.00000E+00
         0.00000E+00
         0.00000E+00
         0.00000E+00
         0.00000E+00
         0.00000E+00
         0.00000E+00
         0.00000E+00
         0.00000E+00
         0.00000E+00
         0.00000E+00
         0.00000E+00
         0.00000E+00
         0.00000E+00
         0.00000E+00
         0.00000E+00
         0.00000E+00
         0.00000E+00
         0.00000E+00
         0.00000E+00
         0.00000E+00
         0.00000E+00
         0.00000E+00
         0.00000E+00
         0.00000E+00
         0.00000E+00
         0.00000E+00
         0.00000E+00
         0.00000E+00
         0.00000E+00
         0.00000E+00
         0.00000E+00
         0.00000E+00
         0.00000E+00
         0.00000E+00
         0.00000E+00
         0.00000E+00
         0.00000E+00
         0.00000E+00
         0.00000E+00
         0.00000E+00
         0.00000E+00
         0.00000E+00
         0.00000E+00
         0.00000E+00
         0.00000E+00
         0.00000E+00
         0.00000E+00
         0.00000E+00
         0.00000E+00
         0.00000E+00
         0.00000E+00
         0.00000E+00
         0.00000E+00
         0.00000E+00
         0.00000E+00
         0.00000E+00
         0.00000E+00
         0.00000E+00
         0.00000E+00
         0.00000E+00
         0.00000E+00
         0.00000E+00
         0.00000E+00
         0.00000E+00
         0.00000E+00
         0.00000E+00
         0.00000E+00
         0.00000E+00
         0.00000E+00
         0.00000E+00
         0.00000E+00
         0.00000E+00
         0.00000E+00
         0.00000E+00
         0.00000E+00
         0.00000E+00
         0.00000E+00
         0.00000E+00
         0.00000E+00
         0.00000E+00
         0.00000E+00
         0.00000E+00
         0.00000E+00
         0.00000E+00
         0.00000E+00
         0.00000E+00
         0.00000E+00
         0.00000E+00
         0.00000E+00
         0.00000E+00
         0.00000E+00
         0.00000E+00
         0.00000E+00
         0.00000E+00
         0.00000E+00
         0.00000E+00
         0.00000E+00
         0.00000E+00
         0.00000E+00
         0.00000E+00
         0.00000E+00
         0.00000E+00
         0.00000E+00
         0.00000E+00
         0.00000E+00
         0.00000E+00
         0.00000E+00
         0.00000E+00
         0.00000E+00
         0.00000E+00
         0.00000E+00
         0.00000E+00
         0.00000E+00
         0.00000E+00
         0.00000E+00
         0.00000E+00
         0.00000E+00
         0.00000E+00
         0.00000E+00
         0.00000E+00
         0.00000E+00
         0.00000E+00
         0.00000E+00
         0.00000E+00
         0.00000E+00
         0.00000E+00
         0.00000E+00
         0.00000E+00
         0.00000E+00
         0.00000E+00
         0.00000E+00
         0.00000E+00
         0.00000E+00
         0.00000E+00
         0.00000E+00
         0.00000E+00
         0.00000E+00
         0.00000E+00
         0.00000E+00
         0.00000E+00
         0.00000E+00
         0.00000E+00
         0.00000E+00
         0.00000E+00
         0.00000E+00
         0.00000E+00
         0.00000E+00
         0.00000E+00
         0.00000E+00
         0.00000E+00
         0.00000E+00
         0.00000E+00
         0.00000E+00
         0.00000E+00
         0.00000E+00
         0.00000E+00
         0.00000E+00
         0.00000E+00
         0.00000E+00
         0.00000E+00
         0.00000E+00
         0.00000E+00
         0.00000E+00
         0.00000E+00
         0.00000E+00
         0.00000E+00
         0.00000E+00
         0.00000E+00
         0.00000E+00
         0.00000E+00
         0.00000E+00
         0.00000E+00
         0.00000E+00
         0.00000E+00
         0.00000E+00
         0.00000E+00
         0.00000E+00
         0.00000E+00
         0.00000E+00
         0.00000E+00
         0.00000E+00
         0.00000E+00
         0.00000E+00
         0.00000E+00
         0.00000E+00
         0.00000E+00
         0.00000E+00
         0.00000E+00
         0.00000E+00
         0.00000E+00
         0.00000E+00
         0.00000E+00
         0.00000E+00
         0.00000E+00
         0.00000E+00
         0.00000E+00
         0.00000E+00
         0.00000E+00
         0.00000E+00
         0.00000E+00
         0.00000E+00
         0.00000E+00
         0.00000E+00
         0.00000E+00
         0.00000E+00
         0.00000E+00
         0.00000E+00
         0.00000E+00
         0.00000E+00
         0.00000E+00
         0.00000E+00
         0.00000E+00
         0.00000E+00
         0.00000E+00
         0.00000E+00
         0.00000E+00
         0.00000E+00
         0.00000E+00
         0.00000E+00
         0.00000E+00
         0.00000E+00
         0.00000E+00
         0.00000E+00
         0.00000E+00
         0.00000E+00
         0.00000E+00
         0.00000E+00
         0.00000E+00
         0.00000E+00
         0.00000E+00
         0.00000E+00
         0.00000E+00
         0.00000E+00
         0.00000E+00
         0.00000E+00
         0.00000E+00
         0.00000E+00
         0.00000E+00
         0.00000E+00
         0.00000E+00
         0.00000E+00
         0.00000E+00
         0.00000E+00
         0.00000E+00
         0.00000E+00
         0.00000E+00
         0.00000E+00
         0.00000E+00
         0.00000E+00
         0.00000E+00
         0.00000E+00
         0.00000E+00
         0.00000E+00
         0.00000E+00
         0.00000E+00
         0.00000E+00
         0.00000E+00
         0.00000E+00
         0.00000E+00
         0.00000E+00
         0.00000E+00
         0.00000E+00
         0.00000E+00
         0.00000E+00
         0.00000E+00
         0.00000E+00
         0.00000E+00
         0.00000E+00
         0.00000E+00
         0.00000E+00
         0.00000E+00
         0.00000E+00
         0.00000E+00
         0.00000E+00
         0.00000E+00
         0.00000E+00
         0.00000E+00
         0.00000E+00
         0.00000E+00
         0.00000E+00
         0.00000E+00
         0.00000E+00
         0.00000E+00
         0.00000E+00
         0.00000E+00
         0.00000E+00
         0.00000E+00
         0.00000E+00
         0.00000E+00
         0.00000E+00
         0.00000E+00
         0.00000E+00
         0.00000E+00
         0.00000E+00
         0.00000E+00
         0.00000E+00
         0.00000E+00
         0.00000E+00
         0.00000E+00
         0.00000E+00
         0.00000E+00
         0.00000E+00
         0.00000E+00
         0.00000E+00
         0.00000E+00
         0.00000E+00
         0.00000E+00
         0.00000E+00
         0.00000E+00
         0.00000E+00
         0.00000E+00
         0.00000E+00
         0.00000E+00
         0.00000E+00
         0.00000E+00
         0.00000E+00
         0.00000E+00
         0.00000E+00
         0.00000E+00
         0.00000E+00
         0.00000E+00
         0.00000E+00
         0.00000E+00
         0.00000E+00
         0.00000E+00
         0.00000E+00
         0.00000E+00
         0.00000E+00
         0.00000E+00
         0.00000E+00
         0.00000E+00
         0.00000E+00
         0.00000E+00
         0.00000E+00
         0.00000E+00
         0.00000E+00
         0.00000E+00
         0.00000E+00
         0.00000E+00
         0.00000E+00
         0.00000E+00
         0.00000E+00
         0.00000E+00
         0.00000E+00
         0.00000E+00
         0.00000E+00
         0.00000E+00
         0.00000E+00
         0.00000E+00
         0.00000E+00
         0.00000E+00
         0.00000E+00
         0.00000E+00
         0.00000E+00
         0.00000E+00
         0.00000E+00
         0.00000E+00
         0.00000E+00
         0.00000E+00
         0.00000E+00
         0.00000E+00
         0.00000E+00
         0.00000E+00
         0.00000E+00
         0.00000E+00
         0.00000E+00
         0.00000E+00
         0.00000E+00
         0.00000E+00
         0.00000E+00
         0.00000E+00
         0.00000E+00
         0.00000E+00
         0.00000E+00
         0.00000E+00
         0.00000E+00
         0.00000E+00
         0.00000E+00
         0.00000E+00
         0.00000E+00
         0.00000E+00
         0.00000E+00
         0.00000E+00
         0.00000E+00
         0.00000E+00
         0.00000E+00
         0.00000E+00
         0.00000E+00
         0.00000E+00
         0.00000E+00
         0.00000E+00
         0.00000E+00
         0.00000E+00
         0.00000E+00
         0.00000E+00
         0.00000E+00
         0.00000E+00
         0.00000E+00
         0.00000E+00
         0.00000E+00
         0.00000E+00
         0.00000E+00
         0.00000E+00
         0.00000E+00
         0.00000E+00
         0.00000E+00
         0.00000E+00
         0.00000E+00
         0.00000E+00
         0.00000E+00
         0.00000E+00
         0.00000E+00
         0.00000E+00
         0.00000E+00
         0.00000E+00
         0.00000E+00
         0.00000E+00
         0.00000E+00
         0.00000E+00
         0.00000E+00
         0.00000E+00
         0.00000E+00
         0.00000E+00
         0.00000E+00
         0.00000E+00
         0.00000E+00
         0.00000E+00
         0.00000E+00
         0.00000E+00
         0.00000E+00
         0.00000E+00
         0.00000E+00
         0.00000E+00
         0.00000E+00
         0.00000E+00
         0.00000E+00
         0.00000E+00
         0.00000E+00
         0.00000E+00
         0.00000E+00
         0.00000E+00
         0.00000E+00
         0.00000E+00
         0.00000E+00
         0.00000E+00
         0.00000E+00
         0.00000E+00
         0.00000E+00
         0.00000E+00
         0.00000E+00
         0.00000E+00
         0.00000E+00
         0.00000E+00
         0.00000E+00
         0.00000E+00
         0.00000E+00
         0.00000E+00
         0.00000E+00
         0.00000E+00
         0.00000E+00
         0.00000E+00
         0.00000E+00
         0.00000E+00
         0.00000E+00
         0.00000E+00
         0.00000E+00
         0.00000E+00
         0.00000E+00
         0.00000E+00
         0.00000E+00
         0.00000E+00
         0.00000E+00
         0.00000E+00
         0.00000E+00
         0.00000E+00
         0.00000E+00
         0.00000E+00
         0.00000E+00
         0.00000E+00
         0.00000E+00
         0.00000E+00
         0.00000E+00
         0.00000E+00
         0.00000E+00
         0.00000E+00
         0.00000E+00
         0.00000E+00
         0.00000E+00
         0.00000E+00
         0.00000E+00
         0.00000E+00
         0.00000E+00
         0.00000E+00
         0.00000E+00
         0.00000E+00
         0.00000E+00
         0.00000E+00
         0.00000E+00
         0.00000E+00
         0.00000E+00
         0.00000E+00
         0.00000E+00
         0.00000E+00
         0.00000E+00
         0.00000E+00
         0.00000E+00
         0.00000E+00
         0.00000E+00
         0.00000E+00
         0.00000E+00
         0.00000E+00
         0.00000E+00
         0.00000E+00
         0.00000E+00
         0.00000E+00
         0.00000E+00
         0.00000E+00
         0.00000E+00
         0.00000E+00
         0.00000E+00
         0.00000E+00
         0.00000E+00
         0.00000E+00
         0.00000E+00
         0.00000E+00
         0.00000E+00
         0.00000E+00
         0.00000E+00
         0.00000E+00
         0.00000E+00
         0.00000E+00
         0.00000E+00
         0.00000E+00
         0.00000E+00
         0.00000E+00
         0.00000E+00
         0.00000E+00
         0.00000E+00
         0.00000E+00
         0.00000E+00
         0.00000E+00
         0.00000E+00
         0.00000E+00
         0.00000E+00
         0.00000E+00
         0.00000E+00
         0.00000E+00
         0.00000E+00
         0.00000E+00
         0.00000E+00
         0.00000E+00
         0.00000E+00
         0.00000E+00
         0.00000E+00
         0.00000E+00
         0.00000E+00
         0.00000E+00
         0.00000E+00
         0.00000E+00
         0.00000E+00
         0.00000E+00
         0.00000E+00
         0.00000E+00
         0.00000E+00
         0.00000E+00
         0.00000E+00
         0.00000E+00
         0.00000E+00
         0.00000E+00
         0.00000E+00
         0.00000E+00
         0.00000E+00
         0.00000E+00
         0.00000E+00
         0.00000E+00
         0.00000E+00
         0.00000E+00
         0.00000E+00
         0.00000E+00
         0.00000E+00
         0.00000E+00
         0.00000E+00
         0.00000E+00
         0.00000E+00
         0.00000E+00
         0.00000E+00
         0.00000E+00
         0.00000E+00
         0.00000E+00
         0.00000E+00
         0.00000E+00
         0.00000E+00
         0.00000E+00
         0.00000E+00
         0.00000E+00
         0.00000E+00
         0.00000E+00
         0.00000E+00
         0.00000E+00
         0.00000E+00
         0.00000E+00
         0.00000E+00
         0.00000E+00
         0.00000E+00
         0.00000E+00
         0.00000E+00
         0.00000E+00
         0.00000E+00
         0.00000E+00
         0.00000E+00
         0.00000E+00
         0.00000E+00
         0.00000E+00
         0.00000E+00
         0.00000E+00
         0.00000E+00
         0.00000E+00
         0.00000E+00
         0.00000E+00
         0.00000E+00
         0.00000E+00
         0.00000E+00
         0.00000E+00
         0.00000E+00
         0.00000E+00
         0.00000E+00
         0.00000E+00
         0.00000E+00
         0.00000E+00
         0.00000E+00
         0.00000E+00
         0.00000E+00
         0.00000E+00
         0.00000E+00
         0.00000E+00
         0.00000E+00
         0.00000E+00
         0.00000E+00
         0.00000E+00
         0.00000E+00
         0.00000E+00
         0.00000E+00
         0.00000E+00
         0.00000E+00
         0.00000E+00
         0.00000E+00
         0.00000E+00
         0.00000E+00
         0.00000E+00
         0.00000E+00
         0.00000E+00
         0.00000E+00
         0.00000E+00
         0.00000E+00
         0.00000E+00
         0.00000E+00
         0.00000E+00
         0.00000E+00
         0.00000E+00
         0.00000E+00
         0.00000E+00
         0.00000E+00
         0.00000E+00
         0.00000E+00
         0.00000E+00
         0.00000E+00
         0.00000E+00
         0.00000E+00
         0.00000E+00
         0.00000E+00
         0.00000E+00
         0.00000E+00
         0.00000E+00
         0.00000E+00
         0.00000E+00
         0.00000E+00
         0.00000E+00
         0.00000E+00
         0.00000E+00
         0.00000E+00
         0.00000E+00
         0.00000E+00
         0.00000E+00
         0.00000E+00
         0.00000E+00
         0.00000E+00
         0.00000E+00
         0.00000E+00
         0.00000E+00
         0.00000E+00
         0.00000E+00
         0.00000E+00
         0.00000E+00
         0.00000E+00
         0.00000E+00
         0.00000E+00
         0.00000E+00
         0.00000E+00
         0.00000E+00
         0.00000E+00
         0.00000E+00
         0.00000E+00
         0.00000E+00
         0.00000E+00
         0.00000E+00
         0.00000E+00
         0.00000E+00
         0.00000E+00
         0.00000E+00
         0.00000E+00
         0.00000E+00
         0.00000E+00
         0.00000E+00
         0.00000E+00
         0.00000E+00
         0.00000E+00
         0.00000E+00
         0.00000E+00
         0.00000E+00
         0.00000E+00
         0.00000E+00
         0.00000E+00
         0.00000E+00
         0.00000E+00
         0.00000E+00
         0.00000E+00
         0.00000E+00
         0.00000E+00
         0.00000E+00
         0.00000E+00
         0.00000E+00
         0.00000E+00
         0.00000E+00
         0.00000E+00
         0.00000E+00
         0.00000E+00
         0.00000E+00
         0.00000E+00
         0.00000E+00
         0.00000E+00
         0.00000E+00
         0.00000E+00
         0.00000E+00
         0.00000E+00
         0.00000E+00
         0.00000E+00
         0.00000E+00
         0.00000E+00
         0.00000E+00
         0.00000E+00
         0.00000E+00
         0.00000E+00
         0.00000E+00
         0.00000E+00
         0.00000E+00
         0.00000E+00
         0.00000E+00
         0.00000E+00
         0.00000E+00
         0.00000E+00
         0.00000E+00
         0.00000E+00
         0.00000E+00
         0.00000E+00
         0.00000E+00
         0.00000E+00
         0.00000E+00
         0.00000E+00
         0.00000E+00
         0.00000E+00
         0.00000E+00
         0.00000E+00
         0.00000E+00
         0.00000E+00
         0.00000E+00
         0.00000E+00
         0.00000E+00
         0.00000E+00
         0.00000E+00
         0.00000E+00
         0.00000E+00
         0.00000E+00
         0.00000E+00
         0.00000E+00
         0.00000E+00
         0.00000E+00
         0.00000E+00
         0.00000E+00
         0.00000E+00
         0.00000E+00
         0.00000E+00
         0.00000E+00
         0.00000E+00
         0.00000E+00
         0.00000E+00
         0.00000E+00
         0.00000E+00
         0.00000E+00
         0.00000E+00
         0.00000E+00
         0.00000E+00
         0.00000E+00
         0.00000E+00
         0.00000E+00
         0.00000E+00
         0.00000E+00
         0.00000E+00
         0.00000E+00
         0.00000E+00
         0.00000E+00
         0.00000E+00
         0.00000E+00
         0.00000E+00
         0.00000E+00
         0.00000E+00
         0.00000E+00
         0.00000E+00
         0.00000E+00
         0.00000E+00
         0.00000E+00
         0.00000E+00
         0.00000E+00
         0.00000E+00
         0.00000E+00
         0.00000E+00
         0.00000E+00
         0.00000E+00
         0.00000E+00
         0.00000E+00
         0.00000E+00
         0.00000E+00
         0.00000E+00
         0.00000E+00
         0.00000E+00
         0.00000E+00
         0.00000E+00
         0.00000E+00
         0.00000E+00
         0.00000E+00
         0.00000E+00
         0.00000E+00
         0.00000E+00
         0.00000E+00
         0.00000E+00
         0.00000E+00
         0.00000E+00
         0.00000E+00
         0.00000E+00
         0.00000E+00
         0.00000E+00
         0.00000E+00
         0.00000E+00
         0.00000E+00
         0.00000E+00
         0.00000E+00
         0.00000E+00
         0.00000E+00
         0.00000E+00
         0.00000E+00
         0.00000E+00
         0.00000E+00
         0.00000E+00
         0.00000E+00
         0.00000E+00
         0.00000E+00
         0.00000E+00
         0.00000E+00
         0.00000E+00
         0.00000E+00
         0.00000E+00
         0.00000E+00
         0.00000E+00
         0.00000E+00
         0.00000E+00
         0.00000E+00
         0.00000E+00
         0.00000E+00
         0.00000E+00
         0.00000E+00
         0.00000E+00
         0.00000E+00
         0.00000E+00
         0.00000E+00
         0.00000E+00
         0.00000E+00
         0.00000E+00
         0.00000E+00
         0.00000E+00
         0.00000E+00
         0.00000E+00
         0.00000E+00
         0.00000E+00
         0.00000E+00
         0.00000E+00
         0.00000E+00
         0.00000E+00
         0.00000E+00
         0.00000E+00
         0.00000E+00
         0.00000E+00
         0.00000E+00
         0.00000E+00
         0.00000E+00
         0.00000E+00
         0.00000E+00
         0.00000E+00
         0.00000E+00
         0.00000E+00
         0.00000E+00
         0.00000E+00
         0.00000E+00
         0.00000E+00
         0.00000E+00
         0.00000E+00
         0.00000E+00
         0.00000E+00
         0.00000E+00
         0.00000E+00
         0.00000E+00
         0.00000E+00
         0.00000E+00
         0.00000E+00
         0.00000E+00
         0.00000E+00
         0.00000E+00
         0.00000E+00
         0.00000E+00
         0.00000E+00
         0.00000E+00
         0.00000E+00
         0.00000E+00
         0.00000E+00
         0.00000E+00
         0.00000E+00
         0.00000E+00
         0.00000E+00
         0.00000E+00
         0.00000E+00
         0.00000E+00
         0.00000E+00
         0.00000E+00
         0.00000E+00
         0.00000E+00
         0.00000E+00
         0.00000E+00
         0.00000E+00
         0.00000E+00
         0.00000E+00
         0.00000E+00
         0.00000E+00
         0.00000E+00
         0.00000E+00
         0.00000E+00
         0.00000E+00
         0.00000E+00
         0.00000E+00
         0.00000E+00
         0.00000E+00
         0.00000E+00
         0.00000E+00
         0.00000E+00
         0.00000E+00
         0.00000E+00
         0.00000E+00
         0.00000E+00
         0.00000E+00
         0.00000E+00
         0.00000E+00
         0.00000E+00
         0.00000E+00
         0.00000E+00
         0.00000E+00
         0.00000E+00
         0.00000E+00
         0.00000E+00
         0.00000E+00
         0.00000E+00
         0.00000E+00
         0.00000E+00
         0.00000E+00
         0.00000E+00
         0.00000E+00
         0.00000E+00
         0.00000E+00
         0.00000E+00
         0.00000E+00
         0.00000E+00
         0.00000E+00
         0.00000E+00
         0.00000E+00
         0.00000E+00
         0.00000E+00
         0.00000E+00
         0.00000E+00
         0.00000E+00
         0.00000E+00
         0.00000E+00
         0.00000E+00
         0.00000E+00
         0.00000E+00
         0.00000E+00
         0.00000E+00
         0.00000E+00
         0.00000E+00
         0.00000E+00
         0.00000E+00
         0.00000E+00
         0.00000E+00
         0.00000E+00
         0.00000E+00
         0.00000E+00
         0.00000E+00
         0.00000E+00
         0.00000E+00
         0.00000E+00
         0.00000E+00
         0.00000E+00
         0.00000E+00
         0.00000E+00
         0.00000E+00
         0.00000E+00
         0.00000E+00
         0.00000E+00
         0.00000E+00
         0.00000E+00
         0.00000E+00
         0.00000E+00
         0.00000E+00
         0.00000E+00
         0.00000E+00
         0.00000E+00
         0.00000E+00
         0.00000E+00
         0.00000E+00
         0.00000E+00
         0.00000E+00
         0.00000E+00
         0.00000E+00
         0.00000E+00
         0.00000E+00
         0.00000E+00
         0.00000E+00
         0.00000E+00
         0.00000E+00
         0.00000E+00
         0.00000E+00
         0.00000E+00
         0.00000E+00
         0.00000E+00
         0.00000E+00
         0.00000E+00
         0.00000E+00
         0.00000E+00
         0.00000E+00
         0.00000E+00
         0.00000E+00
         0.00000E+00
         0.00000E+00
         0.00000E+00
         0.00000E+00
         0.00000E+00
         0.00000E+00
         0.00000E+00
         0.00000E+00
         0.00000E+00
         0.00000E+00
         0.00000E+00
         0.00000E+00
         0.00000E+00
         0.00000E+00
         0.00000E+00
         0.00000E+00
         0.00000E+00
         0.00000E+00
         0.00000E+00
         0.00000E+00
         0.00000E+00
         0.00000E+00
         0.00000E+00
         0.00000E+00
         0.00000E+00
         0.00000E+00
         0.00000E+00
         0.00000E+00
         0.00000E+00
         0.00000E+00
         0.00000E+00
         0.00000E+00
         0.00000E+00
         0.00000E+00
         0.00000E+00
         0.00000E+00
         0.00000E+00
         0.00000E+00
         0.00000E+00
         0.00000E+00
         0.00000E+00
         0.00000E+00
         0.00000E+00
         0.00000E+00
         0.00000E+00
         0.00000E+00
         0.00000E+00
         0.00000E+00
         0.00000E+00
         0.00000E+00
         0.00000E+00
         0.00000E+00
         0.00000E+00
         0.00000E+00
         0.00000E+00
         0.00000E+00
         0.00000E+00
         0.00000E+00
         0.00000E+00
         0.00000E+00
         0.00000E+00
         0.00000E+00
         0.00000E+00
         0.00000E+00
         0.00000E+00
         0.00000E+00
         0.00000E+00
         0.00000E+00
         0.00000E+00
         0.00000E+00
         0.00000E+00
         0.00000E+00
         0.00000E+00
         0.00000E+00
         0.00000E+00
         0.00000E+00
         0.00000E+00
         0.00000E+00
         0.00000E+00
         0.00000E+00
         0.00000E+00
         0.00000E+00
         0.00000E+00
         0.00000E+00
         0.00000E+00
         0.00000E+00
         0.00000E+00
         0.00000E+00
         0.00000E+00
         0.00000E+00
         0.00000E+00
         0.00000E+00
         0.00000E+00
         0.00000E+00
         0.00000E+00
         0.00000E+00
         0.00000E+00
         0.00000E+00
         0.00000E+00
         0.00000E+00
         0.00000E+00
         0.00000E+00
         0.00000E+00
         0.00000E+00
         0.00000E+00
         0.00000E+00
         0.00000E+00
         0.00000E+00
         0.00000E+00
         0.00000E+00
         0.00000E+00
         0.00000E+00
         0.00000E+00
         0.00000E+00
         0.00000E+00
         0.00000E+00
         0.00000E+00
         0.00000E+00
         0.00000E+00
         0.00000E+00
         0.00000E+00
         0.00000E+00
         0.00000E+00
         0.00000E+00
         0.00000E+00
         0.00000E+00
         0.00000E+00
         0.00000E+00
         0.00000E+00
         0.00000E+00
         0.00000E+00
         0.00000E+00
         0.00000E+00
         0.00000E+00
         0.00000E+00
         0.00000E+00
         0.00000E+00
         0.00000E+00
         0.00000E+00
         0.00000E+00
         0.00000E+00
         0.00000E+00
         0.00000E+00
         0.00000E+00
         0.00000E+00
         0.00000E+00
         0.00000E+00
         0.00000E+00
         0.00000E+00
         0.00000E+00
         0.00000E+00
         0.00000E+00
         0.00000E+00
         0.00000E+00
         0.00000E+00
         0.00000E+00
         0.00000E+00
         0.00000E+00
         0.00000E+00
         0.00000E+00
         0.00000E+00
         0.00000E+00
         0.00000E+00
         0.00000E+00
         0.00000E+00
         0.00000E+00
         0.00000E+00
         0.00000E+00
         0.00000E+00
         0.00000E+00
         0.00000E+00
         0.00000E+00
         0.00000E+00
         0.00000E+00
         0.00000E+00
         0.00000E+00
         0.00000E+00
         0.00000E+00
         0.00000E+00
         0.00000E+00
         0.00000E+00
         0.00000E+00
         0.00000E+00
         0.00000E+00
         0.00000E+00
         0.00000E+00
         0.00000E+00
         0.00000E+00
         0.00000E+00
         0.00000E+00
         0.00000E+00
         0.00000E+00
         0.00000E+00
         0.00000E+00
         0.00000E+00
         0.00000E+00
         0.00000E+00
         0.00000E+00
         0.00000E+00
         0.00000E+00
         0.00000E+00
         0.00000E+00
         0.00000E+00
         0.00000E+00
         0.00000E+00
         0.00000E+00
         0.00000E+00
         0.00000E+00
         0.00000E+00
         0.00000E+00
         0.00000E+00
         0.00000E+00
         0.00000E+00
         0.00000E+00
         0.00000E+00
         0.00000E+00
         0.00000E+00
         0.00000E+00
         0.00000E+00
         0.00000E+00
         0.00000E+00
         0.00000E+00
         0.00000E+00
         0.00000E+00
         0.00000E+00
         0.00000E+00
         0.00000E+00
         0.00000E+00
         0.00000E+00
         0.00000E+00
         0.00000E+00
         0.00000E+00
         0.00000E+00
         0.00000E+00
         0.00000E+00
         0.00000E+00
         0.00000E+00
         0.00000E+00
         0.00000E+00
         0.00000E+00
         0.00000E+00
         0.00000E+00
         0.00000E+00
         0.00000E+00
         0.00000E+00
         0.00000E+00
         0.00000E+00
         0.00000E+00
         0.00000E+00
         0.00000E+00
         0.00000E+00
         0.00000E+00
         0.00000E+00
         0.00000E+00
         0.00000E+00
         0.00000E+00
         0.00000E+00
         0.00000E+00
         0.00000E+00
         0.00000E+00
         0.00000E+00
         0.00000E+00
         0.00000E+00
         0.00000E+00
         0.00000E+00
         0.00000E+00
         0.00000E+00
         0.00000E+00
         0.00000E+00
         0.00000E+00
         0.00000E+00
         0.00000E+00
         0.00000E+00
         0.00000E+00
         0.00000E+00
         0.00000E+00
         0.00000E+00
         0.00000E+00
         0.00000E+00
         0.00000E+00
         0.00000E+00
         0.00000E+00
         0.00000E+00
         0.00000E+00
         0.00000E+00
         0.00000E+00
         0.00000E+00
         0.00000E+00
         0.00000E+00
         0.00000E+00
         0.00000E+00
         0.00000E+00
         0.00000E+00
         0.00000E+00
         0.00000E+00
         0.00000E+00
         0.00000E+00
         0.00000E+00
         0.00000E+00
         0.00000E+00
         0.00000E+00
         0.00000E+00
         0.00000E+00
         0.00000E+00
         0.00000E+00
         0.00000E+00
         0.00000E+00
         0.00000E+00
         0.00000E+00
         0.00000E+00
         0.00000E+00
         0.00000E+00
         0.00000E+00
         0.00000E+00
         0.00000E+00
         0.00000E+00
         0.00000E+00
         0.00000E+00
         0.00000E+00
         0.00000E+00
         0.00000E+00
         0.00000E+00
         0.00000E+00
         0.00000E+00
         0.00000E+00
         0.00000E+00
         0.00000E+00
         0.00000E+00
         0.00000E+00
         0.00000E+00
         0.00000E+00
         0.00000E+00
         0.00000E+00
         0.00000E+00
         0.00000E+00
         0.00000E+00
         0.00000E+00
         0.00000E+00
         0.00000E+00
         0.00000E+00
         0.00000E+00
         0.00000E+00
         0.00000E+00
         0.00000E+00
         0.00000E+00
         0.00000E+00
         0.00000E+00
         0.00000E+00
         0.00000E+00
         0.00000E+00
         0.00000E+00
         0.00000E+00
         0.00000E+00
         0.00000E+00
         0.00000E+00
         0.00000E+00
         0.00000E+00
         0.00000E+00
         0.00000E+00
         0.00000E+00
         0.00000E+00
         0.00000E+00
         0.00000E+00
         0.00000E+00
         0.00000E+00
         0.00000E+00
         0.00000E+00
         0.00000E+00
         0.00000E+00
         0.00000E+00
         0.00000E+00
         0.00000E+00
         0.00000E+00
         0.00000E+00
         0.00000E+00
         0.00000E+00
         0.00000E+00
         0.00000E+00
         0.00000E+00
         0.00000E+00
         0.00000E+00
         0.00000E+00
         0.00000E+00
         0.00000E+00
         0.00000E+00
         0.00000E+00
         0.00000E+00
         0.00000E+00
         0.00000E+00
         0.00000E+00
         0.00000E+00
         0.00000E+00
         0.00000E+00
         0.00000E+00
         0.00000E+00
         0.00000E+00
         0.00000E+00
         0.00000E+00
         0.00000E+00
         0.00000E+00
         0.00000E+00
         0.00000E+00
         0.00000E+00
         0.00000E+00
         0.00000E+00
         0.00000E+00
         0.00000E+00
         0.00000E+00
         0.00000E+00
         0.00000E+00
         0.00000E+00
         0.00000E+00
         0.00000E+00
         0.00000E+00
         0.00000E+00
         0.00000E+00
         0.00000E+00
         0.00000E+00
         0.00000E+00
         0.00000E+00
         0.00000E+00
         0.00000E+00
         0.00000E+00
         0.00000E+00
         0.00000E+00
         0.00000E+00
         0.00000E+00
         0.00000E+00
         0.00000E+00
         0.00000E+00
         0.00000E+00
         0.00000E+00
         0.00000E+00
         0.00000E+00
         0.00000E+00
         0.00000E+00
         0.00000E+00
         0.00000E+00
         0.00000E+00
         0.00000E+00
         0.00000E+00
         0.00000E+00
         0.00000E+00
         0.00000E+00
         0.00000E+00
         0.00000E+00
         0.00000E+00
         0.00000E+00
         0.00000E+00
         0.00000E+00
         0.00000E+00
         0.00000E+00
         0.00000E+00
         0.00000E+00
         0.00000E+00
         0.00000E+00
         0.00000E+00
         0.00000E+00
         0.00000E+00
         0.00000E+00
         0.00000E+00
         0.00000E+00
         0.00000E+00
         0.00000E+00
         0.00000E+00
         0.00000E+00
         0.00000E+00
         0.00000E+00
         0.00000E+00
         0.00000E+00
         0.00000E+00
         0.00000E+00
         0.00000E+00
         0.00000E+00
         0.00000E+00
         0.00000E+00
         0.00000E+00
         0.00000E+00
         0.00000E+00
         0.00000E+00
         0.00000E+00
         0.00000E+00
         0.00000E+00
         0.00000E+00
         0.00000E+00
         0.00000E+00
         0.00000E+00
         0.00000E+00
         0.00000E+00
         0.00000E+00
         0.00000E+00
         0.00000E+00
         0.00000E+00
         0.00000E+00
         0.00000E+00
         0.00000E+00
         0.00000E+00
         0.00000E+00
         0.00000E+00
         0.00000E+00
         0.00000E+00
         0.00000E+00
         0.00000E+00
         0.00000E+00
         0.00000E+00
         0.00000E+00
         0.00000E+00
         0.00000E+00
         0.00000E+00
         0.00000E+00
         0.00000E+00
         0.00000E+00
         0.00000E+00
         0.00000E+00
         0.00000E+00
         0.00000E+00
         0.00000E+00
         0.00000E+00
         0.00000E+00
         0.00000E+00
         0.00000E+00
         0.00000E+00
         0.00000E+00
         0.00000E+00
         0.00000E+00
         0.00000E+00
         0.00000E+00
         0.00000E+00
         0.00000E+00
         0.00000E+00
         0.00000E+00
         0.00000E+00
         0.00000E+00
         0.00000E+00
         0.00000E+00
         0.00000E+00
         0.00000E+00
         0.00000E+00
         0.00000E+00
         0.00000E+00
         0.00000E+00
         0.00000E+00
         0.00000E+00
         0.00000E+00
         0.00000E+00
         0.00000E+00
         0.00000E+00
         0.00000E+00
         0.00000E+00
         0.00000E+00
         0.00000E+00
         0.00000E+00
         0.00000E+00
         0.00000E+00
         0.00000E+00
         0.00000E+00
         0.00000E+00
         0.00000E+00
         0.00000E+00
         0.00000E+00
         0.00000E+00
         0.00000E+00
         0.00000E+00
         0.00000E+00
         0.00000E+00
         0.00000E+00
         0.00000E+00
         0.00000E+00
         0.00000E+00
         0.00000E+00
         0.00000E+00
         0.00000E+00
         0.00000E+00
         0.00000E+00
         0.00000E+00
         0.00000E+00
         0.00000E+00
         0.00000E+00
         0.00000E+00
         0.00000E+00
         0.00000E+00
         0.00000E+00
         0.00000E+00
         0.00000E+00
         0.00000E+00
         0.00000E+00
         0.00000E+00
         0.00000E+00
         0.00000E+00
         0.00000E+00
         0.00000E+00
         0.00000E+00
         0.00000E+00
         0.00000E+00
         0.00000E+00
         0.00000E+00
         0.00000E+00
         0.00000E+00
         0.00000E+00
         0.00000E+00
         0.00000E+00
         0.00000E+00
         0.00000E+00
         0.00000E+00
         0.00000E+00
         0.00000E+00
         0.00000E+00
         0.00000E+00
         0.00000E+00
         0.00000E+00
         0.00000E+00
         0.00000E+00
         0.00000E+00
         0.00000E+00
         0.00000E+00
         0.00000E+00
         0.00000E+00
         0.00000E+00
         0.00000E+00
         0.00000E+00
         0.00000E+00
         0.00000E+00
         0.00000E+00
         0.00000E+00
         0.00000E+00
         0.00000E+00
         0.00000E+00
         0.00000E+00
         0.00000E+00
         0.00000E+00
         0.00000E+00
         0.00000E+00
         0.00000E+00
         0.00000E+00
         0.00000E+00
         0.00000E+00
         0.00000E+00
         0.00000E+00
         0.00000E+00
         0.00000E+00
         0.00000E+00
         0.00000E+00
         0.00000E+00
         0.00000E+00
         0.00000E+00
         0.00000E+00
         0.00000E+00
         0.00000E+00
         0.00000E+00
         0.00000E+00
         0.00000E+00
         0.00000E+00
         0.00000E+00
         0.00000E+00
         0.00000E+00
         0.00000E+00
         0.00000E+00
         0.00000E+00
         0.00000E+00
         0.00000E+00
         0.00000E+00
         0.00000E+00
         0.00000E+00
         0.00000E+00
         0.00000E+00
         0.00000E+00
         0.00000E+00
         0.00000E+00
         0.00000E+00
         0.00000E+00
         0.00000E+00
         0.00000E+00
         0.00000E+00
         0.00000E+00
         0.00000E+00
         0.00000E+00
         0.00000E+00
         0.00000E+00
         0.00000E+00
         0.00000E+00
         0.00000E+00
         0.00000E+00
         0.00000E+00
         0.00000E+00
         0.00000E+00
         0.00000E+00
         0.00000E+00
         0.00000E+00
         0.00000E+00
         0.00000E+00
         0.00000E+00
         0.00000E+00
         0.00000E+00
         0.00000E+00
         0.00000E+00
         0.00000E+00
         0.00000E+00
         0.00000E+00
         0.00000E+00
         0.00000E+00
         0.00000E+00
         0.00000E+00
         0.00000E+00
         0.00000E+00
         0.00000E+00
         0.00000E+00
         0.00000E+00
         0.00000E+00
         0.00000E+00
         0.00000E+00
         0.00000E+00
         0.00000E+00
         0.00000E+00
         0.00000E+00
         0.00000E+00
         0.00000E+00
         0.00000E+00
         0.00000E+00
         0.00000E+00
         0.00000E+00
         0.00000E+00
         0.00000E+00
         0.00000E+00
         0.00000E+00
         0.00000E+00
         0.00000E+00
         0.00000E+00
         0.00000E+00
         0.00000E+00
         0.00000E+00
         0.00000E+00
         0.00000E+00
         0.00000E+00
  
SCALARS                     velocity_z  double 1
LOOKUP_TABLE default
        -0.37300E+03
        -0.37300E+03
        -0.37300E+03
        -0.37300E+03
         0.00000E+00
         0.00000E+00
         0.00000E+00
         0.00000E+00
        -0.37300E+03
        -0.37300E+03
         0.00000E+00
         0.00000E+00
        -0.37300E+03
        -0.37300E+03
         0.00000E+00
         0.00000E+00
        -0.37300E+03
        -0.37300E+03
         0.00000E+00
         0.00000E+00
        -0.37300E+03
        -0.37300E+03
        -0.37300E+03
         0.00000E+00
         0.00000E+00
         0.00000E+00
        -0.37300E+03
        -0.37300E+03
         0.00000E+00
         0.00000E+00
        -0.37300E+03
        -0.37300E+03
        -0.37300E+03
         0.00000E+00
         0.00000E+00
         0.00000E+00
        -0.37300E+03
        -0.37300E+03
         0.00000E+00
         0.00000E+00
        -0.37300E+03
        -0.37300E+03
         0.00000E+00
         0.00000E+00
        -0.37300E+03
        -0.37300E+03
         0.00000E+00
         0.00000E+00
        -0.37300E+03
         0.00000E+00
        -0.37300E+03
         0.00000E+00
        -0.37300E+03
         0.00000E+00
        -0.37300E+03
         0.00000E+00
        -0.37300E+03
        -0.37300E+03
         0.00000E+00
         0.00000E+00
        -0.37300E+03
        -0.37300E+03
         0.00000E+00
         0.00000E+00
        -0.37300E+03
         0.00000E+00
        -0.37300E+03
         0.00000E+00
        -0.37300E+03
        -0.37300E+03
         0.00000E+00
         0.00000E+00
        -0.37300E+03
         0.00000E+00
        -0.37300E+03
         0.00000E+00
        -0.37300E+03
         0.00000E+00
        -0.37300E+03
         0.00000E+00
        -0.37300E+03
        -0.37300E+03
         0.00000E+00
         0.00000E+00
        -0.37300E+03
         0.00000E+00
        -0.37300E+03
         0.00000E+00
        -0.37300E+03
         0.00000E+00
        -0.37300E+03
        -0.37300E+03
         0.00000E+00
         0.00000E+00
        -0.37300E+03
         0.00000E+00
        -0.37300E+03
         0.00000E+00
        -0.37300E+03
         0.00000E+00
        -0.37300E+03
        -0.37300E+03
         0.00000E+00
         0.00000E+00
        -0.37300E+03
        -0.37300E+03
         0.00000E+00
         0.00000E+00
        -0.37300E+03
         0.00000E+00
        -0.37300E+03
         0.00000E+00
        -0.37300E+03
         0.00000E+00
        -0.37300E+03
         0.00000E+00
        -0.37300E+03
         0.00000E+00
        -0.37300E+03
         0.00000E+00
        -0.37300E+03
         0.00000E+00
        -0.37300E+03
         0.00000E+00
        -0.37300E+03
         0.00000E+00
        -0.37300E+03
         0.00000E+00
        -0.37300E+03
         0.00000E+00
        -0.37300E+03
         0.00000E+00
        -0.37300E+03
         0.00000E+00
        -0.37300E+03
         0.00000E+00
        -0.37300E+03
         0.00000E+00
        -0.37300E+03
         0.00000E+00
        -0.37300E+03
         0.00000E+00
        -0.37300E+03
         0.00000E+00
        -0.37300E+03
         0.00000E+00
        -0.37300E+03
         0.00000E+00
        -0.37300E+03
         0.00000E+00
        -0.37300E+03
         0.00000E+00
        -0.37300E+03
         0.00000E+00
        -0.37300E+03
         0.00000E+00
        -0.37300E+03
        -0.37300E+03
        -0.37300E+03
        -0.37300E+03
        -0.37300E+03
        -0.37300E+03
        -0.37300E+03
        -0.37300E+03
        -0.37300E+03
        -0.37300E+03
        -0.37300E+03
        -0.37300E+03
        -0.37300E+03
        -0.37300E+03
        -0.37300E+03
        -0.37300E+03
        -0.37300E+03
        -0.37300E+03
        -0.37300E+03
        -0.37300E+03
        -0.37300E+03
        -0.37300E+03
        -0.37300E+03
        -0.37300E+03
        -0.37300E+03
        -0.37300E+03
        -0.37300E+03
        -0.37300E+03
        -0.37300E+03
        -0.37300E+03
        -0.37300E+03
        -0.37300E+03
        -0.37300E+03
        -0.37300E+03
        -0.37300E+03
        -0.37300E+03
        -0.37300E+03
        -0.37300E+03
        -0.37300E+03
        -0.37300E+03
        -0.37300E+03
        -0.37300E+03
        -0.37300E+03
        -0.37300E+03
        -0.37300E+03
        -0.37300E+03
        -0.37300E+03
        -0.37300E+03
        -0.37300E+03
        -0.37300E+03
        -0.37300E+03
        -0.37300E+03
        -0.37300E+03
        -0.37300E+03
        -0.37300E+03
        -0.37300E+03
        -0.37300E+03
        -0.37300E+03
        -0.37300E+03
        -0.37300E+03
        -0.37300E+03
        -0.37300E+03
        -0.37300E+03
        -0.37300E+03
        -0.37300E+03
        -0.37300E+03
        -0.37300E+03
        -0.37300E+03
        -0.37300E+03
        -0.37300E+03
        -0.37300E+03
        -0.37300E+03
        -0.37300E+03
        -0.37300E+03
        -0.37300E+03
        -0.37300E+03
        -0.37300E+03
        -0.37300E+03
        -0.37300E+03
        -0.37300E+03
        -0.37300E+03
        -0.37300E+03
        -0.37300E+03
        -0.37300E+03
        -0.37300E+03
        -0.37300E+03
        -0.37300E+03
        -0.37300E+03
        -0.37300E+03
        -0.37300E+03
        -0.37300E+03
        -0.37300E+03
        -0.37300E+03
        -0.37300E+03
        -0.37300E+03
        -0.37300E+03
        -0.37300E+03
        -0.37300E+03
        -0.37300E+03
        -0.37300E+03
        -0.37300E+03
        -0.37300E+03
        -0.37300E+03
        -0.37300E+03
        -0.37300E+03
        -0.37300E+03
        -0.37300E+03
        -0.37300E+03
        -0.37300E+03
        -0.37300E+03
        -0.37300E+03
        -0.37300E+03
        -0.37300E+03
        -0.37300E+03
        -0.37300E+03
        -0.37300E+03
        -0.37300E+03
        -0.37300E+03
        -0.37300E+03
        -0.37300E+03
        -0.37300E+03
        -0.37300E+03
        -0.37300E+03
        -0.37300E+03
        -0.37300E+03
        -0.37300E+03
        -0.37300E+03
        -0.37300E+03
        -0.37300E+03
        -0.37300E+03
        -0.37300E+03
        -0.37300E+03
        -0.37300E+03
        -0.37300E+03
        -0.37300E+03
        -0.37300E+03
        -0.37300E+03
        -0.37300E+03
        -0.37300E+03
        -0.37300E+03
        -0.37300E+03
        -0.37300E+03
        -0.37300E+03
        -0.37300E+03
        -0.37300E+03
        -0.37300E+03
        -0.37300E+03
        -0.37300E+03
        -0.37300E+03
        -0.37300E+03
        -0.37300E+03
        -0.37300E+03
        -0.37300E+03
        -0.37300E+03
        -0.37300E+03
        -0.37300E+03
        -0.37300E+03
        -0.37300E+03
        -0.37300E+03
        -0.37300E+03
        -0.37300E+03
        -0.37300E+03
        -0.37300E+03
        -0.37300E+03
        -0.37300E+03
        -0.37300E+03
        -0.37300E+03
        -0.37300E+03
        -0.37300E+03
        -0.37300E+03
        -0.37300E+03
        -0.37300E+03
        -0.37300E+03
        -0.37300E+03
        -0.37300E+03
        -0.37300E+03
        -0.37300E+03
        -0.37300E+03
        -0.37300E+03
        -0.37300E+03
        -0.37300E+03
        -0.37300E+03
        -0.37300E+03
        -0.37300E+03
        -0.37300E+03
        -0.37300E+03
        -0.37300E+03
        -0.37300E+03
        -0.37300E+03
        -0.37300E+03
        -0.37300E+03
        -0.37300E+03
        -0.37300E+03
        -0.37300E+03
        -0.37300E+03
        -0.37300E+03
        -0.37300E+03
        -0.37300E+03
        -0.37300E+03
        -0.37300E+03
        -0.37300E+03
        -0.37300E+03
        -0.37300E+03
        -0.37300E+03
        -0.37300E+03
        -0.37300E+03
        -0.37300E+03
        -0.37300E+03
        -0.37300E+03
        -0.37300E+03
        -0.37300E+03
        -0.37300E+03
        -0.37300E+03
        -0.37300E+03
        -0.37300E+03
        -0.37300E+03
        -0.37300E+03
        -0.37300E+03
        -0.37300E+03
        -0.37300E+03
        -0.37300E+03
        -0.37300E+03
        -0.37300E+03
        -0.37300E+03
        -0.37300E+03
        -0.37300E+03
        -0.37300E+03
        -0.37300E+03
        -0.37300E+03
        -0.37300E+03
        -0.37300E+03
        -0.37300E+03
        -0.37300E+03
        -0.37300E+03
        -0.37300E+03
        -0.37300E+03
        -0.37300E+03
        -0.37300E+03
        -0.37300E+03
        -0.37300E+03
        -0.37300E+03
        -0.37300E+03
        -0.37300E+03
        -0.37300E+03
        -0.37300E+03
        -0.37300E+03
        -0.37300E+03
        -0.37300E+03
        -0.37300E+03
        -0.37300E+03
        -0.37300E+03
        -0.37300E+03
        -0.37300E+03
        -0.37300E+03
        -0.37300E+03
        -0.37300E+03
        -0.37300E+03
        -0.37300E+03
        -0.37300E+03
        -0.37300E+03
        -0.37300E+03
        -0.37300E+03
        -0.37300E+03
        -0.37300E+03
        -0.37300E+03
        -0.37300E+03
        -0.37300E+03
        -0.37300E+03
        -0.37300E+03
        -0.37300E+03
        -0.37300E+03
        -0.37300E+03
        -0.37300E+03
        -0.37300E+03
        -0.37300E+03
        -0.37300E+03
        -0.37300E+03
        -0.37300E+03
        -0.37300E+03
        -0.37300E+03
        -0.37300E+03
        -0.37300E+03
        -0.37300E+03
        -0.37300E+03
        -0.37300E+03
        -0.37300E+03
        -0.37300E+03
        -0.37300E+03
        -0.37300E+03
        -0.37300E+03
        -0.37300E+03
        -0.37300E+03
        -0.37300E+03
        -0.37300E+03
        -0.37300E+03
        -0.37300E+03
        -0.37300E+03
        -0.37300E+03
        -0.37300E+03
        -0.37300E+03
        -0.37300E+03
        -0.37300E+03
        -0.37300E+03
        -0.37300E+03
        -0.37300E+03
        -0.37300E+03
        -0.37300E+03
        -0.37300E+03
        -0.37300E+03
        -0.37300E+03
        -0.37300E+03
        -0.37300E+03
        -0.37300E+03
        -0.37300E+03
        -0.37300E+03
        -0.37300E+03
        -0.37300E+03
        -0.37300E+03
        -0.37300E+03
        -0.37300E+03
        -0.37300E+03
        -0.37300E+03
        -0.37300E+03
        -0.37300E+03
        -0.37300E+03
        -0.37300E+03
        -0.37300E+03
        -0.37300E+03
        -0.37300E+03
        -0.37300E+03
        -0.37300E+03
        -0.37300E+03
        -0.37300E+03
        -0.37300E+03
        -0.37300E+03
        -0.37300E+03
        -0.37300E+03
        -0.37300E+03
        -0.37300E+03
        -0.37300E+03
        -0.37300E+03
        -0.37300E+03
        -0.37300E+03
        -0.37300E+03
        -0.37300E+03
        -0.37300E+03
        -0.37300E+03
        -0.37300E+03
        -0.37300E+03
        -0.37300E+03
        -0.37300E+03
        -0.37300E+03
        -0.37300E+03
        -0.37300E+03
        -0.37300E+03
        -0.37300E+03
        -0.37300E+03
        -0.37300E+03
        -0.37300E+03
        -0.37300E+03
        -0.37300E+03
        -0.37300E+03
        -0.37300E+03
        -0.37300E+03
        -0.37300E+03
        -0.37300E+03
        -0.37300E+03
        -0.37300E+03
        -0.37300E+03
        -0.37300E+03
        -0.37300E+03
        -0.37300E+03
        -0.37300E+03
        -0.37300E+03
        -0.37300E+03
        -0.37300E+03
        -0.37300E+03
        -0.37300E+03
        -0.37300E+03
        -0.37300E+03
        -0.37300E+03
        -0.37300E+03
        -0.37300E+03
        -0.37300E+03
        -0.37300E+03
        -0.37300E+03
        -0.37300E+03
        -0.37300E+03
        -0.37300E+03
        -0.37300E+03
        -0.37300E+03
        -0.37300E+03
        -0.37300E+03
        -0.37300E+03
        -0.37300E+03
        -0.37300E+03
        -0.37300E+03
        -0.37300E+03
        -0.37300E+03
        -0.37300E+03
        -0.37300E+03
        -0.37300E+03
        -0.37300E+03
        -0.37300E+03
        -0.37300E+03
        -0.37300E+03
        -0.37300E+03
        -0.37300E+03
        -0.37300E+03
        -0.37300E+03
        -0.37300E+03
        -0.37300E+03
        -0.37300E+03
        -0.37300E+03
        -0.37300E+03
        -0.37300E+03
        -0.37300E+03
        -0.37300E+03
        -0.37300E+03
        -0.37300E+03
        -0.37300E+03
        -0.37300E+03
        -0.37300E+03
        -0.37300E+03
        -0.37300E+03
        -0.37300E+03
        -0.37300E+03
        -0.37300E+03
        -0.37300E+03
        -0.37300E+03
        -0.37300E+03
        -0.37300E+03
        -0.37300E+03
        -0.37300E+03
        -0.37300E+03
        -0.37300E+03
        -0.37300E+03
        -0.37300E+03
        -0.37300E+03
        -0.37300E+03
        -0.37300E+03
        -0.37300E+03
        -0.37300E+03
        -0.37300E+03
        -0.37300E+03
        -0.37300E+03
        -0.37300E+03
        -0.37300E+03
        -0.37300E+03
        -0.37300E+03
        -0.37300E+03
        -0.37300E+03
        -0.37300E+03
        -0.37300E+03
        -0.37300E+03
        -0.37300E+03
        -0.37300E+03
        -0.37300E+03
        -0.37300E+03
        -0.37300E+03
        -0.37300E+03
        -0.37300E+03
        -0.37300E+03
        -0.37300E+03
        -0.37300E+03
        -0.37300E+03
        -0.37300E+03
        -0.37300E+03
        -0.37300E+03
        -0.37300E+03
        -0.37300E+03
        -0.37300E+03
        -0.37300E+03
        -0.37300E+03
        -0.37300E+03
        -0.37300E+03
        -0.37300E+03
        -0.37300E+03
        -0.37300E+03
        -0.37300E+03
        -0.37300E+03
        -0.37300E+03
        -0.37300E+03
        -0.37300E+03
        -0.37300E+03
        -0.37300E+03
        -0.37300E+03
        -0.37300E+03
        -0.37300E+03
        -0.37300E+03
        -0.37300E+03
        -0.37300E+03
        -0.37300E+03
        -0.37300E+03
        -0.37300E+03
        -0.37300E+03
        -0.37300E+03
        -0.37300E+03
        -0.37300E+03
        -0.37300E+03
        -0.37300E+03
        -0.37300E+03
        -0.37300E+03
        -0.37300E+03
        -0.37300E+03
        -0.37300E+03
        -0.37300E+03
        -0.37300E+03
        -0.37300E+03
        -0.37300E+03
        -0.37300E+03
        -0.37300E+03
        -0.37300E+03
        -0.37300E+03
        -0.37300E+03
        -0.37300E+03
        -0.37300E+03
        -0.37300E+03
        -0.37300E+03
        -0.37300E+03
        -0.37300E+03
        -0.37300E+03
        -0.37300E+03
        -0.37300E+03
        -0.37300E+03
        -0.37300E+03
        -0.37300E+03
        -0.37300E+03
        -0.37300E+03
        -0.37300E+03
        -0.37300E+03
        -0.37300E+03
        -0.37300E+03
        -0.37300E+03
        -0.37300E+03
        -0.37300E+03
        -0.37300E+03
        -0.37300E+03
        -0.37300E+03
        -0.37300E+03
        -0.37300E+03
        -0.37300E+03
        -0.37300E+03
        -0.37300E+03
        -0.37300E+03
        -0.37300E+03
        -0.37300E+03
        -0.37300E+03
        -0.37300E+03
        -0.37300E+03
        -0.37300E+03
        -0.37300E+03
        -0.37300E+03
        -0.37300E+03
        -0.37300E+03
        -0.37300E+03
        -0.37300E+03
        -0.37300E+03
        -0.37300E+03
        -0.37300E+03
        -0.37300E+03
        -0.37300E+03
        -0.37300E+03
        -0.37300E+03
        -0.37300E+03
        -0.37300E+03
        -0.37300E+03
        -0.37300E+03
        -0.37300E+03
        -0.37300E+03
        -0.37300E+03
        -0.37300E+03
        -0.37300E+03
        -0.37300E+03
        -0.37300E+03
        -0.37300E+03
        -0.37300E+03
        -0.37300E+03
        -0.37300E+03
        -0.37300E+03
        -0.37300E+03
        -0.37300E+03
        -0.37300E+03
        -0.37300E+03
        -0.37300E+03
        -0.37300E+03
        -0.37300E+03
        -0.37300E+03
        -0.37300E+03
        -0.37300E+03
        -0.37300E+03
        -0.37300E+03
        -0.37300E+03
        -0.37300E+03
        -0.37300E+03
        -0.37300E+03
        -0.37300E+03
        -0.37300E+03
        -0.37300E+03
        -0.37300E+03
        -0.37300E+03
        -0.37300E+03
        -0.37300E+03
        -0.37300E+03
        -0.37300E+03
        -0.37300E+03
        -0.37300E+03
        -0.37300E+03
        -0.37300E+03
        -0.37300E+03
        -0.37300E+03
        -0.37300E+03
        -0.37300E+03
        -0.37300E+03
        -0.37300E+03
        -0.37300E+03
        -0.37300E+03
        -0.37300E+03
        -0.37300E+03
        -0.37300E+03
        -0.37300E+03
        -0.37300E+03
        -0.37300E+03
        -0.37300E+03
        -0.37300E+03
        -0.37300E+03
        -0.37300E+03
        -0.37300E+03
        -0.37300E+03
        -0.37300E+03
        -0.37300E+03
        -0.37300E+03
        -0.37300E+03
        -0.37300E+03
        -0.37300E+03
        -0.37300E+03
        -0.37300E+03
        -0.37300E+03
        -0.37300E+03
        -0.37300E+03
        -0.37300E+03
        -0.37300E+03
        -0.37300E+03
        -0.37300E+03
        -0.37300E+03
        -0.37300E+03
        -0.37300E+03
        -0.37300E+03
        -0.37300E+03
        -0.37300E+03
        -0.37300E+03
        -0.37300E+03
        -0.37300E+03
        -0.37300E+03
        -0.37300E+03
        -0.37300E+03
        -0.37300E+03
        -0.37300E+03
        -0.37300E+03
        -0.37300E+03
        -0.37300E+03
        -0.37300E+03
        -0.37300E+03
        -0.37300E+03
        -0.37300E+03
        -0.37300E+03
        -0.37300E+03
        -0.37300E+03
        -0.37300E+03
        -0.37300E+03
        -0.37300E+03
        -0.37300E+03
        -0.37300E+03
        -0.37300E+03
        -0.37300E+03
        -0.37300E+03
        -0.37300E+03
        -0.37300E+03
        -0.37300E+03
        -0.37300E+03
        -0.37300E+03
        -0.37300E+03
        -0.37300E+03
        -0.37300E+03
        -0.37300E+03
        -0.37300E+03
        -0.37300E+03
        -0.37300E+03
        -0.37300E+03
        -0.37300E+03
        -0.37300E+03
        -0.37300E+03
        -0.37300E+03
        -0.37300E+03
        -0.37300E+03
        -0.37300E+03
        -0.37300E+03
        -0.37300E+03
        -0.37300E+03
        -0.37300E+03
        -0.37300E+03
        -0.37300E+03
        -0.37300E+03
        -0.37300E+03
        -0.37300E+03
        -0.37300E+03
        -0.37300E+03
        -0.37300E+03
        -0.37300E+03
        -0.37300E+03
        -0.37300E+03
        -0.37300E+03
        -0.37300E+03
        -0.37300E+03
        -0.37300E+03
        -0.37300E+03
        -0.37300E+03
        -0.37300E+03
        -0.37300E+03
        -0.37300E+03
        -0.37300E+03
        -0.37300E+03
        -0.37300E+03
        -0.37300E+03
        -0.37300E+03
        -0.37300E+03
        -0.37300E+03
        -0.37300E+03
        -0.37300E+03
        -0.37300E+03
        -0.37300E+03
        -0.37300E+03
        -0.37300E+03
        -0.37300E+03
        -0.37300E+03
        -0.37300E+03
        -0.37300E+03
        -0.37300E+03
        -0.37300E+03
        -0.37300E+03
        -0.37300E+03
        -0.37300E+03
        -0.37300E+03
        -0.37300E+03
        -0.37300E+03
        -0.37300E+03
        -0.37300E+03
        -0.37300E+03
        -0.37300E+03
        -0.37300E+03
        -0.37300E+03
        -0.37300E+03
        -0.37300E+03
        -0.37300E+03
        -0.37300E+03
        -0.37300E+03
        -0.37300E+03
        -0.37300E+03
        -0.37300E+03
        -0.37300E+03
        -0.37300E+03
        -0.37300E+03
        -0.37300E+03
        -0.37300E+03
        -0.37300E+03
        -0.37300E+03
        -0.37300E+03
        -0.37300E+03
        -0.37300E+03
        -0.37300E+03
        -0.37300E+03
        -0.37300E+03
        -0.37300E+03
        -0.37300E+03
        -0.37300E+03
        -0.37300E+03
        -0.37300E+03
        -0.37300E+03
        -0.37300E+03
        -0.37300E+03
        -0.37300E+03
        -0.37300E+03
        -0.37300E+03
        -0.37300E+03
        -0.37300E+03
        -0.37300E+03
        -0.37300E+03
        -0.37300E+03
        -0.37300E+03
        -0.37300E+03
        -0.37300E+03
        -0.37300E+03
        -0.37300E+03
        -0.37300E+03
        -0.37300E+03
        -0.37300E+03
        -0.37300E+03
        -0.37300E+03
        -0.37300E+03
        -0.37300E+03
        -0.37300E+03
        -0.37300E+03
        -0.37300E+03
        -0.37300E+03
        -0.37300E+03
        -0.37300E+03
        -0.37300E+03
        -0.37300E+03
        -0.37300E+03
        -0.37300E+03
        -0.37300E+03
        -0.37300E+03
        -0.37300E+03
        -0.37300E+03
        -0.37300E+03
        -0.37300E+03
        -0.37300E+03
        -0.37300E+03
        -0.37300E+03
        -0.37300E+03
        -0.37300E+03
        -0.37300E+03
        -0.37300E+03
        -0.37300E+03
        -0.37300E+03
        -0.37300E+03
        -0.37300E+03
        -0.37300E+03
        -0.37300E+03
        -0.37300E+03
        -0.37300E+03
        -0.37300E+03
        -0.37300E+03
        -0.37300E+03
        -0.37300E+03
        -0.37300E+03
        -0.37300E+03
        -0.37300E+03
        -0.37300E+03
        -0.37300E+03
        -0.37300E+03
        -0.37300E+03
        -0.37300E+03
        -0.37300E+03
        -0.37300E+03
        -0.37300E+03
        -0.37300E+03
        -0.37300E+03
        -0.37300E+03
        -0.37300E+03
        -0.37300E+03
        -0.37300E+03
        -0.37300E+03
        -0.37300E+03
        -0.37300E+03
        -0.37300E+03
        -0.37300E+03
        -0.37300E+03
        -0.37300E+03
        -0.37300E+03
        -0.37300E+03
        -0.37300E+03
        -0.37300E+03
        -0.37300E+03
        -0.37300E+03
        -0.37300E+03
        -0.37300E+03
        -0.37300E+03
        -0.37300E+03
        -0.37300E+03
        -0.37300E+03
        -0.37300E+03
        -0.37300E+03
        -0.37300E+03
        -0.37300E+03
        -0.37300E+03
        -0.37300E+03
        -0.37300E+03
        -0.37300E+03
        -0.37300E+03
        -0.37300E+03
        -0.37300E+03
        -0.37300E+03
        -0.37300E+03
        -0.37300E+03
        -0.37300E+03
        -0.37300E+03
        -0.37300E+03
        -0.37300E+03
        -0.37300E+03
        -0.37300E+03
        -0.37300E+03
        -0.37300E+03
        -0.37300E+03
        -0.37300E+03
        -0.37300E+03
        -0.37300E+03
        -0.37300E+03
        -0.37300E+03
        -0.37300E+03
        -0.37300E+03
        -0.37300E+03
        -0.37300E+03
        -0.37300E+03
        -0.37300E+03
        -0.37300E+03
        -0.37300E+03
        -0.37300E+03
        -0.37300E+03
        -0.37300E+03
        -0.37300E+03
        -0.37300E+03
        -0.37300E+03
        -0.37300E+03
        -0.37300E+03
        -0.37300E+03
        -0.37300E+03
        -0.37300E+03
        -0.37300E+03
        -0.37300E+03
        -0.37300E+03
        -0.37300E+03
        -0.37300E+03
        -0.37300E+03
        -0.37300E+03
        -0.37300E+03
        -0.37300E+03
        -0.37300E+03
        -0.37300E+03
        -0.37300E+03
        -0.37300E+03
        -0.37300E+03
        -0.37300E+03
        -0.37300E+03
        -0.37300E+03
        -0.37300E+03
        -0.37300E+03
        -0.37300E+03
        -0.37300E+03
        -0.37300E+03
        -0.37300E+03
        -0.37300E+03
        -0.37300E+03
        -0.37300E+03
        -0.37300E+03
        -0.37300E+03
        -0.37300E+03
        -0.37300E+03
        -0.37300E+03
        -0.37300E+03
        -0.37300E+03
        -0.37300E+03
        -0.37300E+03
        -0.37300E+03
        -0.37300E+03
        -0.37300E+03
        -0.37300E+03
        -0.37300E+03
        -0.37300E+03
        -0.37300E+03
        -0.37300E+03
        -0.37300E+03
        -0.37300E+03
        -0.37300E+03
        -0.37300E+03
        -0.37300E+03
        -0.37300E+03
        -0.37300E+03
        -0.37300E+03
        -0.37300E+03
        -0.37300E+03
        -0.37300E+03
        -0.37300E+03
        -0.37300E+03
        -0.37300E+03
        -0.37300E+03
        -0.37300E+03
        -0.37300E+03
        -0.37300E+03
        -0.37300E+03
        -0.37300E+03
        -0.37300E+03
        -0.37300E+03
        -0.37300E+03
        -0.37300E+03
        -0.37300E+03
        -0.37300E+03
        -0.37300E+03
        -0.37300E+03
        -0.37300E+03
        -0.37300E+03
        -0.37300E+03
        -0.37300E+03
        -0.37300E+03
        -0.37300E+03
        -0.37300E+03
        -0.37300E+03
        -0.37300E+03
        -0.37300E+03
        -0.37300E+03
        -0.37300E+03
        -0.37300E+03
        -0.37300E+03
        -0.37300E+03
        -0.37300E+03
        -0.37300E+03
        -0.37300E+03
        -0.37300E+03
        -0.37300E+03
        -0.37300E+03
        -0.37300E+03
        -0.37300E+03
        -0.37300E+03
        -0.37300E+03
        -0.37300E+03
        -0.37300E+03
        -0.37300E+03
        -0.37300E+03
        -0.37300E+03
        -0.37300E+03
        -0.37300E+03
        -0.37300E+03
        -0.37300E+03
        -0.37300E+03
        -0.37300E+03
        -0.37300E+03
        -0.37300E+03
        -0.37300E+03
        -0.37300E+03
        -0.37300E+03
        -0.37300E+03
        -0.37300E+03
        -0.37300E+03
        -0.37300E+03
        -0.37300E+03
        -0.37300E+03
        -0.37300E+03
        -0.37300E+03
        -0.37300E+03
        -0.37300E+03
        -0.37300E+03
        -0.37300E+03
        -0.37300E+03
        -0.37300E+03
        -0.37300E+03
        -0.37300E+03
        -0.37300E+03
        -0.37300E+03
        -0.37300E+03
        -0.37300E+03
        -0.37300E+03
        -0.37300E+03
        -0.37300E+03
        -0.37300E+03
        -0.37300E+03
        -0.37300E+03
        -0.37300E+03
        -0.37300E+03
        -0.37300E+03
        -0.37300E+03
        -0.37300E+03
        -0.37300E+03
        -0.37300E+03
        -0.37300E+03
        -0.37300E+03
        -0.37300E+03
        -0.37300E+03
        -0.37300E+03
        -0.37300E+03
        -0.37300E+03
        -0.37300E+03
        -0.37300E+03
        -0.37300E+03
        -0.37300E+03
        -0.37300E+03
        -0.37300E+03
        -0.37300E+03
        -0.37300E+03
        -0.37300E+03
        -0.37300E+03
        -0.37300E+03
        -0.37300E+03
        -0.37300E+03
        -0.37300E+03
        -0.37300E+03
        -0.37300E+03
        -0.37300E+03
        -0.37300E+03
        -0.37300E+03
        -0.37300E+03
        -0.37300E+03
        -0.37300E+03
        -0.37300E+03
        -0.37300E+03
        -0.37300E+03
        -0.37300E+03
        -0.37300E+03
        -0.37300E+03
        -0.37300E+03
        -0.37300E+03
        -0.37300E+03
        -0.37300E+03
        -0.37300E+03
        -0.37300E+03
        -0.37300E+03
        -0.37300E+03
        -0.37300E+03
        -0.37300E+03
        -0.37300E+03
        -0.37300E+03
        -0.37300E+03
        -0.37300E+03
        -0.37300E+03
        -0.37300E+03
        -0.37300E+03
        -0.37300E+03
        -0.37300E+03
        -0.37300E+03
        -0.37300E+03
        -0.37300E+03
        -0.37300E+03
        -0.37300E+03
        -0.37300E+03
        -0.37300E+03
        -0.37300E+03
        -0.37300E+03
        -0.37300E+03
        -0.37300E+03
        -0.37300E+03
        -0.37300E+03
        -0.37300E+03
        -0.37300E+03
        -0.37300E+03
        -0.37300E+03
        -0.37300E+03
        -0.37300E+03
        -0.37300E+03
        -0.37300E+03
        -0.37300E+03
        -0.37300E+03
        -0.37300E+03
        -0.37300E+03
        -0.37300E+03
        -0.37300E+03
        -0.37300E+03
        -0.37300E+03
        -0.37300E+03
        -0.37300E+03
        -0.37300E+03
        -0.37300E+03
        -0.37300E+03
        -0.37300E+03
        -0.37300E+03
        -0.37300E+03
        -0.37300E+03
        -0.37300E+03
        -0.37300E+03
        -0.37300E+03
        -0.37300E+03
        -0.37300E+03
        -0.37300E+03
        -0.37300E+03
        -0.37300E+03
        -0.37300E+03
        -0.37300E+03
        -0.37300E+03
        -0.37300E+03
        -0.37300E+03
        -0.37300E+03
        -0.37300E+03
        -0.37300E+03
        -0.37300E+03
        -0.37300E+03
        -0.37300E+03
        -0.37300E+03
        -0.37300E+03
        -0.37300E+03
        -0.37300E+03
        -0.37300E+03
        -0.37300E+03
        -0.37300E+03
        -0.37300E+03
        -0.37300E+03
        -0.37300E+03
        -0.37300E+03
        -0.37300E+03
        -0.37300E+03
        -0.37300E+03
        -0.37300E+03
        -0.37300E+03
        -0.37300E+03
        -0.37300E+03
        -0.37300E+03
        -0.37300E+03
        -0.37300E+03
        -0.37300E+03
        -0.37300E+03
        -0.37300E+03
        -0.37300E+03
        -0.37300E+03
        -0.37300E+03
        -0.37300E+03
        -0.37300E+03
        -0.37300E+03
        -0.37300E+03
        -0.37300E+03
        -0.37300E+03
        -0.37300E+03
        -0.37300E+03
        -0.37300E+03
        -0.37300E+03
        -0.37300E+03
        -0.37300E+03
        -0.37300E+03
        -0.37300E+03
        -0.37300E+03
        -0.37300E+03
        -0.37300E+03
        -0.37300E+03
        -0.37300E+03
        -0.37300E+03
        -0.37300E+03
        -0.37300E+03
        -0.37300E+03
        -0.37300E+03
        -0.37300E+03
        -0.37300E+03
        -0.37300E+03
        -0.37300E+03
        -0.37300E+03
        -0.37300E+03
        -0.37300E+03
        -0.37300E+03
        -0.37300E+03
        -0.37300E+03
        -0.37300E+03
        -0.37300E+03
        -0.37300E+03
        -0.37300E+03
        -0.37300E+03
        -0.37300E+03
        -0.37300E+03
        -0.37300E+03
        -0.37300E+03
        -0.37300E+03
        -0.37300E+03
        -0.37300E+03
        -0.37300E+03
        -0.37300E+03
        -0.37300E+03
        -0.37300E+03
        -0.37300E+03
        -0.37300E+03
        -0.37300E+03
        -0.37300E+03
        -0.37300E+03
        -0.37300E+03
        -0.37300E+03
        -0.37300E+03
        -0.37300E+03
        -0.37300E+03
        -0.37300E+03
        -0.37300E+03
        -0.37300E+03
        -0.37300E+03
        -0.37300E+03
        -0.37300E+03
        -0.37300E+03
        -0.37300E+03
        -0.37300E+03
        -0.37300E+03
        -0.37300E+03
        -0.37300E+03
        -0.37300E+03
        -0.37300E+03
        -0.37300E+03
        -0.37300E+03
        -0.37300E+03
        -0.37300E+03
        -0.37300E+03
        -0.37300E+03
        -0.37300E+03
        -0.37300E+03
        -0.37300E+03
        -0.37300E+03
        -0.37300E+03
        -0.37300E+03
        -0.37300E+03
        -0.37300E+03
        -0.37300E+03
        -0.37300E+03
        -0.37300E+03
        -0.37300E+03
        -0.37300E+03
        -0.37300E+03
        -0.37300E+03
        -0.37300E+03
        -0.37300E+03
        -0.37300E+03
        -0.37300E+03
        -0.37300E+03
        -0.37300E+03
        -0.37300E+03
        -0.37300E+03
        -0.37300E+03
        -0.37300E+03
        -0.37300E+03
        -0.37300E+03
        -0.37300E+03
        -0.37300E+03
        -0.37300E+03
        -0.37300E+03
        -0.37300E+03
        -0.37300E+03
        -0.37300E+03
        -0.37300E+03
        -0.37300E+03
        -0.37300E+03
        -0.37300E+03
        -0.37300E+03
        -0.37300E+03
        -0.37300E+03
        -0.37300E+03
        -0.37300E+03
        -0.37300E+03
        -0.37300E+03
        -0.37300E+03
        -0.37300E+03
        -0.37300E+03
        -0.37300E+03
        -0.37300E+03
        -0.37300E+03
        -0.37300E+03
        -0.37300E+03
        -0.37300E+03
        -0.37300E+03
        -0.37300E+03
        -0.37300E+03
        -0.37300E+03
        -0.37300E+03
        -0.37300E+03
        -0.37300E+03
        -0.37300E+03
        -0.37300E+03
        -0.37300E+03
        -0.37300E+03
        -0.37300E+03
        -0.37300E+03
        -0.37300E+03
        -0.37300E+03
        -0.37300E+03
        -0.37300E+03
        -0.37300E+03
        -0.37300E+03
        -0.37300E+03
        -0.37300E+03
        -0.37300E+03
        -0.37300E+03
        -0.37300E+03
        -0.37300E+03
        -0.37300E+03
        -0.37300E+03
        -0.37300E+03
        -0.37300E+03
        -0.37300E+03
        -0.37300E+03
        -0.37300E+03
        -0.37300E+03
        -0.37300E+03
        -0.37300E+03
        -0.37300E+03
        -0.37300E+03
        -0.37300E+03
        -0.37300E+03
        -0.37300E+03
        -0.37300E+03
        -0.37300E+03
        -0.37300E+03
        -0.37300E+03
        -0.37300E+03
        -0.37300E+03
        -0.37300E+03
        -0.37300E+03
        -0.37300E+03
        -0.37300E+03
        -0.37300E+03
        -0.37300E+03
        -0.37300E+03
        -0.37300E+03
        -0.37300E+03
        -0.37300E+03
        -0.37300E+03
        -0.37300E+03
        -0.37300E+03
        -0.37300E+03
        -0.37300E+03
        -0.37300E+03
        -0.37300E+03
        -0.37300E+03
        -0.37300E+03
        -0.37300E+03
        -0.37300E+03
        -0.37300E+03
        -0.37300E+03
        -0.37300E+03
        -0.37300E+03
        -0.37300E+03
        -0.37300E+03
        -0.37300E+03
        -0.37300E+03
        -0.37300E+03
        -0.37300E+03
        -0.37300E+03
        -0.37300E+03
        -0.37300E+03
        -0.37300E+03
        -0.37300E+03
        -0.37300E+03
        -0.37300E+03
        -0.37300E+03
        -0.37300E+03
        -0.37300E+03
        -0.37300E+03
        -0.37300E+03
        -0.37300E+03
        -0.37300E+03
        -0.37300E+03
        -0.37300E+03
        -0.37300E+03
        -0.37300E+03
        -0.37300E+03
        -0.37300E+03
        -0.37300E+03
        -0.37300E+03
        -0.37300E+03
        -0.37300E+03
        -0.37300E+03
        -0.37300E+03
        -0.37300E+03
        -0.37300E+03
        -0.37300E+03
        -0.37300E+03
        -0.37300E+03
        -0.37300E+03
        -0.37300E+03
        -0.37300E+03
        -0.37300E+03
        -0.37300E+03
        -0.37300E+03
        -0.37300E+03
        -0.37300E+03
        -0.37300E+03
        -0.37300E+03
        -0.37300E+03
        -0.37300E+03
        -0.37300E+03
        -0.37300E+03
        -0.37300E+03
        -0.37300E+03
        -0.37300E+03
        -0.37300E+03
        -0.37300E+03
        -0.37300E+03
        -0.37300E+03
        -0.37300E+03
        -0.37300E+03
        -0.37300E+03
        -0.37300E+03
        -0.37300E+03
        -0.37300E+03
        -0.37300E+03
        -0.37300E+03
        -0.37300E+03
        -0.37300E+03
        -0.37300E+03
        -0.37300E+03
        -0.37300E+03
        -0.37300E+03
        -0.37300E+03
        -0.37300E+03
        -0.37300E+03
        -0.37300E+03
        -0.37300E+03
        -0.37300E+03
        -0.37300E+03
        -0.37300E+03
        -0.37300E+03
        -0.37300E+03
        -0.37300E+03
        -0.37300E+03
        -0.37300E+03
        -0.37300E+03
        -0.37300E+03
        -0.37300E+03
        -0.37300E+03
        -0.37300E+03
        -0.37300E+03
        -0.37300E+03
        -0.37300E+03
        -0.37300E+03
        -0.37300E+03
        -0.37300E+03
        -0.37300E+03
        -0.37300E+03
        -0.37300E+03
        -0.37300E+03
        -0.37300E+03
        -0.37300E+03
        -0.37300E+03
        -0.37300E+03
        -0.37300E+03
        -0.37300E+03
        -0.37300E+03
        -0.37300E+03
        -0.37300E+03
        -0.37300E+03
        -0.37300E+03
        -0.37300E+03
        -0.37300E+03
        -0.37300E+03
        -0.37300E+03
        -0.37300E+03
        -0.37300E+03
        -0.37300E+03
        -0.37300E+03
        -0.37300E+03
        -0.37300E+03
        -0.37300E+03
        -0.37300E+03
        -0.37300E+03
        -0.37300E+03
        -0.37300E+03
        -0.37300E+03
        -0.37300E+03
        -0.37300E+03
        -0.37300E+03
        -0.37300E+03
        -0.37300E+03
        -0.37300E+03
        -0.37300E+03
        -0.37300E+03
        -0.37300E+03
        -0.37300E+03
        -0.37300E+03
        -0.37300E+03
        -0.37300E+03
        -0.37300E+03
        -0.37300E+03
        -0.37300E+03
        -0.37300E+03
        -0.37300E+03
        -0.37300E+03
        -0.37300E+03
        -0.37300E+03
        -0.37300E+03
        -0.37300E+03
        -0.37300E+03
        -0.37300E+03
        -0.37300E+03
        -0.37300E+03
        -0.37300E+03
        -0.37300E+03
        -0.37300E+03
        -0.37300E+03
        -0.37300E+03
        -0.37300E+03
        -0.37300E+03
        -0.37300E+03
        -0.37300E+03
        -0.37300E+03
        -0.37300E+03
        -0.37300E+03
        -0.37300E+03
        -0.37300E+03
        -0.37300E+03
        -0.37300E+03
        -0.37300E+03
        -0.37300E+03
        -0.37300E+03
        -0.37300E+03
        -0.37300E+03
        -0.37300E+03
        -0.37300E+03
        -0.37300E+03
        -0.37300E+03
        -0.37300E+03
        -0.37300E+03
        -0.37300E+03
        -0.37300E+03
        -0.37300E+03
        -0.37300E+03
        -0.37300E+03
        -0.37300E+03
        -0.37300E+03
        -0.37300E+03
        -0.37300E+03
        -0.37300E+03
        -0.37300E+03
        -0.37300E+03
        -0.37300E+03
        -0.37300E+03
        -0.37300E+03
        -0.37300E+03
        -0.37300E+03
        -0.37300E+03
        -0.37300E+03
        -0.37300E+03
        -0.37300E+03
        -0.37300E+03
        -0.37300E+03
        -0.37300E+03
        -0.37300E+03
        -0.37300E+03
        -0.37300E+03
        -0.37300E+03
        -0.37300E+03
        -0.37300E+03
        -0.37300E+03
        -0.37300E+03
        -0.37300E+03
        -0.37300E+03
        -0.37300E+03
        -0.37300E+03
        -0.37300E+03
        -0.37300E+03
        -0.37300E+03
        -0.37300E+03
        -0.37300E+03
        -0.37300E+03
        -0.37300E+03
        -0.37300E+03
        -0.37300E+03
        -0.37300E+03
        -0.37300E+03
        -0.37300E+03
        -0.37300E+03
        -0.37300E+03
        -0.37300E+03
        -0.37300E+03
        -0.37300E+03
        -0.37300E+03
        -0.37300E+03
        -0.37300E+03
        -0.37300E+03
        -0.37300E+03
        -0.37300E+03
        -0.37300E+03
        -0.37300E+03
        -0.37300E+03
        -0.37300E+03
        -0.37300E+03
        -0.37300E+03
        -0.37300E+03
        -0.37300E+03
        -0.37300E+03
        -0.37300E+03
        -0.37300E+03
        -0.37300E+03
        -0.37300E+03
        -0.37300E+03
        -0.37300E+03
        -0.37300E+03
        -0.37300E+03
        -0.37300E+03
        -0.37300E+03
        -0.37300E+03
        -0.37300E+03
        -0.37300E+03
        -0.37300E+03
        -0.37300E+03
        -0.37300E+03
        -0.37300E+03
        -0.37300E+03
        -0.37300E+03
        -0.37300E+03
        -0.37300E+03
        -0.37300E+03
        -0.37300E+03
        -0.37300E+03
        -0.37300E+03
        -0.37300E+03
        -0.37300E+03
        -0.37300E+03
        -0.37300E+03
        -0.37300E+03
        -0.37300E+03
        -0.37300E+03
        -0.37300E+03
        -0.37300E+03
        -0.37300E+03
        -0.37300E+03
        -0.37300E+03
        -0.37300E+03
        -0.37300E+03
        -0.37300E+03
        -0.37300E+03
        -0.37300E+03
        -0.37300E+03
        -0.37300E+03
        -0.37300E+03
        -0.37300E+03
        -0.37300E+03
        -0.37300E+03
        -0.37300E+03
        -0.37300E+03
        -0.37300E+03
        -0.37300E+03
        -0.37300E+03
        -0.37300E+03
        -0.37300E+03
        -0.37300E+03
        -0.37300E+03
        -0.37300E+03
        -0.37300E+03
        -0.37300E+03
        -0.37300E+03
        -0.37300E+03
        -0.37300E+03
        -0.37300E+03
        -0.37300E+03
        -0.37300E+03
        -0.37300E+03
        -0.37300E+03
        -0.37300E+03
        -0.37300E+03
        -0.37300E+03
        -0.37300E+03
        -0.37300E+03
        -0.37300E+03
        -0.37300E+03
        -0.37300E+03
        -0.37300E+03
        -0.37300E+03
        -0.37300E+03
        -0.37300E+03
        -0.37300E+03
        -0.37300E+03
        -0.37300E+03
        -0.37300E+03
        -0.37300E+03
        -0.37300E+03
        -0.37300E+03
        -0.37300E+03
        -0.37300E+03
        -0.37300E+03
        -0.37300E+03
        -0.37300E+03
        -0.37300E+03
        -0.37300E+03
        -0.37300E+03
        -0.37300E+03
        -0.37300E+03
        -0.37300E+03
        -0.37300E+03
        -0.37300E+03
        -0.37300E+03
        -0.37300E+03
        -0.37300E+03
        -0.37300E+03
        -0.37300E+03
        -0.37300E+03
        -0.37300E+03
        -0.37300E+03
        -0.37300E+03
        -0.37300E+03
        -0.37300E+03
        -0.37300E+03
        -0.37300E+03
        -0.37300E+03
        -0.37300E+03
        -0.37300E+03
        -0.37300E+03
        -0.37300E+03
        -0.37300E+03
        -0.37300E+03
        -0.37300E+03
        -0.37300E+03
        -0.37300E+03
        -0.37300E+03
        -0.37300E+03
        -0.37300E+03
        -0.37300E+03
        -0.37300E+03
        -0.37300E+03
        -0.37300E+03
        -0.37300E+03
        -0.37300E+03
        -0.37300E+03
        -0.37300E+03
        -0.37300E+03
        -0.37300E+03
        -0.37300E+03
        -0.37300E+03
        -0.37300E+03
  
SCALARS                 acceleration_x  double 1
LOOKUP_TABLE default
         0.00000E+00
         0.00000E+00
         0.00000E+00
         0.00000E+00
         0.00000E+00
         0.00000E+00
         0.00000E+00
         0.00000E+00
         0.00000E+00
         0.00000E+00
         0.00000E+00
         0.00000E+00
         0.00000E+00
         0.00000E+00
         0.00000E+00
         0.00000E+00
         0.00000E+00
         0.00000E+00
         0.00000E+00
         0.00000E+00
         0.00000E+00
         0.00000E+00
         0.00000E+00
         0.00000E+00
         0.00000E+00
         0.00000E+00
         0.00000E+00
         0.00000E+00
         0.00000E+00
         0.00000E+00
         0.00000E+00
         0.00000E+00
         0.00000E+00
         0.00000E+00
         0.00000E+00
         0.00000E+00
         0.00000E+00
         0.00000E+00
         0.00000E+00
         0.00000E+00
         0.00000E+00
         0.00000E+00
         0.00000E+00
         0.00000E+00
         0.00000E+00
         0.00000E+00
         0.00000E+00
         0.00000E+00
         0.00000E+00
         0.00000E+00
         0.00000E+00
         0.00000E+00
         0.00000E+00
         0.00000E+00
         0.00000E+00
         0.00000E+00
         0.00000E+00
         0.00000E+00
         0.00000E+00
         0.00000E+00
         0.00000E+00
         0.00000E+00
         0.00000E+00
         0.00000E+00
         0.00000E+00
         0.00000E+00
         0.00000E+00
         0.00000E+00
         0.00000E+00
         0.00000E+00
         0.00000E+00
         0.00000E+00
         0.00000E+00
         0.00000E+00
         0.00000E+00
         0.00000E+00
         0.00000E+00
         0.00000E+00
         0.00000E+00
         0.00000E+00
         0.00000E+00
         0.00000E+00
         0.00000E+00
         0.00000E+00
         0.00000E+00
         0.00000E+00
         0.00000E+00
         0.00000E+00
         0.00000E+00
         0.00000E+00
         0.00000E+00
         0.00000E+00
         0.00000E+00
         0.00000E+00
         0.00000E+00
         0.00000E+00
         0.00000E+00
         0.00000E+00
         0.00000E+00
         0.00000E+00
         0.00000E+00
         0.00000E+00
         0.00000E+00
         0.00000E+00
         0.00000E+00
         0.00000E+00
         0.00000E+00
         0.00000E+00
         0.00000E+00
         0.00000E+00
         0.00000E+00
         0.00000E+00
         0.00000E+00
         0.00000E+00
         0.00000E+00
         0.00000E+00
         0.00000E+00
         0.00000E+00
         0.00000E+00
         0.00000E+00
         0.00000E+00
         0.00000E+00
         0.00000E+00
         0.00000E+00
         0.00000E+00
         0.00000E+00
         0.00000E+00
         0.00000E+00
         0.00000E+00
         0.00000E+00
         0.00000E+00
         0.00000E+00
         0.00000E+00
         0.00000E+00
         0.00000E+00
         0.00000E+00
         0.00000E+00
         0.00000E+00
         0.00000E+00
         0.00000E+00
         0.00000E+00
         0.00000E+00
         0.00000E+00
         0.00000E+00
         0.00000E+00
         0.00000E+00
         0.00000E+00
         0.00000E+00
         0.00000E+00
         0.00000E+00
         0.00000E+00
         0.00000E+00
         0.00000E+00
         0.00000E+00
         0.00000E+00
         0.00000E+00
         0.00000E+00
         0.00000E+00
         0.00000E+00
         0.00000E+00
         0.00000E+00
         0.00000E+00
         0.00000E+00
         0.00000E+00
         0.00000E+00
         0.00000E+00
         0.00000E+00
         0.00000E+00
         0.00000E+00
         0.00000E+00
         0.00000E+00
         0.00000E+00
         0.00000E+00
         0.00000E+00
         0.00000E+00
         0.00000E+00
         0.00000E+00
         0.00000E+00
         0.00000E+00
         0.00000E+00
         0.00000E+00
         0.00000E+00
         0.00000E+00
         0.00000E+00
         0.00000E+00
         0.00000E+00
         0.00000E+00
         0.00000E+00
         0.00000E+00
         0.00000E+00
         0.00000E+00
         0.00000E+00
         0.00000E+00
         0.00000E+00
         0.00000E+00
         0.00000E+00
         0.00000E+00
         0.00000E+00
         0.00000E+00
         0.00000E+00
         0.00000E+00
         0.00000E+00
         0.00000E+00
         0.00000E+00
         0.00000E+00
         0.00000E+00
         0.00000E+00
         0.00000E+00
         0.00000E+00
         0.00000E+00
         0.00000E+00
         0.00000E+00
         0.00000E+00
         0.00000E+00
         0.00000E+00
         0.00000E+00
         0.00000E+00
         0.00000E+00
         0.00000E+00
         0.00000E+00
         0.00000E+00
         0.00000E+00
         0.00000E+00
         0.00000E+00
         0.00000E+00
         0.00000E+00
         0.00000E+00
         0.00000E+00
         0.00000E+00
         0.00000E+00
         0.00000E+00
         0.00000E+00
         0.00000E+00
         0.00000E+00
         0.00000E+00
         0.00000E+00
         0.00000E+00
         0.00000E+00
         0.00000E+00
         0.00000E+00
         0.00000E+00
         0.00000E+00
         0.00000E+00
         0.00000E+00
         0.00000E+00
         0.00000E+00
         0.00000E+00
         0.00000E+00
         0.00000E+00
         0.00000E+00
         0.00000E+00
         0.00000E+00
         0.00000E+00
         0.00000E+00
         0.00000E+00
         0.00000E+00
         0.00000E+00
         0.00000E+00
         0.00000E+00
         0.00000E+00
         0.00000E+00
         0.00000E+00
         0.00000E+00
         0.00000E+00
         0.00000E+00
         0.00000E+00
         0.00000E+00
         0.00000E+00
         0.00000E+00
         0.00000E+00
         0.00000E+00
         0.00000E+00
         0.00000E+00
         0.00000E+00
         0.00000E+00
         0.00000E+00
         0.00000E+00
         0.00000E+00
         0.00000E+00
         0.00000E+00
         0.00000E+00
         0.00000E+00
         0.00000E+00
         0.00000E+00
         0.00000E+00
         0.00000E+00
         0.00000E+00
         0.00000E+00
         0.00000E+00
         0.00000E+00
         0.00000E+00
         0.00000E+00
         0.00000E+00
         0.00000E+00
         0.00000E+00
         0.00000E+00
         0.00000E+00
         0.00000E+00
         0.00000E+00
         0.00000E+00
         0.00000E+00
         0.00000E+00
         0.00000E+00
         0.00000E+00
         0.00000E+00
         0.00000E+00
         0.00000E+00
         0.00000E+00
         0.00000E+00
         0.00000E+00
         0.00000E+00
         0.00000E+00
         0.00000E+00
         0.00000E+00
         0.00000E+00
         0.00000E+00
         0.00000E+00
         0.00000E+00
         0.00000E+00
         0.00000E+00
         0.00000E+00
         0.00000E+00
         0.00000E+00
         0.00000E+00
         0.00000E+00
         0.00000E+00
         0.00000E+00
         0.00000E+00
         0.00000E+00
         0.00000E+00
         0.00000E+00
         0.00000E+00
         0.00000E+00
         0.00000E+00
         0.00000E+00
         0.00000E+00
         0.00000E+00
         0.00000E+00
         0.00000E+00
         0.00000E+00
         0.00000E+00
         0.00000E+00
         0.00000E+00
         0.00000E+00
         0.00000E+00
         0.00000E+00
         0.00000E+00
         0.00000E+00
         0.00000E+00
         0.00000E+00
         0.00000E+00
         0.00000E+00
         0.00000E+00
         0.00000E+00
         0.00000E+00
         0.00000E+00
         0.00000E+00
         0.00000E+00
         0.00000E+00
         0.00000E+00
         0.00000E+00
         0.00000E+00
         0.00000E+00
         0.00000E+00
         0.00000E+00
         0.00000E+00
         0.00000E+00
         0.00000E+00
         0.00000E+00
         0.00000E+00
         0.00000E+00
         0.00000E+00
         0.00000E+00
         0.00000E+00
         0.00000E+00
         0.00000E+00
         0.00000E+00
         0.00000E+00
         0.00000E+00
         0.00000E+00
         0.00000E+00
         0.00000E+00
         0.00000E+00
         0.00000E+00
         0.00000E+00
         0.00000E+00
         0.00000E+00
         0.00000E+00
         0.00000E+00
         0.00000E+00
         0.00000E+00
         0.00000E+00
         0.00000E+00
         0.00000E+00
         0.00000E+00
         0.00000E+00
         0.00000E+00
         0.00000E+00
         0.00000E+00
         0.00000E+00
         0.00000E+00
         0.00000E+00
         0.00000E+00
         0.00000E+00
         0.00000E+00
         0.00000E+00
         0.00000E+00
         0.00000E+00
         0.00000E+00
         0.00000E+00
         0.00000E+00
         0.00000E+00
         0.00000E+00
         0.00000E+00
         0.00000E+00
         0.00000E+00
         0.00000E+00
         0.00000E+00
         0.00000E+00
         0.00000E+00
         0.00000E+00
         0.00000E+00
         0.00000E+00
         0.00000E+00
         0.00000E+00
         0.00000E+00
         0.00000E+00
         0.00000E+00
         0.00000E+00
         0.00000E+00
         0.00000E+00
         0.00000E+00
         0.00000E+00
         0.00000E+00
         0.00000E+00
         0.00000E+00
         0.00000E+00
         0.00000E+00
         0.00000E+00
         0.00000E+00
         0.00000E+00
         0.00000E+00
         0.00000E+00
         0.00000E+00
         0.00000E+00
         0.00000E+00
         0.00000E+00
         0.00000E+00
         0.00000E+00
         0.00000E+00
         0.00000E+00
         0.00000E+00
         0.00000E+00
         0.00000E+00
         0.00000E+00
         0.00000E+00
         0.00000E+00
         0.00000E+00
         0.00000E+00
         0.00000E+00
         0.00000E+00
         0.00000E+00
         0.00000E+00
         0.00000E+00
         0.00000E+00
         0.00000E+00
         0.00000E+00
         0.00000E+00
         0.00000E+00
         0.00000E+00
         0.00000E+00
         0.00000E+00
         0.00000E+00
         0.00000E+00
         0.00000E+00
         0.00000E+00
         0.00000E+00
         0.00000E+00
         0.00000E+00
         0.00000E+00
         0.00000E+00
         0.00000E+00
         0.00000E+00
         0.00000E+00
         0.00000E+00
         0.00000E+00
         0.00000E+00
         0.00000E+00
         0.00000E+00
         0.00000E+00
         0.00000E+00
         0.00000E+00
         0.00000E+00
         0.00000E+00
         0.00000E+00
         0.00000E+00
         0.00000E+00
         0.00000E+00
         0.00000E+00
         0.00000E+00
         0.00000E+00
         0.00000E+00
         0.00000E+00
         0.00000E+00
         0.00000E+00
         0.00000E+00
         0.00000E+00
         0.00000E+00
         0.00000E+00
         0.00000E+00
         0.00000E+00
         0.00000E+00
         0.00000E+00
         0.00000E+00
         0.00000E+00
         0.00000E+00
         0.00000E+00
         0.00000E+00
         0.00000E+00
         0.00000E+00
         0.00000E+00
         0.00000E+00
         0.00000E+00
         0.00000E+00
         0.00000E+00
         0.00000E+00
         0.00000E+00
         0.00000E+00
         0.00000E+00
         0.00000E+00
         0.00000E+00
         0.00000E+00
         0.00000E+00
         0.00000E+00
         0.00000E+00
         0.00000E+00
         0.00000E+00
         0.00000E+00
         0.00000E+00
         0.00000E+00
         0.00000E+00
         0.00000E+00
         0.00000E+00
         0.00000E+00
         0.00000E+00
         0.00000E+00
         0.00000E+00
         0.00000E+00
         0.00000E+00
         0.00000E+00
         0.00000E+00
         0.00000E+00
         0.00000E+00
         0.00000E+00
         0.00000E+00
         0.00000E+00
         0.00000E+00
         0.00000E+00
         0.00000E+00
         0.00000E+00
         0.00000E+00
         0.00000E+00
         0.00000E+00
         0.00000E+00
         0.00000E+00
         0.00000E+00
         0.00000E+00
         0.00000E+00
         0.00000E+00
         0.00000E+00
         0.00000E+00
         0.00000E+00
         0.00000E+00
         0.00000E+00
         0.00000E+00
         0.00000E+00
         0.00000E+00
         0.00000E+00
         0.00000E+00
         0.00000E+00
         0.00000E+00
         0.00000E+00
         0.00000E+00
         0.00000E+00
         0.00000E+00
         0.00000E+00
         0.00000E+00
         0.00000E+00
         0.00000E+00
         0.00000E+00
         0.00000E+00
         0.00000E+00
         0.00000E+00
         0.00000E+00
         0.00000E+00
         0.00000E+00
         0.00000E+00
         0.00000E+00
         0.00000E+00
         0.00000E+00
         0.00000E+00
         0.00000E+00
         0.00000E+00
         0.00000E+00
         0.00000E+00
         0.00000E+00
         0.00000E+00
         0.00000E+00
         0.00000E+00
         0.00000E+00
         0.00000E+00
         0.00000E+00
         0.00000E+00
         0.00000E+00
         0.00000E+00
         0.00000E+00
         0.00000E+00
         0.00000E+00
         0.00000E+00
         0.00000E+00
         0.00000E+00
         0.00000E+00
         0.00000E+00
         0.00000E+00
         0.00000E+00
         0.00000E+00
         0.00000E+00
         0.00000E+00
         0.00000E+00
         0.00000E+00
         0.00000E+00
         0.00000E+00
         0.00000E+00
         0.00000E+00
         0.00000E+00
         0.00000E+00
         0.00000E+00
         0.00000E+00
         0.00000E+00
         0.00000E+00
         0.00000E+00
         0.00000E+00
         0.00000E+00
         0.00000E+00
         0.00000E+00
         0.00000E+00
         0.00000E+00
         0.00000E+00
         0.00000E+00
         0.00000E+00
         0.00000E+00
         0.00000E+00
         0.00000E+00
         0.00000E+00
         0.00000E+00
         0.00000E+00
         0.00000E+00
         0.00000E+00
         0.00000E+00
         0.00000E+00
         0.00000E+00
         0.00000E+00
         0.00000E+00
         0.00000E+00
         0.00000E+00
         0.00000E+00
         0.00000E+00
         0.00000E+00
         0.00000E+00
         0.00000E+00
         0.00000E+00
         0.00000E+00
         0.00000E+00
         0.00000E+00
         0.00000E+00
         0.00000E+00
         0.00000E+00
         0.00000E+00
         0.00000E+00
         0.00000E+00
         0.00000E+00
         0.00000E+00
         0.00000E+00
         0.00000E+00
         0.00000E+00
         0.00000E+00
         0.00000E+00
         0.00000E+00
         0.00000E+00
         0.00000E+00
         0.00000E+00
         0.00000E+00
         0.00000E+00
         0.00000E+00
         0.00000E+00
         0.00000E+00
         0.00000E+00
         0.00000E+00
         0.00000E+00
         0.00000E+00
         0.00000E+00
         0.00000E+00
         0.00000E+00
         0.00000E+00
         0.00000E+00
         0.00000E+00
         0.00000E+00
         0.00000E+00
         0.00000E+00
         0.00000E+00
         0.00000E+00
         0.00000E+00
         0.00000E+00
         0.00000E+00
         0.00000E+00
         0.00000E+00
         0.00000E+00
         0.00000E+00
         0.00000E+00
         0.00000E+00
         0.00000E+00
         0.00000E+00
         0.00000E+00
         0.00000E+00
         0.00000E+00
         0.00000E+00
         0.00000E+00
         0.00000E+00
         0.00000E+00
         0.00000E+00
         0.00000E+00
         0.00000E+00
         0.00000E+00
         0.00000E+00
         0.00000E+00
         0.00000E+00
         0.00000E+00
         0.00000E+00
         0.00000E+00
         0.00000E+00
         0.00000E+00
         0.00000E+00
         0.00000E+00
         0.00000E+00
         0.00000E+00
         0.00000E+00
         0.00000E+00
         0.00000E+00
         0.00000E+00
         0.00000E+00
         0.00000E+00
         0.00000E+00
         0.00000E+00
         0.00000E+00
         0.00000E+00
         0.00000E+00
         0.00000E+00
         0.00000E+00
         0.00000E+00
         0.00000E+00
         0.00000E+00
         0.00000E+00
         0.00000E+00
         0.00000E+00
         0.00000E+00
         0.00000E+00
         0.00000E+00
         0.00000E+00
         0.00000E+00
         0.00000E+00
         0.00000E+00
         0.00000E+00
         0.00000E+00
         0.00000E+00
         0.00000E+00
         0.00000E+00
         0.00000E+00
         0.00000E+00
         0.00000E+00
         0.00000E+00
         0.00000E+00
         0.00000E+00
         0.00000E+00
         0.00000E+00
         0.00000E+00
         0.00000E+00
         0.00000E+00
         0.00000E+00
         0.00000E+00
         0.00000E+00
         0.00000E+00
         0.00000E+00
         0.00000E+00
         0.00000E+00
         0.00000E+00
         0.00000E+00
         0.00000E+00
         0.00000E+00
         0.00000E+00
         0.00000E+00
         0.00000E+00
         0.00000E+00
         0.00000E+00
         0.00000E+00
         0.00000E+00
         0.00000E+00
         0.00000E+00
         0.00000E+00
         0.00000E+00
         0.00000E+00
         0.00000E+00
         0.00000E+00
         0.00000E+00
         0.00000E+00
         0.00000E+00
         0.00000E+00
         0.00000E+00
         0.00000E+00
         0.00000E+00
         0.00000E+00
         0.00000E+00
         0.00000E+00
         0.00000E+00
         0.00000E+00
         0.00000E+00
         0.00000E+00
         0.00000E+00
         0.00000E+00
         0.00000E+00
         0.00000E+00
         0.00000E+00
         0.00000E+00
         0.00000E+00
         0.00000E+00
         0.00000E+00
         0.00000E+00
         0.00000E+00
         0.00000E+00
         0.00000E+00
         0.00000E+00
         0.00000E+00
         0.00000E+00
         0.00000E+00
         0.00000E+00
         0.00000E+00
         0.00000E+00
         0.00000E+00
         0.00000E+00
         0.00000E+00
         0.00000E+00
         0.00000E+00
         0.00000E+00
         0.00000E+00
         0.00000E+00
         0.00000E+00
         0.00000E+00
         0.00000E+00
         0.00000E+00
         0.00000E+00
         0.00000E+00
         0.00000E+00
         0.00000E+00
         0.00000E+00
         0.00000E+00
         0.00000E+00
         0.00000E+00
         0.00000E+00
         0.00000E+00
         0.00000E+00
         0.00000E+00
         0.00000E+00
         0.00000E+00
         0.00000E+00
         0.00000E+00
         0.00000E+00
         0.00000E+00
         0.00000E+00
         0.00000E+00
         0.00000E+00
         0.00000E+00
         0.00000E+00
         0.00000E+00
         0.00000E+00
         0.00000E+00
         0.00000E+00
         0.00000E+00
         0.00000E+00
         0.00000E+00
         0.00000E+00
         0.00000E+00
         0.00000E+00
         0.00000E+00
         0.00000E+00
         0.00000E+00
         0.00000E+00
         0.00000E+00
         0.00000E+00
         0.00000E+00
         0.00000E+00
         0.00000E+00
         0.00000E+00
         0.00000E+00
         0.00000E+00
         0.00000E+00
         0.00000E+00
         0.00000E+00
         0.00000E+00
         0.00000E+00
         0.00000E+00
         0.00000E+00
         0.00000E+00
         0.00000E+00
         0.00000E+00
         0.00000E+00
         0.00000E+00
         0.00000E+00
         0.00000E+00
         0.00000E+00
         0.00000E+00
         0.00000E+00
         0.00000E+00
         0.00000E+00
         0.00000E+00
         0.00000E+00
         0.00000E+00
         0.00000E+00
         0.00000E+00
         0.00000E+00
         0.00000E+00
         0.00000E+00
         0.00000E+00
         0.00000E+00
         0.00000E+00
         0.00000E+00
         0.00000E+00
         0.00000E+00
         0.00000E+00
         0.00000E+00
         0.00000E+00
         0.00000E+00
         0.00000E+00
         0.00000E+00
         0.00000E+00
         0.00000E+00
         0.00000E+00
         0.00000E+00
         0.00000E+00
         0.00000E+00
         0.00000E+00
         0.00000E+00
         0.00000E+00
         0.00000E+00
         0.00000E+00
         0.00000E+00
         0.00000E+00
         0.00000E+00
         0.00000E+00
         0.00000E+00
         0.00000E+00
         0.00000E+00
         0.00000E+00
         0.00000E+00
         0.00000E+00
         0.00000E+00
         0.00000E+00
         0.00000E+00
         0.00000E+00
         0.00000E+00
         0.00000E+00
         0.00000E+00
         0.00000E+00
         0.00000E+00
         0.00000E+00
         0.00000E+00
         0.00000E+00
         0.00000E+00
         0.00000E+00
         0.00000E+00
         0.00000E+00
         0.00000E+00
         0.00000E+00
         0.00000E+00
         0.00000E+00
         0.00000E+00
         0.00000E+00
         0.00000E+00
         0.00000E+00
         0.00000E+00
         0.00000E+00
         0.00000E+00
         0.00000E+00
         0.00000E+00
         0.00000E+00
         0.00000E+00
         0.00000E+00
         0.00000E+00
         0.00000E+00
         0.00000E+00
         0.00000E+00
         0.00000E+00
         0.00000E+00
         0.00000E+00
         0.00000E+00
         0.00000E+00
         0.00000E+00
         0.00000E+00
         0.00000E+00
         0.00000E+00
         0.00000E+00
         0.00000E+00
         0.00000E+00
         0.00000E+00
         0.00000E+00
         0.00000E+00
         0.00000E+00
         0.00000E+00
         0.00000E+00
         0.00000E+00
         0.00000E+00
         0.00000E+00
         0.00000E+00
         0.00000E+00
         0.00000E+00
         0.00000E+00
         0.00000E+00
         0.00000E+00
         0.00000E+00
         0.00000E+00
         0.00000E+00
         0.00000E+00
         0.00000E+00
         0.00000E+00
         0.00000E+00
         0.00000E+00
         0.00000E+00
         0.00000E+00
         0.00000E+00
         0.00000E+00
         0.00000E+00
         0.00000E+00
         0.00000E+00
         0.00000E+00
         0.00000E+00
         0.00000E+00
         0.00000E+00
         0.00000E+00
         0.00000E+00
         0.00000E+00
         0.00000E+00
         0.00000E+00
         0.00000E+00
         0.00000E+00
         0.00000E+00
         0.00000E+00
         0.00000E+00
         0.00000E+00
         0.00000E+00
         0.00000E+00
         0.00000E+00
         0.00000E+00
         0.00000E+00
         0.00000E+00
         0.00000E+00
         0.00000E+00
         0.00000E+00
         0.00000E+00
         0.00000E+00
         0.00000E+00
         0.00000E+00
         0.00000E+00
         0.00000E+00
         0.00000E+00
         0.00000E+00
         0.00000E+00
         0.00000E+00
         0.00000E+00
         0.00000E+00
         0.00000E+00
         0.00000E+00
         0.00000E+00
         0.00000E+00
         0.00000E+00
         0.00000E+00
         0.00000E+00
         0.00000E+00
         0.00000E+00
         0.00000E+00
         0.00000E+00
         0.00000E+00
         0.00000E+00
         0.00000E+00
         0.00000E+00
         0.00000E+00
         0.00000E+00
         0.00000E+00
         0.00000E+00
         0.00000E+00
         0.00000E+00
         0.00000E+00
         0.00000E+00
         0.00000E+00
         0.00000E+00
         0.00000E+00
         0.00000E+00
         0.00000E+00
         0.00000E+00
         0.00000E+00
         0.00000E+00
         0.00000E+00
         0.00000E+00
         0.00000E+00
         0.00000E+00
         0.00000E+00
         0.00000E+00
         0.00000E+00
         0.00000E+00
         0.00000E+00
         0.00000E+00
         0.00000E+00
         0.00000E+00
         0.00000E+00
         0.00000E+00
         0.00000E+00
         0.00000E+00
         0.00000E+00
         0.00000E+00
         0.00000E+00
         0.00000E+00
         0.00000E+00
         0.00000E+00
         0.00000E+00
         0.00000E+00
         0.00000E+00
         0.00000E+00
         0.00000E+00
         0.00000E+00
         0.00000E+00
         0.00000E+00
         0.00000E+00
         0.00000E+00
         0.00000E+00
         0.00000E+00
         0.00000E+00
         0.00000E+00
         0.00000E+00
         0.00000E+00
         0.00000E+00
         0.00000E+00
         0.00000E+00
         0.00000E+00
         0.00000E+00
         0.00000E+00
         0.00000E+00
         0.00000E+00
         0.00000E+00
         0.00000E+00
         0.00000E+00
         0.00000E+00
         0.00000E+00
         0.00000E+00
         0.00000E+00
         0.00000E+00
         0.00000E+00
         0.00000E+00
         0.00000E+00
         0.00000E+00
         0.00000E+00
         0.00000E+00
         0.00000E+00
         0.00000E+00
         0.00000E+00
         0.00000E+00
         0.00000E+00
         0.00000E+00
         0.00000E+00
         0.00000E+00
         0.00000E+00
         0.00000E+00
         0.00000E+00
         0.00000E+00
         0.00000E+00
         0.00000E+00
         0.00000E+00
         0.00000E+00
         0.00000E+00
         0.00000E+00
         0.00000E+00
         0.00000E+00
         0.00000E+00
         0.00000E+00
         0.00000E+00
         0.00000E+00
         0.00000E+00
         0.00000E+00
         0.00000E+00
         0.00000E+00
         0.00000E+00
         0.00000E+00
         0.00000E+00
         0.00000E+00
         0.00000E+00
         0.00000E+00
         0.00000E+00
         0.00000E+00
         0.00000E+00
         0.00000E+00
         0.00000E+00
         0.00000E+00
         0.00000E+00
         0.00000E+00
         0.00000E+00
         0.00000E+00
         0.00000E+00
         0.00000E+00
         0.00000E+00
         0.00000E+00
         0.00000E+00
         0.00000E+00
         0.00000E+00
         0.00000E+00
         0.00000E+00
         0.00000E+00
         0.00000E+00
         0.00000E+00
         0.00000E+00
         0.00000E+00
         0.00000E+00
         0.00000E+00
         0.00000E+00
         0.00000E+00
         0.00000E+00
         0.00000E+00
         0.00000E+00
         0.00000E+00
         0.00000E+00
         0.00000E+00
         0.00000E+00
         0.00000E+00
         0.00000E+00
         0.00000E+00
         0.00000E+00
         0.00000E+00
         0.00000E+00
         0.00000E+00
         0.00000E+00
         0.00000E+00
         0.00000E+00
         0.00000E+00
         0.00000E+00
         0.00000E+00
         0.00000E+00
         0.00000E+00
         0.00000E+00
         0.00000E+00
         0.00000E+00
         0.00000E+00
         0.00000E+00
         0.00000E+00
         0.00000E+00
         0.00000E+00
         0.00000E+00
         0.00000E+00
         0.00000E+00
         0.00000E+00
         0.00000E+00
         0.00000E+00
         0.00000E+00
         0.00000E+00
         0.00000E+00
         0.00000E+00
         0.00000E+00
         0.00000E+00
         0.00000E+00
         0.00000E+00
         0.00000E+00
         0.00000E+00
         0.00000E+00
         0.00000E+00
         0.00000E+00
         0.00000E+00
         0.00000E+00
         0.00000E+00
         0.00000E+00
         0.00000E+00
         0.00000E+00
         0.00000E+00
         0.00000E+00
         0.00000E+00
         0.00000E+00
         0.00000E+00
         0.00000E+00
         0.00000E+00
         0.00000E+00
         0.00000E+00
         0.00000E+00
         0.00000E+00
         0.00000E+00
         0.00000E+00
         0.00000E+00
         0.00000E+00
         0.00000E+00
         0.00000E+00
         0.00000E+00
         0.00000E+00
         0.00000E+00
         0.00000E+00
         0.00000E+00
         0.00000E+00
         0.00000E+00
         0.00000E+00
         0.00000E+00
         0.00000E+00
         0.00000E+00
         0.00000E+00
         0.00000E+00
         0.00000E+00
         0.00000E+00
         0.00000E+00
         0.00000E+00
         0.00000E+00
         0.00000E+00
         0.00000E+00
         0.00000E+00
         0.00000E+00
         0.00000E+00
         0.00000E+00
         0.00000E+00
         0.00000E+00
         0.00000E+00
         0.00000E+00
         0.00000E+00
         0.00000E+00
         0.00000E+00
         0.00000E+00
         0.00000E+00
         0.00000E+00
         0.00000E+00
         0.00000E+00
         0.00000E+00
         0.00000E+00
         0.00000E+00
         0.00000E+00
         0.00000E+00
         0.00000E+00
         0.00000E+00
         0.00000E+00
         0.00000E+00
         0.00000E+00
         0.00000E+00
         0.00000E+00
         0.00000E+00
         0.00000E+00
         0.00000E+00
         0.00000E+00
         0.00000E+00
         0.00000E+00
         0.00000E+00
         0.00000E+00
         0.00000E+00
         0.00000E+00
         0.00000E+00
         0.00000E+00
         0.00000E+00
         0.00000E+00
         0.00000E+00
         0.00000E+00
         0.00000E+00
         0.00000E+00
         0.00000E+00
         0.00000E+00
         0.00000E+00
         0.00000E+00
         0.00000E+00
         0.00000E+00
         0.00000E+00
         0.00000E+00
         0.00000E+00
         0.00000E+00
         0.00000E+00
         0.00000E+00
         0.00000E+00
         0.00000E+00
         0.00000E+00
         0.00000E+00
         0.00000E+00
         0.00000E+00
         0.00000E+00
         0.00000E+00
         0.00000E+00
         0.00000E+00
         0.00000E+00
         0.00000E+00
         0.00000E+00
         0.00000E+00
         0.00000E+00
         0.00000E+00
         0.00000E+00
         0.00000E+00
         0.00000E+00
         0.00000E+00
         0.00000E+00
         0.00000E+00
         0.00000E+00
         0.00000E+00
         0.00000E+00
         0.00000E+00
         0.00000E+00
         0.00000E+00
         0.00000E+00
         0.00000E+00
         0.00000E+00
         0.00000E+00
         0.00000E+00
         0.00000E+00
         0.00000E+00
         0.00000E+00
         0.00000E+00
         0.00000E+00
         0.00000E+00
         0.00000E+00
         0.00000E+00
         0.00000E+00
         0.00000E+00
         0.00000E+00
         0.00000E+00
         0.00000E+00
         0.00000E+00
         0.00000E+00
         0.00000E+00
         0.00000E+00
         0.00000E+00
         0.00000E+00
         0.00000E+00
         0.00000E+00
         0.00000E+00
         0.00000E+00
         0.00000E+00
         0.00000E+00
         0.00000E+00
         0.00000E+00
         0.00000E+00
         0.00000E+00
         0.00000E+00
         0.00000E+00
         0.00000E+00
         0.00000E+00
         0.00000E+00
         0.00000E+00
         0.00000E+00
         0.00000E+00
         0.00000E+00
         0.00000E+00
         0.00000E+00
         0.00000E+00
         0.00000E+00
         0.00000E+00
         0.00000E+00
         0.00000E+00
         0.00000E+00
         0.00000E+00
         0.00000E+00
         0.00000E+00
         0.00000E+00
         0.00000E+00
         0.00000E+00
         0.00000E+00
         0.00000E+00
         0.00000E+00
         0.00000E+00
         0.00000E+00
         0.00000E+00
         0.00000E+00
         0.00000E+00
         0.00000E+00
         0.00000E+00
         0.00000E+00
         0.00000E+00
         0.00000E+00
         0.00000E+00
         0.00000E+00
         0.00000E+00
         0.00000E+00
         0.00000E+00
         0.00000E+00
         0.00000E+00
         0.00000E+00
         0.00000E+00
         0.00000E+00
         0.00000E+00
         0.00000E+00
         0.00000E+00
         0.00000E+00
         0.00000E+00
         0.00000E+00
         0.00000E+00
         0.00000E+00
         0.00000E+00
         0.00000E+00
         0.00000E+00
         0.00000E+00
         0.00000E+00
         0.00000E+00
         0.00000E+00
         0.00000E+00
         0.00000E+00
         0.00000E+00
         0.00000E+00
         0.00000E+00
         0.00000E+00
         0.00000E+00
         0.00000E+00
         0.00000E+00
         0.00000E+00
         0.00000E+00
         0.00000E+00
         0.00000E+00
         0.00000E+00
         0.00000E+00
         0.00000E+00
         0.00000E+00
         0.00000E+00
         0.00000E+00
         0.00000E+00
         0.00000E+00
         0.00000E+00
         0.00000E+00
         0.00000E+00
         0.00000E+00
         0.00000E+00
         0.00000E+00
         0.00000E+00
         0.00000E+00
         0.00000E+00
         0.00000E+00
         0.00000E+00
         0.00000E+00
         0.00000E+00
         0.00000E+00
         0.00000E+00
         0.00000E+00
         0.00000E+00
         0.00000E+00
         0.00000E+00
         0.00000E+00
         0.00000E+00
         0.00000E+00
         0.00000E+00
         0.00000E+00
         0.00000E+00
         0.00000E+00
         0.00000E+00
         0.00000E+00
         0.00000E+00
         0.00000E+00
         0.00000E+00
         0.00000E+00
         0.00000E+00
         0.00000E+00
         0.00000E+00
         0.00000E+00
         0.00000E+00
         0.00000E+00
         0.00000E+00
         0.00000E+00
         0.00000E+00
         0.00000E+00
         0.00000E+00
         0.00000E+00
         0.00000E+00
         0.00000E+00
         0.00000E+00
         0.00000E+00
         0.00000E+00
         0.00000E+00
         0.00000E+00
         0.00000E+00
         0.00000E+00
         0.00000E+00
         0.00000E+00
         0.00000E+00
         0.00000E+00
         0.00000E+00
         0.00000E+00
         0.00000E+00
         0.00000E+00
         0.00000E+00
         0.00000E+00
         0.00000E+00
         0.00000E+00
         0.00000E+00
         0.00000E+00
         0.00000E+00
         0.00000E+00
         0.00000E+00
         0.00000E+00
         0.00000E+00
         0.00000E+00
         0.00000E+00
         0.00000E+00
         0.00000E+00
         0.00000E+00
         0.00000E+00
         0.00000E+00
         0.00000E+00
         0.00000E+00
         0.00000E+00
         0.00000E+00
         0.00000E+00
         0.00000E+00
         0.00000E+00
         0.00000E+00
         0.00000E+00
         0.00000E+00
         0.00000E+00
         0.00000E+00
         0.00000E+00
         0.00000E+00
         0.00000E+00
         0.00000E+00
         0.00000E+00
         0.00000E+00
         0.00000E+00
         0.00000E+00
         0.00000E+00
         0.00000E+00
         0.00000E+00
         0.00000E+00
         0.00000E+00
         0.00000E+00
         0.00000E+00
         0.00000E+00
         0.00000E+00
         0.00000E+00
         0.00000E+00
         0.00000E+00
         0.00000E+00
         0.00000E+00
         0.00000E+00
         0.00000E+00
         0.00000E+00
         0.00000E+00
         0.00000E+00
         0.00000E+00
         0.00000E+00
         0.00000E+00
         0.00000E+00
         0.00000E+00
         0.00000E+00
         0.00000E+00
         0.00000E+00
         0.00000E+00
         0.00000E+00
         0.00000E+00
         0.00000E+00
         0.00000E+00
         0.00000E+00
         0.00000E+00
         0.00000E+00
         0.00000E+00
         0.00000E+00
         0.00000E+00
         0.00000E+00
         0.00000E+00
         0.00000E+00
         0.00000E+00
         0.00000E+00
         0.00000E+00
         0.00000E+00
         0.00000E+00
         0.00000E+00
         0.00000E+00
         0.00000E+00
         0.00000E+00
         0.00000E+00
         0.00000E+00
         0.00000E+00
         0.00000E+00
         0.00000E+00
         0.00000E+00
         0.00000E+00
         0.00000E+00
         0.00000E+00
         0.00000E+00
         0.00000E+00
         0.00000E+00
         0.00000E+00
         0.00000E+00
         0.00000E+00
         0.00000E+00
         0.00000E+00
         0.00000E+00
         0.00000E+00
         0.00000E+00
         0.00000E+00
         0.00000E+00
         0.00000E+00
         0.00000E+00
         0.00000E+00
         0.00000E+00
         0.00000E+00
         0.00000E+00
         0.00000E+00
         0.00000E+00
         0.00000E+00
         0.00000E+00
         0.00000E+00
         0.00000E+00
         0.00000E+00
         0.00000E+00
         0.00000E+00
         0.00000E+00
         0.00000E+00
         0.00000E+00
         0.00000E+00
         0.00000E+00
         0.00000E+00
         0.00000E+00
         0.00000E+00
         0.00000E+00
         0.00000E+00
         0.00000E+00
         0.00000E+00
         0.00000E+00
         0.00000E+00
         0.00000E+00
         0.00000E+00
         0.00000E+00
         0.00000E+00
         0.00000E+00
         0.00000E+00
         0.00000E+00
         0.00000E+00
         0.00000E+00
         0.00000E+00
         0.00000E+00
         0.00000E+00
         0.00000E+00
         0.00000E+00
         0.00000E+00
         0.00000E+00
         0.00000E+00
         0.00000E+00
         0.00000E+00
         0.00000E+00
         0.00000E+00
         0.00000E+00
         0.00000E+00
         0.00000E+00
         0.00000E+00
         0.00000E+00
         0.00000E+00
         0.00000E+00
         0.00000E+00
         0.00000E+00
         0.00000E+00
         0.00000E+00
         0.00000E+00
         0.00000E+00
         0.00000E+00
         0.00000E+00
         0.00000E+00
         0.00000E+00
         0.00000E+00
         0.00000E+00
         0.00000E+00
         0.00000E+00
         0.00000E+00
         0.00000E+00
         0.00000E+00
         0.00000E+00
         0.00000E+00
         0.00000E+00
         0.00000E+00
         0.00000E+00
         0.00000E+00
         0.00000E+00
         0.00000E+00
         0.00000E+00
         0.00000E+00
         0.00000E+00
         0.00000E+00
         0.00000E+00
         0.00000E+00
         0.00000E+00
         0.00000E+00
         0.00000E+00
         0.00000E+00
         0.00000E+00
         0.00000E+00
         0.00000E+00
         0.00000E+00
         0.00000E+00
         0.00000E+00
         0.00000E+00
         0.00000E+00
         0.00000E+00
         0.00000E+00
         0.00000E+00
         0.00000E+00
         0.00000E+00
         0.00000E+00
         0.00000E+00
         0.00000E+00
         0.00000E+00
         0.00000E+00
         0.00000E+00
         0.00000E+00
         0.00000E+00
         0.00000E+00
         0.00000E+00
         0.00000E+00
         0.00000E+00
         0.00000E+00
         0.00000E+00
         0.00000E+00
         0.00000E+00
         0.00000E+00
         0.00000E+00
         0.00000E+00
         0.00000E+00
         0.00000E+00
         0.00000E+00
         0.00000E+00
         0.00000E+00
         0.00000E+00
         0.00000E+00
         0.00000E+00
         0.00000E+00
         0.00000E+00
         0.00000E+00
         0.00000E+00
         0.00000E+00
         0.00000E+00
         0.00000E+00
         0.00000E+00
         0.00000E+00
         0.00000E+00
         0.00000E+00
         0.00000E+00
         0.00000E+00
         0.00000E+00
         0.00000E+00
         0.00000E+00
         0.00000E+00
         0.00000E+00
         0.00000E+00
         0.00000E+00
         0.00000E+00
         0.00000E+00
         0.00000E+00
         0.00000E+00
         0.00000E+00
         0.00000E+00
         0.00000E+00
         0.00000E+00
         0.00000E+00
         0.00000E+00
         0.00000E+00
         0.00000E+00
         0.00000E+00
         0.00000E+00
         0.00000E+00
         0.00000E+00
         0.00000E+00
         0.00000E+00
         0.00000E+00
         0.00000E+00
         0.00000E+00
         0.00000E+00
         0.00000E+00
         0.00000E+00
         0.00000E+00
         0.00000E+00
         0.00000E+00
         0.00000E+00
         0.00000E+00
         0.00000E+00
         0.00000E+00
         0.00000E+00
         0.00000E+00
         0.00000E+00
         0.00000E+00
         0.00000E+00
         0.00000E+00
         0.00000E+00
         0.00000E+00
         0.00000E+00
         0.00000E+00
         0.00000E+00
         0.00000E+00
         0.00000E+00
         0.00000E+00
         0.00000E+00
         0.00000E+00
         0.00000E+00
         0.00000E+00
         0.00000E+00
         0.00000E+00
         0.00000E+00
         0.00000E+00
         0.00000E+00
         0.00000E+00
         0.00000E+00
         0.00000E+00
         0.00000E+00
         0.00000E+00
         0.00000E+00
         0.00000E+00
         0.00000E+00
         0.00000E+00
         0.00000E+00
         0.00000E+00
         0.00000E+00
         0.00000E+00
         0.00000E+00
         0.00000E+00
         0.00000E+00
         0.00000E+00
         0.00000E+00
         0.00000E+00
         0.00000E+00
         0.00000E+00
         0.00000E+00
         0.00000E+00
         0.00000E+00
         0.00000E+00
         0.00000E+00
         0.00000E+00
         0.00000E+00
         0.00000E+00
         0.00000E+00
         0.00000E+00
         0.00000E+00
         0.00000E+00
         0.00000E+00
         0.00000E+00
         0.00000E+00
         0.00000E+00
         0.00000E+00
         0.00000E+00
         0.00000E+00
         0.00000E+00
         0.00000E+00
         0.00000E+00
         0.00000E+00
         0.00000E+00
         0.00000E+00
         0.00000E+00
         0.00000E+00
         0.00000E+00
  
SCALARS                 acceleration_y  double 1
LOOKUP_TABLE default
         0.00000E+00
         0.00000E+00
         0.00000E+00
         0.00000E+00
         0.00000E+00
         0.00000E+00
         0.00000E+00
         0.00000E+00
         0.00000E+00
         0.00000E+00
         0.00000E+00
         0.00000E+00
         0.00000E+00
         0.00000E+00
         0.00000E+00
         0.00000E+00
         0.00000E+00
         0.00000E+00
         0.00000E+00
         0.00000E+00
         0.00000E+00
         0.00000E+00
         0.00000E+00
         0.00000E+00
         0.00000E+00
         0.00000E+00
         0.00000E+00
         0.00000E+00
         0.00000E+00
         0.00000E+00
         0.00000E+00
         0.00000E+00
         0.00000E+00
         0.00000E+00
         0.00000E+00
         0.00000E+00
         0.00000E+00
         0.00000E+00
         0.00000E+00
         0.00000E+00
         0.00000E+00
         0.00000E+00
         0.00000E+00
         0.00000E+00
         0.00000E+00
         0.00000E+00
         0.00000E+00
         0.00000E+00
         0.00000E+00
         0.00000E+00
         0.00000E+00
         0.00000E+00
         0.00000E+00
         0.00000E+00
         0.00000E+00
         0.00000E+00
         0.00000E+00
         0.00000E+00
         0.00000E+00
         0.00000E+00
         0.00000E+00
         0.00000E+00
         0.00000E+00
         0.00000E+00
         0.00000E+00
         0.00000E+00
         0.00000E+00
         0.00000E+00
         0.00000E+00
         0.00000E+00
         0.00000E+00
         0.00000E+00
         0.00000E+00
         0.00000E+00
         0.00000E+00
         0.00000E+00
         0.00000E+00
         0.00000E+00
         0.00000E+00
         0.00000E+00
         0.00000E+00
         0.00000E+00
         0.00000E+00
         0.00000E+00
         0.00000E+00
         0.00000E+00
         0.00000E+00
         0.00000E+00
         0.00000E+00
         0.00000E+00
         0.00000E+00
         0.00000E+00
         0.00000E+00
         0.00000E+00
         0.00000E+00
         0.00000E+00
         0.00000E+00
         0.00000E+00
         0.00000E+00
         0.00000E+00
         0.00000E+00
         0.00000E+00
         0.00000E+00
         0.00000E+00
         0.00000E+00
         0.00000E+00
         0.00000E+00
         0.00000E+00
         0.00000E+00
         0.00000E+00
         0.00000E+00
         0.00000E+00
         0.00000E+00
         0.00000E+00
         0.00000E+00
         0.00000E+00
         0.00000E+00
         0.00000E+00
         0.00000E+00
         0.00000E+00
         0.00000E+00
         0.00000E+00
         0.00000E+00
         0.00000E+00
         0.00000E+00
         0.00000E+00
         0.00000E+00
         0.00000E+00
         0.00000E+00
         0.00000E+00
         0.00000E+00
         0.00000E+00
         0.00000E+00
         0.00000E+00
         0.00000E+00
         0.00000E+00
         0.00000E+00
         0.00000E+00
         0.00000E+00
         0.00000E+00
         0.00000E+00
         0.00000E+00
         0.00000E+00
         0.00000E+00
         0.00000E+00
         0.00000E+00
         0.00000E+00
         0.00000E+00
         0.00000E+00
         0.00000E+00
         0.00000E+00
         0.00000E+00
         0.00000E+00
         0.00000E+00
         0.00000E+00
         0.00000E+00
         0.00000E+00
         0.00000E+00
         0.00000E+00
         0.00000E+00
         0.00000E+00
         0.00000E+00
         0.00000E+00
         0.00000E+00
         0.00000E+00
         0.00000E+00
         0.00000E+00
         0.00000E+00
         0.00000E+00
         0.00000E+00
         0.00000E+00
         0.00000E+00
         0.00000E+00
         0.00000E+00
         0.00000E+00
         0.00000E+00
         0.00000E+00
         0.00000E+00
         0.00000E+00
         0.00000E+00
         0.00000E+00
         0.00000E+00
         0.00000E+00
         0.00000E+00
         0.00000E+00
         0.00000E+00
         0.00000E+00
         0.00000E+00
         0.00000E+00
         0.00000E+00
         0.00000E+00
         0.00000E+00
         0.00000E+00
         0.00000E+00
         0.00000E+00
         0.00000E+00
         0.00000E+00
         0.00000E+00
         0.00000E+00
         0.00000E+00
         0.00000E+00
         0.00000E+00
         0.00000E+00
         0.00000E+00
         0.00000E+00
         0.00000E+00
         0.00000E+00
         0.00000E+00
         0.00000E+00
         0.00000E+00
         0.00000E+00
         0.00000E+00
         0.00000E+00
         0.00000E+00
         0.00000E+00
         0.00000E+00
         0.00000E+00
         0.00000E+00
         0.00000E+00
         0.00000E+00
         0.00000E+00
         0.00000E+00
         0.00000E+00
         0.00000E+00
         0.00000E+00
         0.00000E+00
         0.00000E+00
         0.00000E+00
         0.00000E+00
         0.00000E+00
         0.00000E+00
         0.00000E+00
         0.00000E+00
         0.00000E+00
         0.00000E+00
         0.00000E+00
         0.00000E+00
         0.00000E+00
         0.00000E+00
         0.00000E+00
         0.00000E+00
         0.00000E+00
         0.00000E+00
         0.00000E+00
         0.00000E+00
         0.00000E+00
         0.00000E+00
         0.00000E+00
         0.00000E+00
         0.00000E+00
         0.00000E+00
         0.00000E+00
         0.00000E+00
         0.00000E+00
         0.00000E+00
         0.00000E+00
         0.00000E+00
         0.00000E+00
         0.00000E+00
         0.00000E+00
         0.00000E+00
         0.00000E+00
         0.00000E+00
         0.00000E+00
         0.00000E+00
         0.00000E+00
         0.00000E+00
         0.00000E+00
         0.00000E+00
         0.00000E+00
         0.00000E+00
         0.00000E+00
         0.00000E+00
         0.00000E+00
         0.00000E+00
         0.00000E+00
         0.00000E+00
         0.00000E+00
         0.00000E+00
         0.00000E+00
         0.00000E+00
         0.00000E+00
         0.00000E+00
         0.00000E+00
         0.00000E+00
         0.00000E+00
         0.00000E+00
         0.00000E+00
         0.00000E+00
         0.00000E+00
         0.00000E+00
         0.00000E+00
         0.00000E+00
         0.00000E+00
         0.00000E+00
         0.00000E+00
         0.00000E+00
         0.00000E+00
         0.00000E+00
         0.00000E+00
         0.00000E+00
         0.00000E+00
         0.00000E+00
         0.00000E+00
         0.00000E+00
         0.00000E+00
         0.00000E+00
         0.00000E+00
         0.00000E+00
         0.00000E+00
         0.00000E+00
         0.00000E+00
         0.00000E+00
         0.00000E+00
         0.00000E+00
         0.00000E+00
         0.00000E+00
         0.00000E+00
         0.00000E+00
         0.00000E+00
         0.00000E+00
         0.00000E+00
         0.00000E+00
         0.00000E+00
         0.00000E+00
         0.00000E+00
         0.00000E+00
         0.00000E+00
         0.00000E+00
         0.00000E+00
         0.00000E+00
         0.00000E+00
         0.00000E+00
         0.00000E+00
         0.00000E+00
         0.00000E+00
         0.00000E+00
         0.00000E+00
         0.00000E+00
         0.00000E+00
         0.00000E+00
         0.00000E+00
         0.00000E+00
         0.00000E+00
         0.00000E+00
         0.00000E+00
         0.00000E+00
         0.00000E+00
         0.00000E+00
         0.00000E+00
         0.00000E+00
         0.00000E+00
         0.00000E+00
         0.00000E+00
         0.00000E+00
         0.00000E+00
         0.00000E+00
         0.00000E+00
         0.00000E+00
         0.00000E+00
         0.00000E+00
         0.00000E+00
         0.00000E+00
         0.00000E+00
         0.00000E+00
         0.00000E+00
         0.00000E+00
         0.00000E+00
         0.00000E+00
         0.00000E+00
         0.00000E+00
         0.00000E+00
         0.00000E+00
         0.00000E+00
         0.00000E+00
         0.00000E+00
         0.00000E+00
         0.00000E+00
         0.00000E+00
         0.00000E+00
         0.00000E+00
         0.00000E+00
         0.00000E+00
         0.00000E+00
         0.00000E+00
         0.00000E+00
         0.00000E+00
         0.00000E+00
         0.00000E+00
         0.00000E+00
         0.00000E+00
         0.00000E+00
         0.00000E+00
         0.00000E+00
         0.00000E+00
         0.00000E+00
         0.00000E+00
         0.00000E+00
         0.00000E+00
         0.00000E+00
         0.00000E+00
         0.00000E+00
         0.00000E+00
         0.00000E+00
         0.00000E+00
         0.00000E+00
         0.00000E+00
         0.00000E+00
         0.00000E+00
         0.00000E+00
         0.00000E+00
         0.00000E+00
         0.00000E+00
         0.00000E+00
         0.00000E+00
         0.00000E+00
         0.00000E+00
         0.00000E+00
         0.00000E+00
         0.00000E+00
         0.00000E+00
         0.00000E+00
         0.00000E+00
         0.00000E+00
         0.00000E+00
         0.00000E+00
         0.00000E+00
         0.00000E+00
         0.00000E+00
         0.00000E+00
         0.00000E+00
         0.00000E+00
         0.00000E+00
         0.00000E+00
         0.00000E+00
         0.00000E+00
         0.00000E+00
         0.00000E+00
         0.00000E+00
         0.00000E+00
         0.00000E+00
         0.00000E+00
         0.00000E+00
         0.00000E+00
         0.00000E+00
         0.00000E+00
         0.00000E+00
         0.00000E+00
         0.00000E+00
         0.00000E+00
         0.00000E+00
         0.00000E+00
         0.00000E+00
         0.00000E+00
         0.00000E+00
         0.00000E+00
         0.00000E+00
         0.00000E+00
         0.00000E+00
         0.00000E+00
         0.00000E+00
         0.00000E+00
         0.00000E+00
         0.00000E+00
         0.00000E+00
         0.00000E+00
         0.00000E+00
         0.00000E+00
         0.00000E+00
         0.00000E+00
         0.00000E+00
         0.00000E+00
         0.00000E+00
         0.00000E+00
         0.00000E+00
         0.00000E+00
         0.00000E+00
         0.00000E+00
         0.00000E+00
         0.00000E+00
         0.00000E+00
         0.00000E+00
         0.00000E+00
         0.00000E+00
         0.00000E+00
         0.00000E+00
         0.00000E+00
         0.00000E+00
         0.00000E+00
         0.00000E+00
         0.00000E+00
         0.00000E+00
         0.00000E+00
         0.00000E+00
         0.00000E+00
         0.00000E+00
         0.00000E+00
         0.00000E+00
         0.00000E+00
         0.00000E+00
         0.00000E+00
         0.00000E+00
         0.00000E+00
         0.00000E+00
         0.00000E+00
         0.00000E+00
         0.00000E+00
         0.00000E+00
         0.00000E+00
         0.00000E+00
         0.00000E+00
         0.00000E+00
         0.00000E+00
         0.00000E+00
         0.00000E+00
         0.00000E+00
         0.00000E+00
         0.00000E+00
         0.00000E+00
         0.00000E+00
         0.00000E+00
         0.00000E+00
         0.00000E+00
         0.00000E+00
         0.00000E+00
         0.00000E+00
         0.00000E+00
         0.00000E+00
         0.00000E+00
         0.00000E+00
         0.00000E+00
         0.00000E+00
         0.00000E+00
         0.00000E+00
         0.00000E+00
         0.00000E+00
         0.00000E+00
         0.00000E+00
         0.00000E+00
         0.00000E+00
         0.00000E+00
         0.00000E+00
         0.00000E+00
         0.00000E+00
         0.00000E+00
         0.00000E+00
         0.00000E+00
         0.00000E+00
         0.00000E+00
         0.00000E+00
         0.00000E+00
         0.00000E+00
         0.00000E+00
         0.00000E+00
         0.00000E+00
         0.00000E+00
         0.00000E+00
         0.00000E+00
         0.00000E+00
         0.00000E+00
         0.00000E+00
         0.00000E+00
         0.00000E+00
         0.00000E+00
         0.00000E+00
         0.00000E+00
         0.00000E+00
         0.00000E+00
         0.00000E+00
         0.00000E+00
         0.00000E+00
         0.00000E+00
         0.00000E+00
         0.00000E+00
         0.00000E+00
         0.00000E+00
         0.00000E+00
         0.00000E+00
         0.00000E+00
         0.00000E+00
         0.00000E+00
         0.00000E+00
         0.00000E+00
         0.00000E+00
         0.00000E+00
         0.00000E+00
         0.00000E+00
         0.00000E+00
         0.00000E+00
         0.00000E+00
         0.00000E+00
         0.00000E+00
         0.00000E+00
         0.00000E+00
         0.00000E+00
         0.00000E+00
         0.00000E+00
         0.00000E+00
         0.00000E+00
         0.00000E+00
         0.00000E+00
         0.00000E+00
         0.00000E+00
         0.00000E+00
         0.00000E+00
         0.00000E+00
         0.00000E+00
         0.00000E+00
         0.00000E+00
         0.00000E+00
         0.00000E+00
         0.00000E+00
         0.00000E+00
         0.00000E+00
         0.00000E+00
         0.00000E+00
         0.00000E+00
         0.00000E+00
         0.00000E+00
         0.00000E+00
         0.00000E+00
         0.00000E+00
         0.00000E+00
         0.00000E+00
         0.00000E+00
         0.00000E+00
         0.00000E+00
         0.00000E+00
         0.00000E+00
         0.00000E+00
         0.00000E+00
         0.00000E+00
         0.00000E+00
         0.00000E+00
         0.00000E+00
         0.00000E+00
         0.00000E+00
         0.00000E+00
         0.00000E+00
         0.00000E+00
         0.00000E+00
         0.00000E+00
         0.00000E+00
         0.00000E+00
         0.00000E+00
         0.00000E+00
         0.00000E+00
         0.00000E+00
         0.00000E+00
         0.00000E+00
         0.00000E+00
         0.00000E+00
         0.00000E+00
         0.00000E+00
         0.00000E+00
         0.00000E+00
         0.00000E+00
         0.00000E+00
         0.00000E+00
         0.00000E+00
         0.00000E+00
         0.00000E+00
         0.00000E+00
         0.00000E+00
         0.00000E+00
         0.00000E+00
         0.00000E+00
         0.00000E+00
         0.00000E+00
         0.00000E+00
         0.00000E+00
         0.00000E+00
         0.00000E+00
         0.00000E+00
         0.00000E+00
         0.00000E+00
         0.00000E+00
         0.00000E+00
         0.00000E+00
         0.00000E+00
         0.00000E+00
         0.00000E+00
         0.00000E+00
         0.00000E+00
         0.00000E+00
         0.00000E+00
         0.00000E+00
         0.00000E+00
         0.00000E+00
         0.00000E+00
         0.00000E+00
         0.00000E+00
         0.00000E+00
         0.00000E+00
         0.00000E+00
         0.00000E+00
         0.00000E+00
         0.00000E+00
         0.00000E+00
         0.00000E+00
         0.00000E+00
         0.00000E+00
         0.00000E+00
         0.00000E+00
         0.00000E+00
         0.00000E+00
         0.00000E+00
         0.00000E+00
         0.00000E+00
         0.00000E+00
         0.00000E+00
         0.00000E+00
         0.00000E+00
         0.00000E+00
         0.00000E+00
         0.00000E+00
         0.00000E+00
         0.00000E+00
         0.00000E+00
         0.00000E+00
         0.00000E+00
         0.00000E+00
         0.00000E+00
         0.00000E+00
         0.00000E+00
         0.00000E+00
         0.00000E+00
         0.00000E+00
         0.00000E+00
         0.00000E+00
         0.00000E+00
         0.00000E+00
         0.00000E+00
         0.00000E+00
         0.00000E+00
         0.00000E+00
         0.00000E+00
         0.00000E+00
         0.00000E+00
         0.00000E+00
         0.00000E+00
         0.00000E+00
         0.00000E+00
         0.00000E+00
         0.00000E+00
         0.00000E+00
         0.00000E+00
         0.00000E+00
         0.00000E+00
         0.00000E+00
         0.00000E+00
         0.00000E+00
         0.00000E+00
         0.00000E+00
         0.00000E+00
         0.00000E+00
         0.00000E+00
         0.00000E+00
         0.00000E+00
         0.00000E+00
         0.00000E+00
         0.00000E+00
         0.00000E+00
         0.00000E+00
         0.00000E+00
         0.00000E+00
         0.00000E+00
         0.00000E+00
         0.00000E+00
         0.00000E+00
         0.00000E+00
         0.00000E+00
         0.00000E+00
         0.00000E+00
         0.00000E+00
         0.00000E+00
         0.00000E+00
         0.00000E+00
         0.00000E+00
         0.00000E+00
         0.00000E+00
         0.00000E+00
         0.00000E+00
         0.00000E+00
         0.00000E+00
         0.00000E+00
         0.00000E+00
         0.00000E+00
         0.00000E+00
         0.00000E+00
         0.00000E+00
         0.00000E+00
         0.00000E+00
         0.00000E+00
         0.00000E+00
         0.00000E+00
         0.00000E+00
         0.00000E+00
         0.00000E+00
         0.00000E+00
         0.00000E+00
         0.00000E+00
         0.00000E+00
         0.00000E+00
         0.00000E+00
         0.00000E+00
         0.00000E+00
         0.00000E+00
         0.00000E+00
         0.00000E+00
         0.00000E+00
         0.00000E+00
         0.00000E+00
         0.00000E+00
         0.00000E+00
         0.00000E+00
         0.00000E+00
         0.00000E+00
         0.00000E+00
         0.00000E+00
         0.00000E+00
         0.00000E+00
         0.00000E+00
         0.00000E+00
         0.00000E+00
         0.00000E+00
         0.00000E+00
         0.00000E+00
         0.00000E+00
         0.00000E+00
         0.00000E+00
         0.00000E+00
         0.00000E+00
         0.00000E+00
         0.00000E+00
         0.00000E+00
         0.00000E+00
         0.00000E+00
         0.00000E+00
         0.00000E+00
         0.00000E+00
         0.00000E+00
         0.00000E+00
         0.00000E+00
         0.00000E+00
         0.00000E+00
         0.00000E+00
         0.00000E+00
         0.00000E+00
         0.00000E+00
         0.00000E+00
         0.00000E+00
         0.00000E+00
         0.00000E+00
         0.00000E+00
         0.00000E+00
         0.00000E+00
         0.00000E+00
         0.00000E+00
         0.00000E+00
         0.00000E+00
         0.00000E+00
         0.00000E+00
         0.00000E+00
         0.00000E+00
         0.00000E+00
         0.00000E+00
         0.00000E+00
         0.00000E+00
         0.00000E+00
         0.00000E+00
         0.00000E+00
         0.00000E+00
         0.00000E+00
         0.00000E+00
         0.00000E+00
         0.00000E+00
         0.00000E+00
         0.00000E+00
         0.00000E+00
         0.00000E+00
         0.00000E+00
         0.00000E+00
         0.00000E+00
         0.00000E+00
         0.00000E+00
         0.00000E+00
         0.00000E+00
         0.00000E+00
         0.00000E+00
         0.00000E+00
         0.00000E+00
         0.00000E+00
         0.00000E+00
         0.00000E+00
         0.00000E+00
         0.00000E+00
         0.00000E+00
         0.00000E+00
         0.00000E+00
         0.00000E+00
         0.00000E+00
         0.00000E+00
         0.00000E+00
         0.00000E+00
         0.00000E+00
         0.00000E+00
         0.00000E+00
         0.00000E+00
         0.00000E+00
         0.00000E+00
         0.00000E+00
         0.00000E+00
         0.00000E+00
         0.00000E+00
         0.00000E+00
         0.00000E+00
         0.00000E+00
         0.00000E+00
         0.00000E+00
         0.00000E+00
         0.00000E+00
         0.00000E+00
         0.00000E+00
         0.00000E+00
         0.00000E+00
         0.00000E+00
         0.00000E+00
         0.00000E+00
         0.00000E+00
         0.00000E+00
         0.00000E+00
         0.00000E+00
         0.00000E+00
         0.00000E+00
         0.00000E+00
         0.00000E+00
         0.00000E+00
         0.00000E+00
         0.00000E+00
         0.00000E+00
         0.00000E+00
         0.00000E+00
         0.00000E+00
         0.00000E+00
         0.00000E+00
         0.00000E+00
         0.00000E+00
         0.00000E+00
         0.00000E+00
         0.00000E+00
         0.00000E+00
         0.00000E+00
         0.00000E+00
         0.00000E+00
         0.00000E+00
         0.00000E+00
         0.00000E+00
         0.00000E+00
         0.00000E+00
         0.00000E+00
         0.00000E+00
         0.00000E+00
         0.00000E+00
         0.00000E+00
         0.00000E+00
         0.00000E+00
         0.00000E+00
         0.00000E+00
         0.00000E+00
         0.00000E+00
         0.00000E+00
         0.00000E+00
         0.00000E+00
         0.00000E+00
         0.00000E+00
         0.00000E+00
         0.00000E+00
         0.00000E+00
         0.00000E+00
         0.00000E+00
         0.00000E+00
         0.00000E+00
         0.00000E+00
         0.00000E+00
         0.00000E+00
         0.00000E+00
         0.00000E+00
         0.00000E+00
         0.00000E+00
         0.00000E+00
         0.00000E+00
         0.00000E+00
         0.00000E+00
         0.00000E+00
         0.00000E+00
         0.00000E+00
         0.00000E+00
         0.00000E+00
         0.00000E+00
         0.00000E+00
         0.00000E+00
         0.00000E+00
         0.00000E+00
         0.00000E+00
         0.00000E+00
         0.00000E+00
         0.00000E+00
         0.00000E+00
         0.00000E+00
         0.00000E+00
         0.00000E+00
         0.00000E+00
         0.00000E+00
         0.00000E+00
         0.00000E+00
         0.00000E+00
         0.00000E+00
         0.00000E+00
         0.00000E+00
         0.00000E+00
         0.00000E+00
         0.00000E+00
         0.00000E+00
         0.00000E+00
         0.00000E+00
         0.00000E+00
         0.00000E+00
         0.00000E+00
         0.00000E+00
         0.00000E+00
         0.00000E+00
         0.00000E+00
         0.00000E+00
         0.00000E+00
         0.00000E+00
         0.00000E+00
         0.00000E+00
         0.00000E+00
         0.00000E+00
         0.00000E+00
         0.00000E+00
         0.00000E+00
         0.00000E+00
         0.00000E+00
         0.00000E+00
         0.00000E+00
         0.00000E+00
         0.00000E+00
         0.00000E+00
         0.00000E+00
         0.00000E+00
         0.00000E+00
         0.00000E+00
         0.00000E+00
         0.00000E+00
         0.00000E+00
         0.00000E+00
         0.00000E+00
         0.00000E+00
         0.00000E+00
         0.00000E+00
         0.00000E+00
         0.00000E+00
         0.00000E+00
         0.00000E+00
         0.00000E+00
         0.00000E+00
         0.00000E+00
         0.00000E+00
         0.00000E+00
         0.00000E+00
         0.00000E+00
         0.00000E+00
         0.00000E+00
         0.00000E+00
         0.00000E+00
         0.00000E+00
         0.00000E+00
         0.00000E+00
         0.00000E+00
         0.00000E+00
         0.00000E+00
         0.00000E+00
         0.00000E+00
         0.00000E+00
         0.00000E+00
         0.00000E+00
         0.00000E+00
         0.00000E+00
         0.00000E+00
         0.00000E+00
         0.00000E+00
         0.00000E+00
         0.00000E+00
         0.00000E+00
         0.00000E+00
         0.00000E+00
         0.00000E+00
         0.00000E+00
         0.00000E+00
         0.00000E+00
         0.00000E+00
         0.00000E+00
         0.00000E+00
         0.00000E+00
         0.00000E+00
         0.00000E+00
         0.00000E+00
         0.00000E+00
         0.00000E+00
         0.00000E+00
         0.00000E+00
         0.00000E+00
         0.00000E+00
         0.00000E+00
         0.00000E+00
         0.00000E+00
         0.00000E+00
         0.00000E+00
         0.00000E+00
         0.00000E+00
         0.00000E+00
         0.00000E+00
         0.00000E+00
         0.00000E+00
         0.00000E+00
         0.00000E+00
         0.00000E+00
         0.00000E+00
         0.00000E+00
         0.00000E+00
         0.00000E+00
         0.00000E+00
         0.00000E+00
         0.00000E+00
         0.00000E+00
         0.00000E+00
         0.00000E+00
         0.00000E+00
         0.00000E+00
         0.00000E+00
         0.00000E+00
         0.00000E+00
         0.00000E+00
         0.00000E+00
         0.00000E+00
         0.00000E+00
         0.00000E+00
         0.00000E+00
         0.00000E+00
         0.00000E+00
         0.00000E+00
         0.00000E+00
         0.00000E+00
         0.00000E+00
         0.00000E+00
         0.00000E+00
         0.00000E+00
         0.00000E+00
         0.00000E+00
         0.00000E+00
         0.00000E+00
         0.00000E+00
         0.00000E+00
         0.00000E+00
         0.00000E+00
         0.00000E+00
         0.00000E+00
         0.00000E+00
         0.00000E+00
         0.00000E+00
         0.00000E+00
         0.00000E+00
         0.00000E+00
         0.00000E+00
         0.00000E+00
         0.00000E+00
         0.00000E+00
         0.00000E+00
         0.00000E+00
         0.00000E+00
         0.00000E+00
         0.00000E+00
         0.00000E+00
         0.00000E+00
         0.00000E+00
         0.00000E+00
         0.00000E+00
         0.00000E+00
         0.00000E+00
         0.00000E+00
         0.00000E+00
         0.00000E+00
         0.00000E+00
         0.00000E+00
         0.00000E+00
         0.00000E+00
         0.00000E+00
         0.00000E+00
         0.00000E+00
         0.00000E+00
         0.00000E+00
         0.00000E+00
         0.00000E+00
         0.00000E+00
         0.00000E+00
         0.00000E+00
         0.00000E+00
         0.00000E+00
         0.00000E+00
         0.00000E+00
         0.00000E+00
         0.00000E+00
         0.00000E+00
         0.00000E+00
         0.00000E+00
         0.00000E+00
         0.00000E+00
         0.00000E+00
         0.00000E+00
         0.00000E+00
         0.00000E+00
         0.00000E+00
         0.00000E+00
         0.00000E+00
         0.00000E+00
         0.00000E+00
         0.00000E+00
         0.00000E+00
         0.00000E+00
         0.00000E+00
         0.00000E+00
         0.00000E+00
         0.00000E+00
         0.00000E+00
         0.00000E+00
         0.00000E+00
         0.00000E+00
         0.00000E+00
         0.00000E+00
         0.00000E+00
         0.00000E+00
         0.00000E+00
         0.00000E+00
         0.00000E+00
         0.00000E+00
         0.00000E+00
         0.00000E+00
         0.00000E+00
         0.00000E+00
         0.00000E+00
         0.00000E+00
         0.00000E+00
         0.00000E+00
         0.00000E+00
         0.00000E+00
         0.00000E+00
         0.00000E+00
         0.00000E+00
         0.00000E+00
         0.00000E+00
         0.00000E+00
         0.00000E+00
         0.00000E+00
         0.00000E+00
         0.00000E+00
         0.00000E+00
         0.00000E+00
         0.00000E+00
         0.00000E+00
         0.00000E+00
         0.00000E+00
         0.00000E+00
         0.00000E+00
         0.00000E+00
         0.00000E+00
         0.00000E+00
         0.00000E+00
         0.00000E+00
         0.00000E+00
         0.00000E+00
         0.00000E+00
         0.00000E+00
         0.00000E+00
         0.00000E+00
         0.00000E+00
         0.00000E+00
         0.00000E+00
         0.00000E+00
         0.00000E+00
         0.00000E+00
         0.00000E+00
         0.00000E+00
         0.00000E+00
         0.00000E+00
         0.00000E+00
         0.00000E+00
         0.00000E+00
         0.00000E+00
         0.00000E+00
         0.00000E+00
         0.00000E+00
         0.00000E+00
         0.00000E+00
         0.00000E+00
         0.00000E+00
         0.00000E+00
         0.00000E+00
         0.00000E+00
         0.00000E+00
         0.00000E+00
         0.00000E+00
         0.00000E+00
         0.00000E+00
         0.00000E+00
         0.00000E+00
         0.00000E+00
         0.00000E+00
         0.00000E+00
         0.00000E+00
         0.00000E+00
         0.00000E+00
         0.00000E+00
         0.00000E+00
         0.00000E+00
         0.00000E+00
         0.00000E+00
         0.00000E+00
         0.00000E+00
         0.00000E+00
         0.00000E+00
         0.00000E+00
         0.00000E+00
         0.00000E+00
         0.00000E+00
         0.00000E+00
         0.00000E+00
         0.00000E+00
         0.00000E+00
         0.00000E+00
         0.00000E+00
         0.00000E+00
         0.00000E+00
         0.00000E+00
         0.00000E+00
         0.00000E+00
         0.00000E+00
         0.00000E+00
         0.00000E+00
         0.00000E+00
         0.00000E+00
         0.00000E+00
         0.00000E+00
         0.00000E+00
         0.00000E+00
         0.00000E+00
         0.00000E+00
         0.00000E+00
         0.00000E+00
         0.00000E+00
         0.00000E+00
         0.00000E+00
         0.00000E+00
         0.00000E+00
         0.00000E+00
         0.00000E+00
         0.00000E+00
         0.00000E+00
         0.00000E+00
         0.00000E+00
         0.00000E+00
         0.00000E+00
         0.00000E+00
         0.00000E+00
         0.00000E+00
         0.00000E+00
         0.00000E+00
         0.00000E+00
         0.00000E+00
         0.00000E+00
         0.00000E+00
         0.00000E+00
         0.00000E+00
         0.00000E+00
         0.00000E+00
         0.00000E+00
         0.00000E+00
         0.00000E+00
         0.00000E+00
         0.00000E+00
         0.00000E+00
         0.00000E+00
         0.00000E+00
         0.00000E+00
         0.00000E+00
         0.00000E+00
         0.00000E+00
         0.00000E+00
         0.00000E+00
         0.00000E+00
         0.00000E+00
         0.00000E+00
         0.00000E+00
         0.00000E+00
         0.00000E+00
         0.00000E+00
         0.00000E+00
         0.00000E+00
         0.00000E+00
         0.00000E+00
         0.00000E+00
         0.00000E+00
         0.00000E+00
         0.00000E+00
         0.00000E+00
         0.00000E+00
         0.00000E+00
         0.00000E+00
         0.00000E+00
         0.00000E+00
         0.00000E+00
         0.00000E+00
         0.00000E+00
         0.00000E+00
         0.00000E+00
         0.00000E+00
         0.00000E+00
         0.00000E+00
         0.00000E+00
         0.00000E+00
         0.00000E+00
         0.00000E+00
         0.00000E+00
         0.00000E+00
         0.00000E+00
         0.00000E+00
         0.00000E+00
         0.00000E+00
         0.00000E+00
         0.00000E+00
         0.00000E+00
         0.00000E+00
         0.00000E+00
         0.00000E+00
         0.00000E+00
         0.00000E+00
         0.00000E+00
         0.00000E+00
         0.00000E+00
         0.00000E+00
         0.00000E+00
         0.00000E+00
         0.00000E+00
         0.00000E+00
         0.00000E+00
         0.00000E+00
         0.00000E+00
         0.00000E+00
         0.00000E+00
         0.00000E+00
         0.00000E+00
         0.00000E+00
         0.00000E+00
         0.00000E+00
         0.00000E+00
         0.00000E+00
         0.00000E+00
         0.00000E+00
         0.00000E+00
         0.00000E+00
         0.00000E+00
         0.00000E+00
         0.00000E+00
         0.00000E+00
         0.00000E+00
         0.00000E+00
         0.00000E+00
         0.00000E+00
         0.00000E+00
         0.00000E+00
         0.00000E+00
         0.00000E+00
         0.00000E+00
         0.00000E+00
         0.00000E+00
         0.00000E+00
         0.00000E+00
         0.00000E+00
         0.00000E+00
         0.00000E+00
         0.00000E+00
         0.00000E+00
         0.00000E+00
         0.00000E+00
         0.00000E+00
         0.00000E+00
         0.00000E+00
         0.00000E+00
         0.00000E+00
         0.00000E+00
         0.00000E+00
         0.00000E+00
         0.00000E+00
         0.00000E+00
         0.00000E+00
         0.00000E+00
         0.00000E+00
         0.00000E+00
         0.00000E+00
         0.00000E+00
         0.00000E+00
         0.00000E+00
         0.00000E+00
         0.00000E+00
         0.00000E+00
         0.00000E+00
         0.00000E+00
         0.00000E+00
         0.00000E+00
         0.00000E+00
         0.00000E+00
         0.00000E+00
         0.00000E+00
         0.00000E+00
         0.00000E+00
         0.00000E+00
         0.00000E+00
         0.00000E+00
         0.00000E+00
         0.00000E+00
         0.00000E+00
         0.00000E+00
         0.00000E+00
         0.00000E+00
         0.00000E+00
         0.00000E+00
         0.00000E+00
         0.00000E+00
         0.00000E+00
         0.00000E+00
         0.00000E+00
         0.00000E+00
         0.00000E+00
         0.00000E+00
         0.00000E+00
         0.00000E+00
         0.00000E+00
         0.00000E+00
         0.00000E+00
         0.00000E+00
         0.00000E+00
         0.00000E+00
         0.00000E+00
         0.00000E+00
         0.00000E+00
         0.00000E+00
         0.00000E+00
         0.00000E+00
         0.00000E+00
         0.00000E+00
         0.00000E+00
         0.00000E+00
         0.00000E+00
         0.00000E+00
         0.00000E+00
         0.00000E+00
         0.00000E+00
         0.00000E+00
         0.00000E+00
         0.00000E+00
         0.00000E+00
         0.00000E+00
         0.00000E+00
         0.00000E+00
         0.00000E+00
         0.00000E+00
         0.00000E+00
         0.00000E+00
         0.00000E+00
         0.00000E+00
         0.00000E+00
         0.00000E+00
         0.00000E+00
         0.00000E+00
         0.00000E+00
         0.00000E+00
         0.00000E+00
         0.00000E+00
         0.00000E+00
         0.00000E+00
         0.00000E+00
         0.00000E+00
         0.00000E+00
         0.00000E+00
         0.00000E+00
         0.00000E+00
         0.00000E+00
         0.00000E+00
         0.00000E+00
         0.00000E+00
         0.00000E+00
         0.00000E+00
         0.00000E+00
         0.00000E+00
         0.00000E+00
         0.00000E+00
         0.00000E+00
         0.00000E+00
         0.00000E+00
         0.00000E+00
         0.00000E+00
         0.00000E+00
         0.00000E+00
         0.00000E+00
         0.00000E+00
         0.00000E+00
         0.00000E+00
         0.00000E+00
         0.00000E+00
         0.00000E+00
         0.00000E+00
         0.00000E+00
         0.00000E+00
         0.00000E+00
         0.00000E+00
         0.00000E+00
         0.00000E+00
         0.00000E+00
         0.00000E+00
         0.00000E+00
         0.00000E+00
         0.00000E+00
         0.00000E+00
         0.00000E+00
         0.00000E+00
         0.00000E+00
         0.00000E+00
         0.00000E+00
         0.00000E+00
         0.00000E+00
         0.00000E+00
         0.00000E+00
         0.00000E+00
         0.00000E+00
         0.00000E+00
         0.00000E+00
         0.00000E+00
         0.00000E+00
         0.00000E+00
         0.00000E+00
         0.00000E+00
         0.00000E+00
         0.00000E+00
         0.00000E+00
         0.00000E+00
         0.00000E+00
         0.00000E+00
         0.00000E+00
         0.00000E+00
         0.00000E+00
         0.00000E+00
         0.00000E+00
         0.00000E+00
         0.00000E+00
         0.00000E+00
         0.00000E+00
         0.00000E+00
         0.00000E+00
         0.00000E+00
         0.00000E+00
         0.00000E+00
         0.00000E+00
         0.00000E+00
         0.00000E+00
         0.00000E+00
         0.00000E+00
         0.00000E+00
         0.00000E+00
         0.00000E+00
         0.00000E+00
         0.00000E+00
         0.00000E+00
         0.00000E+00
         0.00000E+00
         0.00000E+00
         0.00000E+00
         0.00000E+00
         0.00000E+00
         0.00000E+00
         0.00000E+00
         0.00000E+00
         0.00000E+00
         0.00000E+00
         0.00000E+00
         0.00000E+00
         0.00000E+00
         0.00000E+00
         0.00000E+00
         0.00000E+00
         0.00000E+00
         0.00000E+00
         0.00000E+00
         0.00000E+00
         0.00000E+00
         0.00000E+00
         0.00000E+00
         0.00000E+00
         0.00000E+00
         0.00000E+00
         0.00000E+00
         0.00000E+00
         0.00000E+00
         0.00000E+00
         0.00000E+00
         0.00000E+00
         0.00000E+00
         0.00000E+00
         0.00000E+00
         0.00000E+00
         0.00000E+00
         0.00000E+00
         0.00000E+00
         0.00000E+00
         0.00000E+00
         0.00000E+00
         0.00000E+00
         0.00000E+00
         0.00000E+00
         0.00000E+00
         0.00000E+00
         0.00000E+00
         0.00000E+00
         0.00000E+00
         0.00000E+00
         0.00000E+00
         0.00000E+00
         0.00000E+00
         0.00000E+00
         0.00000E+00
         0.00000E+00
         0.00000E+00
         0.00000E+00
         0.00000E+00
         0.00000E+00
         0.00000E+00
         0.00000E+00
         0.00000E+00
         0.00000E+00
         0.00000E+00
         0.00000E+00
         0.00000E+00
         0.00000E+00
         0.00000E+00
         0.00000E+00
         0.00000E+00
         0.00000E+00
         0.00000E+00
         0.00000E+00
         0.00000E+00
         0.00000E+00
         0.00000E+00
         0.00000E+00
         0.00000E+00
         0.00000E+00
         0.00000E+00
         0.00000E+00
         0.00000E+00
         0.00000E+00
         0.00000E+00
         0.00000E+00
         0.00000E+00
         0.00000E+00
         0.00000E+00
         0.00000E+00
         0.00000E+00
         0.00000E+00
         0.00000E+00
         0.00000E+00
         0.00000E+00
         0.00000E+00
         0.00000E+00
         0.00000E+00
         0.00000E+00
         0.00000E+00
         0.00000E+00
         0.00000E+00
         0.00000E+00
         0.00000E+00
         0.00000E+00
         0.00000E+00
         0.00000E+00
         0.00000E+00
         0.00000E+00
         0.00000E+00
         0.00000E+00
         0.00000E+00
         0.00000E+00
         0.00000E+00
         0.00000E+00
         0.00000E+00
         0.00000E+00
         0.00000E+00
         0.00000E+00
         0.00000E+00
         0.00000E+00
         0.00000E+00
         0.00000E+00
         0.00000E+00
         0.00000E+00
         0.00000E+00
         0.00000E+00
         0.00000E+00
         0.00000E+00
         0.00000E+00
         0.00000E+00
         0.00000E+00
         0.00000E+00
         0.00000E+00
         0.00000E+00
         0.00000E+00
         0.00000E+00
         0.00000E+00
         0.00000E+00
         0.00000E+00
         0.00000E+00
         0.00000E+00
         0.00000E+00
         0.00000E+00
         0.00000E+00
         0.00000E+00
         0.00000E+00
         0.00000E+00
         0.00000E+00
         0.00000E+00
         0.00000E+00
         0.00000E+00
         0.00000E+00
         0.00000E+00
         0.00000E+00
         0.00000E+00
         0.00000E+00
         0.00000E+00
         0.00000E+00
         0.00000E+00
         0.00000E+00
         0.00000E+00
         0.00000E+00
         0.00000E+00
         0.00000E+00
         0.00000E+00
         0.00000E+00
         0.00000E+00
         0.00000E+00
         0.00000E+00
         0.00000E+00
         0.00000E+00
         0.00000E+00
         0.00000E+00
         0.00000E+00
         0.00000E+00
         0.00000E+00
         0.00000E+00
         0.00000E+00
         0.00000E+00
         0.00000E+00
         0.00000E+00
         0.00000E+00
         0.00000E+00
         0.00000E+00
         0.00000E+00
         0.00000E+00
         0.00000E+00
         0.00000E+00
         0.00000E+00
         0.00000E+00
         0.00000E+00
         0.00000E+00
         0.00000E+00
         0.00000E+00
         0.00000E+00
         0.00000E+00
         0.00000E+00
         0.00000E+00
         0.00000E+00
         0.00000E+00
         0.00000E+00
         0.00000E+00
         0.00000E+00
         0.00000E+00
         0.00000E+00
         0.00000E+00
         0.00000E+00
         0.00000E+00
         0.00000E+00
         0.00000E+00
         0.00000E+00
         0.00000E+00
         0.00000E+00
         0.00000E+00
         0.00000E+00
         0.00000E+00
         0.00000E+00
         0.00000E+00
         0.00000E+00
         0.00000E+00
         0.00000E+00
         0.00000E+00
         0.00000E+00
         0.00000E+00
         0.00000E+00
         0.00000E+00
         0.00000E+00
         0.00000E+00
         0.00000E+00
         0.00000E+00
         0.00000E+00
         0.00000E+00
         0.00000E+00
         0.00000E+00
         0.00000E+00
         0.00000E+00
         0.00000E+00
         0.00000E+00
         0.00000E+00
         0.00000E+00
         0.00000E+00
         0.00000E+00
         0.00000E+00
         0.00000E+00
         0.00000E+00
         0.00000E+00
         0.00000E+00
         0.00000E+00
         0.00000E+00
         0.00000E+00
         0.00000E+00
         0.00000E+00
         0.00000E+00
         0.00000E+00
         0.00000E+00
         0.00000E+00
         0.00000E+00
         0.00000E+00
         0.00000E+00
         0.00000E+00
         0.00000E+00
         0.00000E+00
         0.00000E+00
         0.00000E+00
  
SCALARS                 acceleration_z  double 1
LOOKUP_TABLE default
         0.00000E+00
         0.00000E+00
         0.00000E+00
         0.00000E+00
         0.00000E+00
         0.00000E+00
         0.00000E+00
         0.00000E+00
         0.00000E+00
         0.00000E+00
         0.00000E+00
         0.00000E+00
         0.00000E+00
         0.00000E+00
         0.00000E+00
         0.00000E+00
         0.00000E+00
         0.00000E+00
         0.00000E+00
         0.00000E+00
         0.00000E+00
         0.00000E+00
         0.00000E+00
         0.00000E+00
         0.00000E+00
         0.00000E+00
         0.00000E+00
         0.00000E+00
         0.00000E+00
         0.00000E+00
         0.00000E+00
         0.00000E+00
         0.00000E+00
         0.00000E+00
         0.00000E+00
         0.00000E+00
         0.00000E+00
         0.00000E+00
         0.00000E+00
         0.00000E+00
         0.00000E+00
         0.00000E+00
         0.00000E+00
         0.00000E+00
         0.00000E+00
         0.00000E+00
         0.00000E+00
         0.00000E+00
         0.00000E+00
         0.00000E+00
         0.00000E+00
         0.00000E+00
         0.00000E+00
         0.00000E+00
         0.00000E+00
         0.00000E+00
         0.00000E+00
         0.00000E+00
         0.00000E+00
         0.00000E+00
         0.00000E+00
         0.00000E+00
         0.00000E+00
         0.00000E+00
         0.00000E+00
         0.00000E+00
         0.00000E+00
         0.00000E+00
         0.00000E+00
         0.00000E+00
         0.00000E+00
         0.00000E+00
         0.00000E+00
         0.00000E+00
         0.00000E+00
         0.00000E+00
         0.00000E+00
         0.00000E+00
         0.00000E+00
         0.00000E+00
         0.00000E+00
         0.00000E+00
         0.00000E+00
         0.00000E+00
         0.00000E+00
         0.00000E+00
         0.00000E+00
         0.00000E+00
         0.00000E+00
         0.00000E+00
         0.00000E+00
         0.00000E+00
         0.00000E+00
         0.00000E+00
         0.00000E+00
         0.00000E+00
         0.00000E+00
         0.00000E+00
         0.00000E+00
         0.00000E+00
         0.00000E+00
         0.00000E+00
         0.00000E+00
         0.00000E+00
         0.00000E+00
         0.00000E+00
         0.00000E+00
         0.00000E+00
         0.00000E+00
         0.00000E+00
         0.00000E+00
         0.00000E+00
         0.00000E+00
         0.00000E+00
         0.00000E+00
         0.00000E+00
         0.00000E+00
         0.00000E+00
         0.00000E+00
         0.00000E+00
         0.00000E+00
         0.00000E+00
         0.00000E+00
         0.00000E+00
         0.00000E+00
         0.00000E+00
         0.00000E+00
         0.00000E+00
         0.00000E+00
         0.00000E+00
         0.00000E+00
         0.00000E+00
         0.00000E+00
         0.00000E+00
         0.00000E+00
         0.00000E+00
         0.00000E+00
         0.00000E+00
         0.00000E+00
         0.00000E+00
         0.00000E+00
         0.00000E+00
         0.00000E+00
         0.00000E+00
         0.00000E+00
         0.00000E+00
         0.00000E+00
         0.00000E+00
         0.00000E+00
         0.00000E+00
         0.00000E+00
         0.00000E+00
         0.00000E+00
         0.00000E+00
         0.00000E+00
         0.00000E+00
         0.00000E+00
         0.00000E+00
         0.00000E+00
         0.00000E+00
         0.00000E+00
         0.00000E+00
         0.00000E+00
         0.00000E+00
         0.00000E+00
         0.00000E+00
         0.00000E+00
         0.00000E+00
         0.00000E+00
         0.00000E+00
         0.00000E+00
         0.00000E+00
         0.00000E+00
         0.00000E+00
         0.00000E+00
         0.00000E+00
         0.00000E+00
         0.00000E+00
         0.00000E+00
         0.00000E+00
         0.00000E+00
         0.00000E+00
         0.00000E+00
         0.00000E+00
         0.00000E+00
         0.00000E+00
         0.00000E+00
         0.00000E+00
         0.00000E+00
         0.00000E+00
         0.00000E+00
         0.00000E+00
         0.00000E+00
         0.00000E+00
         0.00000E+00
         0.00000E+00
         0.00000E+00
         0.00000E+00
         0.00000E+00
         0.00000E+00
         0.00000E+00
         0.00000E+00
         0.00000E+00
         0.00000E+00
         0.00000E+00
         0.00000E+00
         0.00000E+00
         0.00000E+00
         0.00000E+00
         0.00000E+00
         0.00000E+00
         0.00000E+00
         0.00000E+00
         0.00000E+00
         0.00000E+00
         0.00000E+00
         0.00000E+00
         0.00000E+00
         0.00000E+00
         0.00000E+00
         0.00000E+00
         0.00000E+00
         0.00000E+00
         0.00000E+00
         0.00000E+00
         0.00000E+00
         0.00000E+00
         0.00000E+00
         0.00000E+00
         0.00000E+00
         0.00000E+00
         0.00000E+00
         0.00000E+00
         0.00000E+00
         0.00000E+00
         0.00000E+00
         0.00000E+00
         0.00000E+00
         0.00000E+00
         0.00000E+00
         0.00000E+00
         0.00000E+00
         0.00000E+00
         0.00000E+00
         0.00000E+00
         0.00000E+00
         0.00000E+00
         0.00000E+00
         0.00000E+00
         0.00000E+00
         0.00000E+00
         0.00000E+00
         0.00000E+00
         0.00000E+00
         0.00000E+00
         0.00000E+00
         0.00000E+00
         0.00000E+00
         0.00000E+00
         0.00000E+00
         0.00000E+00
         0.00000E+00
         0.00000E+00
         0.00000E+00
         0.00000E+00
         0.00000E+00
         0.00000E+00
         0.00000E+00
         0.00000E+00
         0.00000E+00
         0.00000E+00
         0.00000E+00
         0.00000E+00
         0.00000E+00
         0.00000E+00
         0.00000E+00
         0.00000E+00
         0.00000E+00
         0.00000E+00
         0.00000E+00
         0.00000E+00
         0.00000E+00
         0.00000E+00
         0.00000E+00
         0.00000E+00
         0.00000E+00
         0.00000E+00
         0.00000E+00
         0.00000E+00
         0.00000E+00
         0.00000E+00
         0.00000E+00
         0.00000E+00
         0.00000E+00
         0.00000E+00
         0.00000E+00
         0.00000E+00
         0.00000E+00
         0.00000E+00
         0.00000E+00
         0.00000E+00
         0.00000E+00
         0.00000E+00
         0.00000E+00
         0.00000E+00
         0.00000E+00
         0.00000E+00
         0.00000E+00
         0.00000E+00
         0.00000E+00
         0.00000E+00
         0.00000E+00
         0.00000E+00
         0.00000E+00
         0.00000E+00
         0.00000E+00
         0.00000E+00
         0.00000E+00
         0.00000E+00
         0.00000E+00
         0.00000E+00
         0.00000E+00
         0.00000E+00
         0.00000E+00
         0.00000E+00
         0.00000E+00
         0.00000E+00
         0.00000E+00
         0.00000E+00
         0.00000E+00
         0.00000E+00
         0.00000E+00
         0.00000E+00
         0.00000E+00
         0.00000E+00
         0.00000E+00
         0.00000E+00
         0.00000E+00
         0.00000E+00
         0.00000E+00
         0.00000E+00
         0.00000E+00
         0.00000E+00
         0.00000E+00
         0.00000E+00
         0.00000E+00
         0.00000E+00
         0.00000E+00
         0.00000E+00
         0.00000E+00
         0.00000E+00
         0.00000E+00
         0.00000E+00
         0.00000E+00
         0.00000E+00
         0.00000E+00
         0.00000E+00
         0.00000E+00
         0.00000E+00
         0.00000E+00
         0.00000E+00
         0.00000E+00
         0.00000E+00
         0.00000E+00
         0.00000E+00
         0.00000E+00
         0.00000E+00
         0.00000E+00
         0.00000E+00
         0.00000E+00
         0.00000E+00
         0.00000E+00
         0.00000E+00
         0.00000E+00
         0.00000E+00
         0.00000E+00
         0.00000E+00
         0.00000E+00
         0.00000E+00
         0.00000E+00
         0.00000E+00
         0.00000E+00
         0.00000E+00
         0.00000E+00
         0.00000E+00
         0.00000E+00
         0.00000E+00
         0.00000E+00
         0.00000E+00
         0.00000E+00
         0.00000E+00
         0.00000E+00
         0.00000E+00
         0.00000E+00
         0.00000E+00
         0.00000E+00
         0.00000E+00
         0.00000E+00
         0.00000E+00
         0.00000E+00
         0.00000E+00
         0.00000E+00
         0.00000E+00
         0.00000E+00
         0.00000E+00
         0.00000E+00
         0.00000E+00
         0.00000E+00
         0.00000E+00
         0.00000E+00
         0.00000E+00
         0.00000E+00
         0.00000E+00
         0.00000E+00
         0.00000E+00
         0.00000E+00
         0.00000E+00
         0.00000E+00
         0.00000E+00
         0.00000E+00
         0.00000E+00
         0.00000E+00
         0.00000E+00
         0.00000E+00
         0.00000E+00
         0.00000E+00
         0.00000E+00
         0.00000E+00
         0.00000E+00
         0.00000E+00
         0.00000E+00
         0.00000E+00
         0.00000E+00
         0.00000E+00
         0.00000E+00
         0.00000E+00
         0.00000E+00
         0.00000E+00
         0.00000E+00
         0.00000E+00
         0.00000E+00
         0.00000E+00
         0.00000E+00
         0.00000E+00
         0.00000E+00
         0.00000E+00
         0.00000E+00
         0.00000E+00
         0.00000E+00
         0.00000E+00
         0.00000E+00
         0.00000E+00
         0.00000E+00
         0.00000E+00
         0.00000E+00
         0.00000E+00
         0.00000E+00
         0.00000E+00
         0.00000E+00
         0.00000E+00
         0.00000E+00
         0.00000E+00
         0.00000E+00
         0.00000E+00
         0.00000E+00
         0.00000E+00
         0.00000E+00
         0.00000E+00
         0.00000E+00
         0.00000E+00
         0.00000E+00
         0.00000E+00
         0.00000E+00
         0.00000E+00
         0.00000E+00
         0.00000E+00
         0.00000E+00
         0.00000E+00
         0.00000E+00
         0.00000E+00
         0.00000E+00
         0.00000E+00
         0.00000E+00
         0.00000E+00
         0.00000E+00
         0.00000E+00
         0.00000E+00
         0.00000E+00
         0.00000E+00
         0.00000E+00
         0.00000E+00
         0.00000E+00
         0.00000E+00
         0.00000E+00
         0.00000E+00
         0.00000E+00
         0.00000E+00
         0.00000E+00
         0.00000E+00
         0.00000E+00
         0.00000E+00
         0.00000E+00
         0.00000E+00
         0.00000E+00
         0.00000E+00
         0.00000E+00
         0.00000E+00
         0.00000E+00
         0.00000E+00
         0.00000E+00
         0.00000E+00
         0.00000E+00
         0.00000E+00
         0.00000E+00
         0.00000E+00
         0.00000E+00
         0.00000E+00
         0.00000E+00
         0.00000E+00
         0.00000E+00
         0.00000E+00
         0.00000E+00
         0.00000E+00
         0.00000E+00
         0.00000E+00
         0.00000E+00
         0.00000E+00
         0.00000E+00
         0.00000E+00
         0.00000E+00
         0.00000E+00
         0.00000E+00
         0.00000E+00
         0.00000E+00
         0.00000E+00
         0.00000E+00
         0.00000E+00
         0.00000E+00
         0.00000E+00
         0.00000E+00
         0.00000E+00
         0.00000E+00
         0.00000E+00
         0.00000E+00
         0.00000E+00
         0.00000E+00
         0.00000E+00
         0.00000E+00
         0.00000E+00
         0.00000E+00
         0.00000E+00
         0.00000E+00
         0.00000E+00
         0.00000E+00
         0.00000E+00
         0.00000E+00
         0.00000E+00
         0.00000E+00
         0.00000E+00
         0.00000E+00
         0.00000E+00
         0.00000E+00
         0.00000E+00
         0.00000E+00
         0.00000E+00
         0.00000E+00
         0.00000E+00
         0.00000E+00
         0.00000E+00
         0.00000E+00
         0.00000E+00
         0.00000E+00
         0.00000E+00
         0.00000E+00
         0.00000E+00
         0.00000E+00
         0.00000E+00
         0.00000E+00
         0.00000E+00
         0.00000E+00
         0.00000E+00
         0.00000E+00
         0.00000E+00
         0.00000E+00
         0.00000E+00
         0.00000E+00
         0.00000E+00
         0.00000E+00
         0.00000E+00
         0.00000E+00
         0.00000E+00
         0.00000E+00
         0.00000E+00
         0.00000E+00
         0.00000E+00
         0.00000E+00
         0.00000E+00
         0.00000E+00
         0.00000E+00
         0.00000E+00
         0.00000E+00
         0.00000E+00
         0.00000E+00
         0.00000E+00
         0.00000E+00
         0.00000E+00
         0.00000E+00
         0.00000E+00
         0.00000E+00
         0.00000E+00
         0.00000E+00
         0.00000E+00
         0.00000E+00
         0.00000E+00
         0.00000E+00
         0.00000E+00
         0.00000E+00
         0.00000E+00
         0.00000E+00
         0.00000E+00
         0.00000E+00
         0.00000E+00
         0.00000E+00
         0.00000E+00
         0.00000E+00
         0.00000E+00
         0.00000E+00
         0.00000E+00
         0.00000E+00
         0.00000E+00
         0.00000E+00
         0.00000E+00
         0.00000E+00
         0.00000E+00
         0.00000E+00
         0.00000E+00
         0.00000E+00
         0.00000E+00
         0.00000E+00
         0.00000E+00
         0.00000E+00
         0.00000E+00
         0.00000E+00
         0.00000E+00
         0.00000E+00
         0.00000E+00
         0.00000E+00
         0.00000E+00
         0.00000E+00
         0.00000E+00
         0.00000E+00
         0.00000E+00
         0.00000E+00
         0.00000E+00
         0.00000E+00
         0.00000E+00
         0.00000E+00
         0.00000E+00
         0.00000E+00
         0.00000E+00
         0.00000E+00
         0.00000E+00
         0.00000E+00
         0.00000E+00
         0.00000E+00
         0.00000E+00
         0.00000E+00
         0.00000E+00
         0.00000E+00
         0.00000E+00
         0.00000E+00
         0.00000E+00
         0.00000E+00
         0.00000E+00
         0.00000E+00
         0.00000E+00
         0.00000E+00
         0.00000E+00
         0.00000E+00
         0.00000E+00
         0.00000E+00
         0.00000E+00
         0.00000E+00
         0.00000E+00
         0.00000E+00
         0.00000E+00
         0.00000E+00
         0.00000E+00
         0.00000E+00
         0.00000E+00
         0.00000E+00
         0.00000E+00
         0.00000E+00
         0.00000E+00
         0.00000E+00
         0.00000E+00
         0.00000E+00
         0.00000E+00
         0.00000E+00
         0.00000E+00
         0.00000E+00
         0.00000E+00
         0.00000E+00
         0.00000E+00
         0.00000E+00
         0.00000E+00
         0.00000E+00
         0.00000E+00
         0.00000E+00
         0.00000E+00
         0.00000E+00
         0.00000E+00
         0.00000E+00
         0.00000E+00
         0.00000E+00
         0.00000E+00
         0.00000E+00
         0.00000E+00
         0.00000E+00
         0.00000E+00
         0.00000E+00
         0.00000E+00
         0.00000E+00
         0.00000E+00
         0.00000E+00
         0.00000E+00
         0.00000E+00
         0.00000E+00
         0.00000E+00
         0.00000E+00
         0.00000E+00
         0.00000E+00
         0.00000E+00
         0.00000E+00
         0.00000E+00
         0.00000E+00
         0.00000E+00
         0.00000E+00
         0.00000E+00
         0.00000E+00
         0.00000E+00
         0.00000E+00
         0.00000E+00
         0.00000E+00
         0.00000E+00
         0.00000E+00
         0.00000E+00
         0.00000E+00
         0.00000E+00
         0.00000E+00
         0.00000E+00
         0.00000E+00
         0.00000E+00
         0.00000E+00
         0.00000E+00
         0.00000E+00
         0.00000E+00
         0.00000E+00
         0.00000E+00
         0.00000E+00
         0.00000E+00
         0.00000E+00
         0.00000E+00
         0.00000E+00
         0.00000E+00
         0.00000E+00
         0.00000E+00
         0.00000E+00
         0.00000E+00
         0.00000E+00
         0.00000E+00
         0.00000E+00
         0.00000E+00
         0.00000E+00
         0.00000E+00
         0.00000E+00
         0.00000E+00
         0.00000E+00
         0.00000E+00
         0.00000E+00
         0.00000E+00
         0.00000E+00
         0.00000E+00
         0.00000E+00
         0.00000E+00
         0.00000E+00
         0.00000E+00
         0.00000E+00
         0.00000E+00
         0.00000E+00
         0.00000E+00
         0.00000E+00
         0.00000E+00
         0.00000E+00
         0.00000E+00
         0.00000E+00
         0.00000E+00
         0.00000E+00
         0.00000E+00
         0.00000E+00
         0.00000E+00
         0.00000E+00
         0.00000E+00
         0.00000E+00
         0.00000E+00
         0.00000E+00
         0.00000E+00
         0.00000E+00
         0.00000E+00
         0.00000E+00
         0.00000E+00
         0.00000E+00
         0.00000E+00
         0.00000E+00
         0.00000E+00
         0.00000E+00
         0.00000E+00
         0.00000E+00
         0.00000E+00
         0.00000E+00
         0.00000E+00
         0.00000E+00
         0.00000E+00
         0.00000E+00
         0.00000E+00
         0.00000E+00
         0.00000E+00
         0.00000E+00
         0.00000E+00
         0.00000E+00
         0.00000E+00
         0.00000E+00
         0.00000E+00
         0.00000E+00
         0.00000E+00
         0.00000E+00
         0.00000E+00
         0.00000E+00
         0.00000E+00
         0.00000E+00
         0.00000E+00
         0.00000E+00
         0.00000E+00
         0.00000E+00
         0.00000E+00
         0.00000E+00
         0.00000E+00
         0.00000E+00
         0.00000E+00
         0.00000E+00
         0.00000E+00
         0.00000E+00
         0.00000E+00
         0.00000E+00
         0.00000E+00
         0.00000E+00
         0.00000E+00
         0.00000E+00
         0.00000E+00
         0.00000E+00
         0.00000E+00
         0.00000E+00
         0.00000E+00
         0.00000E+00
         0.00000E+00
         0.00000E+00
         0.00000E+00
         0.00000E+00
         0.00000E+00
         0.00000E+00
         0.00000E+00
         0.00000E+00
         0.00000E+00
         0.00000E+00
         0.00000E+00
         0.00000E+00
         0.00000E+00
         0.00000E+00
         0.00000E+00
         0.00000E+00
         0.00000E+00
         0.00000E+00
         0.00000E+00
         0.00000E+00
         0.00000E+00
         0.00000E+00
         0.00000E+00
         0.00000E+00
         0.00000E+00
         0.00000E+00
         0.00000E+00
         0.00000E+00
         0.00000E+00
         0.00000E+00
         0.00000E+00
         0.00000E+00
         0.00000E+00
         0.00000E+00
         0.00000E+00
         0.00000E+00
         0.00000E+00
         0.00000E+00
         0.00000E+00
         0.00000E+00
         0.00000E+00
         0.00000E+00
         0.00000E+00
         0.00000E+00
         0.00000E+00
         0.00000E+00
         0.00000E+00
         0.00000E+00
         0.00000E+00
         0.00000E+00
         0.00000E+00
         0.00000E+00
         0.00000E+00
         0.00000E+00
         0.00000E+00
         0.00000E+00
         0.00000E+00
         0.00000E+00
         0.00000E+00
         0.00000E+00
         0.00000E+00
         0.00000E+00
         0.00000E+00
         0.00000E+00
         0.00000E+00
         0.00000E+00
         0.00000E+00
         0.00000E+00
         0.00000E+00
         0.00000E+00
         0.00000E+00
         0.00000E+00
         0.00000E+00
         0.00000E+00
         0.00000E+00
         0.00000E+00
         0.00000E+00
         0.00000E+00
         0.00000E+00
         0.00000E+00
         0.00000E+00
         0.00000E+00
         0.00000E+00
         0.00000E+00
         0.00000E+00
         0.00000E+00
         0.00000E+00
         0.00000E+00
         0.00000E+00
         0.00000E+00
         0.00000E+00
         0.00000E+00
         0.00000E+00
         0.00000E+00
         0.00000E+00
         0.00000E+00
         0.00000E+00
         0.00000E+00
         0.00000E+00
         0.00000E+00
         0.00000E+00
         0.00000E+00
         0.00000E+00
         0.00000E+00
         0.00000E+00
         0.00000E+00
         0.00000E+00
         0.00000E+00
         0.00000E+00
         0.00000E+00
         0.00000E+00
         0.00000E+00
         0.00000E+00
         0.00000E+00
         0.00000E+00
         0.00000E+00
         0.00000E+00
         0.00000E+00
         0.00000E+00
         0.00000E+00
         0.00000E+00
         0.00000E+00
         0.00000E+00
         0.00000E+00
         0.00000E+00
         0.00000E+00
         0.00000E+00
         0.00000E+00
         0.00000E+00
         0.00000E+00
         0.00000E+00
         0.00000E+00
         0.00000E+00
         0.00000E+00
         0.00000E+00
         0.00000E+00
         0.00000E+00
         0.00000E+00
         0.00000E+00
         0.00000E+00
         0.00000E+00
         0.00000E+00
         0.00000E+00
         0.00000E+00
         0.00000E+00
         0.00000E+00
         0.00000E+00
         0.00000E+00
         0.00000E+00
         0.00000E+00
         0.00000E+00
         0.00000E+00
         0.00000E+00
         0.00000E+00
         0.00000E+00
         0.00000E+00
         0.00000E+00
         0.00000E+00
         0.00000E+00
         0.00000E+00
         0.00000E+00
         0.00000E+00
         0.00000E+00
         0.00000E+00
         0.00000E+00
         0.00000E+00
         0.00000E+00
         0.00000E+00
         0.00000E+00
         0.00000E+00
         0.00000E+00
         0.00000E+00
         0.00000E+00
         0.00000E+00
         0.00000E+00
         0.00000E+00
         0.00000E+00
         0.00000E+00
         0.00000E+00
         0.00000E+00
         0.00000E+00
         0.00000E+00
         0.00000E+00
         0.00000E+00
         0.00000E+00
         0.00000E+00
         0.00000E+00
         0.00000E+00
         0.00000E+00
         0.00000E+00
         0.00000E+00
         0.00000E+00
         0.00000E+00
         0.00000E+00
         0.00000E+00
         0.00000E+00
         0.00000E+00
         0.00000E+00
         0.00000E+00
         0.00000E+00
         0.00000E+00
         0.00000E+00
         0.00000E+00
         0.00000E+00
         0.00000E+00
         0.00000E+00
         0.00000E+00
         0.00000E+00
         0.00000E+00
         0.00000E+00
         0.00000E+00
         0.00000E+00
         0.00000E+00
         0.00000E+00
         0.00000E+00
         0.00000E+00
         0.00000E+00
         0.00000E+00
         0.00000E+00
         0.00000E+00
         0.00000E+00
         0.00000E+00
         0.00000E+00
         0.00000E+00
         0.00000E+00
         0.00000E+00
         0.00000E+00
         0.00000E+00
         0.00000E+00
         0.00000E+00
         0.00000E+00
         0.00000E+00
         0.00000E+00
         0.00000E+00
         0.00000E+00
         0.00000E+00
         0.00000E+00
         0.00000E+00
         0.00000E+00
         0.00000E+00
         0.00000E+00
         0.00000E+00
         0.00000E+00
         0.00000E+00
         0.00000E+00
         0.00000E+00
         0.00000E+00
         0.00000E+00
         0.00000E+00
         0.00000E+00
         0.00000E+00
         0.00000E+00
         0.00000E+00
         0.00000E+00
         0.00000E+00
         0.00000E+00
         0.00000E+00
         0.00000E+00
         0.00000E+00
         0.00000E+00
         0.00000E+00
         0.00000E+00
         0.00000E+00
         0.00000E+00
         0.00000E+00
         0.00000E+00
         0.00000E+00
         0.00000E+00
         0.00000E+00
         0.00000E+00
         0.00000E+00
         0.00000E+00
         0.00000E+00
         0.00000E+00
         0.00000E+00
         0.00000E+00
         0.00000E+00
         0.00000E+00
         0.00000E+00
         0.00000E+00
         0.00000E+00
         0.00000E+00
         0.00000E+00
         0.00000E+00
         0.00000E+00
         0.00000E+00
         0.00000E+00
         0.00000E+00
         0.00000E+00
         0.00000E+00
         0.00000E+00
         0.00000E+00
         0.00000E+00
         0.00000E+00
         0.00000E+00
         0.00000E+00
         0.00000E+00
         0.00000E+00
         0.00000E+00
         0.00000E+00
         0.00000E+00
         0.00000E+00
         0.00000E+00
         0.00000E+00
         0.00000E+00
         0.00000E+00
         0.00000E+00
         0.00000E+00
         0.00000E+00
         0.00000E+00
         0.00000E+00
         0.00000E+00
         0.00000E+00
         0.00000E+00
         0.00000E+00
         0.00000E+00
         0.00000E+00
         0.00000E+00
         0.00000E+00
         0.00000E+00
         0.00000E+00
         0.00000E+00
         0.00000E+00
         0.00000E+00
         0.00000E+00
         0.00000E+00
         0.00000E+00
         0.00000E+00
         0.00000E+00
         0.00000E+00
         0.00000E+00
         0.00000E+00
         0.00000E+00
         0.00000E+00
         0.00000E+00
         0.00000E+00
         0.00000E+00
         0.00000E+00
         0.00000E+00
         0.00000E+00
         0.00000E+00
         0.00000E+00
         0.00000E+00
         0.00000E+00
         0.00000E+00
         0.00000E+00
         0.00000E+00
         0.00000E+00
         0.00000E+00
         0.00000E+00
         0.00000E+00
         0.00000E+00
         0.00000E+00
         0.00000E+00
         0.00000E+00
         0.00000E+00
         0.00000E+00
         0.00000E+00
         0.00000E+00
         0.00000E+00
         0.00000E+00
         0.00000E+00
         0.00000E+00
         0.00000E+00
         0.00000E+00
         0.00000E+00
         0.00000E+00
         0.00000E+00
         0.00000E+00
         0.00000E+00
         0.00000E+00
         0.00000E+00
         0.00000E+00
         0.00000E+00
         0.00000E+00
         0.00000E+00
         0.00000E+00
         0.00000E+00
         0.00000E+00
         0.00000E+00
         0.00000E+00
         0.00000E+00
         0.00000E+00
         0.00000E+00
         0.00000E+00
         0.00000E+00
         0.00000E+00
         0.00000E+00
         0.00000E+00
         0.00000E+00
         0.00000E+00
         0.00000E+00
         0.00000E+00
         0.00000E+00
         0.00000E+00
         0.00000E+00
         0.00000E+00
         0.00000E+00
         0.00000E+00
         0.00000E+00
         0.00000E+00
         0.00000E+00
         0.00000E+00
         0.00000E+00
         0.00000E+00
         0.00000E+00
         0.00000E+00
         0.00000E+00
         0.00000E+00
         0.00000E+00
         0.00000E+00
         0.00000E+00
         0.00000E+00
         0.00000E+00
         0.00000E+00
         0.00000E+00
         0.00000E+00
         0.00000E+00
         0.00000E+00
         0.00000E+00
         0.00000E+00
         0.00000E+00
         0.00000E+00
         0.00000E+00
         0.00000E+00
         0.00000E+00
         0.00000E+00
         0.00000E+00
         0.00000E+00
         0.00000E+00
         0.00000E+00
         0.00000E+00
         0.00000E+00
         0.00000E+00
         0.00000E+00
         0.00000E+00
         0.00000E+00
         0.00000E+00
         0.00000E+00
         0.00000E+00
         0.00000E+00
         0.00000E+00
         0.00000E+00
         0.00000E+00
         0.00000E+00
         0.00000E+00
         0.00000E+00
         0.00000E+00
         0.00000E+00
         0.00000E+00
         0.00000E+00
         0.00000E+00
         0.00000E+00
         0.00000E+00
         0.00000E+00
         0.00000E+00
         0.00000E+00
         0.00000E+00
         0.00000E+00
         0.00000E+00
         0.00000E+00
         0.00000E+00
         0.00000E+00
         0.00000E+00
         0.00000E+00
         0.00000E+00
         0.00000E+00
         0.00000E+00
         0.00000E+00
         0.00000E+00
         0.00000E+00
         0.00000E+00
         0.00000E+00
         0.00000E+00
         0.00000E+00
         0.00000E+00
         0.00000E+00
         0.00000E+00
         0.00000E+00
         0.00000E+00
         0.00000E+00
         0.00000E+00
         0.00000E+00
         0.00000E+00
         0.00000E+00
         0.00000E+00
         0.00000E+00
         0.00000E+00
         0.00000E+00
         0.00000E+00
         0.00000E+00
         0.00000E+00
         0.00000E+00
         0.00000E+00
         0.00000E+00
         0.00000E+00
         0.00000E+00
         0.00000E+00
         0.00000E+00
         0.00000E+00
         0.00000E+00
         0.00000E+00
         0.00000E+00
         0.00000E+00
         0.00000E+00
         0.00000E+00
         0.00000E+00
         0.00000E+00
         0.00000E+00
         0.00000E+00
         0.00000E+00
         0.00000E+00
         0.00000E+00
         0.00000E+00
         0.00000E+00
         0.00000E+00
         0.00000E+00
         0.00000E+00
         0.00000E+00
         0.00000E+00
         0.00000E+00
         0.00000E+00
         0.00000E+00
         0.00000E+00
         0.00000E+00
         0.00000E+00
         0.00000E+00
         0.00000E+00
         0.00000E+00
         0.00000E+00
         0.00000E+00
         0.00000E+00
         0.00000E+00
         0.00000E+00
         0.00000E+00
         0.00000E+00
         0.00000E+00
         0.00000E+00
         0.00000E+00
         0.00000E+00
         0.00000E+00
         0.00000E+00
         0.00000E+00
         0.00000E+00
         0.00000E+00
         0.00000E+00
         0.00000E+00
         0.00000E+00
         0.00000E+00
         0.00000E+00
         0.00000E+00
         0.00000E+00
         0.00000E+00
         0.00000E+00
         0.00000E+00
         0.00000E+00
         0.00000E+00
         0.00000E+00
         0.00000E+00
         0.00000E+00
         0.00000E+00
         0.00000E+00
         0.00000E+00
         0.00000E+00
         0.00000E+00
         0.00000E+00
         0.00000E+00
         0.00000E+00
         0.00000E+00
         0.00000E+00
         0.00000E+00
         0.00000E+00
         0.00000E+00
         0.00000E+00
         0.00000E+00
         0.00000E+00
         0.00000E+00
         0.00000E+00
         0.00000E+00
         0.00000E+00
         0.00000E+00
         0.00000E+00
         0.00000E+00
         0.00000E+00
         0.00000E+00
         0.00000E+00
         0.00000E+00
         0.00000E+00
         0.00000E+00
         0.00000E+00
         0.00000E+00
         0.00000E+00
         0.00000E+00
         0.00000E+00
         0.00000E+00
         0.00000E+00
         0.00000E+00
         0.00000E+00
         0.00000E+00
         0.00000E+00
         0.00000E+00
         0.00000E+00
         0.00000E+00
         0.00000E+00
         0.00000E+00
         0.00000E+00
         0.00000E+00
         0.00000E+00
         0.00000E+00
         0.00000E+00
         0.00000E+00
         0.00000E+00
         0.00000E+00
         0.00000E+00
         0.00000E+00
         0.00000E+00
         0.00000E+00
         0.00000E+00
         0.00000E+00
         0.00000E+00
         0.00000E+00
         0.00000E+00
         0.00000E+00
         0.00000E+00
         0.00000E+00
         0.00000E+00
         0.00000E+00
         0.00000E+00
         0.00000E+00
         0.00000E+00
         0.00000E+00
         0.00000E+00
         0.00000E+00
         0.00000E+00
         0.00000E+00
         0.00000E+00
         0.00000E+00
         0.00000E+00
         0.00000E+00
         0.00000E+00
         0.00000E+00
         0.00000E+00
         0.00000E+00
         0.00000E+00
         0.00000E+00
         0.00000E+00
         0.00000E+00
         0.00000E+00
         0.00000E+00
         0.00000E+00
         0.00000E+00
         0.00000E+00
         0.00000E+00
         0.00000E+00
         0.00000E+00
         0.00000E+00
         0.00000E+00
         0.00000E+00
         0.00000E+00
         0.00000E+00
         0.00000E+00
         0.00000E+00
         0.00000E+00
         0.00000E+00
         0.00000E+00
         0.00000E+00
         0.00000E+00
         0.00000E+00
         0.00000E+00
         0.00000E+00
         0.00000E+00
         0.00000E+00
         0.00000E+00
         0.00000E+00
         0.00000E+00
         0.00000E+00
         0.00000E+00
         0.00000E+00
         0.00000E+00
         0.00000E+00
         0.00000E+00
         0.00000E+00
         0.00000E+00
         0.00000E+00
         0.00000E+00
         0.00000E+00
         0.00000E+00
         0.00000E+00
         0.00000E+00
         0.00000E+00
         0.00000E+00
         0.00000E+00
         0.00000E+00
         0.00000E+00
         0.00000E+00
         0.00000E+00
         0.00000E+00
         0.00000E+00
         0.00000E+00
         0.00000E+00
         0.00000E+00
         0.00000E+00
         0.00000E+00
         0.00000E+00
         0.00000E+00
         0.00000E+00
         0.00000E+00
         0.00000E+00
         0.00000E+00
         0.00000E+00
         0.00000E+00
         0.00000E+00
         0.00000E+00
         0.00000E+00
         0.00000E+00
         0.00000E+00
         0.00000E+00
         0.00000E+00
         0.00000E+00
         0.00000E+00
         0.00000E+00
         0.00000E+00
         0.00000E+00
         0.00000E+00
         0.00000E+00
         0.00000E+00
         0.00000E+00
         0.00000E+00
         0.00000E+00
         0.00000E+00
         0.00000E+00
         0.00000E+00
         0.00000E+00
         0.00000E+00
         0.00000E+00
         0.00000E+00
         0.00000E+00
         0.00000E+00
         0.00000E+00
         0.00000E+00
         0.00000E+00
         0.00000E+00
         0.00000E+00
         0.00000E+00
         0.00000E+00
         0.00000E+00
         0.00000E+00
         0.00000E+00
         0.00000E+00
         0.00000E+00
         0.00000E+00
         0.00000E+00
         0.00000E+00
         0.00000E+00
         0.00000E+00
         0.00000E+00
         0.00000E+00
         0.00000E+00
         0.00000E+00
         0.00000E+00
         0.00000E+00
         0.00000E+00
         0.00000E+00
         0.00000E+00
         0.00000E+00
         0.00000E+00
         0.00000E+00
         0.00000E+00
         0.00000E+00
         0.00000E+00
         0.00000E+00
         0.00000E+00
         0.00000E+00
         0.00000E+00
         0.00000E+00
         0.00000E+00
         0.00000E+00
         0.00000E+00
         0.00000E+00
         0.00000E+00
         0.00000E+00
         0.00000E+00
         0.00000E+00
         0.00000E+00
         0.00000E+00
         0.00000E+00
         0.00000E+00
         0.00000E+00
         0.00000E+00
         0.00000E+00
         0.00000E+00
         0.00000E+00
         0.00000E+00
         0.00000E+00
         0.00000E+00
         0.00000E+00
         0.00000E+00
         0.00000E+00
         0.00000E+00
         0.00000E+00
         0.00000E+00
         0.00000E+00
         0.00000E+00
         0.00000E+00
         0.00000E+00
         0.00000E+00
         0.00000E+00
         0.00000E+00
         0.00000E+00
         0.00000E+00
         0.00000E+00
         0.00000E+00
         0.00000E+00
         0.00000E+00
         0.00000E+00
         0.00000E+00
         0.00000E+00
         0.00000E+00
         0.00000E+00
         0.00000E+00
         0.00000E+00
         0.00000E+00
         0.00000E+00
         0.00000E+00
         0.00000E+00
         0.00000E+00
         0.00000E+00
         0.00000E+00
         0.00000E+00
         0.00000E+00
         0.00000E+00
         0.00000E+00
         0.00000E+00
         0.00000E+00
         0.00000E+00
         0.00000E+00
         0.00000E+00
         0.00000E+00
         0.00000E+00
         0.00000E+00
         0.00000E+00
         0.00000E+00
         0.00000E+00
         0.00000E+00
         0.00000E+00
         0.00000E+00
         0.00000E+00
         0.00000E+00
         0.00000E+00
         0.00000E+00
         0.00000E+00
         0.00000E+00
         0.00000E+00
         0.00000E+00
         0.00000E+00
         0.00000E+00
         0.00000E+00
         0.00000E+00
         0.00000E+00
         0.00000E+00
         0.00000E+00
         0.00000E+00
         0.00000E+00
         0.00000E+00
         0.00000E+00
         0.00000E+00
         0.00000E+00
         0.00000E+00
         0.00000E+00
         0.00000E+00
         0.00000E+00
         0.00000E+00
         0.00000E+00
         0.00000E+00
         0.00000E+00
         0.00000E+00
         0.00000E+00
         0.00000E+00
         0.00000E+00
         0.00000E+00
         0.00000E+00
         0.00000E+00
         0.00000E+00
         0.00000E+00
         0.00000E+00
         0.00000E+00
         0.00000E+00
         0.00000E+00
         0.00000E+00
         0.00000E+00
         0.00000E+00
         0.00000E+00
         0.00000E+00
         0.00000E+00
         0.00000E+00
         0.00000E+00
         0.00000E+00
         0.00000E+00
         0.00000E+00
         0.00000E+00
         0.00000E+00
         0.00000E+00
         0.00000E+00
         0.00000E+00
         0.00000E+00
         0.00000E+00
         0.00000E+00
         0.00000E+00
         0.00000E+00
         0.00000E+00
         0.00000E+00
         0.00000E+00
         0.00000E+00
         0.00000E+00
         0.00000E+00
         0.00000E+00
         0.00000E+00
         0.00000E+00
         0.00000E+00
         0.00000E+00
         0.00000E+00
         0.00000E+00
         0.00000E+00
         0.00000E+00
         0.00000E+00
         0.00000E+00
         0.00000E+00
         0.00000E+00
         0.00000E+00
         0.00000E+00
         0.00000E+00
         0.00000E+00
         0.00000E+00
         0.00000E+00
         0.00000E+00
         0.00000E+00
         0.00000E+00
         0.00000E+00
         0.00000E+00
         0.00000E+00
         0.00000E+00
         0.00000E+00
         0.00000E+00
         0.00000E+00
         0.00000E+00
         0.00000E+00
         0.00000E+00
         0.00000E+00
         0.00000E+00
         0.00000E+00
         0.00000E+00
         0.00000E+00
         0.00000E+00
         0.00000E+00
         0.00000E+00
         0.00000E+00
         0.00000E+00
         0.00000E+00
         0.00000E+00
         0.00000E+00
         0.00000E+00
         0.00000E+00
         0.00000E+00
         0.00000E+00
         0.00000E+00
         0.00000E+00
         0.00000E+00
         0.00000E+00
         0.00000E+00
         0.00000E+00
         0.00000E+00
         0.00000E+00
         0.00000E+00
         0.00000E+00
         0.00000E+00
         0.00000E+00
         0.00000E+00
         0.00000E+00
         0.00000E+00
         0.00000E+00
         0.00000E+00
         0.00000E+00
         0.00000E+00
         0.00000E+00
         0.00000E+00
         0.00000E+00
         0.00000E+00
         0.00000E+00
         0.00000E+00
         0.00000E+00
         0.00000E+00
         0.00000E+00
         0.00000E+00
         0.00000E+00
         0.00000E+00
         0.00000E+00
         0.00000E+00
         0.00000E+00
         0.00000E+00
         0.00000E+00
         0.00000E+00
         0.00000E+00
         0.00000E+00
         0.00000E+00
         0.00000E+00
         0.00000E+00
         0.00000E+00
         0.00000E+00
         0.00000E+00
         0.00000E+00
         0.00000E+00
         0.00000E+00
         0.00000E+00
         0.00000E+00
         0.00000E+00
         0.00000E+00
         0.00000E+00
         0.00000E+00
         0.00000E+00
         0.00000E+00
         0.00000E+00
         0.00000E+00
         0.00000E+00
         0.00000E+00
         0.00000E+00
         0.00000E+00
         0.00000E+00
         0.00000E+00
         0.00000E+00
         0.00000E+00
         0.00000E+00
         0.00000E+00
         0.00000E+00
         0.00000E+00
         0.00000E+00
         0.00000E+00
         0.00000E+00
         0.00000E+00
         0.00000E+00
         0.00000E+00
         0.00000E+00
         0.00000E+00
         0.00000E+00
         0.00000E+00
         0.00000E+00
         0.00000E+00
         0.00000E+00
         0.00000E+00
         0.00000E+00
         0.00000E+00
         0.00000E+00
         0.00000E+00
         0.00000E+00
         0.00000E+00
         0.00000E+00
         0.00000E+00
         0.00000E+00
         0.00000E+00
         0.00000E+00
         0.00000E+00
         0.00000E+00
         0.00000E+00
         0.00000E+00
         0.00000E+00
         0.00000E+00
         0.00000E+00
         0.00000E+00
         0.00000E+00
         0.00000E+00
         0.00000E+00
         0.00000E+00
         0.00000E+00
         0.00000E+00
         0.00000E+00
         0.00000E+00
         0.00000E+00
         0.00000E+00
         0.00000E+00
         0.00000E+00
         0.00000E+00
         0.00000E+00
         0.00000E+00
         0.00000E+00
         0.00000E+00
         0.00000E+00
         0.00000E+00
  
SCALARS                         fint_x  double 1
LOOKUP_TABLE default
         0.00000E+00
         0.00000E+00
         0.00000E+00
         0.00000E+00
         0.00000E+00
         0.00000E+00
         0.00000E+00
         0.00000E+00
         0.00000E+00
         0.00000E+00
         0.00000E+00
         0.00000E+00
         0.00000E+00
         0.00000E+00
         0.00000E+00
         0.00000E+00
         0.00000E+00
         0.00000E+00
         0.00000E+00
         0.00000E+00
         0.00000E+00
         0.00000E+00
         0.00000E+00
         0.00000E+00
         0.00000E+00
         0.00000E+00
         0.00000E+00
         0.00000E+00
         0.00000E+00
         0.00000E+00
         0.00000E+00
         0.00000E+00
         0.00000E+00
         0.00000E+00
         0.00000E+00
         0.00000E+00
         0.00000E+00
         0.00000E+00
         0.00000E+00
         0.00000E+00
         0.00000E+00
         0.00000E+00
         0.00000E+00
         0.00000E+00
         0.00000E+00
         0.00000E+00
         0.00000E+00
         0.00000E+00
         0.00000E+00
         0.00000E+00
         0.00000E+00
         0.00000E+00
         0.00000E+00
         0.00000E+00
         0.00000E+00
         0.00000E+00
         0.00000E+00
         0.00000E+00
         0.00000E+00
         0.00000E+00
         0.00000E+00
         0.00000E+00
         0.00000E+00
         0.00000E+00
         0.00000E+00
         0.00000E+00
         0.00000E+00
         0.00000E+00
         0.00000E+00
         0.00000E+00
         0.00000E+00
         0.00000E+00
         0.00000E+00
         0.00000E+00
         0.00000E+00
         0.00000E+00
         0.00000E+00
         0.00000E+00
         0.00000E+00
         0.00000E+00
         0.00000E+00
         0.00000E+00
         0.00000E+00
         0.00000E+00
         0.00000E+00
         0.00000E+00
         0.00000E+00
         0.00000E+00
         0.00000E+00
         0.00000E+00
         0.00000E+00
         0.00000E+00
         0.00000E+00
         0.00000E+00
         0.00000E+00
         0.00000E+00
         0.00000E+00
         0.00000E+00
         0.00000E+00
         0.00000E+00
         0.00000E+00
         0.00000E+00
         0.00000E+00
         0.00000E+00
         0.00000E+00
         0.00000E+00
         0.00000E+00
         0.00000E+00
         0.00000E+00
         0.00000E+00
         0.00000E+00
         0.00000E+00
         0.00000E+00
         0.00000E+00
         0.00000E+00
         0.00000E+00
         0.00000E+00
         0.00000E+00
         0.00000E+00
         0.00000E+00
         0.00000E+00
         0.00000E+00
         0.00000E+00
         0.00000E+00
         0.00000E+00
         0.00000E+00
         0.00000E+00
         0.00000E+00
         0.00000E+00
         0.00000E+00
         0.00000E+00
         0.00000E+00
         0.00000E+00
         0.00000E+00
         0.00000E+00
         0.00000E+00
         0.00000E+00
         0.00000E+00
         0.00000E+00
         0.00000E+00
         0.00000E+00
         0.00000E+00
         0.00000E+00
         0.00000E+00
         0.00000E+00
         0.00000E+00
         0.00000E+00
         0.00000E+00
         0.00000E+00
         0.00000E+00
         0.00000E+00
         0.00000E+00
         0.00000E+00
         0.00000E+00
         0.00000E+00
         0.00000E+00
         0.00000E+00
         0.00000E+00
         0.00000E+00
         0.00000E+00
         0.00000E+00
         0.00000E+00
         0.00000E+00
         0.00000E+00
         0.00000E+00
         0.00000E+00
         0.00000E+00
         0.00000E+00
         0.00000E+00
         0.00000E+00
         0.00000E+00
         0.00000E+00
         0.00000E+00
         0.00000E+00
         0.00000E+00
         0.00000E+00
         0.00000E+00
         0.00000E+00
         0.00000E+00
         0.00000E+00
         0.00000E+00
         0.00000E+00
         0.00000E+00
         0.00000E+00
         0.00000E+00
         0.00000E+00
         0.00000E+00
         0.00000E+00
         0.00000E+00
         0.00000E+00
         0.00000E+00
         0.00000E+00
         0.00000E+00
         0.00000E+00
         0.00000E+00
         0.00000E+00
         0.00000E+00
         0.00000E+00
         0.00000E+00
         0.00000E+00
         0.00000E+00
         0.00000E+00
         0.00000E+00
         0.00000E+00
         0.00000E+00
         0.00000E+00
         0.00000E+00
         0.00000E+00
         0.00000E+00
         0.00000E+00
         0.00000E+00
         0.00000E+00
         0.00000E+00
         0.00000E+00
         0.00000E+00
         0.00000E+00
         0.00000E+00
         0.00000E+00
         0.00000E+00
         0.00000E+00
         0.00000E+00
         0.00000E+00
         0.00000E+00
         0.00000E+00
         0.00000E+00
         0.00000E+00
         0.00000E+00
         0.00000E+00
         0.00000E+00
         0.00000E+00
         0.00000E+00
         0.00000E+00
         0.00000E+00
         0.00000E+00
         0.00000E+00
         0.00000E+00
         0.00000E+00
         0.00000E+00
         0.00000E+00
         0.00000E+00
         0.00000E+00
         0.00000E+00
         0.00000E+00
         0.00000E+00
         0.00000E+00
         0.00000E+00
         0.00000E+00
         0.00000E+00
         0.00000E+00
         0.00000E+00
         0.00000E+00
         0.00000E+00
         0.00000E+00
         0.00000E+00
         0.00000E+00
         0.00000E+00
         0.00000E+00
         0.00000E+00
         0.00000E+00
         0.00000E+00
         0.00000E+00
         0.00000E+00
         0.00000E+00
         0.00000E+00
         0.00000E+00
         0.00000E+00
         0.00000E+00
         0.00000E+00
         0.00000E+00
         0.00000E+00
         0.00000E+00
         0.00000E+00
         0.00000E+00
         0.00000E+00
         0.00000E+00
         0.00000E+00
         0.00000E+00
         0.00000E+00
         0.00000E+00
         0.00000E+00
         0.00000E+00
         0.00000E+00
         0.00000E+00
         0.00000E+00
         0.00000E+00
         0.00000E+00
         0.00000E+00
         0.00000E+00
         0.00000E+00
         0.00000E+00
         0.00000E+00
         0.00000E+00
         0.00000E+00
         0.00000E+00
         0.00000E+00
         0.00000E+00
         0.00000E+00
         0.00000E+00
         0.00000E+00
         0.00000E+00
         0.00000E+00
         0.00000E+00
         0.00000E+00
         0.00000E+00
         0.00000E+00
         0.00000E+00
         0.00000E+00
         0.00000E+00
         0.00000E+00
         0.00000E+00
         0.00000E+00
         0.00000E+00
         0.00000E+00
         0.00000E+00
         0.00000E+00
         0.00000E+00
         0.00000E+00
         0.00000E+00
         0.00000E+00
         0.00000E+00
         0.00000E+00
         0.00000E+00
         0.00000E+00
         0.00000E+00
         0.00000E+00
         0.00000E+00
         0.00000E+00
         0.00000E+00
         0.00000E+00
         0.00000E+00
         0.00000E+00
         0.00000E+00
         0.00000E+00
         0.00000E+00
         0.00000E+00
         0.00000E+00
         0.00000E+00
         0.00000E+00
         0.00000E+00
         0.00000E+00
         0.00000E+00
         0.00000E+00
         0.00000E+00
         0.00000E+00
         0.00000E+00
         0.00000E+00
         0.00000E+00
         0.00000E+00
         0.00000E+00
         0.00000E+00
         0.00000E+00
         0.00000E+00
         0.00000E+00
         0.00000E+00
         0.00000E+00
         0.00000E+00
         0.00000E+00
         0.00000E+00
         0.00000E+00
         0.00000E+00
         0.00000E+00
         0.00000E+00
         0.00000E+00
         0.00000E+00
         0.00000E+00
         0.00000E+00
         0.00000E+00
         0.00000E+00
         0.00000E+00
         0.00000E+00
         0.00000E+00
         0.00000E+00
         0.00000E+00
         0.00000E+00
         0.00000E+00
         0.00000E+00
         0.00000E+00
         0.00000E+00
         0.00000E+00
         0.00000E+00
         0.00000E+00
         0.00000E+00
         0.00000E+00
         0.00000E+00
         0.00000E+00
         0.00000E+00
         0.00000E+00
         0.00000E+00
         0.00000E+00
         0.00000E+00
         0.00000E+00
         0.00000E+00
         0.00000E+00
         0.00000E+00
         0.00000E+00
         0.00000E+00
         0.00000E+00
         0.00000E+00
         0.00000E+00
         0.00000E+00
         0.00000E+00
         0.00000E+00
         0.00000E+00
         0.00000E+00
         0.00000E+00
         0.00000E+00
         0.00000E+00
         0.00000E+00
         0.00000E+00
         0.00000E+00
         0.00000E+00
         0.00000E+00
         0.00000E+00
         0.00000E+00
         0.00000E+00
         0.00000E+00
         0.00000E+00
         0.00000E+00
         0.00000E+00
         0.00000E+00
         0.00000E+00
         0.00000E+00
         0.00000E+00
         0.00000E+00
         0.00000E+00
         0.00000E+00
         0.00000E+00
         0.00000E+00
         0.00000E+00
         0.00000E+00
         0.00000E+00
         0.00000E+00
         0.00000E+00
         0.00000E+00
         0.00000E+00
         0.00000E+00
         0.00000E+00
         0.00000E+00
         0.00000E+00
         0.00000E+00
         0.00000E+00
         0.00000E+00
         0.00000E+00
         0.00000E+00
         0.00000E+00
         0.00000E+00
         0.00000E+00
         0.00000E+00
         0.00000E+00
         0.00000E+00
         0.00000E+00
         0.00000E+00
         0.00000E+00
         0.00000E+00
         0.00000E+00
         0.00000E+00
         0.00000E+00
         0.00000E+00
         0.00000E+00
         0.00000E+00
         0.00000E+00
         0.00000E+00
         0.00000E+00
         0.00000E+00
         0.00000E+00
         0.00000E+00
         0.00000E+00
         0.00000E+00
         0.00000E+00
         0.00000E+00
         0.00000E+00
         0.00000E+00
         0.00000E+00
         0.00000E+00
         0.00000E+00
         0.00000E+00
         0.00000E+00
         0.00000E+00
         0.00000E+00
         0.00000E+00
         0.00000E+00
         0.00000E+00
         0.00000E+00
         0.00000E+00
         0.00000E+00
         0.00000E+00
         0.00000E+00
         0.00000E+00
         0.00000E+00
         0.00000E+00
         0.00000E+00
         0.00000E+00
         0.00000E+00
         0.00000E+00
         0.00000E+00
         0.00000E+00
         0.00000E+00
         0.00000E+00
         0.00000E+00
         0.00000E+00
         0.00000E+00
         0.00000E+00
         0.00000E+00
         0.00000E+00
         0.00000E+00
         0.00000E+00
         0.00000E+00
         0.00000E+00
         0.00000E+00
         0.00000E+00
         0.00000E+00
         0.00000E+00
         0.00000E+00
         0.00000E+00
         0.00000E+00
         0.00000E+00
         0.00000E+00
         0.00000E+00
         0.00000E+00
         0.00000E+00
         0.00000E+00
         0.00000E+00
         0.00000E+00
         0.00000E+00
         0.00000E+00
         0.00000E+00
         0.00000E+00
         0.00000E+00
         0.00000E+00
         0.00000E+00
         0.00000E+00
         0.00000E+00
         0.00000E+00
         0.00000E+00
         0.00000E+00
         0.00000E+00
         0.00000E+00
         0.00000E+00
         0.00000E+00
         0.00000E+00
         0.00000E+00
         0.00000E+00
         0.00000E+00
         0.00000E+00
         0.00000E+00
         0.00000E+00
         0.00000E+00
         0.00000E+00
         0.00000E+00
         0.00000E+00
         0.00000E+00
         0.00000E+00
         0.00000E+00
         0.00000E+00
         0.00000E+00
         0.00000E+00
         0.00000E+00
         0.00000E+00
         0.00000E+00
         0.00000E+00
         0.00000E+00
         0.00000E+00
         0.00000E+00
         0.00000E+00
         0.00000E+00
         0.00000E+00
         0.00000E+00
         0.00000E+00
         0.00000E+00
         0.00000E+00
         0.00000E+00
         0.00000E+00
         0.00000E+00
         0.00000E+00
         0.00000E+00
         0.00000E+00
         0.00000E+00
         0.00000E+00
         0.00000E+00
         0.00000E+00
         0.00000E+00
         0.00000E+00
         0.00000E+00
         0.00000E+00
         0.00000E+00
         0.00000E+00
         0.00000E+00
         0.00000E+00
         0.00000E+00
         0.00000E+00
         0.00000E+00
         0.00000E+00
         0.00000E+00
         0.00000E+00
         0.00000E+00
         0.00000E+00
         0.00000E+00
         0.00000E+00
         0.00000E+00
         0.00000E+00
         0.00000E+00
         0.00000E+00
         0.00000E+00
         0.00000E+00
         0.00000E+00
         0.00000E+00
         0.00000E+00
         0.00000E+00
         0.00000E+00
         0.00000E+00
         0.00000E+00
         0.00000E+00
         0.00000E+00
         0.00000E+00
         0.00000E+00
         0.00000E+00
         0.00000E+00
         0.00000E+00
         0.00000E+00
         0.00000E+00
         0.00000E+00
         0.00000E+00
         0.00000E+00
         0.00000E+00
         0.00000E+00
         0.00000E+00
         0.00000E+00
         0.00000E+00
         0.00000E+00
         0.00000E+00
         0.00000E+00
         0.00000E+00
         0.00000E+00
         0.00000E+00
         0.00000E+00
         0.00000E+00
         0.00000E+00
         0.00000E+00
         0.00000E+00
         0.00000E+00
         0.00000E+00
         0.00000E+00
         0.00000E+00
         0.00000E+00
         0.00000E+00
         0.00000E+00
         0.00000E+00
         0.00000E+00
         0.00000E+00
         0.00000E+00
         0.00000E+00
         0.00000E+00
         0.00000E+00
         0.00000E+00
         0.00000E+00
         0.00000E+00
         0.00000E+00
         0.00000E+00
         0.00000E+00
         0.00000E+00
         0.00000E+00
         0.00000E+00
         0.00000E+00
         0.00000E+00
         0.00000E+00
         0.00000E+00
         0.00000E+00
         0.00000E+00
         0.00000E+00
         0.00000E+00
         0.00000E+00
         0.00000E+00
         0.00000E+00
         0.00000E+00
         0.00000E+00
         0.00000E+00
         0.00000E+00
         0.00000E+00
         0.00000E+00
         0.00000E+00
         0.00000E+00
         0.00000E+00
         0.00000E+00
         0.00000E+00
         0.00000E+00
         0.00000E+00
         0.00000E+00
         0.00000E+00
         0.00000E+00
         0.00000E+00
         0.00000E+00
         0.00000E+00
         0.00000E+00
         0.00000E+00
         0.00000E+00
         0.00000E+00
         0.00000E+00
         0.00000E+00
         0.00000E+00
         0.00000E+00
         0.00000E+00
         0.00000E+00
         0.00000E+00
         0.00000E+00
         0.00000E+00
         0.00000E+00
         0.00000E+00
         0.00000E+00
         0.00000E+00
         0.00000E+00
         0.00000E+00
         0.00000E+00
         0.00000E+00
         0.00000E+00
         0.00000E+00
         0.00000E+00
         0.00000E+00
         0.00000E+00
         0.00000E+00
         0.00000E+00
         0.00000E+00
         0.00000E+00
         0.00000E+00
         0.00000E+00
         0.00000E+00
         0.00000E+00
         0.00000E+00
         0.00000E+00
         0.00000E+00
         0.00000E+00
         0.00000E+00
         0.00000E+00
         0.00000E+00
         0.00000E+00
         0.00000E+00
         0.00000E+00
         0.00000E+00
         0.00000E+00
         0.00000E+00
         0.00000E+00
         0.00000E+00
         0.00000E+00
         0.00000E+00
         0.00000E+00
         0.00000E+00
         0.00000E+00
         0.00000E+00
         0.00000E+00
         0.00000E+00
         0.00000E+00
         0.00000E+00
         0.00000E+00
         0.00000E+00
         0.00000E+00
         0.00000E+00
         0.00000E+00
         0.00000E+00
         0.00000E+00
         0.00000E+00
         0.00000E+00
         0.00000E+00
         0.00000E+00
         0.00000E+00
         0.00000E+00
         0.00000E+00
         0.00000E+00
         0.00000E+00
         0.00000E+00
         0.00000E+00
         0.00000E+00
         0.00000E+00
         0.00000E+00
         0.00000E+00
         0.00000E+00
         0.00000E+00
         0.00000E+00
         0.00000E+00
         0.00000E+00
         0.00000E+00
         0.00000E+00
         0.00000E+00
         0.00000E+00
         0.00000E+00
         0.00000E+00
         0.00000E+00
         0.00000E+00
         0.00000E+00
         0.00000E+00
         0.00000E+00
         0.00000E+00
         0.00000E+00
         0.00000E+00
         0.00000E+00
         0.00000E+00
         0.00000E+00
         0.00000E+00
         0.00000E+00
         0.00000E+00
         0.00000E+00
         0.00000E+00
         0.00000E+00
         0.00000E+00
         0.00000E+00
         0.00000E+00
         0.00000E+00
         0.00000E+00
         0.00000E+00
         0.00000E+00
         0.00000E+00
         0.00000E+00
         0.00000E+00
         0.00000E+00
         0.00000E+00
         0.00000E+00
         0.00000E+00
         0.00000E+00
         0.00000E+00
         0.00000E+00
         0.00000E+00
         0.00000E+00
         0.00000E+00
         0.00000E+00
         0.00000E+00
         0.00000E+00
         0.00000E+00
         0.00000E+00
         0.00000E+00
         0.00000E+00
         0.00000E+00
         0.00000E+00
         0.00000E+00
         0.00000E+00
         0.00000E+00
         0.00000E+00
         0.00000E+00
         0.00000E+00
         0.00000E+00
         0.00000E+00
         0.00000E+00
         0.00000E+00
         0.00000E+00
         0.00000E+00
         0.00000E+00
         0.00000E+00
         0.00000E+00
         0.00000E+00
         0.00000E+00
         0.00000E+00
         0.00000E+00
         0.00000E+00
         0.00000E+00
         0.00000E+00
         0.00000E+00
         0.00000E+00
         0.00000E+00
         0.00000E+00
         0.00000E+00
         0.00000E+00
         0.00000E+00
         0.00000E+00
         0.00000E+00
         0.00000E+00
         0.00000E+00
         0.00000E+00
         0.00000E+00
         0.00000E+00
         0.00000E+00
         0.00000E+00
         0.00000E+00
         0.00000E+00
         0.00000E+00
         0.00000E+00
         0.00000E+00
         0.00000E+00
         0.00000E+00
         0.00000E+00
         0.00000E+00
         0.00000E+00
         0.00000E+00
         0.00000E+00
         0.00000E+00
         0.00000E+00
         0.00000E+00
         0.00000E+00
         0.00000E+00
         0.00000E+00
         0.00000E+00
         0.00000E+00
         0.00000E+00
         0.00000E+00
         0.00000E+00
         0.00000E+00
         0.00000E+00
         0.00000E+00
         0.00000E+00
         0.00000E+00
         0.00000E+00
         0.00000E+00
         0.00000E+00
         0.00000E+00
         0.00000E+00
         0.00000E+00
         0.00000E+00
         0.00000E+00
         0.00000E+00
         0.00000E+00
         0.00000E+00
         0.00000E+00
         0.00000E+00
         0.00000E+00
         0.00000E+00
         0.00000E+00
         0.00000E+00
         0.00000E+00
         0.00000E+00
         0.00000E+00
         0.00000E+00
         0.00000E+00
         0.00000E+00
         0.00000E+00
         0.00000E+00
         0.00000E+00
         0.00000E+00
         0.00000E+00
         0.00000E+00
         0.00000E+00
         0.00000E+00
         0.00000E+00
         0.00000E+00
         0.00000E+00
         0.00000E+00
         0.00000E+00
         0.00000E+00
         0.00000E+00
         0.00000E+00
         0.00000E+00
         0.00000E+00
         0.00000E+00
         0.00000E+00
         0.00000E+00
         0.00000E+00
         0.00000E+00
         0.00000E+00
         0.00000E+00
         0.00000E+00
         0.00000E+00
         0.00000E+00
         0.00000E+00
         0.00000E+00
         0.00000E+00
         0.00000E+00
         0.00000E+00
         0.00000E+00
         0.00000E+00
         0.00000E+00
         0.00000E+00
         0.00000E+00
         0.00000E+00
         0.00000E+00
         0.00000E+00
         0.00000E+00
         0.00000E+00
         0.00000E+00
         0.00000E+00
         0.00000E+00
         0.00000E+00
         0.00000E+00
         0.00000E+00
         0.00000E+00
         0.00000E+00
         0.00000E+00
         0.00000E+00
         0.00000E+00
         0.00000E+00
         0.00000E+00
         0.00000E+00
         0.00000E+00
         0.00000E+00
         0.00000E+00
         0.00000E+00
         0.00000E+00
         0.00000E+00
         0.00000E+00
         0.00000E+00
         0.00000E+00
         0.00000E+00
         0.00000E+00
         0.00000E+00
         0.00000E+00
         0.00000E+00
         0.00000E+00
         0.00000E+00
         0.00000E+00
         0.00000E+00
         0.00000E+00
         0.00000E+00
         0.00000E+00
         0.00000E+00
         0.00000E+00
         0.00000E+00
         0.00000E+00
         0.00000E+00
         0.00000E+00
         0.00000E+00
         0.00000E+00
         0.00000E+00
         0.00000E+00
         0.00000E+00
         0.00000E+00
         0.00000E+00
         0.00000E+00
         0.00000E+00
         0.00000E+00
         0.00000E+00
         0.00000E+00
         0.00000E+00
         0.00000E+00
         0.00000E+00
         0.00000E+00
         0.00000E+00
         0.00000E+00
         0.00000E+00
         0.00000E+00
         0.00000E+00
         0.00000E+00
         0.00000E+00
         0.00000E+00
         0.00000E+00
         0.00000E+00
         0.00000E+00
         0.00000E+00
         0.00000E+00
         0.00000E+00
         0.00000E+00
         0.00000E+00
         0.00000E+00
         0.00000E+00
         0.00000E+00
         0.00000E+00
         0.00000E+00
         0.00000E+00
         0.00000E+00
         0.00000E+00
         0.00000E+00
         0.00000E+00
         0.00000E+00
         0.00000E+00
         0.00000E+00
         0.00000E+00
         0.00000E+00
         0.00000E+00
         0.00000E+00
         0.00000E+00
         0.00000E+00
         0.00000E+00
         0.00000E+00
         0.00000E+00
         0.00000E+00
         0.00000E+00
         0.00000E+00
         0.00000E+00
         0.00000E+00
         0.00000E+00
         0.00000E+00
         0.00000E+00
         0.00000E+00
         0.00000E+00
         0.00000E+00
         0.00000E+00
         0.00000E+00
         0.00000E+00
         0.00000E+00
         0.00000E+00
         0.00000E+00
         0.00000E+00
         0.00000E+00
         0.00000E+00
         0.00000E+00
         0.00000E+00
         0.00000E+00
         0.00000E+00
         0.00000E+00
         0.00000E+00
         0.00000E+00
         0.00000E+00
         0.00000E+00
         0.00000E+00
         0.00000E+00
         0.00000E+00
         0.00000E+00
         0.00000E+00
         0.00000E+00
         0.00000E+00
         0.00000E+00
         0.00000E+00
         0.00000E+00
         0.00000E+00
         0.00000E+00
         0.00000E+00
         0.00000E+00
         0.00000E+00
         0.00000E+00
         0.00000E+00
         0.00000E+00
         0.00000E+00
         0.00000E+00
         0.00000E+00
         0.00000E+00
         0.00000E+00
         0.00000E+00
         0.00000E+00
         0.00000E+00
         0.00000E+00
         0.00000E+00
         0.00000E+00
         0.00000E+00
         0.00000E+00
         0.00000E+00
         0.00000E+00
         0.00000E+00
         0.00000E+00
         0.00000E+00
         0.00000E+00
         0.00000E+00
         0.00000E+00
         0.00000E+00
         0.00000E+00
         0.00000E+00
         0.00000E+00
         0.00000E+00
         0.00000E+00
         0.00000E+00
         0.00000E+00
         0.00000E+00
         0.00000E+00
         0.00000E+00
         0.00000E+00
         0.00000E+00
         0.00000E+00
         0.00000E+00
         0.00000E+00
         0.00000E+00
         0.00000E+00
         0.00000E+00
         0.00000E+00
         0.00000E+00
         0.00000E+00
         0.00000E+00
         0.00000E+00
         0.00000E+00
         0.00000E+00
         0.00000E+00
         0.00000E+00
         0.00000E+00
         0.00000E+00
         0.00000E+00
         0.00000E+00
         0.00000E+00
         0.00000E+00
         0.00000E+00
         0.00000E+00
         0.00000E+00
         0.00000E+00
         0.00000E+00
         0.00000E+00
         0.00000E+00
         0.00000E+00
         0.00000E+00
         0.00000E+00
         0.00000E+00
         0.00000E+00
         0.00000E+00
         0.00000E+00
         0.00000E+00
         0.00000E+00
         0.00000E+00
         0.00000E+00
         0.00000E+00
         0.00000E+00
         0.00000E+00
         0.00000E+00
         0.00000E+00
         0.00000E+00
         0.00000E+00
         0.00000E+00
         0.00000E+00
         0.00000E+00
         0.00000E+00
         0.00000E+00
         0.00000E+00
         0.00000E+00
         0.00000E+00
         0.00000E+00
         0.00000E+00
         0.00000E+00
         0.00000E+00
         0.00000E+00
         0.00000E+00
         0.00000E+00
         0.00000E+00
         0.00000E+00
         0.00000E+00
         0.00000E+00
         0.00000E+00
         0.00000E+00
         0.00000E+00
         0.00000E+00
         0.00000E+00
         0.00000E+00
         0.00000E+00
         0.00000E+00
         0.00000E+00
         0.00000E+00
         0.00000E+00
         0.00000E+00
         0.00000E+00
         0.00000E+00
         0.00000E+00
         0.00000E+00
         0.00000E+00
         0.00000E+00
         0.00000E+00
         0.00000E+00
         0.00000E+00
         0.00000E+00
         0.00000E+00
         0.00000E+00
         0.00000E+00
         0.00000E+00
         0.00000E+00
         0.00000E+00
         0.00000E+00
         0.00000E+00
         0.00000E+00
         0.00000E+00
         0.00000E+00
         0.00000E+00
         0.00000E+00
         0.00000E+00
         0.00000E+00
         0.00000E+00
         0.00000E+00
         0.00000E+00
         0.00000E+00
         0.00000E+00
         0.00000E+00
         0.00000E+00
         0.00000E+00
         0.00000E+00
         0.00000E+00
         0.00000E+00
         0.00000E+00
         0.00000E+00
         0.00000E+00
         0.00000E+00
         0.00000E+00
         0.00000E+00
         0.00000E+00
         0.00000E+00
         0.00000E+00
         0.00000E+00
         0.00000E+00
         0.00000E+00
         0.00000E+00
         0.00000E+00
         0.00000E+00
         0.00000E+00
         0.00000E+00
         0.00000E+00
         0.00000E+00
         0.00000E+00
         0.00000E+00
         0.00000E+00
         0.00000E+00
         0.00000E+00
         0.00000E+00
         0.00000E+00
         0.00000E+00
         0.00000E+00
         0.00000E+00
         0.00000E+00
         0.00000E+00
         0.00000E+00
         0.00000E+00
         0.00000E+00
         0.00000E+00
         0.00000E+00
         0.00000E+00
         0.00000E+00
         0.00000E+00
         0.00000E+00
         0.00000E+00
         0.00000E+00
         0.00000E+00
         0.00000E+00
         0.00000E+00
         0.00000E+00
         0.00000E+00
         0.00000E+00
         0.00000E+00
         0.00000E+00
         0.00000E+00
         0.00000E+00
         0.00000E+00
         0.00000E+00
         0.00000E+00
         0.00000E+00
         0.00000E+00
         0.00000E+00
         0.00000E+00
         0.00000E+00
         0.00000E+00
         0.00000E+00
         0.00000E+00
         0.00000E+00
         0.00000E+00
         0.00000E+00
         0.00000E+00
         0.00000E+00
         0.00000E+00
         0.00000E+00
         0.00000E+00
         0.00000E+00
         0.00000E+00
         0.00000E+00
         0.00000E+00
         0.00000E+00
         0.00000E+00
         0.00000E+00
         0.00000E+00
         0.00000E+00
         0.00000E+00
         0.00000E+00
         0.00000E+00
         0.00000E+00
         0.00000E+00
         0.00000E+00
         0.00000E+00
         0.00000E+00
         0.00000E+00
         0.00000E+00
         0.00000E+00
         0.00000E+00
         0.00000E+00
         0.00000E+00
         0.00000E+00
         0.00000E+00
         0.00000E+00
         0.00000E+00
         0.00000E+00
         0.00000E+00
         0.00000E+00
         0.00000E+00
         0.00000E+00
         0.00000E+00
         0.00000E+00
         0.00000E+00
         0.00000E+00
         0.00000E+00
         0.00000E+00
         0.00000E+00
         0.00000E+00
         0.00000E+00
         0.00000E+00
         0.00000E+00
         0.00000E+00
         0.00000E+00
         0.00000E+00
         0.00000E+00
         0.00000E+00
         0.00000E+00
         0.00000E+00
         0.00000E+00
         0.00000E+00
         0.00000E+00
         0.00000E+00
         0.00000E+00
         0.00000E+00
         0.00000E+00
         0.00000E+00
         0.00000E+00
         0.00000E+00
         0.00000E+00
         0.00000E+00
         0.00000E+00
         0.00000E+00
         0.00000E+00
         0.00000E+00
         0.00000E+00
         0.00000E+00
         0.00000E+00
         0.00000E+00
         0.00000E+00
         0.00000E+00
         0.00000E+00
         0.00000E+00
         0.00000E+00
         0.00000E+00
         0.00000E+00
         0.00000E+00
         0.00000E+00
         0.00000E+00
         0.00000E+00
         0.00000E+00
         0.00000E+00
         0.00000E+00
         0.00000E+00
         0.00000E+00
         0.00000E+00
         0.00000E+00
         0.00000E+00
         0.00000E+00
         0.00000E+00
         0.00000E+00
         0.00000E+00
         0.00000E+00
         0.00000E+00
         0.00000E+00
         0.00000E+00
         0.00000E+00
         0.00000E+00
         0.00000E+00
         0.00000E+00
         0.00000E+00
         0.00000E+00
         0.00000E+00
         0.00000E+00
         0.00000E+00
         0.00000E+00
         0.00000E+00
         0.00000E+00
         0.00000E+00
         0.00000E+00
         0.00000E+00
         0.00000E+00
         0.00000E+00
         0.00000E+00
         0.00000E+00
         0.00000E+00
         0.00000E+00
         0.00000E+00
         0.00000E+00
         0.00000E+00
         0.00000E+00
         0.00000E+00
         0.00000E+00
         0.00000E+00
         0.00000E+00
         0.00000E+00
         0.00000E+00
         0.00000E+00
         0.00000E+00
         0.00000E+00
         0.00000E+00
         0.00000E+00
         0.00000E+00
         0.00000E+00
         0.00000E+00
         0.00000E+00
         0.00000E+00
         0.00000E+00
         0.00000E+00
         0.00000E+00
         0.00000E+00
         0.00000E+00
         0.00000E+00
         0.00000E+00
         0.00000E+00
         0.00000E+00
         0.00000E+00
         0.00000E+00
         0.00000E+00
         0.00000E+00
         0.00000E+00
         0.00000E+00
         0.00000E+00
         0.00000E+00
         0.00000E+00
         0.00000E+00
         0.00000E+00
         0.00000E+00
         0.00000E+00
         0.00000E+00
         0.00000E+00
         0.00000E+00
         0.00000E+00
         0.00000E+00
         0.00000E+00
         0.00000E+00
         0.00000E+00
         0.00000E+00
         0.00000E+00
         0.00000E+00
         0.00000E+00
         0.00000E+00
         0.00000E+00
         0.00000E+00
         0.00000E+00
         0.00000E+00
         0.00000E+00
         0.00000E+00
         0.00000E+00
         0.00000E+00
         0.00000E+00
         0.00000E+00
         0.00000E+00
         0.00000E+00
         0.00000E+00
         0.00000E+00
         0.00000E+00
         0.00000E+00
         0.00000E+00
         0.00000E+00
         0.00000E+00
         0.00000E+00
         0.00000E+00
         0.00000E+00
         0.00000E+00
         0.00000E+00
         0.00000E+00
         0.00000E+00
         0.00000E+00
         0.00000E+00
         0.00000E+00
         0.00000E+00
         0.00000E+00
         0.00000E+00
         0.00000E+00
         0.00000E+00
         0.00000E+00
         0.00000E+00
         0.00000E+00
         0.00000E+00
         0.00000E+00
         0.00000E+00
         0.00000E+00
         0.00000E+00
         0.00000E+00
         0.00000E+00
         0.00000E+00
         0.00000E+00
         0.00000E+00
         0.00000E+00
         0.00000E+00
         0.00000E+00
         0.00000E+00
         0.00000E+00
         0.00000E+00
         0.00000E+00
         0.00000E+00
         0.00000E+00
         0.00000E+00
         0.00000E+00
         0.00000E+00
         0.00000E+00
         0.00000E+00
         0.00000E+00
         0.00000E+00
         0.00000E+00
         0.00000E+00
         0.00000E+00
         0.00000E+00
         0.00000E+00
         0.00000E+00
         0.00000E+00
         0.00000E+00
         0.00000E+00
         0.00000E+00
         0.00000E+00
         0.00000E+00
         0.00000E+00
         0.00000E+00
         0.00000E+00
         0.00000E+00
         0.00000E+00
         0.00000E+00
         0.00000E+00
         0.00000E+00
         0.00000E+00
         0.00000E+00
         0.00000E+00
         0.00000E+00
         0.00000E+00
         0.00000E+00
         0.00000E+00
         0.00000E+00
         0.00000E+00
         0.00000E+00
         0.00000E+00
         0.00000E+00
         0.00000E+00
         0.00000E+00
         0.00000E+00
         0.00000E+00
         0.00000E+00
         0.00000E+00
         0.00000E+00
         0.00000E+00
         0.00000E+00
         0.00000E+00
         0.00000E+00
         0.00000E+00
         0.00000E+00
         0.00000E+00
         0.00000E+00
         0.00000E+00
         0.00000E+00
         0.00000E+00
         0.00000E+00
         0.00000E+00
         0.00000E+00
         0.00000E+00
         0.00000E+00
         0.00000E+00
         0.00000E+00
         0.00000E+00
         0.00000E+00
         0.00000E+00
         0.00000E+00
         0.00000E+00
         0.00000E+00
         0.00000E+00
         0.00000E+00
         0.00000E+00
         0.00000E+00
         0.00000E+00
         0.00000E+00
         0.00000E+00
         0.00000E+00
         0.00000E+00
         0.00000E+00
         0.00000E+00
         0.00000E+00
         0.00000E+00
         0.00000E+00
         0.00000E+00
         0.00000E+00
         0.00000E+00
         0.00000E+00
         0.00000E+00
         0.00000E+00
         0.00000E+00
         0.00000E+00
         0.00000E+00
         0.00000E+00
         0.00000E+00
         0.00000E+00
         0.00000E+00
         0.00000E+00
         0.00000E+00
         0.00000E+00
         0.00000E+00
         0.00000E+00
         0.00000E+00
         0.00000E+00
         0.00000E+00
         0.00000E+00
         0.00000E+00
         0.00000E+00
         0.00000E+00
         0.00000E+00
         0.00000E+00
         0.00000E+00
         0.00000E+00
         0.00000E+00
         0.00000E+00
         0.00000E+00
         0.00000E+00
         0.00000E+00
         0.00000E+00
         0.00000E+00
         0.00000E+00
         0.00000E+00
         0.00000E+00
         0.00000E+00
         0.00000E+00
         0.00000E+00
         0.00000E+00
         0.00000E+00
         0.00000E+00
         0.00000E+00
         0.00000E+00
         0.00000E+00
         0.00000E+00
         0.00000E+00
         0.00000E+00
         0.00000E+00
         0.00000E+00
         0.00000E+00
         0.00000E+00
         0.00000E+00
         0.00000E+00
         0.00000E+00
         0.00000E+00
         0.00000E+00
         0.00000E+00
         0.00000E+00
         0.00000E+00
         0.00000E+00
         0.00000E+00
         0.00000E+00
         0.00000E+00
         0.00000E+00
         0.00000E+00
         0.00000E+00
         0.00000E+00
         0.00000E+00
         0.00000E+00
         0.00000E+00
         0.00000E+00
         0.00000E+00
         0.00000E+00
         0.00000E+00
         0.00000E+00
         0.00000E+00
         0.00000E+00
         0.00000E+00
         0.00000E+00
         0.00000E+00
         0.00000E+00
         0.00000E+00
         0.00000E+00
         0.00000E+00
         0.00000E+00
         0.00000E+00
         0.00000E+00
         0.00000E+00
         0.00000E+00
         0.00000E+00
         0.00000E+00
         0.00000E+00
         0.00000E+00
         0.00000E+00
         0.00000E+00
         0.00000E+00
         0.00000E+00
         0.00000E+00
         0.00000E+00
         0.00000E+00
         0.00000E+00
         0.00000E+00
         0.00000E+00
         0.00000E+00
         0.00000E+00
         0.00000E+00
         0.00000E+00
         0.00000E+00
         0.00000E+00
         0.00000E+00
         0.00000E+00
         0.00000E+00
         0.00000E+00
         0.00000E+00
         0.00000E+00
         0.00000E+00
         0.00000E+00
         0.00000E+00
         0.00000E+00
         0.00000E+00
         0.00000E+00
         0.00000E+00
         0.00000E+00
         0.00000E+00
         0.00000E+00
         0.00000E+00
         0.00000E+00
         0.00000E+00
         0.00000E+00
         0.00000E+00
         0.00000E+00
         0.00000E+00
         0.00000E+00
         0.00000E+00
         0.00000E+00
         0.00000E+00
         0.00000E+00
         0.00000E+00
         0.00000E+00
         0.00000E+00
         0.00000E+00
         0.00000E+00
         0.00000E+00
         0.00000E+00
         0.00000E+00
         0.00000E+00
         0.00000E+00
         0.00000E+00
         0.00000E+00
         0.00000E+00
         0.00000E+00
         0.00000E+00
         0.00000E+00
         0.00000E+00
         0.00000E+00
         0.00000E+00
         0.00000E+00
         0.00000E+00
         0.00000E+00
         0.00000E+00
         0.00000E+00
         0.00000E+00
         0.00000E+00
         0.00000E+00
         0.00000E+00
         0.00000E+00
         0.00000E+00
         0.00000E+00
         0.00000E+00
         0.00000E+00
         0.00000E+00
         0.00000E+00
         0.00000E+00
         0.00000E+00
         0.00000E+00
         0.00000E+00
         0.00000E+00
         0.00000E+00
         0.00000E+00
         0.00000E+00
         0.00000E+00
         0.00000E+00
         0.00000E+00
         0.00000E+00
         0.00000E+00
         0.00000E+00
         0.00000E+00
         0.00000E+00
         0.00000E+00
         0.00000E+00
         0.00000E+00
         0.00000E+00
         0.00000E+00
         0.00000E+00
         0.00000E+00
         0.00000E+00
         0.00000E+00
         0.00000E+00
         0.00000E+00
         0.00000E+00
         0.00000E+00
         0.00000E+00
         0.00000E+00
         0.00000E+00
         0.00000E+00
         0.00000E+00
         0.00000E+00
         0.00000E+00
         0.00000E+00
         0.00000E+00
         0.00000E+00
         0.00000E+00
         0.00000E+00
         0.00000E+00
         0.00000E+00
         0.00000E+00
         0.00000E+00
         0.00000E+00
         0.00000E+00
         0.00000E+00
         0.00000E+00
         0.00000E+00
         0.00000E+00
         0.00000E+00
         0.00000E+00
         0.00000E+00
         0.00000E+00
         0.00000E+00
         0.00000E+00
         0.00000E+00
         0.00000E+00
         0.00000E+00
         0.00000E+00
         0.00000E+00
         0.00000E+00
         0.00000E+00
         0.00000E+00
         0.00000E+00
         0.00000E+00
         0.00000E+00
         0.00000E+00
         0.00000E+00
         0.00000E+00
         0.00000E+00
         0.00000E+00
         0.00000E+00
         0.00000E+00
         0.00000E+00
         0.00000E+00
         0.00000E+00
         0.00000E+00
         0.00000E+00
         0.00000E+00
         0.00000E+00
         0.00000E+00
         0.00000E+00
         0.00000E+00
         0.00000E+00
         0.00000E+00
         0.00000E+00
         0.00000E+00
         0.00000E+00
         0.00000E+00
         0.00000E+00
         0.00000E+00
         0.00000E+00
         0.00000E+00
         0.00000E+00
         0.00000E+00
         0.00000E+00
         0.00000E+00
         0.00000E+00
         0.00000E+00
         0.00000E+00
         0.00000E+00
         0.00000E+00
         0.00000E+00
         0.00000E+00
         0.00000E+00
         0.00000E+00
         0.00000E+00
         0.00000E+00
         0.00000E+00
         0.00000E+00
         0.00000E+00
         0.00000E+00
         0.00000E+00
         0.00000E+00
         0.00000E+00
         0.00000E+00
         0.00000E+00
         0.00000E+00
         0.00000E+00
         0.00000E+00
         0.00000E+00
         0.00000E+00
         0.00000E+00
         0.00000E+00
         0.00000E+00
         0.00000E+00
         0.00000E+00
         0.00000E+00
         0.00000E+00
         0.00000E+00
         0.00000E+00
         0.00000E+00
         0.00000E+00
         0.00000E+00
         0.00000E+00
         0.00000E+00
         0.00000E+00
  
SCALARS                         fint_y  double 1
LOOKUP_TABLE default
         0.00000E+00
         0.00000E+00
         0.00000E+00
         0.00000E+00
         0.00000E+00
         0.00000E+00
         0.00000E+00
         0.00000E+00
         0.00000E+00
         0.00000E+00
         0.00000E+00
         0.00000E+00
         0.00000E+00
         0.00000E+00
         0.00000E+00
         0.00000E+00
         0.00000E+00
         0.00000E+00
         0.00000E+00
         0.00000E+00
         0.00000E+00
         0.00000E+00
         0.00000E+00
         0.00000E+00
         0.00000E+00
         0.00000E+00
         0.00000E+00
         0.00000E+00
         0.00000E+00
         0.00000E+00
         0.00000E+00
         0.00000E+00
         0.00000E+00
         0.00000E+00
         0.00000E+00
         0.00000E+00
         0.00000E+00
         0.00000E+00
         0.00000E+00
         0.00000E+00
         0.00000E+00
         0.00000E+00
         0.00000E+00
         0.00000E+00
         0.00000E+00
         0.00000E+00
         0.00000E+00
         0.00000E+00
         0.00000E+00
         0.00000E+00
         0.00000E+00
         0.00000E+00
         0.00000E+00
         0.00000E+00
         0.00000E+00
         0.00000E+00
         0.00000E+00
         0.00000E+00
         0.00000E+00
         0.00000E+00
         0.00000E+00
         0.00000E+00
         0.00000E+00
         0.00000E+00
         0.00000E+00
         0.00000E+00
         0.00000E+00
         0.00000E+00
         0.00000E+00
         0.00000E+00
         0.00000E+00
         0.00000E+00
         0.00000E+00
         0.00000E+00
         0.00000E+00
         0.00000E+00
         0.00000E+00
         0.00000E+00
         0.00000E+00
         0.00000E+00
         0.00000E+00
         0.00000E+00
         0.00000E+00
         0.00000E+00
         0.00000E+00
         0.00000E+00
         0.00000E+00
         0.00000E+00
         0.00000E+00
         0.00000E+00
         0.00000E+00
         0.00000E+00
         0.00000E+00
         0.00000E+00
         0.00000E+00
         0.00000E+00
         0.00000E+00
         0.00000E+00
         0.00000E+00
         0.00000E+00
         0.00000E+00
         0.00000E+00
         0.00000E+00
         0.00000E+00
         0.00000E+00
         0.00000E+00
         0.00000E+00
         0.00000E+00
         0.00000E+00
         0.00000E+00
         0.00000E+00
         0.00000E+00
         0.00000E+00
         0.00000E+00
         0.00000E+00
         0.00000E+00
         0.00000E+00
         0.00000E+00
         0.00000E+00
         0.00000E+00
         0.00000E+00
         0.00000E+00
         0.00000E+00
         0.00000E+00
         0.00000E+00
         0.00000E+00
         0.00000E+00
         0.00000E+00
         0.00000E+00
         0.00000E+00
         0.00000E+00
         0.00000E+00
         0.00000E+00
         0.00000E+00
         0.00000E+00
         0.00000E+00
         0.00000E+00
         0.00000E+00
         0.00000E+00
         0.00000E+00
         0.00000E+00
         0.00000E+00
         0.00000E+00
         0.00000E+00
         0.00000E+00
         0.00000E+00
         0.00000E+00
         0.00000E+00
         0.00000E+00
         0.00000E+00
         0.00000E+00
         0.00000E+00
         0.00000E+00
         0.00000E+00
         0.00000E+00
         0.00000E+00
         0.00000E+00
         0.00000E+00
         0.00000E+00
         0.00000E+00
         0.00000E+00
         0.00000E+00
         0.00000E+00
         0.00000E+00
         0.00000E+00
         0.00000E+00
         0.00000E+00
         0.00000E+00
         0.00000E+00
         0.00000E+00
         0.00000E+00
         0.00000E+00
         0.00000E+00
         0.00000E+00
         0.00000E+00
         0.00000E+00
         0.00000E+00
         0.00000E+00
         0.00000E+00
         0.00000E+00
         0.00000E+00
         0.00000E+00
         0.00000E+00
         0.00000E+00
         0.00000E+00
         0.00000E+00
         0.00000E+00
         0.00000E+00
         0.00000E+00
         0.00000E+00
         0.00000E+00
         0.00000E+00
         0.00000E+00
         0.00000E+00
         0.00000E+00
         0.00000E+00
         0.00000E+00
         0.00000E+00
         0.00000E+00
         0.00000E+00
         0.00000E+00
         0.00000E+00
         0.00000E+00
         0.00000E+00
         0.00000E+00
         0.00000E+00
         0.00000E+00
         0.00000E+00
         0.00000E+00
         0.00000E+00
         0.00000E+00
         0.00000E+00
         0.00000E+00
         0.00000E+00
         0.00000E+00
         0.00000E+00
         0.00000E+00
         0.00000E+00
         0.00000E+00
         0.00000E+00
         0.00000E+00
         0.00000E+00
         0.00000E+00
         0.00000E+00
         0.00000E+00
         0.00000E+00
         0.00000E+00
         0.00000E+00
         0.00000E+00
         0.00000E+00
         0.00000E+00
         0.00000E+00
         0.00000E+00
         0.00000E+00
         0.00000E+00
         0.00000E+00
         0.00000E+00
         0.00000E+00
         0.00000E+00
         0.00000E+00
         0.00000E+00
         0.00000E+00
         0.00000E+00
         0.00000E+00
         0.00000E+00
         0.00000E+00
         0.00000E+00
         0.00000E+00
         0.00000E+00
         0.00000E+00
         0.00000E+00
         0.00000E+00
         0.00000E+00
         0.00000E+00
         0.00000E+00
         0.00000E+00
         0.00000E+00
         0.00000E+00
         0.00000E+00
         0.00000E+00
         0.00000E+00
         0.00000E+00
         0.00000E+00
         0.00000E+00
         0.00000E+00
         0.00000E+00
         0.00000E+00
         0.00000E+00
         0.00000E+00
         0.00000E+00
         0.00000E+00
         0.00000E+00
         0.00000E+00
         0.00000E+00
         0.00000E+00
         0.00000E+00
         0.00000E+00
         0.00000E+00
         0.00000E+00
         0.00000E+00
         0.00000E+00
         0.00000E+00
         0.00000E+00
         0.00000E+00
         0.00000E+00
         0.00000E+00
         0.00000E+00
         0.00000E+00
         0.00000E+00
         0.00000E+00
         0.00000E+00
         0.00000E+00
         0.00000E+00
         0.00000E+00
         0.00000E+00
         0.00000E+00
         0.00000E+00
         0.00000E+00
         0.00000E+00
         0.00000E+00
         0.00000E+00
         0.00000E+00
         0.00000E+00
         0.00000E+00
         0.00000E+00
         0.00000E+00
         0.00000E+00
         0.00000E+00
         0.00000E+00
         0.00000E+00
         0.00000E+00
         0.00000E+00
         0.00000E+00
         0.00000E+00
         0.00000E+00
         0.00000E+00
         0.00000E+00
         0.00000E+00
         0.00000E+00
         0.00000E+00
         0.00000E+00
         0.00000E+00
         0.00000E+00
         0.00000E+00
         0.00000E+00
         0.00000E+00
         0.00000E+00
         0.00000E+00
         0.00000E+00
         0.00000E+00
         0.00000E+00
         0.00000E+00
         0.00000E+00
         0.00000E+00
         0.00000E+00
         0.00000E+00
         0.00000E+00
         0.00000E+00
         0.00000E+00
         0.00000E+00
         0.00000E+00
         0.00000E+00
         0.00000E+00
         0.00000E+00
         0.00000E+00
         0.00000E+00
         0.00000E+00
         0.00000E+00
         0.00000E+00
         0.00000E+00
         0.00000E+00
         0.00000E+00
         0.00000E+00
         0.00000E+00
         0.00000E+00
         0.00000E+00
         0.00000E+00
         0.00000E+00
         0.00000E+00
         0.00000E+00
         0.00000E+00
         0.00000E+00
         0.00000E+00
         0.00000E+00
         0.00000E+00
         0.00000E+00
         0.00000E+00
         0.00000E+00
         0.00000E+00
         0.00000E+00
         0.00000E+00
         0.00000E+00
         0.00000E+00
         0.00000E+00
         0.00000E+00
         0.00000E+00
         0.00000E+00
         0.00000E+00
         0.00000E+00
         0.00000E+00
         0.00000E+00
         0.00000E+00
         0.00000E+00
         0.00000E+00
         0.00000E+00
         0.00000E+00
         0.00000E+00
         0.00000E+00
         0.00000E+00
         0.00000E+00
         0.00000E+00
         0.00000E+00
         0.00000E+00
         0.00000E+00
         0.00000E+00
         0.00000E+00
         0.00000E+00
         0.00000E+00
         0.00000E+00
         0.00000E+00
         0.00000E+00
         0.00000E+00
         0.00000E+00
         0.00000E+00
         0.00000E+00
         0.00000E+00
         0.00000E+00
         0.00000E+00
         0.00000E+00
         0.00000E+00
         0.00000E+00
         0.00000E+00
         0.00000E+00
         0.00000E+00
         0.00000E+00
         0.00000E+00
         0.00000E+00
         0.00000E+00
         0.00000E+00
         0.00000E+00
         0.00000E+00
         0.00000E+00
         0.00000E+00
         0.00000E+00
         0.00000E+00
         0.00000E+00
         0.00000E+00
         0.00000E+00
         0.00000E+00
         0.00000E+00
         0.00000E+00
         0.00000E+00
         0.00000E+00
         0.00000E+00
         0.00000E+00
         0.00000E+00
         0.00000E+00
         0.00000E+00
         0.00000E+00
         0.00000E+00
         0.00000E+00
         0.00000E+00
         0.00000E+00
         0.00000E+00
         0.00000E+00
         0.00000E+00
         0.00000E+00
         0.00000E+00
         0.00000E+00
         0.00000E+00
         0.00000E+00
         0.00000E+00
         0.00000E+00
         0.00000E+00
         0.00000E+00
         0.00000E+00
         0.00000E+00
         0.00000E+00
         0.00000E+00
         0.00000E+00
         0.00000E+00
         0.00000E+00
         0.00000E+00
         0.00000E+00
         0.00000E+00
         0.00000E+00
         0.00000E+00
         0.00000E+00
         0.00000E+00
         0.00000E+00
         0.00000E+00
         0.00000E+00
         0.00000E+00
         0.00000E+00
         0.00000E+00
         0.00000E+00
         0.00000E+00
         0.00000E+00
         0.00000E+00
         0.00000E+00
         0.00000E+00
         0.00000E+00
         0.00000E+00
         0.00000E+00
         0.00000E+00
         0.00000E+00
         0.00000E+00
         0.00000E+00
         0.00000E+00
         0.00000E+00
         0.00000E+00
         0.00000E+00
         0.00000E+00
         0.00000E+00
         0.00000E+00
         0.00000E+00
         0.00000E+00
         0.00000E+00
         0.00000E+00
         0.00000E+00
         0.00000E+00
         0.00000E+00
         0.00000E+00
         0.00000E+00
         0.00000E+00
         0.00000E+00
         0.00000E+00
         0.00000E+00
         0.00000E+00
         0.00000E+00
         0.00000E+00
         0.00000E+00
         0.00000E+00
         0.00000E+00
         0.00000E+00
         0.00000E+00
         0.00000E+00
         0.00000E+00
         0.00000E+00
         0.00000E+00
         0.00000E+00
         0.00000E+00
         0.00000E+00
         0.00000E+00
         0.00000E+00
         0.00000E+00
         0.00000E+00
         0.00000E+00
         0.00000E+00
         0.00000E+00
         0.00000E+00
         0.00000E+00
         0.00000E+00
         0.00000E+00
         0.00000E+00
         0.00000E+00
         0.00000E+00
         0.00000E+00
         0.00000E+00
         0.00000E+00
         0.00000E+00
         0.00000E+00
         0.00000E+00
         0.00000E+00
         0.00000E+00
         0.00000E+00
         0.00000E+00
         0.00000E+00
         0.00000E+00
         0.00000E+00
         0.00000E+00
         0.00000E+00
         0.00000E+00
         0.00000E+00
         0.00000E+00
         0.00000E+00
         0.00000E+00
         0.00000E+00
         0.00000E+00
         0.00000E+00
         0.00000E+00
         0.00000E+00
         0.00000E+00
         0.00000E+00
         0.00000E+00
         0.00000E+00
         0.00000E+00
         0.00000E+00
         0.00000E+00
         0.00000E+00
         0.00000E+00
         0.00000E+00
         0.00000E+00
         0.00000E+00
         0.00000E+00
         0.00000E+00
         0.00000E+00
         0.00000E+00
         0.00000E+00
         0.00000E+00
         0.00000E+00
         0.00000E+00
         0.00000E+00
         0.00000E+00
         0.00000E+00
         0.00000E+00
         0.00000E+00
         0.00000E+00
         0.00000E+00
         0.00000E+00
         0.00000E+00
         0.00000E+00
         0.00000E+00
         0.00000E+00
         0.00000E+00
         0.00000E+00
         0.00000E+00
         0.00000E+00
         0.00000E+00
         0.00000E+00
         0.00000E+00
         0.00000E+00
         0.00000E+00
         0.00000E+00
         0.00000E+00
         0.00000E+00
         0.00000E+00
         0.00000E+00
         0.00000E+00
         0.00000E+00
         0.00000E+00
         0.00000E+00
         0.00000E+00
         0.00000E+00
         0.00000E+00
         0.00000E+00
         0.00000E+00
         0.00000E+00
         0.00000E+00
         0.00000E+00
         0.00000E+00
         0.00000E+00
         0.00000E+00
         0.00000E+00
         0.00000E+00
         0.00000E+00
         0.00000E+00
         0.00000E+00
         0.00000E+00
         0.00000E+00
         0.00000E+00
         0.00000E+00
         0.00000E+00
         0.00000E+00
         0.00000E+00
         0.00000E+00
         0.00000E+00
         0.00000E+00
         0.00000E+00
         0.00000E+00
         0.00000E+00
         0.00000E+00
         0.00000E+00
         0.00000E+00
         0.00000E+00
         0.00000E+00
         0.00000E+00
         0.00000E+00
         0.00000E+00
         0.00000E+00
         0.00000E+00
         0.00000E+00
         0.00000E+00
         0.00000E+00
         0.00000E+00
         0.00000E+00
         0.00000E+00
         0.00000E+00
         0.00000E+00
         0.00000E+00
         0.00000E+00
         0.00000E+00
         0.00000E+00
         0.00000E+00
         0.00000E+00
         0.00000E+00
         0.00000E+00
         0.00000E+00
         0.00000E+00
         0.00000E+00
         0.00000E+00
         0.00000E+00
         0.00000E+00
         0.00000E+00
         0.00000E+00
         0.00000E+00
         0.00000E+00
         0.00000E+00
         0.00000E+00
         0.00000E+00
         0.00000E+00
         0.00000E+00
         0.00000E+00
         0.00000E+00
         0.00000E+00
         0.00000E+00
         0.00000E+00
         0.00000E+00
         0.00000E+00
         0.00000E+00
         0.00000E+00
         0.00000E+00
         0.00000E+00
         0.00000E+00
         0.00000E+00
         0.00000E+00
         0.00000E+00
         0.00000E+00
         0.00000E+00
         0.00000E+00
         0.00000E+00
         0.00000E+00
         0.00000E+00
         0.00000E+00
         0.00000E+00
         0.00000E+00
         0.00000E+00
         0.00000E+00
         0.00000E+00
         0.00000E+00
         0.00000E+00
         0.00000E+00
         0.00000E+00
         0.00000E+00
         0.00000E+00
         0.00000E+00
         0.00000E+00
         0.00000E+00
         0.00000E+00
         0.00000E+00
         0.00000E+00
         0.00000E+00
         0.00000E+00
         0.00000E+00
         0.00000E+00
         0.00000E+00
         0.00000E+00
         0.00000E+00
         0.00000E+00
         0.00000E+00
         0.00000E+00
         0.00000E+00
         0.00000E+00
         0.00000E+00
         0.00000E+00
         0.00000E+00
         0.00000E+00
         0.00000E+00
         0.00000E+00
         0.00000E+00
         0.00000E+00
         0.00000E+00
         0.00000E+00
         0.00000E+00
         0.00000E+00
         0.00000E+00
         0.00000E+00
         0.00000E+00
         0.00000E+00
         0.00000E+00
         0.00000E+00
         0.00000E+00
         0.00000E+00
         0.00000E+00
         0.00000E+00
         0.00000E+00
         0.00000E+00
         0.00000E+00
         0.00000E+00
         0.00000E+00
         0.00000E+00
         0.00000E+00
         0.00000E+00
         0.00000E+00
         0.00000E+00
         0.00000E+00
         0.00000E+00
         0.00000E+00
         0.00000E+00
         0.00000E+00
         0.00000E+00
         0.00000E+00
         0.00000E+00
         0.00000E+00
         0.00000E+00
         0.00000E+00
         0.00000E+00
         0.00000E+00
         0.00000E+00
         0.00000E+00
         0.00000E+00
         0.00000E+00
         0.00000E+00
         0.00000E+00
         0.00000E+00
         0.00000E+00
         0.00000E+00
         0.00000E+00
         0.00000E+00
         0.00000E+00
         0.00000E+00
         0.00000E+00
         0.00000E+00
         0.00000E+00
         0.00000E+00
         0.00000E+00
         0.00000E+00
         0.00000E+00
         0.00000E+00
         0.00000E+00
         0.00000E+00
         0.00000E+00
         0.00000E+00
         0.00000E+00
         0.00000E+00
         0.00000E+00
         0.00000E+00
         0.00000E+00
         0.00000E+00
         0.00000E+00
         0.00000E+00
         0.00000E+00
         0.00000E+00
         0.00000E+00
         0.00000E+00
         0.00000E+00
         0.00000E+00
         0.00000E+00
         0.00000E+00
         0.00000E+00
         0.00000E+00
         0.00000E+00
         0.00000E+00
         0.00000E+00
         0.00000E+00
         0.00000E+00
         0.00000E+00
         0.00000E+00
         0.00000E+00
         0.00000E+00
         0.00000E+00
         0.00000E+00
         0.00000E+00
         0.00000E+00
         0.00000E+00
         0.00000E+00
         0.00000E+00
         0.00000E+00
         0.00000E+00
         0.00000E+00
         0.00000E+00
         0.00000E+00
         0.00000E+00
         0.00000E+00
         0.00000E+00
         0.00000E+00
         0.00000E+00
         0.00000E+00
         0.00000E+00
         0.00000E+00
         0.00000E+00
         0.00000E+00
         0.00000E+00
         0.00000E+00
         0.00000E+00
         0.00000E+00
         0.00000E+00
         0.00000E+00
         0.00000E+00
         0.00000E+00
         0.00000E+00
         0.00000E+00
         0.00000E+00
         0.00000E+00
         0.00000E+00
         0.00000E+00
         0.00000E+00
         0.00000E+00
         0.00000E+00
         0.00000E+00
         0.00000E+00
         0.00000E+00
         0.00000E+00
         0.00000E+00
         0.00000E+00
         0.00000E+00
         0.00000E+00
         0.00000E+00
         0.00000E+00
         0.00000E+00
         0.00000E+00
         0.00000E+00
         0.00000E+00
         0.00000E+00
         0.00000E+00
         0.00000E+00
         0.00000E+00
         0.00000E+00
         0.00000E+00
         0.00000E+00
         0.00000E+00
         0.00000E+00
         0.00000E+00
         0.00000E+00
         0.00000E+00
         0.00000E+00
         0.00000E+00
         0.00000E+00
         0.00000E+00
         0.00000E+00
         0.00000E+00
         0.00000E+00
         0.00000E+00
         0.00000E+00
         0.00000E+00
         0.00000E+00
         0.00000E+00
         0.00000E+00
         0.00000E+00
         0.00000E+00
         0.00000E+00
         0.00000E+00
         0.00000E+00
         0.00000E+00
         0.00000E+00
         0.00000E+00
         0.00000E+00
         0.00000E+00
         0.00000E+00
         0.00000E+00
         0.00000E+00
         0.00000E+00
         0.00000E+00
         0.00000E+00
         0.00000E+00
         0.00000E+00
         0.00000E+00
         0.00000E+00
         0.00000E+00
         0.00000E+00
         0.00000E+00
         0.00000E+00
         0.00000E+00
         0.00000E+00
         0.00000E+00
         0.00000E+00
         0.00000E+00
         0.00000E+00
         0.00000E+00
         0.00000E+00
         0.00000E+00
         0.00000E+00
         0.00000E+00
         0.00000E+00
         0.00000E+00
         0.00000E+00
         0.00000E+00
         0.00000E+00
         0.00000E+00
         0.00000E+00
         0.00000E+00
         0.00000E+00
         0.00000E+00
         0.00000E+00
         0.00000E+00
         0.00000E+00
         0.00000E+00
         0.00000E+00
         0.00000E+00
         0.00000E+00
         0.00000E+00
         0.00000E+00
         0.00000E+00
         0.00000E+00
         0.00000E+00
         0.00000E+00
         0.00000E+00
         0.00000E+00
         0.00000E+00
         0.00000E+00
         0.00000E+00
         0.00000E+00
         0.00000E+00
         0.00000E+00
         0.00000E+00
         0.00000E+00
         0.00000E+00
         0.00000E+00
         0.00000E+00
         0.00000E+00
         0.00000E+00
         0.00000E+00
         0.00000E+00
         0.00000E+00
         0.00000E+00
         0.00000E+00
         0.00000E+00
         0.00000E+00
         0.00000E+00
         0.00000E+00
         0.00000E+00
         0.00000E+00
         0.00000E+00
         0.00000E+00
         0.00000E+00
         0.00000E+00
         0.00000E+00
         0.00000E+00
         0.00000E+00
         0.00000E+00
         0.00000E+00
         0.00000E+00
         0.00000E+00
         0.00000E+00
         0.00000E+00
         0.00000E+00
         0.00000E+00
         0.00000E+00
         0.00000E+00
         0.00000E+00
         0.00000E+00
         0.00000E+00
         0.00000E+00
         0.00000E+00
         0.00000E+00
         0.00000E+00
         0.00000E+00
         0.00000E+00
         0.00000E+00
         0.00000E+00
         0.00000E+00
         0.00000E+00
         0.00000E+00
         0.00000E+00
         0.00000E+00
         0.00000E+00
         0.00000E+00
         0.00000E+00
         0.00000E+00
         0.00000E+00
         0.00000E+00
         0.00000E+00
         0.00000E+00
         0.00000E+00
         0.00000E+00
         0.00000E+00
         0.00000E+00
         0.00000E+00
         0.00000E+00
         0.00000E+00
         0.00000E+00
         0.00000E+00
         0.00000E+00
         0.00000E+00
         0.00000E+00
         0.00000E+00
         0.00000E+00
         0.00000E+00
         0.00000E+00
         0.00000E+00
         0.00000E+00
         0.00000E+00
         0.00000E+00
         0.00000E+00
         0.00000E+00
         0.00000E+00
         0.00000E+00
         0.00000E+00
         0.00000E+00
         0.00000E+00
         0.00000E+00
         0.00000E+00
         0.00000E+00
         0.00000E+00
         0.00000E+00
         0.00000E+00
         0.00000E+00
         0.00000E+00
         0.00000E+00
         0.00000E+00
         0.00000E+00
         0.00000E+00
         0.00000E+00
         0.00000E+00
         0.00000E+00
         0.00000E+00
         0.00000E+00
         0.00000E+00
         0.00000E+00
         0.00000E+00
         0.00000E+00
         0.00000E+00
         0.00000E+00
         0.00000E+00
         0.00000E+00
         0.00000E+00
         0.00000E+00
         0.00000E+00
         0.00000E+00
         0.00000E+00
         0.00000E+00
         0.00000E+00
         0.00000E+00
         0.00000E+00
         0.00000E+00
         0.00000E+00
         0.00000E+00
         0.00000E+00
         0.00000E+00
         0.00000E+00
         0.00000E+00
         0.00000E+00
         0.00000E+00
         0.00000E+00
         0.00000E+00
         0.00000E+00
         0.00000E+00
         0.00000E+00
         0.00000E+00
         0.00000E+00
         0.00000E+00
         0.00000E+00
         0.00000E+00
         0.00000E+00
         0.00000E+00
         0.00000E+00
         0.00000E+00
         0.00000E+00
         0.00000E+00
         0.00000E+00
         0.00000E+00
         0.00000E+00
         0.00000E+00
         0.00000E+00
         0.00000E+00
         0.00000E+00
         0.00000E+00
         0.00000E+00
         0.00000E+00
         0.00000E+00
         0.00000E+00
         0.00000E+00
         0.00000E+00
         0.00000E+00
         0.00000E+00
         0.00000E+00
         0.00000E+00
         0.00000E+00
         0.00000E+00
         0.00000E+00
         0.00000E+00
         0.00000E+00
         0.00000E+00
         0.00000E+00
         0.00000E+00
         0.00000E+00
         0.00000E+00
         0.00000E+00
         0.00000E+00
         0.00000E+00
         0.00000E+00
         0.00000E+00
         0.00000E+00
         0.00000E+00
         0.00000E+00
         0.00000E+00
         0.00000E+00
         0.00000E+00
         0.00000E+00
         0.00000E+00
         0.00000E+00
         0.00000E+00
         0.00000E+00
         0.00000E+00
         0.00000E+00
         0.00000E+00
         0.00000E+00
         0.00000E+00
         0.00000E+00
         0.00000E+00
         0.00000E+00
         0.00000E+00
         0.00000E+00
         0.00000E+00
         0.00000E+00
         0.00000E+00
         0.00000E+00
         0.00000E+00
         0.00000E+00
         0.00000E+00
         0.00000E+00
         0.00000E+00
         0.00000E+00
         0.00000E+00
         0.00000E+00
         0.00000E+00
         0.00000E+00
         0.00000E+00
         0.00000E+00
         0.00000E+00
         0.00000E+00
         0.00000E+00
         0.00000E+00
         0.00000E+00
         0.00000E+00
         0.00000E+00
         0.00000E+00
         0.00000E+00
         0.00000E+00
         0.00000E+00
         0.00000E+00
         0.00000E+00
         0.00000E+00
         0.00000E+00
         0.00000E+00
         0.00000E+00
         0.00000E+00
         0.00000E+00
         0.00000E+00
         0.00000E+00
         0.00000E+00
         0.00000E+00
         0.00000E+00
         0.00000E+00
         0.00000E+00
         0.00000E+00
         0.00000E+00
         0.00000E+00
         0.00000E+00
         0.00000E+00
         0.00000E+00
         0.00000E+00
         0.00000E+00
         0.00000E+00
         0.00000E+00
         0.00000E+00
         0.00000E+00
         0.00000E+00
         0.00000E+00
         0.00000E+00
         0.00000E+00
         0.00000E+00
         0.00000E+00
         0.00000E+00
         0.00000E+00
         0.00000E+00
         0.00000E+00
         0.00000E+00
         0.00000E+00
         0.00000E+00
         0.00000E+00
         0.00000E+00
         0.00000E+00
         0.00000E+00
         0.00000E+00
         0.00000E+00
         0.00000E+00
         0.00000E+00
         0.00000E+00
         0.00000E+00
         0.00000E+00
         0.00000E+00
         0.00000E+00
         0.00000E+00
         0.00000E+00
         0.00000E+00
         0.00000E+00
         0.00000E+00
         0.00000E+00
         0.00000E+00
         0.00000E+00
         0.00000E+00
         0.00000E+00
         0.00000E+00
         0.00000E+00
         0.00000E+00
         0.00000E+00
         0.00000E+00
         0.00000E+00
         0.00000E+00
         0.00000E+00
         0.00000E+00
         0.00000E+00
         0.00000E+00
         0.00000E+00
         0.00000E+00
         0.00000E+00
         0.00000E+00
         0.00000E+00
         0.00000E+00
         0.00000E+00
         0.00000E+00
         0.00000E+00
         0.00000E+00
         0.00000E+00
         0.00000E+00
         0.00000E+00
         0.00000E+00
         0.00000E+00
         0.00000E+00
         0.00000E+00
         0.00000E+00
         0.00000E+00
         0.00000E+00
         0.00000E+00
         0.00000E+00
         0.00000E+00
         0.00000E+00
         0.00000E+00
         0.00000E+00
         0.00000E+00
         0.00000E+00
         0.00000E+00
         0.00000E+00
         0.00000E+00
         0.00000E+00
         0.00000E+00
         0.00000E+00
         0.00000E+00
         0.00000E+00
         0.00000E+00
         0.00000E+00
         0.00000E+00
         0.00000E+00
         0.00000E+00
         0.00000E+00
         0.00000E+00
         0.00000E+00
         0.00000E+00
         0.00000E+00
         0.00000E+00
         0.00000E+00
         0.00000E+00
         0.00000E+00
         0.00000E+00
         0.00000E+00
         0.00000E+00
         0.00000E+00
         0.00000E+00
         0.00000E+00
         0.00000E+00
         0.00000E+00
         0.00000E+00
         0.00000E+00
         0.00000E+00
         0.00000E+00
         0.00000E+00
         0.00000E+00
         0.00000E+00
         0.00000E+00
         0.00000E+00
         0.00000E+00
         0.00000E+00
         0.00000E+00
         0.00000E+00
         0.00000E+00
         0.00000E+00
         0.00000E+00
         0.00000E+00
         0.00000E+00
         0.00000E+00
         0.00000E+00
         0.00000E+00
         0.00000E+00
         0.00000E+00
         0.00000E+00
         0.00000E+00
         0.00000E+00
         0.00000E+00
         0.00000E+00
         0.00000E+00
         0.00000E+00
         0.00000E+00
         0.00000E+00
         0.00000E+00
         0.00000E+00
         0.00000E+00
         0.00000E+00
         0.00000E+00
         0.00000E+00
         0.00000E+00
         0.00000E+00
         0.00000E+00
         0.00000E+00
         0.00000E+00
         0.00000E+00
         0.00000E+00
         0.00000E+00
         0.00000E+00
         0.00000E+00
         0.00000E+00
         0.00000E+00
         0.00000E+00
         0.00000E+00
         0.00000E+00
         0.00000E+00
         0.00000E+00
         0.00000E+00
         0.00000E+00
         0.00000E+00
         0.00000E+00
         0.00000E+00
         0.00000E+00
         0.00000E+00
         0.00000E+00
         0.00000E+00
         0.00000E+00
         0.00000E+00
         0.00000E+00
         0.00000E+00
         0.00000E+00
         0.00000E+00
         0.00000E+00
         0.00000E+00
         0.00000E+00
         0.00000E+00
         0.00000E+00
         0.00000E+00
         0.00000E+00
         0.00000E+00
         0.00000E+00
         0.00000E+00
         0.00000E+00
         0.00000E+00
         0.00000E+00
         0.00000E+00
         0.00000E+00
         0.00000E+00
         0.00000E+00
         0.00000E+00
         0.00000E+00
         0.00000E+00
         0.00000E+00
         0.00000E+00
         0.00000E+00
         0.00000E+00
         0.00000E+00
         0.00000E+00
         0.00000E+00
         0.00000E+00
         0.00000E+00
         0.00000E+00
         0.00000E+00
         0.00000E+00
         0.00000E+00
         0.00000E+00
         0.00000E+00
         0.00000E+00
         0.00000E+00
         0.00000E+00
         0.00000E+00
         0.00000E+00
         0.00000E+00
         0.00000E+00
         0.00000E+00
         0.00000E+00
         0.00000E+00
         0.00000E+00
         0.00000E+00
         0.00000E+00
         0.00000E+00
         0.00000E+00
         0.00000E+00
         0.00000E+00
         0.00000E+00
         0.00000E+00
         0.00000E+00
         0.00000E+00
         0.00000E+00
         0.00000E+00
         0.00000E+00
         0.00000E+00
         0.00000E+00
         0.00000E+00
         0.00000E+00
         0.00000E+00
         0.00000E+00
         0.00000E+00
         0.00000E+00
         0.00000E+00
         0.00000E+00
         0.00000E+00
         0.00000E+00
         0.00000E+00
         0.00000E+00
         0.00000E+00
         0.00000E+00
         0.00000E+00
         0.00000E+00
         0.00000E+00
         0.00000E+00
         0.00000E+00
         0.00000E+00
         0.00000E+00
         0.00000E+00
         0.00000E+00
         0.00000E+00
         0.00000E+00
         0.00000E+00
         0.00000E+00
         0.00000E+00
         0.00000E+00
         0.00000E+00
         0.00000E+00
         0.00000E+00
         0.00000E+00
         0.00000E+00
         0.00000E+00
         0.00000E+00
         0.00000E+00
         0.00000E+00
         0.00000E+00
         0.00000E+00
         0.00000E+00
         0.00000E+00
         0.00000E+00
         0.00000E+00
         0.00000E+00
         0.00000E+00
         0.00000E+00
         0.00000E+00
         0.00000E+00
         0.00000E+00
         0.00000E+00
         0.00000E+00
         0.00000E+00
         0.00000E+00
         0.00000E+00
         0.00000E+00
         0.00000E+00
         0.00000E+00
         0.00000E+00
         0.00000E+00
         0.00000E+00
         0.00000E+00
         0.00000E+00
         0.00000E+00
         0.00000E+00
         0.00000E+00
         0.00000E+00
         0.00000E+00
         0.00000E+00
         0.00000E+00
         0.00000E+00
         0.00000E+00
         0.00000E+00
         0.00000E+00
         0.00000E+00
         0.00000E+00
         0.00000E+00
         0.00000E+00
         0.00000E+00
         0.00000E+00
         0.00000E+00
         0.00000E+00
         0.00000E+00
         0.00000E+00
         0.00000E+00
         0.00000E+00
         0.00000E+00
         0.00000E+00
         0.00000E+00
         0.00000E+00
         0.00000E+00
         0.00000E+00
         0.00000E+00
         0.00000E+00
         0.00000E+00
         0.00000E+00
         0.00000E+00
         0.00000E+00
         0.00000E+00
         0.00000E+00
         0.00000E+00
         0.00000E+00
         0.00000E+00
         0.00000E+00
         0.00000E+00
         0.00000E+00
         0.00000E+00
         0.00000E+00
         0.00000E+00
         0.00000E+00
         0.00000E+00
         0.00000E+00
         0.00000E+00
         0.00000E+00
         0.00000E+00
         0.00000E+00
         0.00000E+00
         0.00000E+00
         0.00000E+00
         0.00000E+00
         0.00000E+00
         0.00000E+00
         0.00000E+00
         0.00000E+00
         0.00000E+00
         0.00000E+00
         0.00000E+00
         0.00000E+00
         0.00000E+00
         0.00000E+00
         0.00000E+00
         0.00000E+00
         0.00000E+00
         0.00000E+00
         0.00000E+00
         0.00000E+00
         0.00000E+00
         0.00000E+00
         0.00000E+00
         0.00000E+00
         0.00000E+00
         0.00000E+00
         0.00000E+00
         0.00000E+00
         0.00000E+00
         0.00000E+00
         0.00000E+00
         0.00000E+00
         0.00000E+00
         0.00000E+00
         0.00000E+00
         0.00000E+00
         0.00000E+00
         0.00000E+00
         0.00000E+00
         0.00000E+00
         0.00000E+00
         0.00000E+00
         0.00000E+00
         0.00000E+00
         0.00000E+00
         0.00000E+00
         0.00000E+00
         0.00000E+00
         0.00000E+00
         0.00000E+00
         0.00000E+00
         0.00000E+00
         0.00000E+00
         0.00000E+00
         0.00000E+00
         0.00000E+00
         0.00000E+00
         0.00000E+00
         0.00000E+00
         0.00000E+00
         0.00000E+00
         0.00000E+00
         0.00000E+00
         0.00000E+00
         0.00000E+00
         0.00000E+00
         0.00000E+00
         0.00000E+00
         0.00000E+00
         0.00000E+00
         0.00000E+00
         0.00000E+00
         0.00000E+00
         0.00000E+00
         0.00000E+00
         0.00000E+00
         0.00000E+00
         0.00000E+00
         0.00000E+00
         0.00000E+00
         0.00000E+00
         0.00000E+00
         0.00000E+00
         0.00000E+00
         0.00000E+00
         0.00000E+00
         0.00000E+00
         0.00000E+00
         0.00000E+00
         0.00000E+00
         0.00000E+00
         0.00000E+00
         0.00000E+00
         0.00000E+00
         0.00000E+00
         0.00000E+00
         0.00000E+00
         0.00000E+00
         0.00000E+00
         0.00000E+00
         0.00000E+00
         0.00000E+00
         0.00000E+00
         0.00000E+00
         0.00000E+00
         0.00000E+00
         0.00000E+00
         0.00000E+00
         0.00000E+00
         0.00000E+00
         0.00000E+00
         0.00000E+00
         0.00000E+00
         0.00000E+00
         0.00000E+00
         0.00000E+00
         0.00000E+00
         0.00000E+00
         0.00000E+00
         0.00000E+00
         0.00000E+00
         0.00000E+00
         0.00000E+00
         0.00000E+00
         0.00000E+00
         0.00000E+00
         0.00000E+00
         0.00000E+00
         0.00000E+00
         0.00000E+00
         0.00000E+00
         0.00000E+00
         0.00000E+00
         0.00000E+00
         0.00000E+00
         0.00000E+00
         0.00000E+00
         0.00000E+00
         0.00000E+00
         0.00000E+00
         0.00000E+00
         0.00000E+00
         0.00000E+00
         0.00000E+00
         0.00000E+00
         0.00000E+00
         0.00000E+00
         0.00000E+00
         0.00000E+00
         0.00000E+00
         0.00000E+00
         0.00000E+00
         0.00000E+00
         0.00000E+00
         0.00000E+00
         0.00000E+00
         0.00000E+00
         0.00000E+00
         0.00000E+00
         0.00000E+00
         0.00000E+00
         0.00000E+00
         0.00000E+00
         0.00000E+00
         0.00000E+00
         0.00000E+00
         0.00000E+00
         0.00000E+00
         0.00000E+00
         0.00000E+00
         0.00000E+00
         0.00000E+00
         0.00000E+00
         0.00000E+00
         0.00000E+00
         0.00000E+00
         0.00000E+00
         0.00000E+00
         0.00000E+00
         0.00000E+00
         0.00000E+00
         0.00000E+00
         0.00000E+00
         0.00000E+00
         0.00000E+00
         0.00000E+00
         0.00000E+00
         0.00000E+00
         0.00000E+00
         0.00000E+00
         0.00000E+00
         0.00000E+00
         0.00000E+00
         0.00000E+00
         0.00000E+00
         0.00000E+00
         0.00000E+00
         0.00000E+00
         0.00000E+00
         0.00000E+00
         0.00000E+00
         0.00000E+00
         0.00000E+00
         0.00000E+00
         0.00000E+00
         0.00000E+00
         0.00000E+00
         0.00000E+00
         0.00000E+00
         0.00000E+00
         0.00000E+00
         0.00000E+00
         0.00000E+00
         0.00000E+00
         0.00000E+00
         0.00000E+00
         0.00000E+00
         0.00000E+00
         0.00000E+00
         0.00000E+00
         0.00000E+00
         0.00000E+00
         0.00000E+00
         0.00000E+00
         0.00000E+00
         0.00000E+00
         0.00000E+00
         0.00000E+00
         0.00000E+00
         0.00000E+00
         0.00000E+00
         0.00000E+00
         0.00000E+00
         0.00000E+00
         0.00000E+00
         0.00000E+00
         0.00000E+00
         0.00000E+00
         0.00000E+00
         0.00000E+00
         0.00000E+00
         0.00000E+00
         0.00000E+00
         0.00000E+00
         0.00000E+00
         0.00000E+00
         0.00000E+00
         0.00000E+00
         0.00000E+00
         0.00000E+00
         0.00000E+00
         0.00000E+00
         0.00000E+00
         0.00000E+00
         0.00000E+00
         0.00000E+00
         0.00000E+00
         0.00000E+00
         0.00000E+00
         0.00000E+00
         0.00000E+00
         0.00000E+00
         0.00000E+00
         0.00000E+00
         0.00000E+00
         0.00000E+00
         0.00000E+00
         0.00000E+00
         0.00000E+00
         0.00000E+00
         0.00000E+00
         0.00000E+00
         0.00000E+00
         0.00000E+00
         0.00000E+00
         0.00000E+00
         0.00000E+00
         0.00000E+00
         0.00000E+00
         0.00000E+00
         0.00000E+00
         0.00000E+00
         0.00000E+00
         0.00000E+00
         0.00000E+00
         0.00000E+00
         0.00000E+00
         0.00000E+00
         0.00000E+00
         0.00000E+00
         0.00000E+00
         0.00000E+00
         0.00000E+00
         0.00000E+00
         0.00000E+00
         0.00000E+00
         0.00000E+00
         0.00000E+00
         0.00000E+00
         0.00000E+00
         0.00000E+00
         0.00000E+00
         0.00000E+00
         0.00000E+00
         0.00000E+00
         0.00000E+00
         0.00000E+00
         0.00000E+00
         0.00000E+00
         0.00000E+00
         0.00000E+00
         0.00000E+00
         0.00000E+00
         0.00000E+00
         0.00000E+00
         0.00000E+00
         0.00000E+00
         0.00000E+00
         0.00000E+00
         0.00000E+00
         0.00000E+00
         0.00000E+00
         0.00000E+00
         0.00000E+00
         0.00000E+00
         0.00000E+00
         0.00000E+00
         0.00000E+00
         0.00000E+00
         0.00000E+00
         0.00000E+00
         0.00000E+00
         0.00000E+00
         0.00000E+00
         0.00000E+00
         0.00000E+00
         0.00000E+00
         0.00000E+00
         0.00000E+00
         0.00000E+00
         0.00000E+00
         0.00000E+00
         0.00000E+00
         0.00000E+00
         0.00000E+00
         0.00000E+00
         0.00000E+00
         0.00000E+00
         0.00000E+00
         0.00000E+00
         0.00000E+00
         0.00000E+00
         0.00000E+00
         0.00000E+00
         0.00000E+00
         0.00000E+00
         0.00000E+00
         0.00000E+00
         0.00000E+00
         0.00000E+00
         0.00000E+00
         0.00000E+00
         0.00000E+00
         0.00000E+00
         0.00000E+00
         0.00000E+00
         0.00000E+00
         0.00000E+00
         0.00000E+00
         0.00000E+00
         0.00000E+00
  
SCALARS                         fint_z  double 1
LOOKUP_TABLE default
         0.00000E+00
         0.00000E+00
         0.00000E+00
         0.00000E+00
         0.00000E+00
         0.00000E+00
         0.00000E+00
         0.00000E+00
         0.00000E+00
         0.00000E+00
         0.00000E+00
         0.00000E+00
         0.00000E+00
         0.00000E+00
         0.00000E+00
         0.00000E+00
         0.00000E+00
         0.00000E+00
         0.00000E+00
         0.00000E+00
         0.00000E+00
         0.00000E+00
         0.00000E+00
         0.00000E+00
         0.00000E+00
         0.00000E+00
         0.00000E+00
         0.00000E+00
         0.00000E+00
         0.00000E+00
         0.00000E+00
         0.00000E+00
         0.00000E+00
         0.00000E+00
         0.00000E+00
         0.00000E+00
         0.00000E+00
         0.00000E+00
         0.00000E+00
         0.00000E+00
         0.00000E+00
         0.00000E+00
         0.00000E+00
         0.00000E+00
         0.00000E+00
         0.00000E+00
         0.00000E+00
         0.00000E+00
         0.00000E+00
         0.00000E+00
         0.00000E+00
         0.00000E+00
         0.00000E+00
         0.00000E+00
         0.00000E+00
         0.00000E+00
         0.00000E+00
         0.00000E+00
         0.00000E+00
         0.00000E+00
         0.00000E+00
         0.00000E+00
         0.00000E+00
         0.00000E+00
         0.00000E+00
         0.00000E+00
         0.00000E+00
         0.00000E+00
         0.00000E+00
         0.00000E+00
         0.00000E+00
         0.00000E+00
         0.00000E+00
         0.00000E+00
         0.00000E+00
         0.00000E+00
         0.00000E+00
         0.00000E+00
         0.00000E+00
         0.00000E+00
         0.00000E+00
         0.00000E+00
         0.00000E+00
         0.00000E+00
         0.00000E+00
         0.00000E+00
         0.00000E+00
         0.00000E+00
         0.00000E+00
         0.00000E+00
         0.00000E+00
         0.00000E+00
         0.00000E+00
         0.00000E+00
         0.00000E+00
         0.00000E+00
         0.00000E+00
         0.00000E+00
         0.00000E+00
         0.00000E+00
         0.00000E+00
         0.00000E+00
         0.00000E+00
         0.00000E+00
         0.00000E+00
         0.00000E+00
         0.00000E+00
         0.00000E+00
         0.00000E+00
         0.00000E+00
         0.00000E+00
         0.00000E+00
         0.00000E+00
         0.00000E+00
         0.00000E+00
         0.00000E+00
         0.00000E+00
         0.00000E+00
         0.00000E+00
         0.00000E+00
         0.00000E+00
         0.00000E+00
         0.00000E+00
         0.00000E+00
         0.00000E+00
         0.00000E+00
         0.00000E+00
         0.00000E+00
         0.00000E+00
         0.00000E+00
         0.00000E+00
         0.00000E+00
         0.00000E+00
         0.00000E+00
         0.00000E+00
         0.00000E+00
         0.00000E+00
         0.00000E+00
         0.00000E+00
         0.00000E+00
         0.00000E+00
         0.00000E+00
         0.00000E+00
         0.00000E+00
         0.00000E+00
         0.00000E+00
         0.00000E+00
         0.00000E+00
         0.00000E+00
         0.00000E+00
         0.00000E+00
         0.00000E+00
         0.00000E+00
         0.00000E+00
         0.00000E+00
         0.00000E+00
         0.00000E+00
         0.00000E+00
         0.00000E+00
         0.00000E+00
         0.00000E+00
         0.00000E+00
         0.00000E+00
         0.00000E+00
         0.00000E+00
         0.00000E+00
         0.00000E+00
         0.00000E+00
         0.00000E+00
         0.00000E+00
         0.00000E+00
         0.00000E+00
         0.00000E+00
         0.00000E+00
         0.00000E+00
         0.00000E+00
         0.00000E+00
         0.00000E+00
         0.00000E+00
         0.00000E+00
         0.00000E+00
         0.00000E+00
         0.00000E+00
         0.00000E+00
         0.00000E+00
         0.00000E+00
         0.00000E+00
         0.00000E+00
         0.00000E+00
         0.00000E+00
         0.00000E+00
         0.00000E+00
         0.00000E+00
         0.00000E+00
         0.00000E+00
         0.00000E+00
         0.00000E+00
         0.00000E+00
         0.00000E+00
         0.00000E+00
         0.00000E+00
         0.00000E+00
         0.00000E+00
         0.00000E+00
         0.00000E+00
         0.00000E+00
         0.00000E+00
         0.00000E+00
         0.00000E+00
         0.00000E+00
         0.00000E+00
         0.00000E+00
         0.00000E+00
         0.00000E+00
         0.00000E+00
         0.00000E+00
         0.00000E+00
         0.00000E+00
         0.00000E+00
         0.00000E+00
         0.00000E+00
         0.00000E+00
         0.00000E+00
         0.00000E+00
         0.00000E+00
         0.00000E+00
         0.00000E+00
         0.00000E+00
         0.00000E+00
         0.00000E+00
         0.00000E+00
         0.00000E+00
         0.00000E+00
         0.00000E+00
         0.00000E+00
         0.00000E+00
         0.00000E+00
         0.00000E+00
         0.00000E+00
         0.00000E+00
         0.00000E+00
         0.00000E+00
         0.00000E+00
         0.00000E+00
         0.00000E+00
         0.00000E+00
         0.00000E+00
         0.00000E+00
         0.00000E+00
         0.00000E+00
         0.00000E+00
         0.00000E+00
         0.00000E+00
         0.00000E+00
         0.00000E+00
         0.00000E+00
         0.00000E+00
         0.00000E+00
         0.00000E+00
         0.00000E+00
         0.00000E+00
         0.00000E+00
         0.00000E+00
         0.00000E+00
         0.00000E+00
         0.00000E+00
         0.00000E+00
         0.00000E+00
         0.00000E+00
         0.00000E+00
         0.00000E+00
         0.00000E+00
         0.00000E+00
         0.00000E+00
         0.00000E+00
         0.00000E+00
         0.00000E+00
         0.00000E+00
         0.00000E+00
         0.00000E+00
         0.00000E+00
         0.00000E+00
         0.00000E+00
         0.00000E+00
         0.00000E+00
         0.00000E+00
         0.00000E+00
         0.00000E+00
         0.00000E+00
         0.00000E+00
         0.00000E+00
         0.00000E+00
         0.00000E+00
         0.00000E+00
         0.00000E+00
         0.00000E+00
         0.00000E+00
         0.00000E+00
         0.00000E+00
         0.00000E+00
         0.00000E+00
         0.00000E+00
         0.00000E+00
         0.00000E+00
         0.00000E+00
         0.00000E+00
         0.00000E+00
         0.00000E+00
         0.00000E+00
         0.00000E+00
         0.00000E+00
         0.00000E+00
         0.00000E+00
         0.00000E+00
         0.00000E+00
         0.00000E+00
         0.00000E+00
         0.00000E+00
         0.00000E+00
         0.00000E+00
         0.00000E+00
         0.00000E+00
         0.00000E+00
         0.00000E+00
         0.00000E+00
         0.00000E+00
         0.00000E+00
         0.00000E+00
         0.00000E+00
         0.00000E+00
         0.00000E+00
         0.00000E+00
         0.00000E+00
         0.00000E+00
         0.00000E+00
         0.00000E+00
         0.00000E+00
         0.00000E+00
         0.00000E+00
         0.00000E+00
         0.00000E+00
         0.00000E+00
         0.00000E+00
         0.00000E+00
         0.00000E+00
         0.00000E+00
         0.00000E+00
         0.00000E+00
         0.00000E+00
         0.00000E+00
         0.00000E+00
         0.00000E+00
         0.00000E+00
         0.00000E+00
         0.00000E+00
         0.00000E+00
         0.00000E+00
         0.00000E+00
         0.00000E+00
         0.00000E+00
         0.00000E+00
         0.00000E+00
         0.00000E+00
         0.00000E+00
         0.00000E+00
         0.00000E+00
         0.00000E+00
         0.00000E+00
         0.00000E+00
         0.00000E+00
         0.00000E+00
         0.00000E+00
         0.00000E+00
         0.00000E+00
         0.00000E+00
         0.00000E+00
         0.00000E+00
         0.00000E+00
         0.00000E+00
         0.00000E+00
         0.00000E+00
         0.00000E+00
         0.00000E+00
         0.00000E+00
         0.00000E+00
         0.00000E+00
         0.00000E+00
         0.00000E+00
         0.00000E+00
         0.00000E+00
         0.00000E+00
         0.00000E+00
         0.00000E+00
         0.00000E+00
         0.00000E+00
         0.00000E+00
         0.00000E+00
         0.00000E+00
         0.00000E+00
         0.00000E+00
         0.00000E+00
         0.00000E+00
         0.00000E+00
         0.00000E+00
         0.00000E+00
         0.00000E+00
         0.00000E+00
         0.00000E+00
         0.00000E+00
         0.00000E+00
         0.00000E+00
         0.00000E+00
         0.00000E+00
         0.00000E+00
         0.00000E+00
         0.00000E+00
         0.00000E+00
         0.00000E+00
         0.00000E+00
         0.00000E+00
         0.00000E+00
         0.00000E+00
         0.00000E+00
         0.00000E+00
         0.00000E+00
         0.00000E+00
         0.00000E+00
         0.00000E+00
         0.00000E+00
         0.00000E+00
         0.00000E+00
         0.00000E+00
         0.00000E+00
         0.00000E+00
         0.00000E+00
         0.00000E+00
         0.00000E+00
         0.00000E+00
         0.00000E+00
         0.00000E+00
         0.00000E+00
         0.00000E+00
         0.00000E+00
         0.00000E+00
         0.00000E+00
         0.00000E+00
         0.00000E+00
         0.00000E+00
         0.00000E+00
         0.00000E+00
         0.00000E+00
         0.00000E+00
         0.00000E+00
         0.00000E+00
         0.00000E+00
         0.00000E+00
         0.00000E+00
         0.00000E+00
         0.00000E+00
         0.00000E+00
         0.00000E+00
         0.00000E+00
         0.00000E+00
         0.00000E+00
         0.00000E+00
         0.00000E+00
         0.00000E+00
         0.00000E+00
         0.00000E+00
         0.00000E+00
         0.00000E+00
         0.00000E+00
         0.00000E+00
         0.00000E+00
         0.00000E+00
         0.00000E+00
         0.00000E+00
         0.00000E+00
         0.00000E+00
         0.00000E+00
         0.00000E+00
         0.00000E+00
         0.00000E+00
         0.00000E+00
         0.00000E+00
         0.00000E+00
         0.00000E+00
         0.00000E+00
         0.00000E+00
         0.00000E+00
         0.00000E+00
         0.00000E+00
         0.00000E+00
         0.00000E+00
         0.00000E+00
         0.00000E+00
         0.00000E+00
         0.00000E+00
         0.00000E+00
         0.00000E+00
         0.00000E+00
         0.00000E+00
         0.00000E+00
         0.00000E+00
         0.00000E+00
         0.00000E+00
         0.00000E+00
         0.00000E+00
         0.00000E+00
         0.00000E+00
         0.00000E+00
         0.00000E+00
         0.00000E+00
         0.00000E+00
         0.00000E+00
         0.00000E+00
         0.00000E+00
         0.00000E+00
         0.00000E+00
         0.00000E+00
         0.00000E+00
         0.00000E+00
         0.00000E+00
         0.00000E+00
         0.00000E+00
         0.00000E+00
         0.00000E+00
         0.00000E+00
         0.00000E+00
         0.00000E+00
         0.00000E+00
         0.00000E+00
         0.00000E+00
         0.00000E+00
         0.00000E+00
         0.00000E+00
         0.00000E+00
         0.00000E+00
         0.00000E+00
         0.00000E+00
         0.00000E+00
         0.00000E+00
         0.00000E+00
         0.00000E+00
         0.00000E+00
         0.00000E+00
         0.00000E+00
         0.00000E+00
         0.00000E+00
         0.00000E+00
         0.00000E+00
         0.00000E+00
         0.00000E+00
         0.00000E+00
         0.00000E+00
         0.00000E+00
         0.00000E+00
         0.00000E+00
         0.00000E+00
         0.00000E+00
         0.00000E+00
         0.00000E+00
         0.00000E+00
         0.00000E+00
         0.00000E+00
         0.00000E+00
         0.00000E+00
         0.00000E+00
         0.00000E+00
         0.00000E+00
         0.00000E+00
         0.00000E+00
         0.00000E+00
         0.00000E+00
         0.00000E+00
         0.00000E+00
         0.00000E+00
         0.00000E+00
         0.00000E+00
         0.00000E+00
         0.00000E+00
         0.00000E+00
         0.00000E+00
         0.00000E+00
         0.00000E+00
         0.00000E+00
         0.00000E+00
         0.00000E+00
         0.00000E+00
         0.00000E+00
         0.00000E+00
         0.00000E+00
         0.00000E+00
         0.00000E+00
         0.00000E+00
         0.00000E+00
         0.00000E+00
         0.00000E+00
         0.00000E+00
         0.00000E+00
         0.00000E+00
         0.00000E+00
         0.00000E+00
         0.00000E+00
         0.00000E+00
         0.00000E+00
         0.00000E+00
         0.00000E+00
         0.00000E+00
         0.00000E+00
         0.00000E+00
         0.00000E+00
         0.00000E+00
         0.00000E+00
         0.00000E+00
         0.00000E+00
         0.00000E+00
         0.00000E+00
         0.00000E+00
         0.00000E+00
         0.00000E+00
         0.00000E+00
         0.00000E+00
         0.00000E+00
         0.00000E+00
         0.00000E+00
         0.00000E+00
         0.00000E+00
         0.00000E+00
         0.00000E+00
         0.00000E+00
         0.00000E+00
         0.00000E+00
         0.00000E+00
         0.00000E+00
         0.00000E+00
         0.00000E+00
         0.00000E+00
         0.00000E+00
         0.00000E+00
         0.00000E+00
         0.00000E+00
         0.00000E+00
         0.00000E+00
         0.00000E+00
         0.00000E+00
         0.00000E+00
         0.00000E+00
         0.00000E+00
         0.00000E+00
         0.00000E+00
         0.00000E+00
         0.00000E+00
         0.00000E+00
         0.00000E+00
         0.00000E+00
         0.00000E+00
         0.00000E+00
         0.00000E+00
         0.00000E+00
         0.00000E+00
         0.00000E+00
         0.00000E+00
         0.00000E+00
         0.00000E+00
         0.00000E+00
         0.00000E+00
         0.00000E+00
         0.00000E+00
         0.00000E+00
         0.00000E+00
         0.00000E+00
         0.00000E+00
         0.00000E+00
         0.00000E+00
         0.00000E+00
         0.00000E+00
         0.00000E+00
         0.00000E+00
         0.00000E+00
         0.00000E+00
         0.00000E+00
         0.00000E+00
         0.00000E+00
         0.00000E+00
         0.00000E+00
         0.00000E+00
         0.00000E+00
         0.00000E+00
         0.00000E+00
         0.00000E+00
         0.00000E+00
         0.00000E+00
         0.00000E+00
         0.00000E+00
         0.00000E+00
         0.00000E+00
         0.00000E+00
         0.00000E+00
         0.00000E+00
         0.00000E+00
         0.00000E+00
         0.00000E+00
         0.00000E+00
         0.00000E+00
         0.00000E+00
         0.00000E+00
         0.00000E+00
         0.00000E+00
         0.00000E+00
         0.00000E+00
         0.00000E+00
         0.00000E+00
         0.00000E+00
         0.00000E+00
         0.00000E+00
         0.00000E+00
         0.00000E+00
         0.00000E+00
         0.00000E+00
         0.00000E+00
         0.00000E+00
         0.00000E+00
         0.00000E+00
         0.00000E+00
         0.00000E+00
         0.00000E+00
         0.00000E+00
         0.00000E+00
         0.00000E+00
         0.00000E+00
         0.00000E+00
         0.00000E+00
         0.00000E+00
         0.00000E+00
         0.00000E+00
         0.00000E+00
         0.00000E+00
         0.00000E+00
         0.00000E+00
         0.00000E+00
         0.00000E+00
         0.00000E+00
         0.00000E+00
         0.00000E+00
         0.00000E+00
         0.00000E+00
         0.00000E+00
         0.00000E+00
         0.00000E+00
         0.00000E+00
         0.00000E+00
         0.00000E+00
         0.00000E+00
         0.00000E+00
         0.00000E+00
         0.00000E+00
         0.00000E+00
         0.00000E+00
         0.00000E+00
         0.00000E+00
         0.00000E+00
         0.00000E+00
         0.00000E+00
         0.00000E+00
         0.00000E+00
         0.00000E+00
         0.00000E+00
         0.00000E+00
         0.00000E+00
         0.00000E+00
         0.00000E+00
         0.00000E+00
         0.00000E+00
         0.00000E+00
         0.00000E+00
         0.00000E+00
         0.00000E+00
         0.00000E+00
         0.00000E+00
         0.00000E+00
         0.00000E+00
         0.00000E+00
         0.00000E+00
         0.00000E+00
         0.00000E+00
         0.00000E+00
         0.00000E+00
         0.00000E+00
         0.00000E+00
         0.00000E+00
         0.00000E+00
         0.00000E+00
         0.00000E+00
         0.00000E+00
         0.00000E+00
         0.00000E+00
         0.00000E+00
         0.00000E+00
         0.00000E+00
         0.00000E+00
         0.00000E+00
         0.00000E+00
         0.00000E+00
         0.00000E+00
         0.00000E+00
         0.00000E+00
         0.00000E+00
         0.00000E+00
         0.00000E+00
         0.00000E+00
         0.00000E+00
         0.00000E+00
         0.00000E+00
         0.00000E+00
         0.00000E+00
         0.00000E+00
         0.00000E+00
         0.00000E+00
         0.00000E+00
         0.00000E+00
         0.00000E+00
         0.00000E+00
         0.00000E+00
         0.00000E+00
         0.00000E+00
         0.00000E+00
         0.00000E+00
         0.00000E+00
         0.00000E+00
         0.00000E+00
         0.00000E+00
         0.00000E+00
         0.00000E+00
         0.00000E+00
         0.00000E+00
         0.00000E+00
         0.00000E+00
         0.00000E+00
         0.00000E+00
         0.00000E+00
         0.00000E+00
         0.00000E+00
         0.00000E+00
         0.00000E+00
         0.00000E+00
         0.00000E+00
         0.00000E+00
         0.00000E+00
         0.00000E+00
         0.00000E+00
         0.00000E+00
         0.00000E+00
         0.00000E+00
         0.00000E+00
         0.00000E+00
         0.00000E+00
         0.00000E+00
         0.00000E+00
         0.00000E+00
         0.00000E+00
         0.00000E+00
         0.00000E+00
         0.00000E+00
         0.00000E+00
         0.00000E+00
         0.00000E+00
         0.00000E+00
         0.00000E+00
         0.00000E+00
         0.00000E+00
         0.00000E+00
         0.00000E+00
         0.00000E+00
         0.00000E+00
         0.00000E+00
         0.00000E+00
         0.00000E+00
         0.00000E+00
         0.00000E+00
         0.00000E+00
         0.00000E+00
         0.00000E+00
         0.00000E+00
         0.00000E+00
         0.00000E+00
         0.00000E+00
         0.00000E+00
         0.00000E+00
         0.00000E+00
         0.00000E+00
         0.00000E+00
         0.00000E+00
         0.00000E+00
         0.00000E+00
         0.00000E+00
         0.00000E+00
         0.00000E+00
         0.00000E+00
         0.00000E+00
         0.00000E+00
         0.00000E+00
         0.00000E+00
         0.00000E+00
         0.00000E+00
         0.00000E+00
         0.00000E+00
         0.00000E+00
         0.00000E+00
         0.00000E+00
         0.00000E+00
         0.00000E+00
         0.00000E+00
         0.00000E+00
         0.00000E+00
         0.00000E+00
         0.00000E+00
         0.00000E+00
         0.00000E+00
         0.00000E+00
         0.00000E+00
         0.00000E+00
         0.00000E+00
         0.00000E+00
         0.00000E+00
         0.00000E+00
         0.00000E+00
         0.00000E+00
         0.00000E+00
         0.00000E+00
         0.00000E+00
         0.00000E+00
         0.00000E+00
         0.00000E+00
         0.00000E+00
         0.00000E+00
         0.00000E+00
         0.00000E+00
         0.00000E+00
         0.00000E+00
         0.00000E+00
         0.00000E+00
         0.00000E+00
         0.00000E+00
         0.00000E+00
         0.00000E+00
         0.00000E+00
         0.00000E+00
         0.00000E+00
         0.00000E+00
         0.00000E+00
         0.00000E+00
         0.00000E+00
         0.00000E+00
         0.00000E+00
         0.00000E+00
         0.00000E+00
         0.00000E+00
         0.00000E+00
         0.00000E+00
         0.00000E+00
         0.00000E+00
         0.00000E+00
         0.00000E+00
         0.00000E+00
         0.00000E+00
         0.00000E+00
         0.00000E+00
         0.00000E+00
         0.00000E+00
         0.00000E+00
         0.00000E+00
         0.00000E+00
         0.00000E+00
         0.00000E+00
         0.00000E+00
         0.00000E+00
         0.00000E+00
         0.00000E+00
         0.00000E+00
         0.00000E+00
         0.00000E+00
         0.00000E+00
         0.00000E+00
         0.00000E+00
         0.00000E+00
         0.00000E+00
         0.00000E+00
         0.00000E+00
         0.00000E+00
         0.00000E+00
         0.00000E+00
         0.00000E+00
         0.00000E+00
         0.00000E+00
         0.00000E+00
         0.00000E+00
         0.00000E+00
         0.00000E+00
         0.00000E+00
         0.00000E+00
         0.00000E+00
         0.00000E+00
         0.00000E+00
         0.00000E+00
         0.00000E+00
         0.00000E+00
         0.00000E+00
         0.00000E+00
         0.00000E+00
         0.00000E+00
         0.00000E+00
         0.00000E+00
         0.00000E+00
         0.00000E+00
         0.00000E+00
         0.00000E+00
         0.00000E+00
         0.00000E+00
         0.00000E+00
         0.00000E+00
         0.00000E+00
         0.00000E+00
         0.00000E+00
         0.00000E+00
         0.00000E+00
         0.00000E+00
         0.00000E+00
         0.00000E+00
         0.00000E+00
         0.00000E+00
         0.00000E+00
         0.00000E+00
         0.00000E+00
         0.00000E+00
         0.00000E+00
         0.00000E+00
         0.00000E+00
         0.00000E+00
         0.00000E+00
         0.00000E+00
         0.00000E+00
         0.00000E+00
         0.00000E+00
         0.00000E+00
         0.00000E+00
         0.00000E+00
         0.00000E+00
         0.00000E+00
         0.00000E+00
         0.00000E+00
         0.00000E+00
         0.00000E+00
         0.00000E+00
         0.00000E+00
         0.00000E+00
         0.00000E+00
         0.00000E+00
         0.00000E+00
         0.00000E+00
         0.00000E+00
         0.00000E+00
         0.00000E+00
         0.00000E+00
         0.00000E+00
         0.00000E+00
         0.00000E+00
         0.00000E+00
         0.00000E+00
         0.00000E+00
         0.00000E+00
         0.00000E+00
         0.00000E+00
         0.00000E+00
         0.00000E+00
         0.00000E+00
         0.00000E+00
         0.00000E+00
         0.00000E+00
         0.00000E+00
         0.00000E+00
         0.00000E+00
         0.00000E+00
         0.00000E+00
         0.00000E+00
         0.00000E+00
         0.00000E+00
         0.00000E+00
         0.00000E+00
         0.00000E+00
         0.00000E+00
         0.00000E+00
         0.00000E+00
         0.00000E+00
         0.00000E+00
         0.00000E+00
         0.00000E+00
         0.00000E+00
         0.00000E+00
         0.00000E+00
         0.00000E+00
         0.00000E+00
         0.00000E+00
         0.00000E+00
         0.00000E+00
         0.00000E+00
         0.00000E+00
         0.00000E+00
         0.00000E+00
         0.00000E+00
         0.00000E+00
         0.00000E+00
         0.00000E+00
         0.00000E+00
         0.00000E+00
         0.00000E+00
         0.00000E+00
         0.00000E+00
         0.00000E+00
         0.00000E+00
         0.00000E+00
         0.00000E+00
         0.00000E+00
         0.00000E+00
         0.00000E+00
         0.00000E+00
         0.00000E+00
         0.00000E+00
         0.00000E+00
         0.00000E+00
         0.00000E+00
         0.00000E+00
         0.00000E+00
         0.00000E+00
         0.00000E+00
         0.00000E+00
         0.00000E+00
         0.00000E+00
         0.00000E+00
         0.00000E+00
         0.00000E+00
         0.00000E+00
         0.00000E+00
         0.00000E+00
         0.00000E+00
         0.00000E+00
         0.00000E+00
         0.00000E+00
         0.00000E+00
         0.00000E+00
         0.00000E+00
         0.00000E+00
         0.00000E+00
         0.00000E+00
         0.00000E+00
         0.00000E+00
         0.00000E+00
         0.00000E+00
         0.00000E+00
         0.00000E+00
         0.00000E+00
         0.00000E+00
         0.00000E+00
         0.00000E+00
         0.00000E+00
         0.00000E+00
         0.00000E+00
         0.00000E+00
         0.00000E+00
         0.00000E+00
         0.00000E+00
         0.00000E+00
         0.00000E+00
         0.00000E+00
         0.00000E+00
         0.00000E+00
         0.00000E+00
         0.00000E+00
         0.00000E+00
         0.00000E+00
         0.00000E+00
         0.00000E+00
         0.00000E+00
         0.00000E+00
         0.00000E+00
         0.00000E+00
         0.00000E+00
         0.00000E+00
         0.00000E+00
         0.00000E+00
         0.00000E+00
         0.00000E+00
         0.00000E+00
         0.00000E+00
         0.00000E+00
         0.00000E+00
         0.00000E+00
         0.00000E+00
         0.00000E+00
         0.00000E+00
         0.00000E+00
         0.00000E+00
         0.00000E+00
         0.00000E+00
         0.00000E+00
         0.00000E+00
         0.00000E+00
         0.00000E+00
         0.00000E+00
         0.00000E+00
         0.00000E+00
         0.00000E+00
         0.00000E+00
         0.00000E+00
         0.00000E+00
         0.00000E+00
         0.00000E+00
         0.00000E+00
         0.00000E+00
         0.00000E+00
         0.00000E+00
         0.00000E+00
         0.00000E+00
         0.00000E+00
         0.00000E+00
         0.00000E+00
         0.00000E+00
         0.00000E+00
         0.00000E+00
         0.00000E+00
         0.00000E+00
         0.00000E+00
         0.00000E+00
         0.00000E+00
         0.00000E+00
         0.00000E+00
         0.00000E+00
         0.00000E+00
         0.00000E+00
         0.00000E+00
         0.00000E+00
         0.00000E+00
         0.00000E+00
         0.00000E+00
         0.00000E+00
         0.00000E+00
         0.00000E+00
         0.00000E+00
         0.00000E+00
         0.00000E+00
         0.00000E+00
         0.00000E+00
         0.00000E+00
         0.00000E+00
         0.00000E+00
         0.00000E+00
         0.00000E+00
         0.00000E+00
         0.00000E+00
         0.00000E+00
         0.00000E+00
         0.00000E+00
         0.00000E+00
         0.00000E+00
         0.00000E+00
         0.00000E+00
         0.00000E+00
         0.00000E+00
         0.00000E+00
         0.00000E+00
         0.00000E+00
         0.00000E+00
         0.00000E+00
         0.00000E+00
         0.00000E+00
         0.00000E+00
         0.00000E+00
         0.00000E+00
         0.00000E+00
         0.00000E+00
         0.00000E+00
         0.00000E+00
         0.00000E+00
         0.00000E+00
         0.00000E+00
         0.00000E+00
         0.00000E+00
         0.00000E+00
         0.00000E+00
         0.00000E+00
         0.00000E+00
         0.00000E+00
         0.00000E+00
         0.00000E+00
         0.00000E+00
         0.00000E+00
         0.00000E+00
         0.00000E+00
         0.00000E+00
         0.00000E+00
         0.00000E+00
         0.00000E+00
         0.00000E+00
         0.00000E+00
         0.00000E+00
         0.00000E+00
         0.00000E+00
         0.00000E+00
         0.00000E+00
         0.00000E+00
         0.00000E+00
         0.00000E+00
         0.00000E+00
         0.00000E+00
         0.00000E+00
         0.00000E+00
         0.00000E+00
         0.00000E+00
         0.00000E+00
         0.00000E+00
         0.00000E+00
         0.00000E+00
         0.00000E+00
         0.00000E+00
         0.00000E+00
         0.00000E+00
         0.00000E+00
         0.00000E+00
         0.00000E+00
         0.00000E+00
         0.00000E+00
         0.00000E+00
         0.00000E+00
         0.00000E+00
         0.00000E+00
         0.00000E+00
         0.00000E+00
         0.00000E+00
         0.00000E+00
         0.00000E+00
         0.00000E+00
         0.00000E+00
         0.00000E+00
         0.00000E+00
         0.00000E+00
         0.00000E+00
         0.00000E+00
         0.00000E+00
         0.00000E+00
         0.00000E+00
         0.00000E+00
         0.00000E+00
         0.00000E+00
         0.00000E+00
         0.00000E+00
         0.00000E+00
         0.00000E+00
         0.00000E+00
         0.00000E+00
         0.00000E+00
         0.00000E+00
         0.00000E+00
         0.00000E+00
         0.00000E+00
         0.00000E+00
         0.00000E+00
         0.00000E+00
         0.00000E+00
         0.00000E+00
         0.00000E+00
         0.00000E+00
         0.00000E+00
         0.00000E+00
         0.00000E+00
         0.00000E+00
         0.00000E+00
         0.00000E+00
         0.00000E+00
         0.00000E+00
         0.00000E+00
         0.00000E+00
         0.00000E+00
         0.00000E+00
         0.00000E+00
         0.00000E+00
         0.00000E+00
         0.00000E+00
         0.00000E+00
         0.00000E+00
         0.00000E+00
         0.00000E+00
         0.00000E+00
         0.00000E+00
         0.00000E+00
         0.00000E+00
         0.00000E+00
         0.00000E+00
         0.00000E+00
         0.00000E+00
         0.00000E+00
         0.00000E+00
         0.00000E+00
         0.00000E+00
         0.00000E+00
         0.00000E+00
         0.00000E+00
         0.00000E+00
         0.00000E+00
         0.00000E+00
         0.00000E+00
         0.00000E+00
         0.00000E+00
         0.00000E+00
         0.00000E+00
         0.00000E+00
         0.00000E+00
         0.00000E+00
         0.00000E+00
         0.00000E+00
         0.00000E+00
         0.00000E+00
         0.00000E+00
         0.00000E+00
         0.00000E+00
         0.00000E+00
         0.00000E+00
         0.00000E+00
         0.00000E+00
         0.00000E+00
         0.00000E+00
         0.00000E+00
         0.00000E+00
         0.00000E+00
         0.00000E+00
         0.00000E+00
         0.00000E+00
         0.00000E+00
         0.00000E+00
         0.00000E+00
         0.00000E+00
         0.00000E+00
         0.00000E+00
         0.00000E+00
         0.00000E+00
         0.00000E+00
         0.00000E+00
         0.00000E+00
         0.00000E+00
         0.00000E+00
         0.00000E+00
         0.00000E+00
         0.00000E+00
         0.00000E+00
         0.00000E+00
         0.00000E+00
         0.00000E+00
         0.00000E+00
         0.00000E+00
         0.00000E+00
         0.00000E+00
         0.00000E+00
         0.00000E+00
         0.00000E+00
         0.00000E+00
         0.00000E+00
         0.00000E+00
         0.00000E+00
         0.00000E+00
         0.00000E+00
         0.00000E+00
         0.00000E+00
         0.00000E+00
         0.00000E+00
         0.00000E+00
         0.00000E+00
         0.00000E+00
         0.00000E+00
         0.00000E+00
         0.00000E+00
         0.00000E+00
         0.00000E+00
         0.00000E+00
         0.00000E+00
         0.00000E+00
         0.00000E+00
         0.00000E+00
         0.00000E+00
         0.00000E+00
         0.00000E+00
         0.00000E+00
         0.00000E+00
         0.00000E+00
         0.00000E+00
         0.00000E+00
         0.00000E+00
         0.00000E+00
         0.00000E+00
         0.00000E+00
         0.00000E+00
         0.00000E+00
         0.00000E+00
         0.00000E+00
         0.00000E+00
         0.00000E+00
         0.00000E+00
         0.00000E+00
         0.00000E+00
         0.00000E+00
         0.00000E+00
         0.00000E+00
         0.00000E+00
         0.00000E+00
         0.00000E+00
         0.00000E+00
         0.00000E+00
         0.00000E+00
         0.00000E+00
         0.00000E+00
         0.00000E+00
         0.00000E+00
         0.00000E+00
         0.00000E+00
         0.00000E+00
         0.00000E+00
         0.00000E+00
         0.00000E+00
         0.00000E+00
         0.00000E+00
         0.00000E+00
         0.00000E+00
         0.00000E+00
         0.00000E+00
         0.00000E+00
         0.00000E+00
         0.00000E+00
         0.00000E+00
         0.00000E+00
         0.00000E+00
         0.00000E+00
         0.00000E+00
         0.00000E+00
         0.00000E+00
         0.00000E+00
         0.00000E+00
         0.00000E+00
         0.00000E+00
         0.00000E+00
         0.00000E+00
         0.00000E+00
         0.00000E+00
         0.00000E+00
         0.00000E+00
         0.00000E+00
         0.00000E+00
         0.00000E+00
         0.00000E+00
         0.00000E+00
         0.00000E+00
         0.00000E+00
         0.00000E+00
         0.00000E+00
         0.00000E+00
         0.00000E+00
         0.00000E+00
         0.00000E+00
         0.00000E+00
         0.00000E+00
         0.00000E+00
         0.00000E+00
         0.00000E+00
         0.00000E+00
         0.00000E+00
         0.00000E+00
         0.00000E+00
         0.00000E+00
         0.00000E+00
         0.00000E+00
         0.00000E+00
         0.00000E+00
         0.00000E+00
         0.00000E+00
         0.00000E+00
         0.00000E+00
         0.00000E+00
         0.00000E+00
         0.00000E+00
         0.00000E+00
         0.00000E+00
         0.00000E+00
         0.00000E+00
         0.00000E+00
         0.00000E+00
         0.00000E+00
         0.00000E+00
         0.00000E+00
         0.00000E+00
         0.00000E+00
         0.00000E+00
         0.00000E+00
         0.00000E+00
         0.00000E+00
         0.00000E+00
         0.00000E+00
         0.00000E+00
         0.00000E+00
         0.00000E+00
         0.00000E+00
         0.00000E+00
         0.00000E+00
         0.00000E+00
         0.00000E+00
         0.00000E+00
         0.00000E+00
         0.00000E+00
         0.00000E+00
         0.00000E+00
         0.00000E+00
         0.00000E+00
         0.00000E+00
         0.00000E+00
         0.00000E+00
         0.00000E+00
         0.00000E+00
         0.00000E+00
         0.00000E+00
         0.00000E+00
         0.00000E+00
         0.00000E+00
         0.00000E+00
         0.00000E+00
         0.00000E+00
         0.00000E+00
         0.00000E+00
         0.00000E+00
         0.00000E+00
         0.00000E+00
         0.00000E+00
         0.00000E+00
         0.00000E+00
         0.00000E+00
         0.00000E+00
         0.00000E+00
         0.00000E+00
         0.00000E+00
         0.00000E+00
         0.00000E+00
         0.00000E+00
         0.00000E+00
         0.00000E+00
         0.00000E+00
         0.00000E+00
         0.00000E+00
         0.00000E+00
         0.00000E+00
         0.00000E+00
         0.00000E+00
         0.00000E+00
         0.00000E+00
         0.00000E+00
         0.00000E+00
         0.00000E+00
         0.00000E+00
         0.00000E+00
         0.00000E+00
         0.00000E+00
         0.00000E+00
         0.00000E+00
         0.00000E+00
         0.00000E+00
         0.00000E+00
         0.00000E+00
         0.00000E+00
         0.00000E+00
         0.00000E+00
         0.00000E+00
         0.00000E+00
         0.00000E+00
         0.00000E+00
         0.00000E+00
         0.00000E+00
         0.00000E+00
         0.00000E+00
         0.00000E+00
         0.00000E+00
         0.00000E+00
         0.00000E+00
         0.00000E+00
         0.00000E+00
         0.00000E+00
         0.00000E+00
         0.00000E+00
         0.00000E+00
         0.00000E+00
         0.00000E+00
         0.00000E+00
         0.00000E+00
         0.00000E+00
         0.00000E+00
         0.00000E+00
         0.00000E+00
         0.00000E+00
         0.00000E+00
         0.00000E+00
         0.00000E+00
         0.00000E+00
         0.00000E+00
         0.00000E+00
         0.00000E+00
         0.00000E+00
         0.00000E+00
         0.00000E+00
         0.00000E+00
         0.00000E+00
         0.00000E+00
         0.00000E+00
         0.00000E+00
         0.00000E+00
         0.00000E+00
         0.00000E+00
         0.00000E+00
         0.00000E+00
         0.00000E+00
         0.00000E+00
         0.00000E+00
         0.00000E+00
         0.00000E+00
         0.00000E+00
         0.00000E+00
         0.00000E+00
         0.00000E+00
         0.00000E+00
         0.00000E+00
         0.00000E+00
         0.00000E+00
         0.00000E+00
         0.00000E+00
         0.00000E+00
         0.00000E+00
         0.00000E+00
         0.00000E+00
         0.00000E+00
         0.00000E+00
         0.00000E+00
         0.00000E+00
         0.00000E+00
         0.00000E+00
         0.00000E+00
         0.00000E+00
         0.00000E+00
         0.00000E+00
         0.00000E+00
         0.00000E+00
         0.00000E+00
         0.00000E+00
         0.00000E+00
         0.00000E+00
         0.00000E+00
         0.00000E+00
         0.00000E+00
         0.00000E+00
         0.00000E+00
         0.00000E+00
         0.00000E+00
         0.00000E+00
         0.00000E+00
         0.00000E+00
         0.00000E+00
         0.00000E+00
         0.00000E+00
         0.00000E+00
         0.00000E+00
         0.00000E+00
         0.00000E+00
         0.00000E+00
         0.00000E+00
         0.00000E+00
         0.00000E+00
         0.00000E+00
         0.00000E+00
         0.00000E+00
         0.00000E+00
         0.00000E+00
         0.00000E+00
         0.00000E+00
         0.00000E+00
         0.00000E+00
         0.00000E+00
         0.00000E+00
         0.00000E+00
         0.00000E+00
         0.00000E+00
         0.00000E+00
         0.00000E+00
         0.00000E+00
         0.00000E+00
         0.00000E+00
         0.00000E+00
         0.00000E+00
         0.00000E+00
         0.00000E+00
         0.00000E+00
         0.00000E+00
         0.00000E+00
         0.00000E+00
         0.00000E+00
         0.00000E+00
         0.00000E+00
         0.00000E+00
         0.00000E+00
         0.00000E+00
         0.00000E+00
         0.00000E+00
         0.00000E+00
         0.00000E+00
         0.00000E+00
         0.00000E+00
         0.00000E+00
         0.00000E+00
         0.00000E+00
         0.00000E+00
         0.00000E+00
         0.00000E+00
         0.00000E+00
         0.00000E+00
         0.00000E+00
         0.00000E+00
         0.00000E+00
         0.00000E+00
         0.00000E+00
         0.00000E+00
         0.00000E+00
         0.00000E+00
         0.00000E+00
         0.00000E+00
         0.00000E+00
         0.00000E+00
         0.00000E+00
         0.00000E+00
         0.00000E+00
         0.00000E+00
         0.00000E+00
         0.00000E+00
         0.00000E+00
         0.00000E+00
         0.00000E+00
         0.00000E+00
         0.00000E+00
         0.00000E+00
         0.00000E+00
         0.00000E+00
         0.00000E+00
         0.00000E+00
         0.00000E+00
         0.00000E+00
         0.00000E+00
         0.00000E+00
         0.00000E+00
         0.00000E+00
         0.00000E+00
         0.00000E+00
         0.00000E+00
         0.00000E+00
         0.00000E+00
         0.00000E+00
         0.00000E+00
         0.00000E+00
         0.00000E+00
         0.00000E+00
         0.00000E+00
         0.00000E+00
         0.00000E+00
         0.00000E+00
         0.00000E+00
         0.00000E+00
         0.00000E+00
         0.00000E+00
         0.00000E+00
         0.00000E+00
         0.00000E+00
         0.00000E+00
         0.00000E+00
         0.00000E+00
         0.00000E+00
         0.00000E+00
         0.00000E+00
         0.00000E+00
         0.00000E+00
         0.00000E+00
         0.00000E+00
         0.00000E+00
         0.00000E+00
         0.00000E+00
         0.00000E+00
         0.00000E+00
         0.00000E+00
         0.00000E+00
         0.00000E+00
         0.00000E+00
         0.00000E+00
         0.00000E+00
         0.00000E+00
         0.00000E+00
         0.00000E+00
         0.00000E+00
         0.00000E+00
         0.00000E+00
         0.00000E+00
         0.00000E+00
         0.00000E+00
         0.00000E+00
         0.00000E+00
         0.00000E+00
         0.00000E+00
         0.00000E+00
         0.00000E+00
         0.00000E+00
         0.00000E+00
         0.00000E+00
         0.00000E+00
         0.00000E+00
         0.00000E+00
         0.00000E+00
         0.00000E+00
         0.00000E+00
         0.00000E+00
         0.00000E+00
         0.00000E+00
         0.00000E+00
         0.00000E+00
         0.00000E+00
         0.00000E+00
         0.00000E+00
         0.00000E+00
         0.00000E+00
         0.00000E+00
         0.00000E+00
         0.00000E+00
         0.00000E+00
         0.00000E+00
         0.00000E+00
         0.00000E+00
         0.00000E+00
         0.00000E+00
         0.00000E+00
         0.00000E+00
         0.00000E+00
         0.00000E+00
         0.00000E+00
         0.00000E+00
         0.00000E+00
  
SCALARS        characteristic_distance  double 1
LOOKUP_TABLE default
         0.00000E+00
         0.00000E+00
         0.00000E+00
         0.00000E+00
         0.00000E+00
         0.00000E+00
         0.00000E+00
         0.00000E+00
         0.00000E+00
         0.00000E+00
         0.00000E+00
         0.00000E+00
         0.00000E+00
         0.00000E+00
         0.00000E+00
         0.00000E+00
         0.00000E+00
         0.00000E+00
         0.00000E+00
         0.00000E+00
         0.00000E+00
         0.00000E+00
         0.00000E+00
         0.00000E+00
         0.00000E+00
         0.00000E+00
         0.00000E+00
         0.00000E+00
         0.00000E+00
         0.00000E+00
         0.00000E+00
         0.00000E+00
         0.00000E+00
         0.00000E+00
         0.00000E+00
         0.00000E+00
         0.00000E+00
         0.00000E+00
         0.00000E+00
         0.00000E+00
         0.00000E+00
         0.00000E+00
         0.00000E+00
         0.00000E+00
         0.00000E+00
         0.00000E+00
         0.00000E+00
         0.00000E+00
         0.00000E+00
         0.00000E+00
         0.00000E+00
         0.00000E+00
         0.00000E+00
         0.00000E+00
         0.00000E+00
         0.00000E+00
         0.00000E+00
         0.00000E+00
         0.00000E+00
         0.00000E+00
         0.00000E+00
         0.00000E+00
         0.00000E+00
         0.00000E+00
         0.00000E+00
         0.00000E+00
         0.00000E+00
         0.00000E+00
         0.00000E+00
         0.00000E+00
         0.00000E+00
         0.00000E+00
         0.00000E+00
         0.00000E+00
         0.00000E+00
         0.00000E+00
         0.00000E+00
         0.00000E+00
         0.00000E+00
         0.00000E+00
         0.00000E+00
         0.00000E+00
         0.00000E+00
         0.00000E+00
         0.00000E+00
         0.00000E+00
         0.00000E+00
         0.00000E+00
         0.00000E+00
         0.00000E+00
         0.00000E+00
         0.00000E+00
         0.00000E+00
         0.00000E+00
         0.00000E+00
         0.00000E+00
         0.00000E+00
         0.00000E+00
         0.00000E+00
         0.00000E+00
         0.00000E+00
         0.00000E+00
         0.00000E+00
         0.00000E+00
         0.00000E+00
         0.00000E+00
         0.00000E+00
         0.00000E+00
         0.00000E+00
         0.00000E+00
         0.00000E+00
         0.00000E+00
         0.00000E+00
         0.00000E+00
         0.00000E+00
         0.00000E+00
         0.00000E+00
         0.00000E+00
         0.00000E+00
         0.00000E+00
         0.00000E+00
         0.00000E+00
         0.00000E+00
         0.00000E+00
         0.00000E+00
         0.00000E+00
         0.00000E+00
         0.00000E+00
         0.00000E+00
         0.00000E+00
         0.00000E+00
         0.00000E+00
         0.00000E+00
         0.00000E+00
         0.00000E+00
         0.00000E+00
         0.00000E+00
         0.00000E+00
         0.00000E+00
         0.00000E+00
         0.00000E+00
         0.00000E+00
         0.00000E+00
         0.00000E+00
         0.00000E+00
         0.00000E+00
         0.00000E+00
         0.00000E+00
         0.00000E+00
         0.00000E+00
         0.00000E+00
         0.00000E+00
         0.00000E+00
         0.00000E+00
         0.00000E+00
         0.00000E+00
         0.00000E+00
         0.00000E+00
         0.00000E+00
         0.00000E+00
         0.00000E+00
         0.00000E+00
         0.00000E+00
         0.00000E+00
         0.00000E+00
         0.00000E+00
         0.00000E+00
         0.00000E+00
         0.00000E+00
         0.00000E+00
         0.00000E+00
         0.00000E+00
         0.00000E+00
         0.00000E+00
         0.00000E+00
         0.00000E+00
         0.00000E+00
         0.00000E+00
         0.00000E+00
         0.00000E+00
         0.00000E+00
         0.00000E+00
         0.00000E+00
         0.00000E+00
         0.00000E+00
         0.00000E+00
         0.00000E+00
         0.00000E+00
         0.00000E+00
         0.00000E+00
         0.00000E+00
         0.00000E+00
         0.00000E+00
         0.00000E+00
         0.00000E+00
         0.00000E+00
         0.00000E+00
         0.00000E+00
         0.00000E+00
         0.00000E+00
         0.00000E+00
         0.00000E+00
         0.00000E+00
         0.00000E+00
         0.00000E+00
         0.00000E+00
         0.00000E+00
         0.00000E+00
         0.00000E+00
         0.00000E+00
         0.00000E+00
         0.00000E+00
         0.00000E+00
         0.00000E+00
         0.00000E+00
         0.00000E+00
         0.00000E+00
         0.00000E+00
         0.00000E+00
         0.00000E+00
         0.00000E+00
         0.00000E+00
         0.00000E+00
         0.00000E+00
         0.00000E+00
         0.00000E+00
         0.00000E+00
         0.00000E+00
         0.00000E+00
         0.00000E+00
         0.00000E+00
         0.00000E+00
         0.00000E+00
         0.00000E+00
         0.00000E+00
         0.00000E+00
         0.00000E+00
         0.00000E+00
         0.00000E+00
         0.00000E+00
         0.00000E+00
         0.00000E+00
         0.00000E+00
         0.00000E+00
         0.00000E+00
         0.00000E+00
         0.00000E+00
         0.00000E+00
         0.00000E+00
         0.00000E+00
         0.00000E+00
         0.00000E+00
         0.00000E+00
         0.00000E+00
         0.00000E+00
         0.00000E+00
         0.00000E+00
         0.00000E+00
         0.00000E+00
         0.00000E+00
         0.00000E+00
         0.00000E+00
         0.00000E+00
         0.00000E+00
         0.00000E+00
         0.00000E+00
         0.00000E+00
         0.00000E+00
         0.00000E+00
         0.00000E+00
         0.00000E+00
         0.00000E+00
         0.00000E+00
         0.00000E+00
         0.00000E+00
         0.00000E+00
         0.00000E+00
         0.00000E+00
         0.00000E+00
         0.00000E+00
         0.00000E+00
         0.00000E+00
         0.00000E+00
         0.00000E+00
         0.00000E+00
         0.00000E+00
         0.00000E+00
         0.00000E+00
         0.00000E+00
         0.00000E+00
         0.00000E+00
         0.00000E+00
         0.00000E+00
         0.00000E+00
         0.00000E+00
         0.00000E+00
         0.00000E+00
         0.00000E+00
         0.00000E+00
         0.00000E+00
         0.00000E+00
         0.00000E+00
         0.00000E+00
         0.00000E+00
         0.00000E+00
         0.00000E+00
         0.00000E+00
         0.00000E+00
         0.00000E+00
         0.00000E+00
         0.00000E+00
         0.00000E+00
         0.00000E+00
         0.00000E+00
         0.00000E+00
         0.00000E+00
         0.00000E+00
         0.00000E+00
         0.00000E+00
         0.00000E+00
         0.00000E+00
         0.00000E+00
         0.00000E+00
         0.00000E+00
         0.00000E+00
         0.00000E+00
         0.00000E+00
         0.00000E+00
         0.00000E+00
         0.00000E+00
         0.00000E+00
         0.00000E+00
         0.00000E+00
         0.00000E+00
         0.00000E+00
         0.00000E+00
         0.00000E+00
         0.00000E+00
         0.00000E+00
         0.00000E+00
         0.00000E+00
         0.00000E+00
         0.00000E+00
         0.00000E+00
         0.00000E+00
         0.00000E+00
         0.00000E+00
         0.00000E+00
         0.00000E+00
         0.00000E+00
         0.00000E+00
         0.00000E+00
         0.00000E+00
         0.00000E+00
         0.00000E+00
         0.00000E+00
         0.00000E+00
         0.00000E+00
         0.00000E+00
         0.00000E+00
         0.00000E+00
         0.00000E+00
         0.00000E+00
         0.00000E+00
         0.00000E+00
         0.00000E+00
         0.00000E+00
         0.00000E+00
         0.00000E+00
         0.00000E+00
         0.00000E+00
         0.00000E+00
         0.00000E+00
         0.00000E+00
         0.00000E+00
         0.00000E+00
         0.00000E+00
         0.00000E+00
         0.00000E+00
         0.00000E+00
         0.00000E+00
         0.00000E+00
         0.00000E+00
         0.00000E+00
         0.00000E+00
         0.00000E+00
         0.00000E+00
         0.00000E+00
         0.00000E+00
         0.00000E+00
         0.00000E+00
         0.00000E+00
         0.00000E+00
         0.00000E+00
         0.00000E+00
         0.00000E+00
         0.00000E+00
         0.00000E+00
         0.00000E+00
         0.00000E+00
         0.00000E+00
         0.00000E+00
         0.00000E+00
         0.00000E+00
         0.00000E+00
         0.00000E+00
         0.00000E+00
         0.00000E+00
         0.00000E+00
         0.00000E+00
         0.00000E+00
         0.00000E+00
         0.00000E+00
         0.00000E+00
         0.00000E+00
         0.00000E+00
         0.00000E+00
         0.00000E+00
         0.00000E+00
         0.00000E+00
         0.00000E+00
         0.00000E+00
         0.00000E+00
         0.00000E+00
         0.00000E+00
         0.00000E+00
         0.00000E+00
         0.00000E+00
         0.00000E+00
         0.00000E+00
         0.00000E+00
         0.00000E+00
         0.00000E+00
         0.00000E+00
         0.00000E+00
         0.00000E+00
         0.00000E+00
         0.00000E+00
         0.00000E+00
         0.00000E+00
         0.00000E+00
         0.00000E+00
         0.00000E+00
         0.00000E+00
         0.00000E+00
         0.00000E+00
         0.00000E+00
         0.00000E+00
         0.00000E+00
         0.00000E+00
         0.00000E+00
         0.00000E+00
         0.00000E+00
         0.00000E+00
         0.00000E+00
         0.00000E+00
         0.00000E+00
         0.00000E+00
         0.00000E+00
         0.00000E+00
         0.00000E+00
         0.00000E+00
         0.00000E+00
         0.00000E+00
         0.00000E+00
         0.00000E+00
         0.00000E+00
         0.00000E+00
         0.00000E+00
         0.00000E+00
         0.00000E+00
         0.00000E+00
         0.00000E+00
         0.00000E+00
         0.00000E+00
         0.00000E+00
         0.00000E+00
         0.00000E+00
         0.00000E+00
         0.00000E+00
         0.00000E+00
         0.00000E+00
         0.00000E+00
         0.00000E+00
         0.00000E+00
         0.00000E+00
         0.00000E+00
         0.00000E+00
         0.00000E+00
         0.00000E+00
         0.00000E+00
         0.00000E+00
         0.00000E+00
         0.00000E+00
         0.00000E+00
         0.00000E+00
         0.00000E+00
         0.00000E+00
         0.00000E+00
         0.00000E+00
         0.00000E+00
         0.00000E+00
         0.00000E+00
         0.00000E+00
         0.00000E+00
         0.00000E+00
         0.00000E+00
         0.00000E+00
         0.00000E+00
         0.00000E+00
         0.00000E+00
         0.00000E+00
         0.00000E+00
         0.00000E+00
         0.00000E+00
         0.00000E+00
         0.00000E+00
         0.00000E+00
         0.00000E+00
         0.00000E+00
         0.00000E+00
         0.00000E+00
         0.00000E+00
         0.00000E+00
         0.00000E+00
         0.00000E+00
         0.00000E+00
         0.00000E+00
         0.00000E+00
         0.00000E+00
         0.00000E+00
         0.00000E+00
         0.00000E+00
         0.00000E+00
         0.00000E+00
         0.00000E+00
         0.00000E+00
         0.00000E+00
         0.00000E+00
         0.00000E+00
         0.00000E+00
         0.00000E+00
         0.00000E+00
         0.00000E+00
         0.00000E+00
         0.00000E+00
         0.00000E+00
         0.00000E+00
         0.00000E+00
         0.00000E+00
         0.00000E+00
         0.00000E+00
         0.00000E+00
         0.00000E+00
         0.00000E+00
         0.00000E+00
         0.00000E+00
         0.00000E+00
         0.00000E+00
         0.00000E+00
         0.00000E+00
         0.00000E+00
         0.00000E+00
         0.00000E+00
         0.00000E+00
         0.00000E+00
         0.00000E+00
         0.00000E+00
         0.00000E+00
         0.00000E+00
         0.00000E+00
         0.00000E+00
         0.00000E+00
         0.00000E+00
         0.00000E+00
         0.00000E+00
         0.00000E+00
         0.00000E+00
         0.00000E+00
         0.00000E+00
         0.00000E+00
         0.00000E+00
         0.00000E+00
         0.00000E+00
         0.00000E+00
         0.00000E+00
         0.00000E+00
         0.00000E+00
         0.00000E+00
         0.00000E+00
         0.00000E+00
         0.00000E+00
         0.00000E+00
         0.00000E+00
         0.00000E+00
         0.00000E+00
         0.00000E+00
         0.00000E+00
         0.00000E+00
         0.00000E+00
         0.00000E+00
         0.00000E+00
         0.00000E+00
         0.00000E+00
         0.00000E+00
         0.00000E+00
         0.00000E+00
         0.00000E+00
         0.00000E+00
         0.00000E+00
         0.00000E+00
         0.00000E+00
         0.00000E+00
         0.00000E+00
         0.00000E+00
         0.00000E+00
         0.00000E+00
         0.00000E+00
         0.00000E+00
         0.00000E+00
         0.00000E+00
         0.00000E+00
         0.00000E+00
         0.00000E+00
         0.00000E+00
         0.00000E+00
         0.00000E+00
         0.00000E+00
         0.00000E+00
         0.00000E+00
         0.00000E+00
         0.00000E+00
         0.00000E+00
         0.00000E+00
         0.00000E+00
         0.00000E+00
         0.00000E+00
         0.00000E+00
         0.00000E+00
         0.00000E+00
         0.00000E+00
         0.00000E+00
         0.00000E+00
         0.00000E+00
         0.00000E+00
         0.00000E+00
         0.00000E+00
         0.00000E+00
         0.00000E+00
         0.00000E+00
         0.00000E+00
         0.00000E+00
         0.00000E+00
         0.00000E+00
         0.00000E+00
         0.00000E+00
         0.00000E+00
         0.00000E+00
         0.00000E+00
         0.00000E+00
         0.00000E+00
         0.00000E+00
         0.00000E+00
         0.00000E+00
         0.00000E+00
         0.00000E+00
         0.00000E+00
         0.00000E+00
         0.00000E+00
         0.00000E+00
         0.00000E+00
         0.00000E+00
         0.00000E+00
         0.00000E+00
         0.00000E+00
         0.00000E+00
         0.00000E+00
         0.00000E+00
         0.00000E+00
         0.00000E+00
         0.00000E+00
         0.00000E+00
         0.00000E+00
         0.00000E+00
         0.00000E+00
         0.00000E+00
         0.00000E+00
         0.00000E+00
         0.00000E+00
         0.00000E+00
         0.00000E+00
         0.00000E+00
         0.00000E+00
         0.00000E+00
         0.00000E+00
         0.00000E+00
         0.00000E+00
         0.00000E+00
         0.00000E+00
         0.00000E+00
         0.00000E+00
         0.00000E+00
         0.00000E+00
         0.00000E+00
         0.00000E+00
         0.00000E+00
         0.00000E+00
         0.00000E+00
         0.00000E+00
         0.00000E+00
         0.00000E+00
         0.00000E+00
         0.00000E+00
         0.00000E+00
         0.00000E+00
         0.00000E+00
         0.00000E+00
         0.00000E+00
         0.00000E+00
         0.00000E+00
         0.00000E+00
         0.00000E+00
         0.00000E+00
         0.00000E+00
         0.00000E+00
         0.00000E+00
         0.00000E+00
         0.00000E+00
         0.00000E+00
         0.00000E+00
         0.00000E+00
         0.00000E+00
         0.00000E+00
         0.00000E+00
         0.00000E+00
         0.00000E+00
         0.00000E+00
         0.00000E+00
         0.00000E+00
         0.00000E+00
         0.00000E+00
         0.00000E+00
         0.00000E+00
         0.00000E+00
         0.00000E+00
         0.00000E+00
         0.00000E+00
         0.00000E+00
         0.00000E+00
         0.00000E+00
         0.00000E+00
         0.00000E+00
         0.00000E+00
         0.00000E+00
         0.00000E+00
         0.00000E+00
         0.00000E+00
         0.00000E+00
         0.00000E+00
         0.00000E+00
         0.00000E+00
         0.00000E+00
         0.00000E+00
         0.00000E+00
         0.00000E+00
         0.00000E+00
         0.00000E+00
         0.00000E+00
         0.00000E+00
         0.00000E+00
         0.00000E+00
         0.00000E+00
         0.00000E+00
         0.00000E+00
         0.00000E+00
         0.00000E+00
         0.00000E+00
         0.00000E+00
         0.00000E+00
         0.00000E+00
         0.00000E+00
         0.00000E+00
         0.00000E+00
         0.00000E+00
         0.00000E+00
         0.00000E+00
         0.00000E+00
         0.00000E+00
         0.00000E+00
         0.00000E+00
         0.00000E+00
         0.00000E+00
         0.00000E+00
         0.00000E+00
         0.00000E+00
         0.00000E+00
         0.00000E+00
         0.00000E+00
         0.00000E+00
         0.00000E+00
         0.00000E+00
         0.00000E+00
         0.00000E+00
         0.00000E+00
         0.00000E+00
         0.00000E+00
         0.00000E+00
         0.00000E+00
         0.00000E+00
         0.00000E+00
         0.00000E+00
         0.00000E+00
         0.00000E+00
         0.00000E+00
         0.00000E+00
         0.00000E+00
         0.00000E+00
         0.00000E+00
         0.00000E+00
         0.00000E+00
         0.00000E+00
         0.00000E+00
         0.00000E+00
         0.00000E+00
         0.00000E+00
         0.00000E+00
         0.00000E+00
         0.00000E+00
         0.00000E+00
         0.00000E+00
         0.00000E+00
         0.00000E+00
         0.00000E+00
         0.00000E+00
         0.00000E+00
         0.00000E+00
         0.00000E+00
         0.00000E+00
         0.00000E+00
         0.00000E+00
         0.00000E+00
         0.00000E+00
         0.00000E+00
         0.00000E+00
         0.00000E+00
         0.00000E+00
         0.00000E+00
         0.00000E+00
         0.00000E+00
         0.00000E+00
         0.00000E+00
         0.00000E+00
         0.00000E+00
         0.00000E+00
         0.00000E+00
         0.00000E+00
         0.00000E+00
         0.00000E+00
         0.00000E+00
         0.00000E+00
         0.00000E+00
         0.00000E+00
         0.00000E+00
         0.00000E+00
         0.00000E+00
         0.00000E+00
         0.00000E+00
         0.00000E+00
         0.00000E+00
         0.00000E+00
         0.00000E+00
         0.00000E+00
         0.00000E+00
         0.00000E+00
         0.00000E+00
         0.00000E+00
         0.00000E+00
         0.00000E+00
         0.00000E+00
         0.00000E+00
         0.00000E+00
         0.00000E+00
         0.00000E+00
         0.00000E+00
         0.00000E+00
         0.00000E+00
         0.00000E+00
         0.00000E+00
         0.00000E+00
         0.00000E+00
         0.00000E+00
         0.00000E+00
         0.00000E+00
         0.00000E+00
         0.00000E+00
         0.00000E+00
         0.00000E+00
         0.00000E+00
         0.00000E+00
         0.00000E+00
         0.00000E+00
         0.00000E+00
         0.00000E+00
         0.00000E+00
         0.00000E+00
         0.00000E+00
         0.00000E+00
         0.00000E+00
         0.00000E+00
         0.00000E+00
         0.00000E+00
         0.00000E+00
         0.00000E+00
         0.00000E+00
         0.00000E+00
         0.00000E+00
         0.00000E+00
         0.00000E+00
         0.00000E+00
         0.00000E+00
         0.00000E+00
         0.00000E+00
         0.00000E+00
         0.00000E+00
         0.00000E+00
         0.00000E+00
         0.00000E+00
         0.00000E+00
         0.00000E+00
         0.00000E+00
         0.00000E+00
         0.00000E+00
         0.00000E+00
         0.00000E+00
         0.00000E+00
         0.00000E+00
         0.00000E+00
         0.00000E+00
         0.00000E+00
         0.00000E+00
         0.00000E+00
         0.00000E+00
         0.00000E+00
         0.00000E+00
         0.00000E+00
         0.00000E+00
         0.00000E+00
         0.00000E+00
         0.00000E+00
         0.00000E+00
         0.00000E+00
         0.00000E+00
         0.00000E+00
         0.00000E+00
         0.00000E+00
         0.00000E+00
         0.00000E+00
         0.00000E+00
         0.00000E+00
         0.00000E+00
         0.00000E+00
         0.00000E+00
         0.00000E+00
         0.00000E+00
         0.00000E+00
         0.00000E+00
         0.00000E+00
         0.00000E+00
         0.00000E+00
         0.00000E+00
         0.00000E+00
         0.00000E+00
         0.00000E+00
         0.00000E+00
         0.00000E+00
         0.00000E+00
         0.00000E+00
         0.00000E+00
         0.00000E+00
         0.00000E+00
         0.00000E+00
         0.00000E+00
         0.00000E+00
         0.00000E+00
         0.00000E+00
         0.00000E+00
         0.00000E+00
         0.00000E+00
         0.00000E+00
         0.00000E+00
         0.00000E+00
         0.00000E+00
         0.00000E+00
         0.00000E+00
         0.00000E+00
         0.00000E+00
         0.00000E+00
         0.00000E+00
         0.00000E+00
         0.00000E+00
         0.00000E+00
         0.00000E+00
         0.00000E+00
         0.00000E+00
         0.00000E+00
         0.00000E+00
         0.00000E+00
         0.00000E+00
         0.00000E+00
         0.00000E+00
         0.00000E+00
         0.00000E+00
         0.00000E+00
         0.00000E+00
         0.00000E+00
         0.00000E+00
         0.00000E+00
         0.00000E+00
         0.00000E+00
         0.00000E+00
         0.00000E+00
         0.00000E+00
         0.00000E+00
         0.00000E+00
         0.00000E+00
         0.00000E+00
         0.00000E+00
         0.00000E+00
         0.00000E+00
         0.00000E+00
         0.00000E+00
         0.00000E+00
         0.00000E+00
         0.00000E+00
         0.00000E+00
         0.00000E+00
         0.00000E+00
         0.00000E+00
         0.00000E+00
         0.00000E+00
         0.00000E+00
         0.00000E+00
         0.00000E+00
         0.00000E+00
         0.00000E+00
         0.00000E+00
         0.00000E+00
         0.00000E+00
         0.00000E+00
         0.00000E+00
         0.00000E+00
         0.00000E+00
         0.00000E+00
         0.00000E+00
         0.00000E+00
         0.00000E+00
         0.00000E+00
         0.00000E+00
         0.00000E+00
         0.00000E+00
         0.00000E+00
         0.00000E+00
         0.00000E+00
         0.00000E+00
         0.00000E+00
         0.00000E+00
         0.00000E+00
         0.00000E+00
         0.00000E+00
         0.00000E+00
         0.00000E+00
         0.00000E+00
         0.00000E+00
         0.00000E+00
         0.00000E+00
         0.00000E+00
         0.00000E+00
         0.00000E+00
         0.00000E+00
         0.00000E+00
         0.00000E+00
         0.00000E+00
         0.00000E+00
         0.00000E+00
         0.00000E+00
         0.00000E+00
         0.00000E+00
         0.00000E+00
         0.00000E+00
         0.00000E+00
         0.00000E+00
         0.00000E+00
         0.00000E+00
         0.00000E+00
         0.00000E+00
         0.00000E+00
         0.00000E+00
         0.00000E+00
         0.00000E+00
         0.00000E+00
         0.00000E+00
         0.00000E+00
         0.00000E+00
         0.00000E+00
         0.00000E+00
         0.00000E+00
         0.00000E+00
         0.00000E+00
         0.00000E+00
         0.00000E+00
         0.00000E+00
         0.00000E+00
         0.00000E+00
         0.00000E+00
         0.00000E+00
         0.00000E+00
         0.00000E+00
         0.00000E+00
         0.00000E+00
         0.00000E+00
         0.00000E+00
         0.00000E+00
         0.00000E+00
         0.00000E+00
         0.00000E+00
         0.00000E+00
         0.00000E+00
         0.00000E+00
         0.00000E+00
         0.00000E+00
         0.00000E+00
         0.00000E+00
         0.00000E+00
         0.00000E+00
         0.00000E+00
         0.00000E+00
         0.00000E+00
         0.00000E+00
         0.00000E+00
         0.00000E+00
         0.00000E+00
         0.00000E+00
         0.00000E+00
         0.00000E+00
         0.00000E+00
         0.00000E+00
         0.00000E+00
         0.00000E+00
         0.00000E+00
         0.00000E+00
         0.00000E+00
         0.00000E+00
         0.00000E+00
         0.00000E+00
         0.00000E+00
         0.00000E+00
         0.00000E+00
         0.00000E+00
         0.00000E+00
         0.00000E+00
         0.00000E+00
         0.00000E+00
         0.00000E+00
         0.00000E+00
         0.00000E+00
         0.00000E+00
         0.00000E+00
         0.00000E+00
         0.00000E+00
         0.00000E+00
         0.00000E+00
         0.00000E+00
         0.00000E+00
         0.00000E+00
         0.00000E+00
         0.00000E+00
         0.00000E+00
         0.00000E+00
         0.00000E+00
         0.00000E+00
         0.00000E+00
         0.00000E+00
         0.00000E+00
         0.00000E+00
         0.00000E+00
         0.00000E+00
         0.00000E+00
         0.00000E+00
         0.00000E+00
         0.00000E+00
         0.00000E+00
         0.00000E+00
         0.00000E+00
         0.00000E+00
         0.00000E+00
         0.00000E+00
         0.00000E+00
         0.00000E+00
         0.00000E+00
         0.00000E+00
         0.00000E+00
         0.00000E+00
         0.00000E+00
         0.00000E+00
         0.00000E+00
         0.00000E+00
         0.00000E+00
         0.00000E+00
         0.00000E+00
         0.00000E+00
         0.00000E+00
         0.00000E+00
         0.00000E+00
         0.00000E+00
         0.00000E+00
         0.00000E+00
         0.00000E+00
         0.00000E+00
         0.00000E+00
         0.00000E+00
         0.00000E+00
         0.00000E+00
         0.00000E+00
         0.00000E+00
         0.00000E+00
         0.00000E+00
         0.00000E+00
         0.00000E+00
         0.00000E+00
         0.00000E+00
         0.00000E+00
         0.00000E+00
         0.00000E+00
         0.00000E+00
         0.00000E+00
         0.00000E+00
         0.00000E+00
         0.00000E+00
         0.00000E+00
         0.00000E+00
         0.00000E+00
         0.00000E+00
         0.00000E+00
         0.00000E+00
         0.00000E+00
         0.00000E+00
         0.00000E+00
         0.00000E+00
         0.00000E+00
         0.00000E+00
         0.00000E+00
         0.00000E+00
         0.00000E+00
         0.00000E+00
         0.00000E+00
         0.00000E+00
         0.00000E+00
         0.00000E+00
         0.00000E+00
         0.00000E+00
         0.00000E+00
         0.00000E+00
         0.00000E+00
         0.00000E+00
         0.00000E+00
         0.00000E+00
         0.00000E+00
         0.00000E+00
         0.00000E+00
         0.00000E+00
         0.00000E+00
         0.00000E+00
         0.00000E+00
         0.00000E+00
         0.00000E+00
         0.00000E+00
         0.00000E+00
         0.00000E+00
         0.00000E+00
         0.00000E+00
         0.00000E+00
         0.00000E+00
         0.00000E+00
         0.00000E+00
         0.00000E+00
         0.00000E+00
         0.00000E+00
         0.00000E+00
         0.00000E+00
         0.00000E+00
         0.00000E+00
         0.00000E+00
         0.00000E+00
         0.00000E+00
         0.00000E+00
         0.00000E+00
         0.00000E+00
         0.00000E+00
         0.00000E+00
         0.00000E+00
         0.00000E+00
         0.00000E+00
         0.00000E+00
         0.00000E+00
         0.00000E+00
         0.00000E+00
         0.00000E+00
         0.00000E+00
         0.00000E+00
         0.00000E+00
         0.00000E+00
         0.00000E+00
         0.00000E+00
         0.00000E+00
         0.00000E+00
         0.00000E+00
         0.00000E+00
         0.00000E+00
         0.00000E+00
         0.00000E+00
         0.00000E+00
         0.00000E+00
         0.00000E+00
         0.00000E+00
         0.00000E+00
         0.00000E+00
         0.00000E+00
         0.00000E+00
         0.00000E+00
         0.00000E+00
         0.00000E+00
         0.00000E+00
         0.00000E+00
         0.00000E+00
         0.00000E+00
         0.00000E+00
         0.00000E+00
         0.00000E+00
         0.00000E+00
         0.00000E+00
         0.00000E+00
         0.00000E+00
         0.00000E+00
         0.00000E+00
         0.00000E+00
         0.00000E+00
         0.00000E+00
         0.00000E+00
         0.00000E+00
         0.00000E+00
         0.00000E+00
         0.00000E+00
         0.00000E+00
         0.00000E+00
         0.00000E+00
         0.00000E+00
         0.00000E+00
         0.00000E+00
         0.00000E+00
         0.00000E+00
         0.00000E+00
         0.00000E+00
         0.00000E+00
         0.00000E+00
         0.00000E+00
         0.00000E+00
         0.00000E+00
         0.00000E+00
         0.00000E+00
         0.00000E+00
         0.00000E+00
         0.00000E+00
         0.00000E+00
         0.00000E+00
         0.00000E+00
         0.00000E+00
         0.00000E+00
         0.00000E+00
         0.00000E+00
         0.00000E+00
         0.00000E+00
         0.00000E+00
         0.00000E+00
         0.00000E+00
         0.00000E+00
         0.00000E+00
         0.00000E+00
         0.00000E+00
         0.00000E+00
         0.00000E+00
         0.00000E+00
         0.00000E+00
         0.00000E+00
         0.00000E+00
         0.00000E+00
         0.00000E+00
         0.00000E+00
         0.00000E+00
         0.00000E+00
         0.00000E+00
         0.00000E+00
         0.00000E+00
         0.00000E+00
         0.00000E+00
         0.00000E+00
         0.00000E+00
         0.00000E+00
         0.00000E+00
         0.00000E+00
         0.00000E+00
         0.00000E+00
         0.00000E+00
         0.00000E+00
         0.00000E+00
         0.00000E+00
         0.00000E+00
         0.00000E+00
         0.00000E+00
         0.00000E+00
         0.00000E+00
         0.00000E+00
         0.00000E+00
         0.00000E+00
         0.00000E+00
         0.00000E+00
         0.00000E+00
         0.00000E+00
         0.00000E+00
         0.00000E+00
         0.00000E+00
         0.00000E+00
         0.00000E+00
         0.00000E+00
         0.00000E+00
         0.00000E+00
         0.00000E+00
         0.00000E+00
         0.00000E+00
         0.00000E+00
         0.00000E+00
         0.00000E+00
         0.00000E+00
         0.00000E+00
         0.00000E+00
         0.00000E+00
         0.00000E+00
         0.00000E+00
         0.00000E+00
         0.00000E+00
         0.00000E+00
         0.00000E+00
         0.00000E+00
         0.00000E+00
         0.00000E+00
         0.00000E+00
         0.00000E+00
         0.00000E+00
         0.00000E+00
         0.00000E+00
         0.00000E+00
         0.00000E+00
         0.00000E+00
         0.00000E+00
         0.00000E+00
         0.00000E+00
         0.00000E+00
         0.00000E+00
         0.00000E+00
         0.00000E+00
         0.00000E+00
         0.00000E+00
         0.00000E+00
         0.00000E+00
         0.00000E+00
         0.00000E+00
         0.00000E+00
         0.00000E+00
         0.00000E+00
         0.00000E+00
         0.00000E+00
         0.00000E+00
         0.00000E+00
         0.00000E+00
         0.00000E+00
         0.00000E+00
         0.00000E+00
         0.00000E+00
         0.00000E+00
         0.00000E+00
         0.00000E+00
         0.00000E+00
         0.00000E+00
         0.00000E+00
         0.00000E+00
         0.00000E+00
         0.00000E+00
         0.00000E+00
         0.00000E+00
         0.00000E+00
         0.00000E+00
         0.00000E+00
         0.00000E+00
         0.00000E+00
         0.00000E+00
         0.00000E+00
         0.00000E+00
         0.00000E+00
         0.00000E+00
         0.00000E+00
         0.00000E+00
         0.00000E+00
         0.00000E+00
         0.00000E+00
         0.00000E+00
         0.00000E+00
         0.00000E+00
         0.00000E+00
         0.00000E+00
         0.00000E+00
         0.00000E+00
         0.00000E+00
         0.00000E+00
         0.00000E+00
         0.00000E+00
         0.00000E+00
         0.00000E+00
         0.00000E+00
         0.00000E+00
         0.00000E+00
         0.00000E+00
         0.00000E+00
         0.00000E+00
         0.00000E+00
         0.00000E+00
         0.00000E+00
         0.00000E+00
         0.00000E+00
         0.00000E+00
         0.00000E+00
         0.00000E+00
         0.00000E+00
         0.00000E+00
         0.00000E+00
         0.00000E+00
         0.00000E+00
         0.00000E+00
         0.00000E+00
         0.00000E+00
         0.00000E+00
         0.00000E+00
         0.00000E+00
         0.00000E+00
         0.00000E+00
         0.00000E+00
         0.00000E+00
         0.00000E+00
         0.00000E+00
         0.00000E+00
         0.00000E+00
         0.00000E+00
         0.00000E+00
         0.00000E+00
         0.00000E+00
         0.00000E+00
         0.00000E+00
         0.00000E+00
         0.00000E+00
         0.00000E+00
         0.00000E+00
         0.00000E+00
         0.00000E+00
         0.00000E+00
         0.00000E+00
         0.00000E+00
         0.00000E+00
         0.00000E+00
         0.00000E+00
         0.00000E+00
         0.00000E+00
         0.00000E+00
         0.00000E+00
         0.00000E+00
         0.00000E+00
         0.00000E+00
         0.00000E+00
         0.00000E+00
         0.00000E+00
         0.00000E+00
         0.00000E+00
         0.00000E+00
         0.00000E+00
         0.00000E+00
         0.00000E+00
         0.00000E+00
         0.00000E+00
         0.00000E+00
         0.00000E+00
         0.00000E+00
         0.00000E+00
         0.00000E+00
         0.00000E+00
         0.00000E+00
         0.00000E+00
         0.00000E+00
         0.00000E+00
         0.00000E+00
         0.00000E+00
         0.00000E+00
         0.00000E+00
         0.00000E+00
         0.00000E+00
         0.00000E+00
         0.00000E+00
         0.00000E+00
         0.00000E+00
         0.00000E+00
         0.00000E+00
         0.00000E+00
         0.00000E+00
         0.00000E+00
         0.00000E+00
         0.00000E+00
         0.00000E+00
         0.00000E+00
         0.00000E+00
         0.00000E+00
         0.00000E+00
         0.00000E+00
         0.00000E+00
         0.00000E+00
         0.00000E+00
         0.00000E+00
         0.00000E+00
         0.00000E+00
         0.00000E+00
         0.00000E+00
         0.00000E+00
         0.00000E+00
         0.00000E+00
         0.00000E+00
         0.00000E+00
         0.00000E+00
         0.00000E+00
         0.00000E+00
         0.00000E+00
         0.00000E+00
         0.00000E+00
         0.00000E+00
         0.00000E+00
         0.00000E+00
         0.00000E+00
         0.00000E+00
         0.00000E+00
         0.00000E+00
         0.00000E+00
         0.00000E+00
         0.00000E+00
         0.00000E+00
         0.00000E+00
         0.00000E+00
         0.00000E+00
         0.00000E+00
         0.00000E+00
         0.00000E+00
         0.00000E+00
         0.00000E+00
         0.00000E+00
         0.00000E+00
         0.00000E+00
         0.00000E+00
         0.00000E+00
         0.00000E+00
         0.00000E+00
         0.00000E+00
         0.00000E+00
         0.00000E+00
         0.00000E+00
         0.00000E+00
         0.00000E+00
         0.00000E+00
         0.00000E+00
         0.00000E+00
         0.00000E+00
         0.00000E+00
         0.00000E+00
         0.00000E+00
         0.00000E+00
         0.00000E+00
         0.00000E+00
         0.00000E+00
         0.00000E+00
         0.00000E+00
         0.00000E+00
         0.00000E+00
         0.00000E+00
         0.00000E+00
         0.00000E+00
         0.00000E+00
         0.00000E+00
         0.00000E+00
         0.00000E+00
         0.00000E+00
         0.00000E+00
         0.00000E+00
         0.00000E+00
         0.00000E+00
         0.00000E+00
         0.00000E+00
         0.00000E+00
         0.00000E+00
         0.00000E+00
         0.00000E+00
         0.00000E+00
         0.00000E+00
         0.00000E+00
         0.00000E+00
         0.00000E+00
         0.00000E+00
         0.00000E+00
         0.00000E+00
         0.00000E+00
         0.00000E+00
         0.00000E+00
         0.00000E+00
         0.00000E+00
         0.00000E+00
         0.00000E+00
         0.00000E+00
         0.00000E+00
         0.00000E+00
         0.00000E+00
         0.00000E+00
         0.00000E+00
         0.00000E+00
         0.00000E+00
         0.00000E+00
         0.00000E+00
         0.00000E+00
         0.00000E+00
         0.00000E+00
         0.00000E+00
         0.00000E+00
         0.00000E+00
         0.00000E+00
         0.00000E+00
         0.00000E+00
         0.00000E+00
         0.00000E+00
         0.00000E+00
         0.00000E+00
         0.00000E+00
         0.00000E+00
         0.00000E+00
         0.00000E+00
         0.00000E+00
         0.00000E+00
         0.00000E+00
         0.00000E+00
         0.00000E+00
         0.00000E+00
         0.00000E+00
         0.00000E+00
         0.00000E+00
         0.00000E+00
         0.00000E+00
         0.00000E+00
         0.00000E+00
         0.00000E+00
         0.00000E+00
         0.00000E+00
         0.00000E+00
         0.00000E+00
         0.00000E+00
         0.00000E+00
         0.00000E+00
         0.00000E+00
         0.00000E+00
         0.00000E+00
         0.00000E+00
         0.00000E+00
         0.00000E+00
         0.00000E+00
         0.00000E+00
         0.00000E+00
         0.00000E+00
         0.00000E+00
         0.00000E+00
         0.00000E+00
         0.00000E+00
         0.00000E+00
         0.00000E+00
         0.00000E+00
         0.00000E+00
         0.00000E+00
         0.00000E+00
         0.00000E+00
         0.00000E+00
         0.00000E+00
         0.00000E+00
         0.00000E+00
         0.00000E+00
         0.00000E+00
         0.00000E+00
         0.00000E+00
         0.00000E+00
         0.00000E+00
         0.00000E+00
         0.00000E+00
         0.00000E+00
         0.00000E+00
         0.00000E+00
         0.00000E+00
         0.00000E+00
         0.00000E+00
         0.00000E+00
         0.00000E+00
         0.00000E+00
         0.00000E+00
         0.00000E+00
         0.00000E+00
         0.00000E+00
         0.00000E+00
         0.00000E+00
         0.00000E+00
         0.00000E+00
         0.00000E+00
         0.00000E+00
         0.00000E+00
         0.00000E+00
         0.00000E+00
         0.00000E+00
         0.00000E+00
         0.00000E+00
         0.00000E+00
         0.00000E+00
         0.00000E+00
         0.00000E+00
         0.00000E+00
         0.00000E+00
         0.00000E+00
         0.00000E+00
         0.00000E+00
         0.00000E+00
         0.00000E+00
         0.00000E+00
         0.00000E+00
         0.00000E+00
         0.00000E+00
         0.00000E+00
         0.00000E+00
         0.00000E+00
         0.00000E+00
         0.00000E+00
         0.00000E+00
         0.00000E+00
         0.00000E+00
         0.00000E+00
         0.00000E+00
         0.00000E+00
         0.00000E+00
         0.00000E+00
         0.00000E+00
         0.00000E+00
         0.00000E+00
         0.00000E+00
         0.00000E+00
         0.00000E+00
         0.00000E+00
         0.00000E+00
         0.00000E+00
         0.00000E+00
         0.00000E+00
         0.00000E+00
         0.00000E+00
         0.00000E+00
         0.00000E+00
         0.00000E+00
         0.00000E+00
         0.00000E+00
         0.00000E+00
         0.00000E+00
         0.00000E+00
         0.00000E+00
         0.00000E+00
         0.00000E+00
         0.00000E+00
         0.00000E+00
         0.00000E+00
         0.00000E+00
         0.00000E+00
         0.00000E+00
         0.00000E+00
         0.00000E+00
         0.00000E+00
         0.00000E+00
         0.00000E+00
         0.00000E+00
         0.00000E+00
         0.00000E+00
         0.00000E+00
         0.00000E+00
         0.00000E+00
         0.00000E+00
         0.00000E+00
         0.00000E+00
         0.00000E+00
         0.00000E+00
         0.00000E+00
         0.00000E+00
         0.00000E+00
         0.00000E+00
         0.00000E+00
         0.00000E+00
         0.00000E+00
         0.00000E+00
         0.00000E+00
         0.00000E+00
         0.00000E+00
         0.00000E+00
         0.00000E+00
         0.00000E+00
         0.00000E+00
         0.00000E+00
         0.00000E+00
         0.00000E+00
         0.00000E+00
         0.00000E+00
         0.00000E+00
         0.00000E+00
         0.00000E+00
         0.00000E+00
         0.00000E+00
         0.00000E+00
         0.00000E+00
         0.00000E+00
         0.00000E+00
         0.00000E+00
         0.00000E+00
         0.00000E+00
         0.00000E+00
         0.00000E+00
         0.00000E+00
         0.00000E+00
         0.00000E+00
         0.00000E+00
         0.00000E+00
         0.00000E+00
         0.00000E+00
         0.00000E+00
         0.00000E+00
  
SCALARS                   max_wave_vel  double 1
LOOKUP_TABLE default
         0.00000E+00
         0.00000E+00
         0.00000E+00
         0.00000E+00
         0.00000E+00
         0.00000E+00
         0.00000E+00
         0.00000E+00
         0.00000E+00
         0.00000E+00
         0.00000E+00
         0.00000E+00
         0.00000E+00
         0.00000E+00
         0.00000E+00
         0.00000E+00
         0.00000E+00
         0.00000E+00
         0.00000E+00
         0.00000E+00
         0.00000E+00
         0.00000E+00
         0.00000E+00
         0.00000E+00
         0.00000E+00
         0.00000E+00
         0.00000E+00
         0.00000E+00
         0.00000E+00
         0.00000E+00
         0.00000E+00
         0.00000E+00
         0.00000E+00
         0.00000E+00
         0.00000E+00
         0.00000E+00
         0.00000E+00
         0.00000E+00
         0.00000E+00
         0.00000E+00
         0.00000E+00
         0.00000E+00
         0.00000E+00
         0.00000E+00
         0.00000E+00
         0.00000E+00
         0.00000E+00
         0.00000E+00
         0.00000E+00
         0.00000E+00
         0.00000E+00
         0.00000E+00
         0.00000E+00
         0.00000E+00
         0.00000E+00
         0.00000E+00
         0.00000E+00
         0.00000E+00
         0.00000E+00
         0.00000E+00
         0.00000E+00
         0.00000E+00
         0.00000E+00
         0.00000E+00
         0.00000E+00
         0.00000E+00
         0.00000E+00
         0.00000E+00
         0.00000E+00
         0.00000E+00
         0.00000E+00
         0.00000E+00
         0.00000E+00
         0.00000E+00
         0.00000E+00
         0.00000E+00
         0.00000E+00
         0.00000E+00
         0.00000E+00
         0.00000E+00
         0.00000E+00
         0.00000E+00
         0.00000E+00
         0.00000E+00
         0.00000E+00
         0.00000E+00
         0.00000E+00
         0.00000E+00
         0.00000E+00
         0.00000E+00
         0.00000E+00
         0.00000E+00
         0.00000E+00
         0.00000E+00
         0.00000E+00
         0.00000E+00
         0.00000E+00
         0.00000E+00
         0.00000E+00
         0.00000E+00
         0.00000E+00
         0.00000E+00
         0.00000E+00
         0.00000E+00
         0.00000E+00
         0.00000E+00
         0.00000E+00
         0.00000E+00
         0.00000E+00
         0.00000E+00
         0.00000E+00
         0.00000E+00
         0.00000E+00
         0.00000E+00
         0.00000E+00
         0.00000E+00
         0.00000E+00
         0.00000E+00
         0.00000E+00
         0.00000E+00
         0.00000E+00
         0.00000E+00
         0.00000E+00
         0.00000E+00
         0.00000E+00
         0.00000E+00
         0.00000E+00
         0.00000E+00
         0.00000E+00
         0.00000E+00
         0.00000E+00
         0.00000E+00
         0.00000E+00
         0.00000E+00
         0.00000E+00
         0.00000E+00
         0.00000E+00
         0.00000E+00
         0.00000E+00
         0.00000E+00
         0.00000E+00
         0.00000E+00
         0.00000E+00
         0.00000E+00
         0.00000E+00
         0.00000E+00
         0.00000E+00
         0.00000E+00
         0.00000E+00
         0.00000E+00
         0.00000E+00
         0.00000E+00
         0.00000E+00
         0.00000E+00
         0.00000E+00
         0.00000E+00
         0.00000E+00
         0.00000E+00
         0.00000E+00
         0.00000E+00
         0.00000E+00
         0.00000E+00
         0.00000E+00
         0.00000E+00
         0.00000E+00
         0.00000E+00
         0.00000E+00
         0.00000E+00
         0.00000E+00
         0.00000E+00
         0.00000E+00
         0.00000E+00
         0.00000E+00
         0.00000E+00
         0.00000E+00
         0.00000E+00
         0.00000E+00
         0.00000E+00
         0.00000E+00
         0.00000E+00
         0.00000E+00
         0.00000E+00
         0.00000E+00
         0.00000E+00
         0.00000E+00
         0.00000E+00
         0.00000E+00
         0.00000E+00
         0.00000E+00
         0.00000E+00
         0.00000E+00
         0.00000E+00
         0.00000E+00
         0.00000E+00
         0.00000E+00
         0.00000E+00
         0.00000E+00
         0.00000E+00
         0.00000E+00
         0.00000E+00
         0.00000E+00
         0.00000E+00
         0.00000E+00
         0.00000E+00
         0.00000E+00
         0.00000E+00
         0.00000E+00
         0.00000E+00
         0.00000E+00
         0.00000E+00
         0.00000E+00
         0.00000E+00
         0.00000E+00
         0.00000E+00
         0.00000E+00
         0.00000E+00
         0.00000E+00
         0.00000E+00
         0.00000E+00
         0.00000E+00
         0.00000E+00
         0.00000E+00
         0.00000E+00
         0.00000E+00
         0.00000E+00
         0.00000E+00
         0.00000E+00
         0.00000E+00
         0.00000E+00
         0.00000E+00
         0.00000E+00
         0.00000E+00
         0.00000E+00
         0.00000E+00
         0.00000E+00
         0.00000E+00
         0.00000E+00
         0.00000E+00
         0.00000E+00
         0.00000E+00
         0.00000E+00
         0.00000E+00
         0.00000E+00
         0.00000E+00
         0.00000E+00
         0.00000E+00
         0.00000E+00
         0.00000E+00
         0.00000E+00
         0.00000E+00
         0.00000E+00
         0.00000E+00
         0.00000E+00
         0.00000E+00
         0.00000E+00
         0.00000E+00
         0.00000E+00
         0.00000E+00
         0.00000E+00
         0.00000E+00
         0.00000E+00
         0.00000E+00
         0.00000E+00
         0.00000E+00
         0.00000E+00
         0.00000E+00
         0.00000E+00
         0.00000E+00
         0.00000E+00
         0.00000E+00
         0.00000E+00
         0.00000E+00
         0.00000E+00
         0.00000E+00
         0.00000E+00
         0.00000E+00
         0.00000E+00
         0.00000E+00
         0.00000E+00
         0.00000E+00
         0.00000E+00
         0.00000E+00
         0.00000E+00
         0.00000E+00
         0.00000E+00
         0.00000E+00
         0.00000E+00
         0.00000E+00
         0.00000E+00
         0.00000E+00
         0.00000E+00
         0.00000E+00
         0.00000E+00
         0.00000E+00
         0.00000E+00
         0.00000E+00
         0.00000E+00
         0.00000E+00
         0.00000E+00
         0.00000E+00
         0.00000E+00
         0.00000E+00
         0.00000E+00
         0.00000E+00
         0.00000E+00
         0.00000E+00
         0.00000E+00
         0.00000E+00
         0.00000E+00
         0.00000E+00
         0.00000E+00
         0.00000E+00
         0.00000E+00
         0.00000E+00
         0.00000E+00
         0.00000E+00
         0.00000E+00
         0.00000E+00
         0.00000E+00
         0.00000E+00
         0.00000E+00
         0.00000E+00
         0.00000E+00
         0.00000E+00
         0.00000E+00
         0.00000E+00
         0.00000E+00
         0.00000E+00
         0.00000E+00
         0.00000E+00
         0.00000E+00
         0.00000E+00
         0.00000E+00
         0.00000E+00
         0.00000E+00
         0.00000E+00
         0.00000E+00
         0.00000E+00
         0.00000E+00
         0.00000E+00
         0.00000E+00
         0.00000E+00
         0.00000E+00
         0.00000E+00
         0.00000E+00
         0.00000E+00
         0.00000E+00
         0.00000E+00
         0.00000E+00
         0.00000E+00
         0.00000E+00
         0.00000E+00
         0.00000E+00
         0.00000E+00
         0.00000E+00
         0.00000E+00
         0.00000E+00
         0.00000E+00
         0.00000E+00
         0.00000E+00
         0.00000E+00
         0.00000E+00
         0.00000E+00
         0.00000E+00
         0.00000E+00
         0.00000E+00
         0.00000E+00
         0.00000E+00
         0.00000E+00
         0.00000E+00
         0.00000E+00
         0.00000E+00
         0.00000E+00
         0.00000E+00
         0.00000E+00
         0.00000E+00
         0.00000E+00
         0.00000E+00
         0.00000E+00
         0.00000E+00
         0.00000E+00
         0.00000E+00
         0.00000E+00
         0.00000E+00
         0.00000E+00
         0.00000E+00
         0.00000E+00
         0.00000E+00
         0.00000E+00
         0.00000E+00
         0.00000E+00
         0.00000E+00
         0.00000E+00
         0.00000E+00
         0.00000E+00
         0.00000E+00
         0.00000E+00
         0.00000E+00
         0.00000E+00
         0.00000E+00
         0.00000E+00
         0.00000E+00
         0.00000E+00
         0.00000E+00
         0.00000E+00
         0.00000E+00
         0.00000E+00
         0.00000E+00
         0.00000E+00
         0.00000E+00
         0.00000E+00
         0.00000E+00
         0.00000E+00
         0.00000E+00
         0.00000E+00
         0.00000E+00
         0.00000E+00
         0.00000E+00
         0.00000E+00
         0.00000E+00
         0.00000E+00
         0.00000E+00
         0.00000E+00
         0.00000E+00
         0.00000E+00
         0.00000E+00
         0.00000E+00
         0.00000E+00
         0.00000E+00
         0.00000E+00
         0.00000E+00
         0.00000E+00
         0.00000E+00
         0.00000E+00
         0.00000E+00
         0.00000E+00
         0.00000E+00
         0.00000E+00
         0.00000E+00
         0.00000E+00
         0.00000E+00
         0.00000E+00
         0.00000E+00
         0.00000E+00
         0.00000E+00
         0.00000E+00
         0.00000E+00
         0.00000E+00
         0.00000E+00
         0.00000E+00
         0.00000E+00
         0.00000E+00
         0.00000E+00
         0.00000E+00
         0.00000E+00
         0.00000E+00
         0.00000E+00
         0.00000E+00
         0.00000E+00
         0.00000E+00
         0.00000E+00
         0.00000E+00
         0.00000E+00
         0.00000E+00
         0.00000E+00
         0.00000E+00
         0.00000E+00
         0.00000E+00
         0.00000E+00
         0.00000E+00
         0.00000E+00
         0.00000E+00
         0.00000E+00
         0.00000E+00
         0.00000E+00
         0.00000E+00
         0.00000E+00
         0.00000E+00
         0.00000E+00
         0.00000E+00
         0.00000E+00
         0.00000E+00
         0.00000E+00
         0.00000E+00
         0.00000E+00
         0.00000E+00
         0.00000E+00
         0.00000E+00
         0.00000E+00
         0.00000E+00
         0.00000E+00
         0.00000E+00
         0.00000E+00
         0.00000E+00
         0.00000E+00
         0.00000E+00
         0.00000E+00
         0.00000E+00
         0.00000E+00
         0.00000E+00
         0.00000E+00
         0.00000E+00
         0.00000E+00
         0.00000E+00
         0.00000E+00
         0.00000E+00
         0.00000E+00
         0.00000E+00
         0.00000E+00
         0.00000E+00
         0.00000E+00
         0.00000E+00
         0.00000E+00
         0.00000E+00
         0.00000E+00
         0.00000E+00
         0.00000E+00
         0.00000E+00
         0.00000E+00
         0.00000E+00
         0.00000E+00
         0.00000E+00
         0.00000E+00
         0.00000E+00
         0.00000E+00
         0.00000E+00
         0.00000E+00
         0.00000E+00
         0.00000E+00
         0.00000E+00
         0.00000E+00
         0.00000E+00
         0.00000E+00
         0.00000E+00
         0.00000E+00
         0.00000E+00
         0.00000E+00
         0.00000E+00
         0.00000E+00
         0.00000E+00
         0.00000E+00
         0.00000E+00
         0.00000E+00
         0.00000E+00
         0.00000E+00
         0.00000E+00
         0.00000E+00
         0.00000E+00
         0.00000E+00
         0.00000E+00
         0.00000E+00
         0.00000E+00
         0.00000E+00
         0.00000E+00
         0.00000E+00
         0.00000E+00
         0.00000E+00
         0.00000E+00
         0.00000E+00
         0.00000E+00
         0.00000E+00
         0.00000E+00
         0.00000E+00
         0.00000E+00
         0.00000E+00
         0.00000E+00
         0.00000E+00
         0.00000E+00
         0.00000E+00
         0.00000E+00
         0.00000E+00
         0.00000E+00
         0.00000E+00
         0.00000E+00
         0.00000E+00
         0.00000E+00
         0.00000E+00
         0.00000E+00
         0.00000E+00
         0.00000E+00
         0.00000E+00
         0.00000E+00
         0.00000E+00
         0.00000E+00
         0.00000E+00
         0.00000E+00
         0.00000E+00
         0.00000E+00
         0.00000E+00
         0.00000E+00
         0.00000E+00
         0.00000E+00
         0.00000E+00
         0.00000E+00
         0.00000E+00
         0.00000E+00
         0.00000E+00
         0.00000E+00
         0.00000E+00
         0.00000E+00
         0.00000E+00
         0.00000E+00
         0.00000E+00
         0.00000E+00
         0.00000E+00
         0.00000E+00
         0.00000E+00
         0.00000E+00
         0.00000E+00
         0.00000E+00
         0.00000E+00
         0.00000E+00
         0.00000E+00
         0.00000E+00
         0.00000E+00
         0.00000E+00
         0.00000E+00
         0.00000E+00
         0.00000E+00
         0.00000E+00
         0.00000E+00
         0.00000E+00
         0.00000E+00
         0.00000E+00
         0.00000E+00
         0.00000E+00
         0.00000E+00
         0.00000E+00
         0.00000E+00
         0.00000E+00
         0.00000E+00
         0.00000E+00
         0.00000E+00
         0.00000E+00
         0.00000E+00
         0.00000E+00
         0.00000E+00
         0.00000E+00
         0.00000E+00
         0.00000E+00
         0.00000E+00
         0.00000E+00
         0.00000E+00
         0.00000E+00
         0.00000E+00
         0.00000E+00
         0.00000E+00
         0.00000E+00
         0.00000E+00
         0.00000E+00
         0.00000E+00
         0.00000E+00
         0.00000E+00
         0.00000E+00
         0.00000E+00
         0.00000E+00
         0.00000E+00
         0.00000E+00
         0.00000E+00
         0.00000E+00
         0.00000E+00
         0.00000E+00
         0.00000E+00
         0.00000E+00
         0.00000E+00
         0.00000E+00
         0.00000E+00
         0.00000E+00
         0.00000E+00
         0.00000E+00
         0.00000E+00
         0.00000E+00
         0.00000E+00
         0.00000E+00
         0.00000E+00
         0.00000E+00
         0.00000E+00
         0.00000E+00
         0.00000E+00
         0.00000E+00
         0.00000E+00
         0.00000E+00
         0.00000E+00
         0.00000E+00
         0.00000E+00
         0.00000E+00
         0.00000E+00
         0.00000E+00
         0.00000E+00
         0.00000E+00
         0.00000E+00
         0.00000E+00
         0.00000E+00
         0.00000E+00
         0.00000E+00
         0.00000E+00
         0.00000E+00
         0.00000E+00
         0.00000E+00
         0.00000E+00
         0.00000E+00
         0.00000E+00
         0.00000E+00
         0.00000E+00
         0.00000E+00
         0.00000E+00
         0.00000E+00
         0.00000E+00
         0.00000E+00
         0.00000E+00
         0.00000E+00
         0.00000E+00
         0.00000E+00
         0.00000E+00
         0.00000E+00
         0.00000E+00
         0.00000E+00
         0.00000E+00
         0.00000E+00
         0.00000E+00
         0.00000E+00
         0.00000E+00
         0.00000E+00
         0.00000E+00
         0.00000E+00
         0.00000E+00
         0.00000E+00
         0.00000E+00
         0.00000E+00
         0.00000E+00
         0.00000E+00
         0.00000E+00
         0.00000E+00
         0.00000E+00
         0.00000E+00
         0.00000E+00
         0.00000E+00
         0.00000E+00
         0.00000E+00
         0.00000E+00
         0.00000E+00
         0.00000E+00
         0.00000E+00
         0.00000E+00
         0.00000E+00
         0.00000E+00
         0.00000E+00
         0.00000E+00
         0.00000E+00
         0.00000E+00
         0.00000E+00
         0.00000E+00
         0.00000E+00
         0.00000E+00
         0.00000E+00
         0.00000E+00
         0.00000E+00
         0.00000E+00
         0.00000E+00
         0.00000E+00
         0.00000E+00
         0.00000E+00
         0.00000E+00
         0.00000E+00
         0.00000E+00
         0.00000E+00
         0.00000E+00
         0.00000E+00
         0.00000E+00
         0.00000E+00
         0.00000E+00
         0.00000E+00
         0.00000E+00
         0.00000E+00
         0.00000E+00
         0.00000E+00
         0.00000E+00
         0.00000E+00
         0.00000E+00
         0.00000E+00
         0.00000E+00
         0.00000E+00
         0.00000E+00
         0.00000E+00
         0.00000E+00
         0.00000E+00
         0.00000E+00
         0.00000E+00
         0.00000E+00
         0.00000E+00
         0.00000E+00
         0.00000E+00
         0.00000E+00
         0.00000E+00
         0.00000E+00
         0.00000E+00
         0.00000E+00
         0.00000E+00
         0.00000E+00
         0.00000E+00
         0.00000E+00
         0.00000E+00
         0.00000E+00
         0.00000E+00
         0.00000E+00
         0.00000E+00
         0.00000E+00
         0.00000E+00
         0.00000E+00
         0.00000E+00
         0.00000E+00
         0.00000E+00
         0.00000E+00
         0.00000E+00
         0.00000E+00
         0.00000E+00
         0.00000E+00
         0.00000E+00
         0.00000E+00
         0.00000E+00
         0.00000E+00
         0.00000E+00
         0.00000E+00
         0.00000E+00
         0.00000E+00
         0.00000E+00
         0.00000E+00
         0.00000E+00
         0.00000E+00
         0.00000E+00
         0.00000E+00
         0.00000E+00
         0.00000E+00
         0.00000E+00
         0.00000E+00
         0.00000E+00
         0.00000E+00
         0.00000E+00
         0.00000E+00
         0.00000E+00
         0.00000E+00
         0.00000E+00
         0.00000E+00
         0.00000E+00
         0.00000E+00
         0.00000E+00
         0.00000E+00
         0.00000E+00
         0.00000E+00
         0.00000E+00
         0.00000E+00
         0.00000E+00
         0.00000E+00
         0.00000E+00
         0.00000E+00
         0.00000E+00
         0.00000E+00
         0.00000E+00
         0.00000E+00
         0.00000E+00
         0.00000E+00
         0.00000E+00
         0.00000E+00
         0.00000E+00
         0.00000E+00
         0.00000E+00
         0.00000E+00
         0.00000E+00
         0.00000E+00
         0.00000E+00
         0.00000E+00
         0.00000E+00
         0.00000E+00
         0.00000E+00
         0.00000E+00
         0.00000E+00
         0.00000E+00
         0.00000E+00
         0.00000E+00
         0.00000E+00
         0.00000E+00
         0.00000E+00
         0.00000E+00
         0.00000E+00
         0.00000E+00
         0.00000E+00
         0.00000E+00
         0.00000E+00
         0.00000E+00
         0.00000E+00
         0.00000E+00
         0.00000E+00
         0.00000E+00
         0.00000E+00
         0.00000E+00
         0.00000E+00
         0.00000E+00
         0.00000E+00
         0.00000E+00
         0.00000E+00
         0.00000E+00
         0.00000E+00
         0.00000E+00
         0.00000E+00
         0.00000E+00
         0.00000E+00
         0.00000E+00
         0.00000E+00
         0.00000E+00
         0.00000E+00
         0.00000E+00
         0.00000E+00
         0.00000E+00
         0.00000E+00
         0.00000E+00
         0.00000E+00
         0.00000E+00
         0.00000E+00
         0.00000E+00
         0.00000E+00
         0.00000E+00
         0.00000E+00
         0.00000E+00
         0.00000E+00
         0.00000E+00
         0.00000E+00
         0.00000E+00
         0.00000E+00
         0.00000E+00
         0.00000E+00
         0.00000E+00
         0.00000E+00
         0.00000E+00
         0.00000E+00
         0.00000E+00
         0.00000E+00
         0.00000E+00
         0.00000E+00
         0.00000E+00
         0.00000E+00
         0.00000E+00
         0.00000E+00
         0.00000E+00
         0.00000E+00
         0.00000E+00
         0.00000E+00
         0.00000E+00
         0.00000E+00
         0.00000E+00
         0.00000E+00
         0.00000E+00
         0.00000E+00
         0.00000E+00
         0.00000E+00
         0.00000E+00
         0.00000E+00
         0.00000E+00
         0.00000E+00
         0.00000E+00
         0.00000E+00
         0.00000E+00
         0.00000E+00
         0.00000E+00
         0.00000E+00
         0.00000E+00
         0.00000E+00
         0.00000E+00
         0.00000E+00
         0.00000E+00
         0.00000E+00
         0.00000E+00
         0.00000E+00
         0.00000E+00
         0.00000E+00
         0.00000E+00
         0.00000E+00
         0.00000E+00
         0.00000E+00
         0.00000E+00
         0.00000E+00
         0.00000E+00
         0.00000E+00
         0.00000E+00
         0.00000E+00
         0.00000E+00
         0.00000E+00
         0.00000E+00
         0.00000E+00
         0.00000E+00
         0.00000E+00
         0.00000E+00
         0.00000E+00
         0.00000E+00
         0.00000E+00
         0.00000E+00
         0.00000E+00
         0.00000E+00
         0.00000E+00
         0.00000E+00
         0.00000E+00
         0.00000E+00
         0.00000E+00
         0.00000E+00
         0.00000E+00
         0.00000E+00
         0.00000E+00
         0.00000E+00
         0.00000E+00
         0.00000E+00
         0.00000E+00
         0.00000E+00
         0.00000E+00
         0.00000E+00
         0.00000E+00
         0.00000E+00
         0.00000E+00
         0.00000E+00
         0.00000E+00
         0.00000E+00
         0.00000E+00
         0.00000E+00
         0.00000E+00
         0.00000E+00
         0.00000E+00
         0.00000E+00
         0.00000E+00
         0.00000E+00
         0.00000E+00
         0.00000E+00
         0.00000E+00
         0.00000E+00
         0.00000E+00
         0.00000E+00
         0.00000E+00
         0.00000E+00
         0.00000E+00
         0.00000E+00
         0.00000E+00
         0.00000E+00
         0.00000E+00
         0.00000E+00
         0.00000E+00
         0.00000E+00
         0.00000E+00
         0.00000E+00
         0.00000E+00
         0.00000E+00
         0.00000E+00
         0.00000E+00
         0.00000E+00
         0.00000E+00
         0.00000E+00
         0.00000E+00
         0.00000E+00
         0.00000E+00
         0.00000E+00
         0.00000E+00
         0.00000E+00
         0.00000E+00
         0.00000E+00
         0.00000E+00
         0.00000E+00
         0.00000E+00
         0.00000E+00
         0.00000E+00
         0.00000E+00
         0.00000E+00
         0.00000E+00
         0.00000E+00
         0.00000E+00
         0.00000E+00
         0.00000E+00
         0.00000E+00
         0.00000E+00
         0.00000E+00
         0.00000E+00
         0.00000E+00
         0.00000E+00
         0.00000E+00
         0.00000E+00
         0.00000E+00
         0.00000E+00
         0.00000E+00
         0.00000E+00
         0.00000E+00
         0.00000E+00
         0.00000E+00
         0.00000E+00
         0.00000E+00
         0.00000E+00
         0.00000E+00
         0.00000E+00
         0.00000E+00
         0.00000E+00
         0.00000E+00
         0.00000E+00
         0.00000E+00
         0.00000E+00
         0.00000E+00
         0.00000E+00
         0.00000E+00
         0.00000E+00
         0.00000E+00
         0.00000E+00
         0.00000E+00
         0.00000E+00
         0.00000E+00
         0.00000E+00
         0.00000E+00
         0.00000E+00
         0.00000E+00
         0.00000E+00
         0.00000E+00
         0.00000E+00
         0.00000E+00
         0.00000E+00
         0.00000E+00
         0.00000E+00
         0.00000E+00
         0.00000E+00
         0.00000E+00
         0.00000E+00
         0.00000E+00
         0.00000E+00
         0.00000E+00
         0.00000E+00
         0.00000E+00
         0.00000E+00
         0.00000E+00
         0.00000E+00
         0.00000E+00
         0.00000E+00
         0.00000E+00
         0.00000E+00
         0.00000E+00
         0.00000E+00
         0.00000E+00
         0.00000E+00
         0.00000E+00
         0.00000E+00
         0.00000E+00
         0.00000E+00
         0.00000E+00
         0.00000E+00
         0.00000E+00
         0.00000E+00
         0.00000E+00
         0.00000E+00
         0.00000E+00
         0.00000E+00
         0.00000E+00
         0.00000E+00
         0.00000E+00
         0.00000E+00
         0.00000E+00
         0.00000E+00
         0.00000E+00
         0.00000E+00
         0.00000E+00
         0.00000E+00
         0.00000E+00
         0.00000E+00
         0.00000E+00
         0.00000E+00
         0.00000E+00
         0.00000E+00
         0.00000E+00
         0.00000E+00
         0.00000E+00
         0.00000E+00
         0.00000E+00
         0.00000E+00
         0.00000E+00
         0.00000E+00
         0.00000E+00
         0.00000E+00
         0.00000E+00
         0.00000E+00
         0.00000E+00
         0.00000E+00
         0.00000E+00
         0.00000E+00
         0.00000E+00
         0.00000E+00
         0.00000E+00
         0.00000E+00
         0.00000E+00
         0.00000E+00
         0.00000E+00
         0.00000E+00
         0.00000E+00
         0.00000E+00
         0.00000E+00
         0.00000E+00
         0.00000E+00
         0.00000E+00
         0.00000E+00
         0.00000E+00
         0.00000E+00
         0.00000E+00
         0.00000E+00
         0.00000E+00
         0.00000E+00
         0.00000E+00
         0.00000E+00
         0.00000E+00
         0.00000E+00
         0.00000E+00
         0.00000E+00
         0.00000E+00
         0.00000E+00
         0.00000E+00
         0.00000E+00
         0.00000E+00
         0.00000E+00
         0.00000E+00
         0.00000E+00
         0.00000E+00
         0.00000E+00
         0.00000E+00
         0.00000E+00
         0.00000E+00
         0.00000E+00
         0.00000E+00
         0.00000E+00
         0.00000E+00
         0.00000E+00
         0.00000E+00
         0.00000E+00
         0.00000E+00
         0.00000E+00
         0.00000E+00
         0.00000E+00
         0.00000E+00
         0.00000E+00
         0.00000E+00
         0.00000E+00
         0.00000E+00
         0.00000E+00
         0.00000E+00
         0.00000E+00
         0.00000E+00
         0.00000E+00
         0.00000E+00
         0.00000E+00
         0.00000E+00
         0.00000E+00
         0.00000E+00
         0.00000E+00
         0.00000E+00
         0.00000E+00
         0.00000E+00
         0.00000E+00
         0.00000E+00
         0.00000E+00
         0.00000E+00
         0.00000E+00
         0.00000E+00
         0.00000E+00
         0.00000E+00
         0.00000E+00
         0.00000E+00
         0.00000E+00
         0.00000E+00
         0.00000E+00
         0.00000E+00
         0.00000E+00
         0.00000E+00
         0.00000E+00
         0.00000E+00
         0.00000E+00
         0.00000E+00
         0.00000E+00
         0.00000E+00
         0.00000E+00
         0.00000E+00
         0.00000E+00
         0.00000E+00
         0.00000E+00
         0.00000E+00
         0.00000E+00
         0.00000E+00
         0.00000E+00
         0.00000E+00
         0.00000E+00
         0.00000E+00
         0.00000E+00
         0.00000E+00
         0.00000E+00
         0.00000E+00
         0.00000E+00
         0.00000E+00
         0.00000E+00
         0.00000E+00
         0.00000E+00
         0.00000E+00
         0.00000E+00
         0.00000E+00
         0.00000E+00
         0.00000E+00
         0.00000E+00
         0.00000E+00
         0.00000E+00
         0.00000E+00
         0.00000E+00
         0.00000E+00
         0.00000E+00
         0.00000E+00
         0.00000E+00
         0.00000E+00
         0.00000E+00
         0.00000E+00
         0.00000E+00
         0.00000E+00
         0.00000E+00
         0.00000E+00
         0.00000E+00
         0.00000E+00
         0.00000E+00
         0.00000E+00
         0.00000E+00
         0.00000E+00
         0.00000E+00
         0.00000E+00
         0.00000E+00
         0.00000E+00
         0.00000E+00
         0.00000E+00
         0.00000E+00
         0.00000E+00
         0.00000E+00
         0.00000E+00
         0.00000E+00
         0.00000E+00
         0.00000E+00
         0.00000E+00
         0.00000E+00
         0.00000E+00
         0.00000E+00
         0.00000E+00
         0.00000E+00
         0.00000E+00
         0.00000E+00
         0.00000E+00
         0.00000E+00
         0.00000E+00
         0.00000E+00
         0.00000E+00
         0.00000E+00
         0.00000E+00
         0.00000E+00
         0.00000E+00
         0.00000E+00
         0.00000E+00
         0.00000E+00
         0.00000E+00
         0.00000E+00
         0.00000E+00
         0.00000E+00
         0.00000E+00
         0.00000E+00
         0.00000E+00
         0.00000E+00
         0.00000E+00
         0.00000E+00
         0.00000E+00
         0.00000E+00
         0.00000E+00
         0.00000E+00
         0.00000E+00
         0.00000E+00
         0.00000E+00
         0.00000E+00
         0.00000E+00
         0.00000E+00
         0.00000E+00
         0.00000E+00
         0.00000E+00
         0.00000E+00
         0.00000E+00
         0.00000E+00
         0.00000E+00
         0.00000E+00
         0.00000E+00
         0.00000E+00
         0.00000E+00
         0.00000E+00
         0.00000E+00
         0.00000E+00
         0.00000E+00
         0.00000E+00
         0.00000E+00
         0.00000E+00
         0.00000E+00
         0.00000E+00
         0.00000E+00
         0.00000E+00
         0.00000E+00
         0.00000E+00
         0.00000E+00
         0.00000E+00
         0.00000E+00
         0.00000E+00
         0.00000E+00
         0.00000E+00
         0.00000E+00
         0.00000E+00
         0.00000E+00
         0.00000E+00
         0.00000E+00
         0.00000E+00
         0.00000E+00
         0.00000E+00
         0.00000E+00
         0.00000E+00
         0.00000E+00
         0.00000E+00
         0.00000E+00
         0.00000E+00
         0.00000E+00
         0.00000E+00
         0.00000E+00
         0.00000E+00
         0.00000E+00
         0.00000E+00
         0.00000E+00
         0.00000E+00
         0.00000E+00
         0.00000E+00
         0.00000E+00
         0.00000E+00
         0.00000E+00
         0.00000E+00
         0.00000E+00
         0.00000E+00
         0.00000E+00
         0.00000E+00
         0.00000E+00
         0.00000E+00
         0.00000E+00
         0.00000E+00
         0.00000E+00
         0.00000E+00
         0.00000E+00
         0.00000E+00
         0.00000E+00
         0.00000E+00
         0.00000E+00
         0.00000E+00
         0.00000E+00
         0.00000E+00
         0.00000E+00
         0.00000E+00
         0.00000E+00
         0.00000E+00
         0.00000E+00
         0.00000E+00
         0.00000E+00
         0.00000E+00
         0.00000E+00
         0.00000E+00
         0.00000E+00
         0.00000E+00
         0.00000E+00
         0.00000E+00
         0.00000E+00
         0.00000E+00
         0.00000E+00
         0.00000E+00
         0.00000E+00
         0.00000E+00
         0.00000E+00
         0.00000E+00
         0.00000E+00
         0.00000E+00
         0.00000E+00
         0.00000E+00
         0.00000E+00
         0.00000E+00
         0.00000E+00
         0.00000E+00
         0.00000E+00
         0.00000E+00
         0.00000E+00
         0.00000E+00
         0.00000E+00
         0.00000E+00
         0.00000E+00
         0.00000E+00
         0.00000E+00
         0.00000E+00
         0.00000E+00
         0.00000E+00
         0.00000E+00
         0.00000E+00
         0.00000E+00
         0.00000E+00
         0.00000E+00
         0.00000E+00
         0.00000E+00
         0.00000E+00
         0.00000E+00
         0.00000E+00
         0.00000E+00
         0.00000E+00
         0.00000E+00
         0.00000E+00
         0.00000E+00
         0.00000E+00
         0.00000E+00
         0.00000E+00
         0.00000E+00
         0.00000E+00
         0.00000E+00
         0.00000E+00
         0.00000E+00
         0.00000E+00
         0.00000E+00
         0.00000E+00
         0.00000E+00
         0.00000E+00
         0.00000E+00
         0.00000E+00
         0.00000E+00
         0.00000E+00
         0.00000E+00
         0.00000E+00
         0.00000E+00
         0.00000E+00
         0.00000E+00
         0.00000E+00
         0.00000E+00
         0.00000E+00
         0.00000E+00
         0.00000E+00
         0.00000E+00
         0.00000E+00
         0.00000E+00
         0.00000E+00
         0.00000E+00
         0.00000E+00
         0.00000E+00
         0.00000E+00
         0.00000E+00
         0.00000E+00
         0.00000E+00
         0.00000E+00
         0.00000E+00
         0.00000E+00
         0.00000E+00
         0.00000E+00
         0.00000E+00
         0.00000E+00
         0.00000E+00
         0.00000E+00
         0.00000E+00
         0.00000E+00
         0.00000E+00
         0.00000E+00
         0.00000E+00
         0.00000E+00
         0.00000E+00
         0.00000E+00
         0.00000E+00
         0.00000E+00
         0.00000E+00
         0.00000E+00
         0.00000E+00
         0.00000E+00
         0.00000E+00
         0.00000E+00
         0.00000E+00
         0.00000E+00
         0.00000E+00
         0.00000E+00
         0.00000E+00
         0.00000E+00
         0.00000E+00
         0.00000E+00
         0.00000E+00
         0.00000E+00
         0.00000E+00
         0.00000E+00
         0.00000E+00
         0.00000E+00
         0.00000E+00
         0.00000E+00
         0.00000E+00
         0.00000E+00
         0.00000E+00
         0.00000E+00
         0.00000E+00
         0.00000E+00
         0.00000E+00
         0.00000E+00
         0.00000E+00
         0.00000E+00
         0.00000E+00
         0.00000E+00
         0.00000E+00
         0.00000E+00
         0.00000E+00
         0.00000E+00
         0.00000E+00
         0.00000E+00
         0.00000E+00
         0.00000E+00
         0.00000E+00
         0.00000E+00
         0.00000E+00
         0.00000E+00
         0.00000E+00
         0.00000E+00
         0.00000E+00
         0.00000E+00
         0.00000E+00
         0.00000E+00
         0.00000E+00
         0.00000E+00
         0.00000E+00
         0.00000E+00
         0.00000E+00
         0.00000E+00
         0.00000E+00
         0.00000E+00
         0.00000E+00
         0.00000E+00
         0.00000E+00
         0.00000E+00
         0.00000E+00
         0.00000E+00
         0.00000E+00
         0.00000E+00
         0.00000E+00
         0.00000E+00
         0.00000E+00
         0.00000E+00
         0.00000E+00
         0.00000E+00
         0.00000E+00
         0.00000E+00
         0.00000E+00
         0.00000E+00
         0.00000E+00
         0.00000E+00
         0.00000E+00
         0.00000E+00
         0.00000E+00
         0.00000E+00
         0.00000E+00
         0.00000E+00
         0.00000E+00
         0.00000E+00
         0.00000E+00
         0.00000E+00
         0.00000E+00
         0.00000E+00
         0.00000E+00
         0.00000E+00
         0.00000E+00
         0.00000E+00
         0.00000E+00
         0.00000E+00
         0.00000E+00
         0.00000E+00
         0.00000E+00
         0.00000E+00
         0.00000E+00
         0.00000E+00
         0.00000E+00
         0.00000E+00
         0.00000E+00
         0.00000E+00
         0.00000E+00
         0.00000E+00
         0.00000E+00
         0.00000E+00
         0.00000E+00
         0.00000E+00
         0.00000E+00
         0.00000E+00
         0.00000E+00
         0.00000E+00
         0.00000E+00
         0.00000E+00
         0.00000E+00
         0.00000E+00
         0.00000E+00
         0.00000E+00
         0.00000E+00
         0.00000E+00
         0.00000E+00
         0.00000E+00
         0.00000E+00
         0.00000E+00
         0.00000E+00
         0.00000E+00
         0.00000E+00
         0.00000E+00
         0.00000E+00
         0.00000E+00
         0.00000E+00
         0.00000E+00
         0.00000E+00
         0.00000E+00
         0.00000E+00
         0.00000E+00
         0.00000E+00
         0.00000E+00
         0.00000E+00
         0.00000E+00
         0.00000E+00
         0.00000E+00
         0.00000E+00
         0.00000E+00
         0.00000E+00
         0.00000E+00
         0.00000E+00
         0.00000E+00
         0.00000E+00
         0.00000E+00
         0.00000E+00
         0.00000E+00
         0.00000E+00
         0.00000E+00
         0.00000E+00
         0.00000E+00
         0.00000E+00
         0.00000E+00
         0.00000E+00
         0.00000E+00
         0.00000E+00
         0.00000E+00
         0.00000E+00
         0.00000E+00
         0.00000E+00
         0.00000E+00
         0.00000E+00
         0.00000E+00
         0.00000E+00
         0.00000E+00
         0.00000E+00
         0.00000E+00
         0.00000E+00
         0.00000E+00
         0.00000E+00
         0.00000E+00
         0.00000E+00
         0.00000E+00
         0.00000E+00
         0.00000E+00
         0.00000E+00
         0.00000E+00
         0.00000E+00
         0.00000E+00
         0.00000E+00
         0.00000E+00
         0.00000E+00
         0.00000E+00
         0.00000E+00
         0.00000E+00
         0.00000E+00
         0.00000E+00
         0.00000E+00
         0.00000E+00
         0.00000E+00
         0.00000E+00
         0.00000E+00
         0.00000E+00
         0.00000E+00
         0.00000E+00
         0.00000E+00
         0.00000E+00
         0.00000E+00
         0.00000E+00
         0.00000E+00
         0.00000E+00
         0.00000E+00
         0.00000E+00
         0.00000E+00
         0.00000E+00
         0.00000E+00
         0.00000E+00
         0.00000E+00
         0.00000E+00
         0.00000E+00
         0.00000E+00
         0.00000E+00
         0.00000E+00
         0.00000E+00
         0.00000E+00
         0.00000E+00
         0.00000E+00
         0.00000E+00
         0.00000E+00
         0.00000E+00
         0.00000E+00
         0.00000E+00
         0.00000E+00
         0.00000E+00
         0.00000E+00
         0.00000E+00
         0.00000E+00
         0.00000E+00
         0.00000E+00
         0.00000E+00
         0.00000E+00
         0.00000E+00
         0.00000E+00
         0.00000E+00
         0.00000E+00
         0.00000E+00
         0.00000E+00
         0.00000E+00
         0.00000E+00
         0.00000E+00
         0.00000E+00
         0.00000E+00
         0.00000E+00
         0.00000E+00
         0.00000E+00
         0.00000E+00
         0.00000E+00
         0.00000E+00
         0.00000E+00
         0.00000E+00
         0.00000E+00
         0.00000E+00
         0.00000E+00
         0.00000E+00
         0.00000E+00
         0.00000E+00
         0.00000E+00
         0.00000E+00
         0.00000E+00
         0.00000E+00
         0.00000E+00
         0.00000E+00
         0.00000E+00
         0.00000E+00
         0.00000E+00
         0.00000E+00
         0.00000E+00
         0.00000E+00
         0.00000E+00
         0.00000E+00
         0.00000E+00
         0.00000E+00
         0.00000E+00
         0.00000E+00
         0.00000E+00
         0.00000E+00
         0.00000E+00
         0.00000E+00
         0.00000E+00
         0.00000E+00
         0.00000E+00
         0.00000E+00
         0.00000E+00
         0.00000E+00
         0.00000E+00
         0.00000E+00
         0.00000E+00
         0.00000E+00
         0.00000E+00
         0.00000E+00
         0.00000E+00
         0.00000E+00
         0.00000E+00
         0.00000E+00
         0.00000E+00
         0.00000E+00
         0.00000E+00
         0.00000E+00
         0.00000E+00
         0.00000E+00
         0.00000E+00
         0.00000E+00
         0.00000E+00
         0.00000E+00
         0.00000E+00
         0.00000E+00
         0.00000E+00
         0.00000E+00
         0.00000E+00
         0.00000E+00
         0.00000E+00
         0.00000E+00
         0.00000E+00
         0.00000E+00
         0.00000E+00
         0.00000E+00
         0.00000E+00
         0.00000E+00
         0.00000E+00
         0.00000E+00
         0.00000E+00
         0.00000E+00
         0.00000E+00
         0.00000E+00
         0.00000E+00
         0.00000E+00
         0.00000E+00
         0.00000E+00
         0.00000E+00
         0.00000E+00
         0.00000E+00
         0.00000E+00
         0.00000E+00
         0.00000E+00
         0.00000E+00
         0.00000E+00
         0.00000E+00
         0.00000E+00
         0.00000E+00
         0.00000E+00
         0.00000E+00
         0.00000E+00
         0.00000E+00
         0.00000E+00
         0.00000E+00
         0.00000E+00
         0.00000E+00
         0.00000E+00
         0.00000E+00
         0.00000E+00
         0.00000E+00
         0.00000E+00
         0.00000E+00
         0.00000E+00
         0.00000E+00
         0.00000E+00
         0.00000E+00
         0.00000E+00
         0.00000E+00
         0.00000E+00
         0.00000E+00
         0.00000E+00
         0.00000E+00
         0.00000E+00
         0.00000E+00
         0.00000E+00
         0.00000E+00
         0.00000E+00
         0.00000E+00
         0.00000E+00
         0.00000E+00
         0.00000E+00
         0.00000E+00
         0.00000E+00
  
SCALARS                      eps_shear  double 1
LOOKUP_TABLE default
         0.00000E+00
         0.00000E+00
         0.00000E+00
         0.00000E+00
         0.00000E+00
         0.00000E+00
         0.00000E+00
         0.00000E+00
         0.00000E+00
         0.00000E+00
         0.00000E+00
         0.00000E+00
         0.00000E+00
         0.00000E+00
         0.00000E+00
         0.00000E+00
         0.00000E+00
         0.00000E+00
         0.00000E+00
         0.00000E+00
         0.00000E+00
         0.00000E+00
         0.00000E+00
         0.00000E+00
         0.00000E+00
         0.00000E+00
         0.00000E+00
         0.00000E+00
         0.00000E+00
         0.00000E+00
         0.00000E+00
         0.00000E+00
         0.00000E+00
         0.00000E+00
         0.00000E+00
         0.00000E+00
         0.00000E+00
         0.00000E+00
         0.00000E+00
         0.00000E+00
         0.00000E+00
         0.00000E+00
         0.00000E+00
         0.00000E+00
         0.00000E+00
         0.00000E+00
         0.00000E+00
         0.00000E+00
         0.00000E+00
         0.00000E+00
         0.00000E+00
         0.00000E+00
         0.00000E+00
         0.00000E+00
         0.00000E+00
         0.00000E+00
         0.00000E+00
         0.00000E+00
         0.00000E+00
         0.00000E+00
         0.00000E+00
         0.00000E+00
         0.00000E+00
         0.00000E+00
         0.00000E+00
         0.00000E+00
         0.00000E+00
         0.00000E+00
         0.00000E+00
         0.00000E+00
         0.00000E+00
         0.00000E+00
         0.00000E+00
         0.00000E+00
         0.00000E+00
         0.00000E+00
         0.00000E+00
         0.00000E+00
         0.00000E+00
         0.00000E+00
         0.00000E+00
         0.00000E+00
         0.00000E+00
         0.00000E+00
         0.00000E+00
         0.00000E+00
         0.00000E+00
         0.00000E+00
         0.00000E+00
         0.00000E+00
         0.00000E+00
         0.00000E+00
         0.00000E+00
         0.00000E+00
         0.00000E+00
         0.00000E+00
         0.00000E+00
         0.00000E+00
         0.00000E+00
         0.00000E+00
         0.00000E+00
         0.00000E+00
         0.00000E+00
         0.00000E+00
         0.00000E+00
         0.00000E+00
         0.00000E+00
         0.00000E+00
         0.00000E+00
         0.00000E+00
         0.00000E+00
         0.00000E+00
         0.00000E+00
         0.00000E+00
         0.00000E+00
         0.00000E+00
         0.00000E+00
         0.00000E+00
         0.00000E+00
         0.00000E+00
         0.00000E+00
         0.00000E+00
         0.00000E+00
         0.00000E+00
         0.00000E+00
         0.00000E+00
         0.00000E+00
         0.00000E+00
         0.00000E+00
         0.00000E+00
         0.00000E+00
         0.00000E+00
         0.00000E+00
         0.00000E+00
         0.00000E+00
         0.00000E+00
         0.00000E+00
         0.00000E+00
         0.00000E+00
         0.00000E+00
         0.00000E+00
         0.00000E+00
         0.00000E+00
         0.00000E+00
         0.00000E+00
         0.00000E+00
         0.00000E+00
         0.00000E+00
         0.00000E+00
         0.00000E+00
         0.00000E+00
         0.00000E+00
         0.00000E+00
         0.00000E+00
         0.00000E+00
         0.00000E+00
         0.00000E+00
         0.00000E+00
         0.00000E+00
         0.00000E+00
         0.00000E+00
         0.00000E+00
         0.00000E+00
         0.00000E+00
         0.00000E+00
         0.00000E+00
         0.00000E+00
         0.00000E+00
         0.00000E+00
         0.00000E+00
         0.00000E+00
         0.00000E+00
         0.00000E+00
         0.00000E+00
         0.00000E+00
         0.00000E+00
         0.00000E+00
         0.00000E+00
         0.00000E+00
         0.00000E+00
         0.00000E+00
         0.00000E+00
         0.00000E+00
         0.00000E+00
         0.00000E+00
         0.00000E+00
         0.00000E+00
         0.00000E+00
         0.00000E+00
         0.00000E+00
         0.00000E+00
         0.00000E+00
         0.00000E+00
         0.00000E+00
         0.00000E+00
         0.00000E+00
         0.00000E+00
         0.00000E+00
         0.00000E+00
         0.00000E+00
         0.00000E+00
         0.00000E+00
         0.00000E+00
         0.00000E+00
         0.00000E+00
         0.00000E+00
         0.00000E+00
         0.00000E+00
         0.00000E+00
         0.00000E+00
         0.00000E+00
         0.00000E+00
         0.00000E+00
         0.00000E+00
         0.00000E+00
         0.00000E+00
         0.00000E+00
         0.00000E+00
         0.00000E+00
         0.00000E+00
         0.00000E+00
         0.00000E+00
         0.00000E+00
         0.00000E+00
         0.00000E+00
         0.00000E+00
         0.00000E+00
         0.00000E+00
         0.00000E+00
         0.00000E+00
         0.00000E+00
         0.00000E+00
         0.00000E+00
         0.00000E+00
         0.00000E+00
         0.00000E+00
         0.00000E+00
         0.00000E+00
         0.00000E+00
         0.00000E+00
         0.00000E+00
         0.00000E+00
         0.00000E+00
         0.00000E+00
         0.00000E+00
         0.00000E+00
         0.00000E+00
         0.00000E+00
         0.00000E+00
         0.00000E+00
         0.00000E+00
         0.00000E+00
         0.00000E+00
         0.00000E+00
         0.00000E+00
         0.00000E+00
         0.00000E+00
         0.00000E+00
         0.00000E+00
         0.00000E+00
         0.00000E+00
         0.00000E+00
         0.00000E+00
         0.00000E+00
         0.00000E+00
         0.00000E+00
         0.00000E+00
         0.00000E+00
         0.00000E+00
         0.00000E+00
         0.00000E+00
         0.00000E+00
         0.00000E+00
         0.00000E+00
         0.00000E+00
         0.00000E+00
         0.00000E+00
         0.00000E+00
         0.00000E+00
         0.00000E+00
         0.00000E+00
         0.00000E+00
         0.00000E+00
         0.00000E+00
         0.00000E+00
         0.00000E+00
         0.00000E+00
         0.00000E+00
         0.00000E+00
         0.00000E+00
         0.00000E+00
         0.00000E+00
         0.00000E+00
         0.00000E+00
         0.00000E+00
         0.00000E+00
         0.00000E+00
         0.00000E+00
         0.00000E+00
         0.00000E+00
         0.00000E+00
         0.00000E+00
         0.00000E+00
         0.00000E+00
         0.00000E+00
         0.00000E+00
         0.00000E+00
         0.00000E+00
         0.00000E+00
         0.00000E+00
         0.00000E+00
         0.00000E+00
         0.00000E+00
         0.00000E+00
         0.00000E+00
         0.00000E+00
         0.00000E+00
         0.00000E+00
         0.00000E+00
         0.00000E+00
         0.00000E+00
         0.00000E+00
         0.00000E+00
         0.00000E+00
         0.00000E+00
         0.00000E+00
         0.00000E+00
         0.00000E+00
         0.00000E+00
         0.00000E+00
         0.00000E+00
         0.00000E+00
         0.00000E+00
         0.00000E+00
         0.00000E+00
         0.00000E+00
         0.00000E+00
         0.00000E+00
         0.00000E+00
         0.00000E+00
         0.00000E+00
         0.00000E+00
         0.00000E+00
         0.00000E+00
         0.00000E+00
         0.00000E+00
         0.00000E+00
         0.00000E+00
         0.00000E+00
         0.00000E+00
         0.00000E+00
         0.00000E+00
         0.00000E+00
         0.00000E+00
         0.00000E+00
         0.00000E+00
         0.00000E+00
         0.00000E+00
         0.00000E+00
         0.00000E+00
         0.00000E+00
         0.00000E+00
         0.00000E+00
         0.00000E+00
         0.00000E+00
         0.00000E+00
         0.00000E+00
         0.00000E+00
         0.00000E+00
         0.00000E+00
         0.00000E+00
         0.00000E+00
         0.00000E+00
         0.00000E+00
         0.00000E+00
         0.00000E+00
         0.00000E+00
         0.00000E+00
         0.00000E+00
         0.00000E+00
         0.00000E+00
         0.00000E+00
         0.00000E+00
         0.00000E+00
         0.00000E+00
         0.00000E+00
         0.00000E+00
         0.00000E+00
         0.00000E+00
         0.00000E+00
         0.00000E+00
         0.00000E+00
         0.00000E+00
         0.00000E+00
         0.00000E+00
         0.00000E+00
         0.00000E+00
         0.00000E+00
         0.00000E+00
         0.00000E+00
         0.00000E+00
         0.00000E+00
         0.00000E+00
         0.00000E+00
         0.00000E+00
         0.00000E+00
         0.00000E+00
         0.00000E+00
         0.00000E+00
         0.00000E+00
         0.00000E+00
         0.00000E+00
         0.00000E+00
         0.00000E+00
         0.00000E+00
         0.00000E+00
         0.00000E+00
         0.00000E+00
         0.00000E+00
         0.00000E+00
         0.00000E+00
         0.00000E+00
         0.00000E+00
         0.00000E+00
         0.00000E+00
         0.00000E+00
         0.00000E+00
         0.00000E+00
         0.00000E+00
         0.00000E+00
         0.00000E+00
         0.00000E+00
         0.00000E+00
         0.00000E+00
         0.00000E+00
         0.00000E+00
         0.00000E+00
         0.00000E+00
         0.00000E+00
         0.00000E+00
         0.00000E+00
         0.00000E+00
         0.00000E+00
         0.00000E+00
         0.00000E+00
         0.00000E+00
         0.00000E+00
         0.00000E+00
         0.00000E+00
         0.00000E+00
         0.00000E+00
         0.00000E+00
         0.00000E+00
         0.00000E+00
         0.00000E+00
         0.00000E+00
         0.00000E+00
         0.00000E+00
         0.00000E+00
         0.00000E+00
         0.00000E+00
         0.00000E+00
         0.00000E+00
         0.00000E+00
         0.00000E+00
         0.00000E+00
         0.00000E+00
         0.00000E+00
         0.00000E+00
         0.00000E+00
         0.00000E+00
         0.00000E+00
         0.00000E+00
         0.00000E+00
         0.00000E+00
         0.00000E+00
         0.00000E+00
         0.00000E+00
         0.00000E+00
         0.00000E+00
         0.00000E+00
         0.00000E+00
         0.00000E+00
         0.00000E+00
         0.00000E+00
         0.00000E+00
         0.00000E+00
         0.00000E+00
         0.00000E+00
         0.00000E+00
         0.00000E+00
         0.00000E+00
         0.00000E+00
         0.00000E+00
         0.00000E+00
         0.00000E+00
         0.00000E+00
         0.00000E+00
         0.00000E+00
         0.00000E+00
         0.00000E+00
         0.00000E+00
         0.00000E+00
         0.00000E+00
         0.00000E+00
         0.00000E+00
         0.00000E+00
         0.00000E+00
         0.00000E+00
         0.00000E+00
         0.00000E+00
         0.00000E+00
         0.00000E+00
         0.00000E+00
         0.00000E+00
         0.00000E+00
         0.00000E+00
         0.00000E+00
         0.00000E+00
         0.00000E+00
         0.00000E+00
         0.00000E+00
         0.00000E+00
         0.00000E+00
         0.00000E+00
         0.00000E+00
         0.00000E+00
         0.00000E+00
         0.00000E+00
         0.00000E+00
         0.00000E+00
         0.00000E+00
         0.00000E+00
         0.00000E+00
         0.00000E+00
         0.00000E+00
         0.00000E+00
         0.00000E+00
         0.00000E+00
         0.00000E+00
         0.00000E+00
         0.00000E+00
         0.00000E+00
         0.00000E+00
         0.00000E+00
         0.00000E+00
         0.00000E+00
         0.00000E+00
         0.00000E+00
         0.00000E+00
         0.00000E+00
         0.00000E+00
         0.00000E+00
         0.00000E+00
         0.00000E+00
         0.00000E+00
         0.00000E+00
         0.00000E+00
         0.00000E+00
         0.00000E+00
         0.00000E+00
         0.00000E+00
         0.00000E+00
         0.00000E+00
         0.00000E+00
         0.00000E+00
         0.00000E+00
         0.00000E+00
         0.00000E+00
         0.00000E+00
         0.00000E+00
         0.00000E+00
         0.00000E+00
         0.00000E+00
         0.00000E+00
         0.00000E+00
         0.00000E+00
         0.00000E+00
         0.00000E+00
         0.00000E+00
         0.00000E+00
         0.00000E+00
         0.00000E+00
         0.00000E+00
         0.00000E+00
         0.00000E+00
         0.00000E+00
         0.00000E+00
         0.00000E+00
         0.00000E+00
         0.00000E+00
         0.00000E+00
         0.00000E+00
         0.00000E+00
         0.00000E+00
         0.00000E+00
         0.00000E+00
         0.00000E+00
         0.00000E+00
         0.00000E+00
         0.00000E+00
         0.00000E+00
         0.00000E+00
         0.00000E+00
         0.00000E+00
         0.00000E+00
         0.00000E+00
         0.00000E+00
         0.00000E+00
         0.00000E+00
         0.00000E+00
         0.00000E+00
         0.00000E+00
         0.00000E+00
         0.00000E+00
         0.00000E+00
         0.00000E+00
         0.00000E+00
         0.00000E+00
         0.00000E+00
         0.00000E+00
         0.00000E+00
         0.00000E+00
         0.00000E+00
         0.00000E+00
         0.00000E+00
         0.00000E+00
         0.00000E+00
         0.00000E+00
         0.00000E+00
         0.00000E+00
         0.00000E+00
         0.00000E+00
         0.00000E+00
         0.00000E+00
         0.00000E+00
         0.00000E+00
         0.00000E+00
         0.00000E+00
         0.00000E+00
         0.00000E+00
         0.00000E+00
         0.00000E+00
         0.00000E+00
         0.00000E+00
         0.00000E+00
         0.00000E+00
         0.00000E+00
         0.00000E+00
         0.00000E+00
         0.00000E+00
         0.00000E+00
         0.00000E+00
         0.00000E+00
         0.00000E+00
         0.00000E+00
         0.00000E+00
         0.00000E+00
         0.00000E+00
         0.00000E+00
         0.00000E+00
         0.00000E+00
         0.00000E+00
         0.00000E+00
         0.00000E+00
         0.00000E+00
         0.00000E+00
         0.00000E+00
         0.00000E+00
         0.00000E+00
         0.00000E+00
         0.00000E+00
         0.00000E+00
         0.00000E+00
         0.00000E+00
         0.00000E+00
         0.00000E+00
         0.00000E+00
         0.00000E+00
         0.00000E+00
         0.00000E+00
         0.00000E+00
         0.00000E+00
         0.00000E+00
         0.00000E+00
         0.00000E+00
         0.00000E+00
         0.00000E+00
         0.00000E+00
         0.00000E+00
         0.00000E+00
         0.00000E+00
         0.00000E+00
         0.00000E+00
         0.00000E+00
         0.00000E+00
         0.00000E+00
         0.00000E+00
         0.00000E+00
         0.00000E+00
         0.00000E+00
         0.00000E+00
         0.00000E+00
         0.00000E+00
         0.00000E+00
         0.00000E+00
         0.00000E+00
         0.00000E+00
         0.00000E+00
         0.00000E+00
         0.00000E+00
         0.00000E+00
         0.00000E+00
         0.00000E+00
         0.00000E+00
         0.00000E+00
         0.00000E+00
         0.00000E+00
         0.00000E+00
         0.00000E+00
         0.00000E+00
         0.00000E+00
         0.00000E+00
         0.00000E+00
         0.00000E+00
         0.00000E+00
         0.00000E+00
         0.00000E+00
         0.00000E+00
         0.00000E+00
         0.00000E+00
         0.00000E+00
         0.00000E+00
         0.00000E+00
         0.00000E+00
         0.00000E+00
         0.00000E+00
         0.00000E+00
         0.00000E+00
         0.00000E+00
         0.00000E+00
         0.00000E+00
         0.00000E+00
         0.00000E+00
         0.00000E+00
         0.00000E+00
         0.00000E+00
         0.00000E+00
         0.00000E+00
         0.00000E+00
         0.00000E+00
         0.00000E+00
         0.00000E+00
         0.00000E+00
         0.00000E+00
         0.00000E+00
         0.00000E+00
         0.00000E+00
         0.00000E+00
         0.00000E+00
         0.00000E+00
         0.00000E+00
         0.00000E+00
         0.00000E+00
         0.00000E+00
         0.00000E+00
         0.00000E+00
         0.00000E+00
         0.00000E+00
         0.00000E+00
         0.00000E+00
         0.00000E+00
         0.00000E+00
         0.00000E+00
         0.00000E+00
         0.00000E+00
         0.00000E+00
         0.00000E+00
         0.00000E+00
         0.00000E+00
         0.00000E+00
         0.00000E+00
         0.00000E+00
         0.00000E+00
         0.00000E+00
         0.00000E+00
         0.00000E+00
         0.00000E+00
         0.00000E+00
         0.00000E+00
         0.00000E+00
         0.00000E+00
         0.00000E+00
         0.00000E+00
         0.00000E+00
         0.00000E+00
         0.00000E+00
         0.00000E+00
         0.00000E+00
         0.00000E+00
         0.00000E+00
         0.00000E+00
         0.00000E+00
         0.00000E+00
         0.00000E+00
         0.00000E+00
         0.00000E+00
         0.00000E+00
         0.00000E+00
         0.00000E+00
         0.00000E+00
         0.00000E+00
         0.00000E+00
         0.00000E+00
         0.00000E+00
         0.00000E+00
         0.00000E+00
         0.00000E+00
         0.00000E+00
         0.00000E+00
         0.00000E+00
         0.00000E+00
         0.00000E+00
         0.00000E+00
         0.00000E+00
         0.00000E+00
         0.00000E+00
         0.00000E+00
         0.00000E+00
         0.00000E+00
         0.00000E+00
         0.00000E+00
         0.00000E+00
         0.00000E+00
         0.00000E+00
         0.00000E+00
         0.00000E+00
         0.00000E+00
         0.00000E+00
         0.00000E+00
         0.00000E+00
         0.00000E+00
         0.00000E+00
         0.00000E+00
         0.00000E+00
         0.00000E+00
         0.00000E+00
         0.00000E+00
         0.00000E+00
         0.00000E+00
         0.00000E+00
         0.00000E+00
         0.00000E+00
         0.00000E+00
         0.00000E+00
         0.00000E+00
         0.00000E+00
         0.00000E+00
         0.00000E+00
         0.00000E+00
         0.00000E+00
         0.00000E+00
         0.00000E+00
         0.00000E+00
         0.00000E+00
         0.00000E+00
         0.00000E+00
         0.00000E+00
         0.00000E+00
         0.00000E+00
         0.00000E+00
         0.00000E+00
         0.00000E+00
         0.00000E+00
         0.00000E+00
         0.00000E+00
         0.00000E+00
         0.00000E+00
         0.00000E+00
         0.00000E+00
         0.00000E+00
         0.00000E+00
         0.00000E+00
         0.00000E+00
         0.00000E+00
         0.00000E+00
         0.00000E+00
         0.00000E+00
         0.00000E+00
         0.00000E+00
         0.00000E+00
         0.00000E+00
         0.00000E+00
         0.00000E+00
         0.00000E+00
         0.00000E+00
         0.00000E+00
         0.00000E+00
         0.00000E+00
         0.00000E+00
         0.00000E+00
         0.00000E+00
         0.00000E+00
         0.00000E+00
         0.00000E+00
         0.00000E+00
         0.00000E+00
         0.00000E+00
         0.00000E+00
         0.00000E+00
         0.00000E+00
         0.00000E+00
         0.00000E+00
         0.00000E+00
         0.00000E+00
         0.00000E+00
         0.00000E+00
         0.00000E+00
         0.00000E+00
         0.00000E+00
         0.00000E+00
         0.00000E+00
         0.00000E+00
         0.00000E+00
         0.00000E+00
         0.00000E+00
         0.00000E+00
         0.00000E+00
         0.00000E+00
         0.00000E+00
         0.00000E+00
         0.00000E+00
         0.00000E+00
         0.00000E+00
         0.00000E+00
         0.00000E+00
         0.00000E+00
         0.00000E+00
         0.00000E+00
         0.00000E+00
         0.00000E+00
         0.00000E+00
         0.00000E+00
         0.00000E+00
         0.00000E+00
         0.00000E+00
         0.00000E+00
         0.00000E+00
         0.00000E+00
         0.00000E+00
         0.00000E+00
         0.00000E+00
         0.00000E+00
         0.00000E+00
         0.00000E+00
         0.00000E+00
         0.00000E+00
         0.00000E+00
         0.00000E+00
         0.00000E+00
         0.00000E+00
         0.00000E+00
         0.00000E+00
         0.00000E+00
         0.00000E+00
         0.00000E+00
         0.00000E+00
         0.00000E+00
         0.00000E+00
         0.00000E+00
         0.00000E+00
         0.00000E+00
         0.00000E+00
         0.00000E+00
         0.00000E+00
         0.00000E+00
         0.00000E+00
         0.00000E+00
         0.00000E+00
         0.00000E+00
         0.00000E+00
         0.00000E+00
         0.00000E+00
         0.00000E+00
         0.00000E+00
         0.00000E+00
         0.00000E+00
         0.00000E+00
         0.00000E+00
         0.00000E+00
         0.00000E+00
         0.00000E+00
         0.00000E+00
         0.00000E+00
         0.00000E+00
         0.00000E+00
         0.00000E+00
         0.00000E+00
         0.00000E+00
         0.00000E+00
         0.00000E+00
         0.00000E+00
         0.00000E+00
         0.00000E+00
         0.00000E+00
         0.00000E+00
         0.00000E+00
         0.00000E+00
         0.00000E+00
         0.00000E+00
         0.00000E+00
         0.00000E+00
         0.00000E+00
         0.00000E+00
         0.00000E+00
         0.00000E+00
         0.00000E+00
         0.00000E+00
         0.00000E+00
         0.00000E+00
         0.00000E+00
         0.00000E+00
         0.00000E+00
         0.00000E+00
         0.00000E+00
         0.00000E+00
         0.00000E+00
         0.00000E+00
         0.00000E+00
         0.00000E+00
         0.00000E+00
         0.00000E+00
         0.00000E+00
         0.00000E+00
         0.00000E+00
         0.00000E+00
         0.00000E+00
         0.00000E+00
         0.00000E+00
         0.00000E+00
         0.00000E+00
         0.00000E+00
         0.00000E+00
         0.00000E+00
         0.00000E+00
         0.00000E+00
         0.00000E+00
         0.00000E+00
         0.00000E+00
         0.00000E+00
         0.00000E+00
         0.00000E+00
         0.00000E+00
         0.00000E+00
         0.00000E+00
         0.00000E+00
         0.00000E+00
         0.00000E+00
         0.00000E+00
         0.00000E+00
         0.00000E+00
         0.00000E+00
         0.00000E+00
         0.00000E+00
         0.00000E+00
         0.00000E+00
         0.00000E+00
         0.00000E+00
         0.00000E+00
         0.00000E+00
         0.00000E+00
         0.00000E+00
         0.00000E+00
         0.00000E+00
         0.00000E+00
         0.00000E+00
         0.00000E+00
         0.00000E+00
         0.00000E+00
         0.00000E+00
         0.00000E+00
         0.00000E+00
         0.00000E+00
         0.00000E+00
         0.00000E+00
         0.00000E+00
         0.00000E+00
         0.00000E+00
         0.00000E+00
         0.00000E+00
         0.00000E+00
         0.00000E+00
         0.00000E+00
         0.00000E+00
         0.00000E+00
         0.00000E+00
         0.00000E+00
         0.00000E+00
         0.00000E+00
         0.00000E+00
         0.00000E+00
         0.00000E+00
         0.00000E+00
         0.00000E+00
         0.00000E+00
         0.00000E+00
         0.00000E+00
         0.00000E+00
         0.00000E+00
         0.00000E+00
         0.00000E+00
         0.00000E+00
         0.00000E+00
         0.00000E+00
         0.00000E+00
         0.00000E+00
         0.00000E+00
         0.00000E+00
         0.00000E+00
         0.00000E+00
         0.00000E+00
         0.00000E+00
         0.00000E+00
         0.00000E+00
         0.00000E+00
         0.00000E+00
         0.00000E+00
         0.00000E+00
         0.00000E+00
         0.00000E+00
         0.00000E+00
         0.00000E+00
         0.00000E+00
         0.00000E+00
         0.00000E+00
         0.00000E+00
         0.00000E+00
         0.00000E+00
         0.00000E+00
         0.00000E+00
         0.00000E+00
         0.00000E+00
         0.00000E+00
         0.00000E+00
         0.00000E+00
         0.00000E+00
         0.00000E+00
         0.00000E+00
         0.00000E+00
         0.00000E+00
         0.00000E+00
         0.00000E+00
         0.00000E+00
         0.00000E+00
         0.00000E+00
         0.00000E+00
         0.00000E+00
         0.00000E+00
         0.00000E+00
         0.00000E+00
         0.00000E+00
         0.00000E+00
         0.00000E+00
         0.00000E+00
         0.00000E+00
         0.00000E+00
         0.00000E+00
         0.00000E+00
         0.00000E+00
         0.00000E+00
         0.00000E+00
         0.00000E+00
         0.00000E+00
         0.00000E+00
         0.00000E+00
         0.00000E+00
         0.00000E+00
         0.00000E+00
         0.00000E+00
         0.00000E+00
         0.00000E+00
         0.00000E+00
         0.00000E+00
         0.00000E+00
         0.00000E+00
         0.00000E+00
         0.00000E+00
         0.00000E+00
         0.00000E+00
         0.00000E+00
         0.00000E+00
         0.00000E+00
         0.00000E+00
         0.00000E+00
         0.00000E+00
         0.00000E+00
         0.00000E+00
         0.00000E+00
         0.00000E+00
         0.00000E+00
         0.00000E+00
         0.00000E+00
         0.00000E+00
         0.00000E+00
         0.00000E+00
         0.00000E+00
         0.00000E+00
         0.00000E+00
         0.00000E+00
         0.00000E+00
         0.00000E+00
         0.00000E+00
         0.00000E+00
         0.00000E+00
         0.00000E+00
         0.00000E+00
         0.00000E+00
         0.00000E+00
         0.00000E+00
         0.00000E+00
         0.00000E+00
         0.00000E+00
         0.00000E+00
         0.00000E+00
         0.00000E+00
         0.00000E+00
         0.00000E+00
         0.00000E+00
         0.00000E+00
         0.00000E+00
         0.00000E+00
         0.00000E+00
         0.00000E+00
         0.00000E+00
         0.00000E+00
         0.00000E+00
         0.00000E+00
         0.00000E+00
         0.00000E+00
         0.00000E+00
         0.00000E+00
         0.00000E+00
         0.00000E+00
         0.00000E+00
         0.00000E+00
         0.00000E+00
         0.00000E+00
         0.00000E+00
         0.00000E+00
         0.00000E+00
         0.00000E+00
         0.00000E+00
         0.00000E+00
         0.00000E+00
         0.00000E+00
         0.00000E+00
         0.00000E+00
         0.00000E+00
         0.00000E+00
         0.00000E+00
         0.00000E+00
         0.00000E+00
         0.00000E+00
         0.00000E+00
         0.00000E+00
         0.00000E+00
         0.00000E+00
         0.00000E+00
         0.00000E+00
         0.00000E+00
         0.00000E+00
         0.00000E+00
         0.00000E+00
         0.00000E+00
         0.00000E+00
         0.00000E+00
         0.00000E+00
         0.00000E+00
         0.00000E+00
         0.00000E+00
         0.00000E+00
         0.00000E+00
         0.00000E+00
         0.00000E+00
         0.00000E+00
         0.00000E+00
         0.00000E+00
         0.00000E+00
         0.00000E+00
         0.00000E+00
         0.00000E+00
         0.00000E+00
         0.00000E+00
         0.00000E+00
         0.00000E+00
         0.00000E+00
         0.00000E+00
         0.00000E+00
         0.00000E+00
         0.00000E+00
         0.00000E+00
         0.00000E+00
         0.00000E+00
         0.00000E+00
         0.00000E+00
         0.00000E+00
         0.00000E+00
         0.00000E+00
         0.00000E+00
         0.00000E+00
         0.00000E+00
         0.00000E+00
         0.00000E+00
         0.00000E+00
         0.00000E+00
         0.00000E+00
         0.00000E+00
         0.00000E+00
         0.00000E+00
         0.00000E+00
         0.00000E+00
         0.00000E+00
         0.00000E+00
         0.00000E+00
         0.00000E+00
         0.00000E+00
         0.00000E+00
         0.00000E+00
         0.00000E+00
         0.00000E+00
         0.00000E+00
         0.00000E+00
         0.00000E+00
         0.00000E+00
         0.00000E+00
         0.00000E+00
         0.00000E+00
         0.00000E+00
         0.00000E+00
         0.00000E+00
         0.00000E+00
         0.00000E+00
         0.00000E+00
         0.00000E+00
         0.00000E+00
         0.00000E+00
         0.00000E+00
         0.00000E+00
         0.00000E+00
         0.00000E+00
         0.00000E+00
         0.00000E+00
         0.00000E+00
         0.00000E+00
         0.00000E+00
         0.00000E+00
         0.00000E+00
         0.00000E+00
         0.00000E+00
         0.00000E+00
         0.00000E+00
         0.00000E+00
         0.00000E+00
         0.00000E+00
         0.00000E+00
         0.00000E+00
         0.00000E+00
         0.00000E+00
         0.00000E+00
         0.00000E+00
         0.00000E+00
         0.00000E+00
         0.00000E+00
         0.00000E+00
         0.00000E+00
         0.00000E+00
         0.00000E+00
         0.00000E+00
         0.00000E+00
         0.00000E+00
         0.00000E+00
         0.00000E+00
         0.00000E+00
         0.00000E+00
         0.00000E+00
         0.00000E+00
         0.00000E+00
         0.00000E+00
         0.00000E+00
         0.00000E+00
         0.00000E+00
         0.00000E+00
         0.00000E+00
         0.00000E+00
         0.00000E+00
         0.00000E+00
         0.00000E+00
         0.00000E+00
         0.00000E+00
         0.00000E+00
         0.00000E+00
         0.00000E+00
         0.00000E+00
         0.00000E+00
         0.00000E+00
         0.00000E+00
         0.00000E+00
         0.00000E+00
         0.00000E+00
         0.00000E+00
         0.00000E+00
         0.00000E+00
         0.00000E+00
         0.00000E+00
         0.00000E+00
         0.00000E+00
         0.00000E+00
         0.00000E+00
         0.00000E+00
         0.00000E+00
         0.00000E+00
         0.00000E+00
         0.00000E+00
         0.00000E+00
         0.00000E+00
         0.00000E+00
         0.00000E+00
         0.00000E+00
         0.00000E+00
         0.00000E+00
         0.00000E+00
         0.00000E+00
         0.00000E+00
         0.00000E+00
         0.00000E+00
         0.00000E+00
         0.00000E+00
         0.00000E+00
         0.00000E+00
         0.00000E+00
         0.00000E+00
         0.00000E+00
         0.00000E+00
         0.00000E+00
         0.00000E+00
         0.00000E+00
         0.00000E+00
         0.00000E+00
         0.00000E+00
         0.00000E+00
         0.00000E+00
         0.00000E+00
         0.00000E+00
         0.00000E+00
         0.00000E+00
         0.00000E+00
         0.00000E+00
         0.00000E+00
         0.00000E+00
         0.00000E+00
         0.00000E+00
         0.00000E+00
         0.00000E+00
         0.00000E+00
         0.00000E+00
         0.00000E+00
         0.00000E+00
         0.00000E+00
         0.00000E+00
         0.00000E+00
         0.00000E+00
         0.00000E+00
         0.00000E+00
         0.00000E+00
         0.00000E+00
         0.00000E+00
         0.00000E+00
         0.00000E+00
         0.00000E+00
         0.00000E+00
         0.00000E+00
         0.00000E+00
         0.00000E+00
         0.00000E+00
         0.00000E+00
         0.00000E+00
         0.00000E+00
         0.00000E+00
         0.00000E+00
         0.00000E+00
         0.00000E+00
         0.00000E+00
         0.00000E+00
         0.00000E+00
         0.00000E+00
         0.00000E+00
         0.00000E+00
         0.00000E+00
         0.00000E+00
         0.00000E+00
         0.00000E+00
         0.00000E+00
         0.00000E+00
         0.00000E+00
         0.00000E+00
         0.00000E+00
         0.00000E+00
         0.00000E+00
         0.00000E+00
         0.00000E+00
         0.00000E+00
         0.00000E+00
         0.00000E+00
         0.00000E+00
         0.00000E+00
         0.00000E+00
         0.00000E+00
         0.00000E+00
         0.00000E+00
         0.00000E+00
         0.00000E+00
         0.00000E+00
         0.00000E+00
         0.00000E+00
         0.00000E+00
         0.00000E+00
         0.00000E+00
         0.00000E+00
         0.00000E+00
         0.00000E+00
         0.00000E+00
         0.00000E+00
         0.00000E+00
         0.00000E+00
         0.00000E+00
         0.00000E+00
         0.00000E+00
         0.00000E+00
         0.00000E+00
         0.00000E+00
         0.00000E+00
         0.00000E+00
         0.00000E+00
         0.00000E+00
         0.00000E+00
         0.00000E+00
         0.00000E+00
         0.00000E+00
         0.00000E+00
         0.00000E+00
         0.00000E+00
         0.00000E+00
         0.00000E+00
         0.00000E+00
         0.00000E+00
         0.00000E+00
         0.00000E+00
         0.00000E+00
         0.00000E+00
         0.00000E+00
         0.00000E+00
         0.00000E+00
         0.00000E+00
         0.00000E+00
         0.00000E+00
         0.00000E+00
         0.00000E+00
         0.00000E+00
         0.00000E+00
         0.00000E+00
         0.00000E+00
         0.00000E+00
         0.00000E+00
         0.00000E+00
         0.00000E+00
         0.00000E+00
         0.00000E+00
         0.00000E+00
         0.00000E+00
         0.00000E+00
         0.00000E+00
         0.00000E+00
         0.00000E+00
         0.00000E+00
         0.00000E+00
         0.00000E+00
         0.00000E+00
         0.00000E+00
         0.00000E+00
         0.00000E+00
         0.00000E+00
         0.00000E+00
         0.00000E+00
         0.00000E+00
         0.00000E+00
         0.00000E+00
         0.00000E+00
         0.00000E+00
         0.00000E+00
         0.00000E+00
         0.00000E+00
         0.00000E+00
         0.00000E+00
         0.00000E+00
         0.00000E+00
         0.00000E+00
         0.00000E+00
         0.00000E+00
         0.00000E+00
         0.00000E+00
         0.00000E+00
         0.00000E+00
         0.00000E+00
         0.00000E+00
         0.00000E+00
         0.00000E+00
         0.00000E+00
         0.00000E+00
         0.00000E+00
         0.00000E+00
         0.00000E+00
         0.00000E+00
         0.00000E+00
         0.00000E+00
         0.00000E+00
         0.00000E+00
         0.00000E+00
         0.00000E+00
         0.00000E+00
         0.00000E+00
         0.00000E+00
         0.00000E+00
         0.00000E+00
         0.00000E+00
         0.00000E+00
         0.00000E+00
         0.00000E+00
         0.00000E+00
         0.00000E+00
         0.00000E+00
         0.00000E+00
         0.00000E+00
         0.00000E+00
         0.00000E+00
         0.00000E+00
         0.00000E+00
         0.00000E+00
         0.00000E+00
         0.00000E+00
         0.00000E+00
         0.00000E+00
         0.00000E+00
         0.00000E+00
         0.00000E+00
         0.00000E+00
         0.00000E+00
         0.00000E+00
         0.00000E+00
         0.00000E+00
         0.00000E+00
         0.00000E+00
         0.00000E+00
         0.00000E+00
         0.00000E+00
         0.00000E+00
         0.00000E+00
         0.00000E+00
         0.00000E+00
         0.00000E+00
         0.00000E+00
         0.00000E+00
         0.00000E+00
         0.00000E+00
         0.00000E+00
         0.00000E+00
         0.00000E+00
         0.00000E+00
         0.00000E+00
         0.00000E+00
         0.00000E+00
         0.00000E+00
         0.00000E+00
         0.00000E+00
         0.00000E+00
         0.00000E+00
         0.00000E+00
         0.00000E+00
         0.00000E+00
         0.00000E+00
         0.00000E+00
         0.00000E+00
         0.00000E+00
         0.00000E+00
         0.00000E+00
         0.00000E+00
         0.00000E+00
         0.00000E+00
         0.00000E+00
         0.00000E+00
         0.00000E+00
         0.00000E+00
         0.00000E+00
         0.00000E+00
         0.00000E+00
         0.00000E+00
         0.00000E+00
         0.00000E+00
         0.00000E+00
         0.00000E+00
         0.00000E+00
         0.00000E+00
         0.00000E+00
         0.00000E+00
         0.00000E+00
         0.00000E+00
         0.00000E+00
         0.00000E+00
         0.00000E+00
         0.00000E+00
         0.00000E+00
         0.00000E+00
         0.00000E+00
         0.00000E+00
         0.00000E+00
         0.00000E+00
         0.00000E+00
         0.00000E+00
         0.00000E+00
         0.00000E+00
         0.00000E+00
         0.00000E+00
         0.00000E+00
         0.00000E+00
         0.00000E+00
         0.00000E+00
         0.00000E+00
         0.00000E+00
         0.00000E+00
         0.00000E+00
         0.00000E+00
         0.00000E+00
         0.00000E+00
         0.00000E+00
         0.00000E+00
         0.00000E+00
         0.00000E+00
         0.00000E+00
         0.00000E+00
         0.00000E+00
         0.00000E+00
         0.00000E+00
         0.00000E+00
         0.00000E+00
         0.00000E+00
         0.00000E+00
         0.00000E+00
         0.00000E+00
         0.00000E+00
         0.00000E+00
         0.00000E+00
         0.00000E+00
         0.00000E+00
         0.00000E+00
         0.00000E+00
         0.00000E+00
         0.00000E+00
         0.00000E+00
         0.00000E+00
         0.00000E+00
         0.00000E+00
         0.00000E+00
         0.00000E+00
         0.00000E+00
         0.00000E+00
         0.00000E+00
         0.00000E+00
         0.00000E+00
         0.00000E+00
         0.00000E+00
         0.00000E+00
         0.00000E+00
         0.00000E+00
         0.00000E+00
         0.00000E+00
         0.00000E+00
         0.00000E+00
         0.00000E+00
         0.00000E+00
         0.00000E+00
         0.00000E+00
         0.00000E+00
         0.00000E+00
         0.00000E+00
         0.00000E+00
         0.00000E+00
         0.00000E+00
         0.00000E+00
         0.00000E+00
         0.00000E+00
         0.00000E+00
         0.00000E+00
         0.00000E+00
         0.00000E+00
         0.00000E+00
         0.00000E+00
         0.00000E+00
         0.00000E+00
         0.00000E+00
         0.00000E+00
         0.00000E+00
         0.00000E+00
         0.00000E+00
         0.00000E+00
         0.00000E+00
         0.00000E+00
         0.00000E+00
         0.00000E+00
         0.00000E+00
         0.00000E+00
         0.00000E+00
         0.00000E+00
         0.00000E+00
         0.00000E+00
         0.00000E+00
         0.00000E+00
         0.00000E+00
         0.00000E+00
         0.00000E+00
         0.00000E+00
         0.00000E+00
         0.00000E+00
         0.00000E+00
         0.00000E+00
         0.00000E+00
         0.00000E+00
         0.00000E+00
         0.00000E+00
         0.00000E+00
         0.00000E+00
         0.00000E+00
         0.00000E+00
         0.00000E+00
         0.00000E+00
         0.00000E+00
         0.00000E+00
         0.00000E+00
         0.00000E+00
         0.00000E+00
         0.00000E+00
         0.00000E+00
         0.00000E+00
         0.00000E+00
         0.00000E+00
         0.00000E+00
         0.00000E+00
         0.00000E+00
         0.00000E+00
         0.00000E+00
         0.00000E+00
         0.00000E+00
         0.00000E+00
         0.00000E+00
         0.00000E+00
         0.00000E+00
         0.00000E+00
         0.00000E+00
         0.00000E+00
         0.00000E+00
         0.00000E+00
         0.00000E+00
         0.00000E+00
         0.00000E+00
         0.00000E+00
         0.00000E+00
         0.00000E+00
         0.00000E+00
         0.00000E+00
         0.00000E+00
         0.00000E+00
         0.00000E+00
         0.00000E+00
         0.00000E+00
         0.00000E+00
         0.00000E+00
         0.00000E+00
         0.00000E+00
         0.00000E+00
         0.00000E+00
         0.00000E+00
         0.00000E+00
         0.00000E+00
         0.00000E+00
         0.00000E+00
         0.00000E+00
         0.00000E+00
         0.00000E+00
         0.00000E+00
         0.00000E+00
         0.00000E+00
         0.00000E+00
         0.00000E+00
         0.00000E+00
         0.00000E+00
         0.00000E+00
         0.00000E+00
         0.00000E+00
         0.00000E+00
         0.00000E+00
         0.00000E+00
         0.00000E+00
         0.00000E+00
         0.00000E+00
         0.00000E+00
         0.00000E+00
         0.00000E+00
         0.00000E+00
         0.00000E+00
         0.00000E+00
         0.00000E+00
         0.00000E+00
         0.00000E+00
         0.00000E+00
         0.00000E+00
         0.00000E+00
         0.00000E+00
         0.00000E+00
         0.00000E+00
         0.00000E+00
         0.00000E+00
         0.00000E+00
         0.00000E+00
         0.00000E+00
         0.00000E+00
         0.00000E+00
         0.00000E+00
         0.00000E+00
         0.00000E+00
         0.00000E+00
         0.00000E+00
         0.00000E+00
         0.00000E+00
         0.00000E+00
         0.00000E+00
         0.00000E+00
         0.00000E+00
         0.00000E+00
         0.00000E+00
         0.00000E+00
         0.00000E+00
         0.00000E+00
  
SCALARS                        eps_vol  double 1
LOOKUP_TABLE default
         0.00000E+00
         0.00000E+00
         0.00000E+00
         0.00000E+00
         0.00000E+00
         0.00000E+00
         0.00000E+00
         0.00000E+00
         0.00000E+00
         0.00000E+00
         0.00000E+00
         0.00000E+00
         0.00000E+00
         0.00000E+00
         0.00000E+00
         0.00000E+00
         0.00000E+00
         0.00000E+00
         0.00000E+00
         0.00000E+00
         0.00000E+00
         0.00000E+00
         0.00000E+00
         0.00000E+00
         0.00000E+00
         0.00000E+00
         0.00000E+00
         0.00000E+00
         0.00000E+00
         0.00000E+00
         0.00000E+00
         0.00000E+00
         0.00000E+00
         0.00000E+00
         0.00000E+00
         0.00000E+00
         0.00000E+00
         0.00000E+00
         0.00000E+00
         0.00000E+00
         0.00000E+00
         0.00000E+00
         0.00000E+00
         0.00000E+00
         0.00000E+00
         0.00000E+00
         0.00000E+00
         0.00000E+00
         0.00000E+00
         0.00000E+00
         0.00000E+00
         0.00000E+00
         0.00000E+00
         0.00000E+00
         0.00000E+00
         0.00000E+00
         0.00000E+00
         0.00000E+00
         0.00000E+00
         0.00000E+00
         0.00000E+00
         0.00000E+00
         0.00000E+00
         0.00000E+00
         0.00000E+00
         0.00000E+00
         0.00000E+00
         0.00000E+00
         0.00000E+00
         0.00000E+00
         0.00000E+00
         0.00000E+00
         0.00000E+00
         0.00000E+00
         0.00000E+00
         0.00000E+00
         0.00000E+00
         0.00000E+00
         0.00000E+00
         0.00000E+00
         0.00000E+00
         0.00000E+00
         0.00000E+00
         0.00000E+00
         0.00000E+00
         0.00000E+00
         0.00000E+00
         0.00000E+00
         0.00000E+00
         0.00000E+00
         0.00000E+00
         0.00000E+00
         0.00000E+00
         0.00000E+00
         0.00000E+00
         0.00000E+00
         0.00000E+00
         0.00000E+00
         0.00000E+00
         0.00000E+00
         0.00000E+00
         0.00000E+00
         0.00000E+00
         0.00000E+00
         0.00000E+00
         0.00000E+00
         0.00000E+00
         0.00000E+00
         0.00000E+00
         0.00000E+00
         0.00000E+00
         0.00000E+00
         0.00000E+00
         0.00000E+00
         0.00000E+00
         0.00000E+00
         0.00000E+00
         0.00000E+00
         0.00000E+00
         0.00000E+00
         0.00000E+00
         0.00000E+00
         0.00000E+00
         0.00000E+00
         0.00000E+00
         0.00000E+00
         0.00000E+00
         0.00000E+00
         0.00000E+00
         0.00000E+00
         0.00000E+00
         0.00000E+00
         0.00000E+00
         0.00000E+00
         0.00000E+00
         0.00000E+00
         0.00000E+00
         0.00000E+00
         0.00000E+00
         0.00000E+00
         0.00000E+00
         0.00000E+00
         0.00000E+00
         0.00000E+00
         0.00000E+00
         0.00000E+00
         0.00000E+00
         0.00000E+00
         0.00000E+00
         0.00000E+00
         0.00000E+00
         0.00000E+00
         0.00000E+00
         0.00000E+00
         0.00000E+00
         0.00000E+00
         0.00000E+00
         0.00000E+00
         0.00000E+00
         0.00000E+00
         0.00000E+00
         0.00000E+00
         0.00000E+00
         0.00000E+00
         0.00000E+00
         0.00000E+00
         0.00000E+00
         0.00000E+00
         0.00000E+00
         0.00000E+00
         0.00000E+00
         0.00000E+00
         0.00000E+00
         0.00000E+00
         0.00000E+00
         0.00000E+00
         0.00000E+00
         0.00000E+00
         0.00000E+00
         0.00000E+00
         0.00000E+00
         0.00000E+00
         0.00000E+00
         0.00000E+00
         0.00000E+00
         0.00000E+00
         0.00000E+00
         0.00000E+00
         0.00000E+00
         0.00000E+00
         0.00000E+00
         0.00000E+00
         0.00000E+00
         0.00000E+00
         0.00000E+00
         0.00000E+00
         0.00000E+00
         0.00000E+00
         0.00000E+00
         0.00000E+00
         0.00000E+00
         0.00000E+00
         0.00000E+00
         0.00000E+00
         0.00000E+00
         0.00000E+00
         0.00000E+00
         0.00000E+00
         0.00000E+00
         0.00000E+00
         0.00000E+00
         0.00000E+00
         0.00000E+00
         0.00000E+00
         0.00000E+00
         0.00000E+00
         0.00000E+00
         0.00000E+00
         0.00000E+00
         0.00000E+00
         0.00000E+00
         0.00000E+00
         0.00000E+00
         0.00000E+00
         0.00000E+00
         0.00000E+00
         0.00000E+00
         0.00000E+00
         0.00000E+00
         0.00000E+00
         0.00000E+00
         0.00000E+00
         0.00000E+00
         0.00000E+00
         0.00000E+00
         0.00000E+00
         0.00000E+00
         0.00000E+00
         0.00000E+00
         0.00000E+00
         0.00000E+00
         0.00000E+00
         0.00000E+00
         0.00000E+00
         0.00000E+00
         0.00000E+00
         0.00000E+00
         0.00000E+00
         0.00000E+00
         0.00000E+00
         0.00000E+00
         0.00000E+00
         0.00000E+00
         0.00000E+00
         0.00000E+00
         0.00000E+00
         0.00000E+00
         0.00000E+00
         0.00000E+00
         0.00000E+00
         0.00000E+00
         0.00000E+00
         0.00000E+00
         0.00000E+00
         0.00000E+00
         0.00000E+00
         0.00000E+00
         0.00000E+00
         0.00000E+00
         0.00000E+00
         0.00000E+00
         0.00000E+00
         0.00000E+00
         0.00000E+00
         0.00000E+00
         0.00000E+00
         0.00000E+00
         0.00000E+00
         0.00000E+00
         0.00000E+00
         0.00000E+00
         0.00000E+00
         0.00000E+00
         0.00000E+00
         0.00000E+00
         0.00000E+00
         0.00000E+00
         0.00000E+00
         0.00000E+00
         0.00000E+00
         0.00000E+00
         0.00000E+00
         0.00000E+00
         0.00000E+00
         0.00000E+00
         0.00000E+00
         0.00000E+00
         0.00000E+00
         0.00000E+00
         0.00000E+00
         0.00000E+00
         0.00000E+00
         0.00000E+00
         0.00000E+00
         0.00000E+00
         0.00000E+00
         0.00000E+00
         0.00000E+00
         0.00000E+00
         0.00000E+00
         0.00000E+00
         0.00000E+00
         0.00000E+00
         0.00000E+00
         0.00000E+00
         0.00000E+00
         0.00000E+00
         0.00000E+00
         0.00000E+00
         0.00000E+00
         0.00000E+00
         0.00000E+00
         0.00000E+00
         0.00000E+00
         0.00000E+00
         0.00000E+00
         0.00000E+00
         0.00000E+00
         0.00000E+00
         0.00000E+00
         0.00000E+00
         0.00000E+00
         0.00000E+00
         0.00000E+00
         0.00000E+00
         0.00000E+00
         0.00000E+00
         0.00000E+00
         0.00000E+00
         0.00000E+00
         0.00000E+00
         0.00000E+00
         0.00000E+00
         0.00000E+00
         0.00000E+00
         0.00000E+00
         0.00000E+00
         0.00000E+00
         0.00000E+00
         0.00000E+00
         0.00000E+00
         0.00000E+00
         0.00000E+00
         0.00000E+00
         0.00000E+00
         0.00000E+00
         0.00000E+00
         0.00000E+00
         0.00000E+00
         0.00000E+00
         0.00000E+00
         0.00000E+00
         0.00000E+00
         0.00000E+00
         0.00000E+00
         0.00000E+00
         0.00000E+00
         0.00000E+00
         0.00000E+00
         0.00000E+00
         0.00000E+00
         0.00000E+00
         0.00000E+00
         0.00000E+00
         0.00000E+00
         0.00000E+00
         0.00000E+00
         0.00000E+00
         0.00000E+00
         0.00000E+00
         0.00000E+00
         0.00000E+00
         0.00000E+00
         0.00000E+00
         0.00000E+00
         0.00000E+00
         0.00000E+00
         0.00000E+00
         0.00000E+00
         0.00000E+00
         0.00000E+00
         0.00000E+00
         0.00000E+00
         0.00000E+00
         0.00000E+00
         0.00000E+00
         0.00000E+00
         0.00000E+00
         0.00000E+00
         0.00000E+00
         0.00000E+00
         0.00000E+00
         0.00000E+00
         0.00000E+00
         0.00000E+00
         0.00000E+00
         0.00000E+00
         0.00000E+00
         0.00000E+00
         0.00000E+00
         0.00000E+00
         0.00000E+00
         0.00000E+00
         0.00000E+00
         0.00000E+00
         0.00000E+00
         0.00000E+00
         0.00000E+00
         0.00000E+00
         0.00000E+00
         0.00000E+00
         0.00000E+00
         0.00000E+00
         0.00000E+00
         0.00000E+00
         0.00000E+00
         0.00000E+00
         0.00000E+00
         0.00000E+00
         0.00000E+00
         0.00000E+00
         0.00000E+00
         0.00000E+00
         0.00000E+00
         0.00000E+00
         0.00000E+00
         0.00000E+00
         0.00000E+00
         0.00000E+00
         0.00000E+00
         0.00000E+00
         0.00000E+00
         0.00000E+00
         0.00000E+00
         0.00000E+00
         0.00000E+00
         0.00000E+00
         0.00000E+00
         0.00000E+00
         0.00000E+00
         0.00000E+00
         0.00000E+00
         0.00000E+00
         0.00000E+00
         0.00000E+00
         0.00000E+00
         0.00000E+00
         0.00000E+00
         0.00000E+00
         0.00000E+00
         0.00000E+00
         0.00000E+00
         0.00000E+00
         0.00000E+00
         0.00000E+00
         0.00000E+00
         0.00000E+00
         0.00000E+00
         0.00000E+00
         0.00000E+00
         0.00000E+00
         0.00000E+00
         0.00000E+00
         0.00000E+00
         0.00000E+00
         0.00000E+00
         0.00000E+00
         0.00000E+00
         0.00000E+00
         0.00000E+00
         0.00000E+00
         0.00000E+00
         0.00000E+00
         0.00000E+00
         0.00000E+00
         0.00000E+00
         0.00000E+00
         0.00000E+00
         0.00000E+00
         0.00000E+00
         0.00000E+00
         0.00000E+00
         0.00000E+00
         0.00000E+00
         0.00000E+00
         0.00000E+00
         0.00000E+00
         0.00000E+00
         0.00000E+00
         0.00000E+00
         0.00000E+00
         0.00000E+00
         0.00000E+00
         0.00000E+00
         0.00000E+00
         0.00000E+00
         0.00000E+00
         0.00000E+00
         0.00000E+00
         0.00000E+00
         0.00000E+00
         0.00000E+00
         0.00000E+00
         0.00000E+00
         0.00000E+00
         0.00000E+00
         0.00000E+00
         0.00000E+00
         0.00000E+00
         0.00000E+00
         0.00000E+00
         0.00000E+00
         0.00000E+00
         0.00000E+00
         0.00000E+00
         0.00000E+00
         0.00000E+00
         0.00000E+00
         0.00000E+00
         0.00000E+00
         0.00000E+00
         0.00000E+00
         0.00000E+00
         0.00000E+00
         0.00000E+00
         0.00000E+00
         0.00000E+00
         0.00000E+00
         0.00000E+00
         0.00000E+00
         0.00000E+00
         0.00000E+00
         0.00000E+00
         0.00000E+00
         0.00000E+00
         0.00000E+00
         0.00000E+00
         0.00000E+00
         0.00000E+00
         0.00000E+00
         0.00000E+00
         0.00000E+00
         0.00000E+00
         0.00000E+00
         0.00000E+00
         0.00000E+00
         0.00000E+00
         0.00000E+00
         0.00000E+00
         0.00000E+00
         0.00000E+00
         0.00000E+00
         0.00000E+00
         0.00000E+00
         0.00000E+00
         0.00000E+00
         0.00000E+00
         0.00000E+00
         0.00000E+00
         0.00000E+00
         0.00000E+00
         0.00000E+00
         0.00000E+00
         0.00000E+00
         0.00000E+00
         0.00000E+00
         0.00000E+00
         0.00000E+00
         0.00000E+00
         0.00000E+00
         0.00000E+00
         0.00000E+00
         0.00000E+00
         0.00000E+00
         0.00000E+00
         0.00000E+00
         0.00000E+00
         0.00000E+00
         0.00000E+00
         0.00000E+00
         0.00000E+00
         0.00000E+00
         0.00000E+00
         0.00000E+00
         0.00000E+00
         0.00000E+00
         0.00000E+00
         0.00000E+00
         0.00000E+00
         0.00000E+00
         0.00000E+00
         0.00000E+00
         0.00000E+00
         0.00000E+00
         0.00000E+00
         0.00000E+00
         0.00000E+00
         0.00000E+00
         0.00000E+00
         0.00000E+00
         0.00000E+00
         0.00000E+00
         0.00000E+00
         0.00000E+00
         0.00000E+00
         0.00000E+00
         0.00000E+00
         0.00000E+00
         0.00000E+00
         0.00000E+00
         0.00000E+00
         0.00000E+00
         0.00000E+00
         0.00000E+00
         0.00000E+00
         0.00000E+00
         0.00000E+00
         0.00000E+00
         0.00000E+00
         0.00000E+00
         0.00000E+00
         0.00000E+00
         0.00000E+00
         0.00000E+00
         0.00000E+00
         0.00000E+00
         0.00000E+00
         0.00000E+00
         0.00000E+00
         0.00000E+00
         0.00000E+00
         0.00000E+00
         0.00000E+00
         0.00000E+00
         0.00000E+00
         0.00000E+00
         0.00000E+00
         0.00000E+00
         0.00000E+00
         0.00000E+00
         0.00000E+00
         0.00000E+00
         0.00000E+00
         0.00000E+00
         0.00000E+00
         0.00000E+00
         0.00000E+00
         0.00000E+00
         0.00000E+00
         0.00000E+00
         0.00000E+00
         0.00000E+00
         0.00000E+00
         0.00000E+00
         0.00000E+00
         0.00000E+00
         0.00000E+00
         0.00000E+00
         0.00000E+00
         0.00000E+00
         0.00000E+00
         0.00000E+00
         0.00000E+00
         0.00000E+00
         0.00000E+00
         0.00000E+00
         0.00000E+00
         0.00000E+00
         0.00000E+00
         0.00000E+00
         0.00000E+00
         0.00000E+00
         0.00000E+00
         0.00000E+00
         0.00000E+00
         0.00000E+00
         0.00000E+00
         0.00000E+00
         0.00000E+00
         0.00000E+00
         0.00000E+00
         0.00000E+00
         0.00000E+00
         0.00000E+00
         0.00000E+00
         0.00000E+00
         0.00000E+00
         0.00000E+00
         0.00000E+00
         0.00000E+00
         0.00000E+00
         0.00000E+00
         0.00000E+00
         0.00000E+00
         0.00000E+00
         0.00000E+00
         0.00000E+00
         0.00000E+00
         0.00000E+00
         0.00000E+00
         0.00000E+00
         0.00000E+00
         0.00000E+00
         0.00000E+00
         0.00000E+00
         0.00000E+00
         0.00000E+00
         0.00000E+00
         0.00000E+00
         0.00000E+00
         0.00000E+00
         0.00000E+00
         0.00000E+00
         0.00000E+00
         0.00000E+00
         0.00000E+00
         0.00000E+00
         0.00000E+00
         0.00000E+00
         0.00000E+00
         0.00000E+00
         0.00000E+00
         0.00000E+00
         0.00000E+00
         0.00000E+00
         0.00000E+00
         0.00000E+00
         0.00000E+00
         0.00000E+00
         0.00000E+00
         0.00000E+00
         0.00000E+00
         0.00000E+00
         0.00000E+00
         0.00000E+00
         0.00000E+00
         0.00000E+00
         0.00000E+00
         0.00000E+00
         0.00000E+00
         0.00000E+00
         0.00000E+00
         0.00000E+00
         0.00000E+00
         0.00000E+00
         0.00000E+00
         0.00000E+00
         0.00000E+00
         0.00000E+00
         0.00000E+00
         0.00000E+00
         0.00000E+00
         0.00000E+00
         0.00000E+00
         0.00000E+00
         0.00000E+00
         0.00000E+00
         0.00000E+00
         0.00000E+00
         0.00000E+00
         0.00000E+00
         0.00000E+00
         0.00000E+00
         0.00000E+00
         0.00000E+00
         0.00000E+00
         0.00000E+00
         0.00000E+00
         0.00000E+00
         0.00000E+00
         0.00000E+00
         0.00000E+00
         0.00000E+00
         0.00000E+00
         0.00000E+00
         0.00000E+00
         0.00000E+00
         0.00000E+00
         0.00000E+00
         0.00000E+00
         0.00000E+00
         0.00000E+00
         0.00000E+00
         0.00000E+00
         0.00000E+00
         0.00000E+00
         0.00000E+00
         0.00000E+00
         0.00000E+00
         0.00000E+00
         0.00000E+00
         0.00000E+00
         0.00000E+00
         0.00000E+00
         0.00000E+00
         0.00000E+00
         0.00000E+00
         0.00000E+00
         0.00000E+00
         0.00000E+00
         0.00000E+00
         0.00000E+00
         0.00000E+00
         0.00000E+00
         0.00000E+00
         0.00000E+00
         0.00000E+00
         0.00000E+00
         0.00000E+00
         0.00000E+00
         0.00000E+00
         0.00000E+00
         0.00000E+00
         0.00000E+00
         0.00000E+00
         0.00000E+00
         0.00000E+00
         0.00000E+00
         0.00000E+00
         0.00000E+00
         0.00000E+00
         0.00000E+00
         0.00000E+00
         0.00000E+00
         0.00000E+00
         0.00000E+00
         0.00000E+00
         0.00000E+00
         0.00000E+00
         0.00000E+00
         0.00000E+00
         0.00000E+00
         0.00000E+00
         0.00000E+00
         0.00000E+00
         0.00000E+00
         0.00000E+00
         0.00000E+00
         0.00000E+00
         0.00000E+00
         0.00000E+00
         0.00000E+00
         0.00000E+00
         0.00000E+00
         0.00000E+00
         0.00000E+00
         0.00000E+00
         0.00000E+00
         0.00000E+00
         0.00000E+00
         0.00000E+00
         0.00000E+00
         0.00000E+00
         0.00000E+00
         0.00000E+00
         0.00000E+00
         0.00000E+00
         0.00000E+00
         0.00000E+00
         0.00000E+00
         0.00000E+00
         0.00000E+00
         0.00000E+00
         0.00000E+00
         0.00000E+00
         0.00000E+00
         0.00000E+00
         0.00000E+00
         0.00000E+00
         0.00000E+00
         0.00000E+00
         0.00000E+00
         0.00000E+00
         0.00000E+00
         0.00000E+00
         0.00000E+00
         0.00000E+00
         0.00000E+00
         0.00000E+00
         0.00000E+00
         0.00000E+00
         0.00000E+00
         0.00000E+00
         0.00000E+00
         0.00000E+00
         0.00000E+00
         0.00000E+00
         0.00000E+00
         0.00000E+00
         0.00000E+00
         0.00000E+00
         0.00000E+00
         0.00000E+00
         0.00000E+00
         0.00000E+00
         0.00000E+00
         0.00000E+00
         0.00000E+00
         0.00000E+00
         0.00000E+00
         0.00000E+00
         0.00000E+00
         0.00000E+00
         0.00000E+00
         0.00000E+00
         0.00000E+00
         0.00000E+00
         0.00000E+00
         0.00000E+00
         0.00000E+00
         0.00000E+00
         0.00000E+00
         0.00000E+00
         0.00000E+00
         0.00000E+00
         0.00000E+00
         0.00000E+00
         0.00000E+00
         0.00000E+00
         0.00000E+00
         0.00000E+00
         0.00000E+00
         0.00000E+00
         0.00000E+00
         0.00000E+00
         0.00000E+00
         0.00000E+00
         0.00000E+00
         0.00000E+00
         0.00000E+00
         0.00000E+00
         0.00000E+00
         0.00000E+00
         0.00000E+00
         0.00000E+00
         0.00000E+00
         0.00000E+00
         0.00000E+00
         0.00000E+00
         0.00000E+00
         0.00000E+00
         0.00000E+00
         0.00000E+00
         0.00000E+00
         0.00000E+00
         0.00000E+00
         0.00000E+00
         0.00000E+00
         0.00000E+00
         0.00000E+00
         0.00000E+00
         0.00000E+00
         0.00000E+00
         0.00000E+00
         0.00000E+00
         0.00000E+00
         0.00000E+00
         0.00000E+00
         0.00000E+00
         0.00000E+00
         0.00000E+00
         0.00000E+00
         0.00000E+00
         0.00000E+00
         0.00000E+00
         0.00000E+00
         0.00000E+00
         0.00000E+00
         0.00000E+00
         0.00000E+00
         0.00000E+00
         0.00000E+00
         0.00000E+00
         0.00000E+00
         0.00000E+00
         0.00000E+00
         0.00000E+00
         0.00000E+00
         0.00000E+00
         0.00000E+00
         0.00000E+00
         0.00000E+00
         0.00000E+00
         0.00000E+00
         0.00000E+00
         0.00000E+00
         0.00000E+00
         0.00000E+00
         0.00000E+00
         0.00000E+00
         0.00000E+00
         0.00000E+00
         0.00000E+00
         0.00000E+00
         0.00000E+00
         0.00000E+00
         0.00000E+00
         0.00000E+00
         0.00000E+00
         0.00000E+00
         0.00000E+00
         0.00000E+00
         0.00000E+00
         0.00000E+00
         0.00000E+00
         0.00000E+00
         0.00000E+00
         0.00000E+00
         0.00000E+00
         0.00000E+00
         0.00000E+00
         0.00000E+00
         0.00000E+00
         0.00000E+00
         0.00000E+00
         0.00000E+00
         0.00000E+00
         0.00000E+00
         0.00000E+00
         0.00000E+00
         0.00000E+00
         0.00000E+00
         0.00000E+00
         0.00000E+00
         0.00000E+00
         0.00000E+00
         0.00000E+00
         0.00000E+00
         0.00000E+00
         0.00000E+00
         0.00000E+00
         0.00000E+00
         0.00000E+00
         0.00000E+00
         0.00000E+00
         0.00000E+00
         0.00000E+00
         0.00000E+00
         0.00000E+00
         0.00000E+00
         0.00000E+00
         0.00000E+00
         0.00000E+00
         0.00000E+00
         0.00000E+00
         0.00000E+00
         0.00000E+00
         0.00000E+00
         0.00000E+00
         0.00000E+00
         0.00000E+00
         0.00000E+00
         0.00000E+00
         0.00000E+00
         0.00000E+00
         0.00000E+00
         0.00000E+00
         0.00000E+00
         0.00000E+00
         0.00000E+00
         0.00000E+00
         0.00000E+00
         0.00000E+00
         0.00000E+00
         0.00000E+00
         0.00000E+00
         0.00000E+00
         0.00000E+00
         0.00000E+00
         0.00000E+00
         0.00000E+00
         0.00000E+00
         0.00000E+00
         0.00000E+00
         0.00000E+00
         0.00000E+00
         0.00000E+00
         0.00000E+00
         0.00000E+00
         0.00000E+00
         0.00000E+00
         0.00000E+00
         0.00000E+00
         0.00000E+00
         0.00000E+00
         0.00000E+00
         0.00000E+00
         0.00000E+00
         0.00000E+00
         0.00000E+00
         0.00000E+00
         0.00000E+00
         0.00000E+00
         0.00000E+00
         0.00000E+00
         0.00000E+00
         0.00000E+00
         0.00000E+00
         0.00000E+00
         0.00000E+00
         0.00000E+00
         0.00000E+00
         0.00000E+00
         0.00000E+00
         0.00000E+00
         0.00000E+00
         0.00000E+00
         0.00000E+00
         0.00000E+00
         0.00000E+00
         0.00000E+00
         0.00000E+00
         0.00000E+00
         0.00000E+00
         0.00000E+00
         0.00000E+00
         0.00000E+00
         0.00000E+00
         0.00000E+00
         0.00000E+00
         0.00000E+00
         0.00000E+00
         0.00000E+00
         0.00000E+00
         0.00000E+00
         0.00000E+00
         0.00000E+00
         0.00000E+00
         0.00000E+00
         0.00000E+00
         0.00000E+00
         0.00000E+00
         0.00000E+00
         0.00000E+00
         0.00000E+00
         0.00000E+00
         0.00000E+00
         0.00000E+00
         0.00000E+00
         0.00000E+00
         0.00000E+00
         0.00000E+00
         0.00000E+00
         0.00000E+00
         0.00000E+00
         0.00000E+00
         0.00000E+00
         0.00000E+00
         0.00000E+00
         0.00000E+00
         0.00000E+00
         0.00000E+00
         0.00000E+00
         0.00000E+00
         0.00000E+00
         0.00000E+00
         0.00000E+00
         0.00000E+00
         0.00000E+00
         0.00000E+00
         0.00000E+00
         0.00000E+00
         0.00000E+00
         0.00000E+00
         0.00000E+00
         0.00000E+00
         0.00000E+00
         0.00000E+00
         0.00000E+00
         0.00000E+00
         0.00000E+00
         0.00000E+00
         0.00000E+00
         0.00000E+00
         0.00000E+00
         0.00000E+00
         0.00000E+00
         0.00000E+00
         0.00000E+00
         0.00000E+00
         0.00000E+00
         0.00000E+00
         0.00000E+00
         0.00000E+00
         0.00000E+00
         0.00000E+00
         0.00000E+00
         0.00000E+00
         0.00000E+00
         0.00000E+00
         0.00000E+00
         0.00000E+00
         0.00000E+00
         0.00000E+00
         0.00000E+00
         0.00000E+00
         0.00000E+00
         0.00000E+00
         0.00000E+00
         0.00000E+00
         0.00000E+00
         0.00000E+00
         0.00000E+00
         0.00000E+00
         0.00000E+00
         0.00000E+00
         0.00000E+00
         0.00000E+00
         0.00000E+00
         0.00000E+00
         0.00000E+00
         0.00000E+00
         0.00000E+00
         0.00000E+00
         0.00000E+00
         0.00000E+00
         0.00000E+00
         0.00000E+00
         0.00000E+00
         0.00000E+00
         0.00000E+00
         0.00000E+00
         0.00000E+00
         0.00000E+00
         0.00000E+00
         0.00000E+00
         0.00000E+00
         0.00000E+00
         0.00000E+00
         0.00000E+00
         0.00000E+00
         0.00000E+00
         0.00000E+00
         0.00000E+00
         0.00000E+00
         0.00000E+00
         0.00000E+00
         0.00000E+00
         0.00000E+00
         0.00000E+00
         0.00000E+00
         0.00000E+00
         0.00000E+00
         0.00000E+00
         0.00000E+00
         0.00000E+00
         0.00000E+00
         0.00000E+00
         0.00000E+00
         0.00000E+00
         0.00000E+00
         0.00000E+00
         0.00000E+00
         0.00000E+00
         0.00000E+00
         0.00000E+00
         0.00000E+00
         0.00000E+00
         0.00000E+00
         0.00000E+00
         0.00000E+00
         0.00000E+00
         0.00000E+00
         0.00000E+00
         0.00000E+00
         0.00000E+00
         0.00000E+00
         0.00000E+00
         0.00000E+00
         0.00000E+00
         0.00000E+00
         0.00000E+00
         0.00000E+00
         0.00000E+00
         0.00000E+00
         0.00000E+00
         0.00000E+00
         0.00000E+00
         0.00000E+00
         0.00000E+00
         0.00000E+00
         0.00000E+00
         0.00000E+00
         0.00000E+00
         0.00000E+00
         0.00000E+00
         0.00000E+00
         0.00000E+00
         0.00000E+00
         0.00000E+00
         0.00000E+00
         0.00000E+00
         0.00000E+00
         0.00000E+00
         0.00000E+00
         0.00000E+00
         0.00000E+00
         0.00000E+00
         0.00000E+00
         0.00000E+00
         0.00000E+00
         0.00000E+00
         0.00000E+00
         0.00000E+00
         0.00000E+00
         0.00000E+00
         0.00000E+00
         0.00000E+00
         0.00000E+00
         0.00000E+00
         0.00000E+00
         0.00000E+00
         0.00000E+00
         0.00000E+00
         0.00000E+00
         0.00000E+00
         0.00000E+00
         0.00000E+00
         0.00000E+00
         0.00000E+00
         0.00000E+00
         0.00000E+00
         0.00000E+00
         0.00000E+00
         0.00000E+00
         0.00000E+00
         0.00000E+00
         0.00000E+00
         0.00000E+00
         0.00000E+00
         0.00000E+00
         0.00000E+00
         0.00000E+00
         0.00000E+00
         0.00000E+00
         0.00000E+00
         0.00000E+00
         0.00000E+00
         0.00000E+00
         0.00000E+00
         0.00000E+00
         0.00000E+00
         0.00000E+00
         0.00000E+00
         0.00000E+00
         0.00000E+00
         0.00000E+00
         0.00000E+00
         0.00000E+00
         0.00000E+00
         0.00000E+00
         0.00000E+00
         0.00000E+00
         0.00000E+00
         0.00000E+00
         0.00000E+00
         0.00000E+00
         0.00000E+00
         0.00000E+00
         0.00000E+00
         0.00000E+00
         0.00000E+00
         0.00000E+00
         0.00000E+00
         0.00000E+00
         0.00000E+00
         0.00000E+00
         0.00000E+00
         0.00000E+00
         0.00000E+00
         0.00000E+00
         0.00000E+00
         0.00000E+00
         0.00000E+00
         0.00000E+00
         0.00000E+00
         0.00000E+00
         0.00000E+00
         0.00000E+00
         0.00000E+00
         0.00000E+00
         0.00000E+00
         0.00000E+00
         0.00000E+00
         0.00000E+00
         0.00000E+00
         0.00000E+00
         0.00000E+00
         0.00000E+00
         0.00000E+00
         0.00000E+00
         0.00000E+00
         0.00000E+00
         0.00000E+00
         0.00000E+00
         0.00000E+00
         0.00000E+00
         0.00000E+00
         0.00000E+00
         0.00000E+00
         0.00000E+00
         0.00000E+00
         0.00000E+00
         0.00000E+00
         0.00000E+00
         0.00000E+00
         0.00000E+00
         0.00000E+00
         0.00000E+00
         0.00000E+00
         0.00000E+00
         0.00000E+00
         0.00000E+00
         0.00000E+00
         0.00000E+00
         0.00000E+00
         0.00000E+00
         0.00000E+00
         0.00000E+00
         0.00000E+00
         0.00000E+00
         0.00000E+00
         0.00000E+00
         0.00000E+00
         0.00000E+00
         0.00000E+00
         0.00000E+00
         0.00000E+00
         0.00000E+00
         0.00000E+00
         0.00000E+00
         0.00000E+00
         0.00000E+00
         0.00000E+00
         0.00000E+00
         0.00000E+00
         0.00000E+00
         0.00000E+00
         0.00000E+00
         0.00000E+00
         0.00000E+00
         0.00000E+00
         0.00000E+00
         0.00000E+00
         0.00000E+00
         0.00000E+00
         0.00000E+00
         0.00000E+00
         0.00000E+00
         0.00000E+00
         0.00000E+00
         0.00000E+00
         0.00000E+00
         0.00000E+00
         0.00000E+00
         0.00000E+00
         0.00000E+00
         0.00000E+00
         0.00000E+00
         0.00000E+00
         0.00000E+00
         0.00000E+00
         0.00000E+00
         0.00000E+00
         0.00000E+00
         0.00000E+00
         0.00000E+00
         0.00000E+00
         0.00000E+00
         0.00000E+00
         0.00000E+00
         0.00000E+00
         0.00000E+00
         0.00000E+00
         0.00000E+00
         0.00000E+00
         0.00000E+00
         0.00000E+00
         0.00000E+00
         0.00000E+00
         0.00000E+00
         0.00000E+00
         0.00000E+00
         0.00000E+00
         0.00000E+00
         0.00000E+00
         0.00000E+00
         0.00000E+00
         0.00000E+00
         0.00000E+00
         0.00000E+00
         0.00000E+00
         0.00000E+00
         0.00000E+00
         0.00000E+00
         0.00000E+00
         0.00000E+00
         0.00000E+00
         0.00000E+00
         0.00000E+00
         0.00000E+00
         0.00000E+00
         0.00000E+00
         0.00000E+00
         0.00000E+00
         0.00000E+00
         0.00000E+00
         0.00000E+00
         0.00000E+00
         0.00000E+00
         0.00000E+00
         0.00000E+00
         0.00000E+00
         0.00000E+00
         0.00000E+00
         0.00000E+00
         0.00000E+00
         0.00000E+00
         0.00000E+00
         0.00000E+00
         0.00000E+00
         0.00000E+00
         0.00000E+00
         0.00000E+00
         0.00000E+00
         0.00000E+00
         0.00000E+00
         0.00000E+00
         0.00000E+00
         0.00000E+00
         0.00000E+00
         0.00000E+00
         0.00000E+00
         0.00000E+00
         0.00000E+00
         0.00000E+00
         0.00000E+00
         0.00000E+00
         0.00000E+00
         0.00000E+00
         0.00000E+00
         0.00000E+00
         0.00000E+00
         0.00000E+00
         0.00000E+00
         0.00000E+00
         0.00000E+00
         0.00000E+00
         0.00000E+00
         0.00000E+00
         0.00000E+00
         0.00000E+00
         0.00000E+00
         0.00000E+00
         0.00000E+00
         0.00000E+00
         0.00000E+00
         0.00000E+00
         0.00000E+00
         0.00000E+00
         0.00000E+00
         0.00000E+00
         0.00000E+00
         0.00000E+00
         0.00000E+00
         0.00000E+00
         0.00000E+00
         0.00000E+00
         0.00000E+00
         0.00000E+00
         0.00000E+00
         0.00000E+00
         0.00000E+00
         0.00000E+00
         0.00000E+00
         0.00000E+00
         0.00000E+00
         0.00000E+00
         0.00000E+00
         0.00000E+00
         0.00000E+00
         0.00000E+00
         0.00000E+00
         0.00000E+00
         0.00000E+00
         0.00000E+00
         0.00000E+00
         0.00000E+00
         0.00000E+00
         0.00000E+00
         0.00000E+00
         0.00000E+00
         0.00000E+00
         0.00000E+00
         0.00000E+00
         0.00000E+00
         0.00000E+00
         0.00000E+00
         0.00000E+00
         0.00000E+00
         0.00000E+00
         0.00000E+00
         0.00000E+00
         0.00000E+00
         0.00000E+00
         0.00000E+00
         0.00000E+00
         0.00000E+00
         0.00000E+00
         0.00000E+00
         0.00000E+00
         0.00000E+00
         0.00000E+00
         0.00000E+00
         0.00000E+00
         0.00000E+00
         0.00000E+00
         0.00000E+00
         0.00000E+00
         0.00000E+00
         0.00000E+00
         0.00000E+00
         0.00000E+00
         0.00000E+00
         0.00000E+00
         0.00000E+00
         0.00000E+00
         0.00000E+00
         0.00000E+00
         0.00000E+00
         0.00000E+00
         0.00000E+00
         0.00000E+00
         0.00000E+00
         0.00000E+00
         0.00000E+00
         0.00000E+00
         0.00000E+00
         0.00000E+00
         0.00000E+00
         0.00000E+00
         0.00000E+00
         0.00000E+00
         0.00000E+00
         0.00000E+00
         0.00000E+00
         0.00000E+00
         0.00000E+00
         0.00000E+00
         0.00000E+00
         0.00000E+00
         0.00000E+00
         0.00000E+00
         0.00000E+00
         0.00000E+00
         0.00000E+00
         0.00000E+00
         0.00000E+00
         0.00000E+00
         0.00000E+00
         0.00000E+00
         0.00000E+00
         0.00000E+00
         0.00000E+00
         0.00000E+00
         0.00000E+00
         0.00000E+00
         0.00000E+00
         0.00000E+00
         0.00000E+00
         0.00000E+00
         0.00000E+00
         0.00000E+00
         0.00000E+00
         0.00000E+00
         0.00000E+00
         0.00000E+00
         0.00000E+00
         0.00000E+00
         0.00000E+00
         0.00000E+00
         0.00000E+00
         0.00000E+00
         0.00000E+00
         0.00000E+00
         0.00000E+00
         0.00000E+00
         0.00000E+00
         0.00000E+00
         0.00000E+00
         0.00000E+00
         0.00000E+00
         0.00000E+00
         0.00000E+00
         0.00000E+00
         0.00000E+00
         0.00000E+00
         0.00000E+00
         0.00000E+00
         0.00000E+00
         0.00000E+00
         0.00000E+00
         0.00000E+00
         0.00000E+00
         0.00000E+00
         0.00000E+00
         0.00000E+00
         0.00000E+00
         0.00000E+00
         0.00000E+00
         0.00000E+00
         0.00000E+00
         0.00000E+00
         0.00000E+00
         0.00000E+00
         0.00000E+00
         0.00000E+00
         0.00000E+00
         0.00000E+00
         0.00000E+00
         0.00000E+00
         0.00000E+00
         0.00000E+00
         0.00000E+00
         0.00000E+00
         0.00000E+00
         0.00000E+00
         0.00000E+00
         0.00000E+00
         0.00000E+00
         0.00000E+00
         0.00000E+00
         0.00000E+00
         0.00000E+00
         0.00000E+00
         0.00000E+00
         0.00000E+00
         0.00000E+00
         0.00000E+00
         0.00000E+00
         0.00000E+00
         0.00000E+00
         0.00000E+00
         0.00000E+00
         0.00000E+00
         0.00000E+00
         0.00000E+00
         0.00000E+00
         0.00000E+00
         0.00000E+00
         0.00000E+00
         0.00000E+00
         0.00000E+00
         0.00000E+00
         0.00000E+00
         0.00000E+00
         0.00000E+00
         0.00000E+00
         0.00000E+00
         0.00000E+00
         0.00000E+00
         0.00000E+00
         0.00000E+00
         0.00000E+00
         0.00000E+00
         0.00000E+00
         0.00000E+00
         0.00000E+00
         0.00000E+00
         0.00000E+00
         0.00000E+00
         0.00000E+00
         0.00000E+00
         0.00000E+00
         0.00000E+00
         0.00000E+00
         0.00000E+00
         0.00000E+00
         0.00000E+00
         0.00000E+00
         0.00000E+00
         0.00000E+00
         0.00000E+00
         0.00000E+00
         0.00000E+00
         0.00000E+00
         0.00000E+00
         0.00000E+00
         0.00000E+00
         0.00000E+00
         0.00000E+00
         0.00000E+00
         0.00000E+00
         0.00000E+00
         0.00000E+00
         0.00000E+00
         0.00000E+00
         0.00000E+00
         0.00000E+00
         0.00000E+00
         0.00000E+00
         0.00000E+00
         0.00000E+00
         0.00000E+00
         0.00000E+00
         0.00000E+00
         0.00000E+00
         0.00000E+00
         0.00000E+00
         0.00000E+00
         0.00000E+00
         0.00000E+00
         0.00000E+00
         0.00000E+00
         0.00000E+00
         0.00000E+00
         0.00000E+00
         0.00000E+00
         0.00000E+00
         0.00000E+00
         0.00000E+00
         0.00000E+00
         0.00000E+00
         0.00000E+00
         0.00000E+00
         0.00000E+00
         0.00000E+00
         0.00000E+00
         0.00000E+00
         0.00000E+00
         0.00000E+00
         0.00000E+00
         0.00000E+00
         0.00000E+00
         0.00000E+00
         0.00000E+00
         0.00000E+00
         0.00000E+00
         0.00000E+00
         0.00000E+00
         0.00000E+00
         0.00000E+00
         0.00000E+00
         0.00000E+00
         0.00000E+00
         0.00000E+00
         0.00000E+00
         0.00000E+00
         0.00000E+00
         0.00000E+00
         0.00000E+00
         0.00000E+00
         0.00000E+00
         0.00000E+00
         0.00000E+00
         0.00000E+00
         0.00000E+00
         0.00000E+00
         0.00000E+00
         0.00000E+00
         0.00000E+00
         0.00000E+00
         0.00000E+00
         0.00000E+00
         0.00000E+00
         0.00000E+00
         0.00000E+00
         0.00000E+00
         0.00000E+00
         0.00000E+00
         0.00000E+00
         0.00000E+00
         0.00000E+00
         0.00000E+00
         0.00000E+00
         0.00000E+00
         0.00000E+00
         0.00000E+00
         0.00000E+00
         0.00000E+00
         0.00000E+00
         0.00000E+00
         0.00000E+00
         0.00000E+00
         0.00000E+00
         0.00000E+00
         0.00000E+00
         0.00000E+00
         0.00000E+00
         0.00000E+00
         0.00000E+00
         0.00000E+00
         0.00000E+00
         0.00000E+00
         0.00000E+00
         0.00000E+00
         0.00000E+00
         0.00000E+00
         0.00000E+00
         0.00000E+00
         0.00000E+00
         0.00000E+00
         0.00000E+00
         0.00000E+00
         0.00000E+00
         0.00000E+00
         0.00000E+00
         0.00000E+00
         0.00000E+00
         0.00000E+00
         0.00000E+00
         0.00000E+00
         0.00000E+00
         0.00000E+00
         0.00000E+00
         0.00000E+00
         0.00000E+00
         0.00000E+00
         0.00000E+00
         0.00000E+00
         0.00000E+00
         0.00000E+00
         0.00000E+00
         0.00000E+00
         0.00000E+00
         0.00000E+00
         0.00000E+00
         0.00000E+00
         0.00000E+00
         0.00000E+00
         0.00000E+00
         0.00000E+00
         0.00000E+00
         0.00000E+00
         0.00000E+00
         0.00000E+00
         0.00000E+00
         0.00000E+00
         0.00000E+00
         0.00000E+00
  
SCALARS                            eps  double 1
LOOKUP_TABLE default
         0.44562E+01
         0.43999E+01
         0.44356E+01
         0.44997E+01
         0.00000E+00
         0.00000E+00
         0.00000E+00
         0.00000E+00
         0.43982E+01
         0.44171E+01
         0.00000E+00
         0.00000E+00
         0.43182E+01
         0.43151E+01
         0.00000E+00
         0.00000E+00
         0.44903E+01
         0.43196E+01
         0.00000E+00
         0.00000E+00
         0.42568E+01
         0.42081E+01
         0.42857E+01
         0.00000E+00
         0.00000E+00
         0.00000E+00
         0.42099E+01
         0.41387E+01
         0.00000E+00
         0.00000E+00
         0.44872E+01
         0.44130E+01
         0.45592E+01
         0.00000E+00
         0.00000E+00
         0.00000E+00
         0.44443E+01
         0.43496E+01
         0.00000E+00
         0.00000E+00
         0.44069E+01
         0.43339E+01
         0.00000E+00
         0.00000E+00
         0.44687E+01
         0.44960E+01
         0.00000E+00
         0.00000E+00
         0.42751E+01
         0.00000E+00
         0.44907E+01
         0.00000E+00
         0.41893E+01
         0.00000E+00
         0.41669E+01
         0.00000E+00
         0.41674E+01
         0.42469E+01
         0.00000E+00
         0.00000E+00
         0.44857E+01
         0.44572E+01
         0.00000E+00
         0.00000E+00
         0.45036E+01
         0.00000E+00
         0.44697E+01
         0.00000E+00
         0.43809E+01
         0.43717E+01
         0.00000E+00
         0.00000E+00
         0.43514E+01
         0.00000E+00
         0.41135E+01
         0.00000E+00
         0.41010E+01
         0.00000E+00
         0.41074E+01
         0.00000E+00
         0.41422E+01
         0.41777E+01
         0.00000E+00
         0.00000E+00
         0.42496E+01
         0.00000E+00
         0.44673E+01
         0.00000E+00
         0.44336E+01
         0.00000E+00
         0.44061E+01
         0.43904E+01
         0.00000E+00
         0.00000E+00
         0.44090E+01
         0.00000E+00
         0.44224E+01
         0.00000E+00
         0.44104E+01
         0.00000E+00
         0.44065E+01
         0.44185E+01
         0.00000E+00
         0.00000E+00
         0.43407E+01
         0.43733E+01
         0.00000E+00
         0.00000E+00
         0.43351E+01
         0.00000E+00
         0.43728E+01
         0.00000E+00
         0.43359E+01
         0.00000E+00
         0.42549E+01
         0.00000E+00
         0.41766E+01
         0.00000E+00
         0.41295E+01
         0.00000E+00
         0.41246E+01
         0.00000E+00
         0.41261E+01
         0.00000E+00
         0.41771E+01
         0.00000E+00
         0.42732E+01
         0.00000E+00
         0.43783E+01
         0.00000E+00
         0.44393E+01
         0.00000E+00
         0.44998E+01
         0.00000E+00
         0.45397E+01
         0.00000E+00
         0.45385E+01
         0.00000E+00
         0.44405E+01
         0.00000E+00
         0.43721E+01
         0.00000E+00
         0.43495E+01
         0.00000E+00
         0.43863E+01
         0.00000E+00
         0.44050E+01
         0.00000E+00
         0.43726E+01
         0.00000E+00
         0.43726E+01
         0.00000E+00
         0.43971E+01
         0.00000E+00
         0.44289E+01
         0.00000E+00
         0.31971E+00
         0.32127E+00
         0.32107E+00
         0.31895E+00
         0.32266E+00
         0.32093E+00
         0.32298E+00
         0.32196E+00
         0.31931E+00
         0.32104E+00
         0.32396E+00
         0.32434E+00
         0.32355E+00
         0.32342E+00
         0.32403E+00
         0.31906E+00
         0.31948E+00
         0.31827E+00
         0.32143E+00
         0.32091E+00
         0.32172E+00
         0.32124E+00
         0.32211E+00
         0.32182E+00
         0.32096E+00
         0.32102E+00
         0.32245E+00
         0.32232E+00
         0.32327E+00
         0.32180E+00
         0.31927E+00
         0.32129E+00
         0.31928E+00
         0.32064E+00
         0.32451E+00
         0.32342E+00
         0.32288E+00
         0.32357E+00
         0.32363E+00
         0.32454E+00
         0.32520E+00
         0.32360E+00
         0.32171E+00
         0.32196E+00
         0.32295E+00
         0.32449E+00
         0.32317E+00
         0.32156E+00
         0.32167E+00
         0.32293E+00
         0.32409E+00
         0.32252E+00
         0.32711E+00
         0.32642E+00
         0.32665E+00
         0.32651E+00
         0.32669E+00
         0.32733E+00
         0.32766E+00
         0.32756E+00
         0.32745E+00
         0.32757E+00
         0.32764E+00
         0.32663E+00
         0.32586E+00
         0.32555E+00
         0.32526E+00
         0.32504E+00
         0.32513E+00
         0.32573E+00
         0.32697E+00
         0.32681E+00
         0.32626E+00
         0.32617E+00
         0.32627E+00
         0.32662E+00
         0.32606E+00
         0.32584E+00
         0.42159E-02
         0.12856E-02
         0.10363E-02
         0.00000E+00
         0.44995E-02
         0.21434E-02
         0.00000E+00
         0.40945E-02
         0.13970E-02
         0.36766E-02
         0.19819E-03
         0.11229E-01
         0.77517E-02
         0.23008E-02
         0.11914E-01
         0.22064E-02
         0.00000E+00
         0.00000E+00
         0.47077E-03
         0.00000E+00
         0.81417E-02
         0.74405E-02
         0.71624E-02
         0.00000E+00
         0.12652E-02
         0.00000E+00
         0.19944E-02
         0.00000E+00
         0.00000E+00
         0.16356E-02
         0.14309E-02
         0.00000E+00
         0.00000E+00
         0.00000E+00
         0.67441E-02
         0.27693E-02
         0.45096E-02
         0.91196E-02
         0.62770E-02
         0.56225E-02
         0.93276E-02
         0.81552E-02
         0.82308E-02
         0.56519E-02
         0.47088E-02
         0.76103E-02
         0.38975E-02
         0.28444E-02
         0.17979E-02
         0.26878E-02
         0.63958E-02
         0.34014E-02
         0.39218E-01
         0.40241E-01
         0.42223E-01
         0.41891E-01
         0.44890E-01
         0.48462E-01
         0.46358E-01
         0.40828E-01
         0.39697E-01
         0.42733E-01
         0.41810E-01
         0.41193E-01
         0.33446E-01
         0.31624E-01
         0.35083E-01
         0.37826E-01
         0.39387E-01
         0.43338E-01
         0.41552E-01
         0.42773E-01
         0.38163E-01
         0.36059E-01
         0.38687E-01
         0.37742E-01
         0.38940E-01
         0.38582E-01
         0.42215E-02
         0.12865E-02
         0.10387E-02
         0.00000E+00
         0.44961E-02
         0.21403E-02
         0.00000E+00
         0.41015E-02
         0.14047E-02
         0.36967E-02
         0.19812E-03
         0.11228E-01
         0.77560E-02
         0.22881E-02
         0.11930E-01
         0.22107E-02
         0.00000E+00
         0.00000E+00
         0.47283E-03
         0.00000E+00
         0.81426E-02
         0.74398E-02
         0.71618E-02
         0.00000E+00
         0.12840E-02
         0.00000E+00
         0.19961E-02
         0.00000E+00
         0.00000E+00
         0.16440E-02
         0.14352E-02
         0.00000E+00
         0.00000E+00
         0.00000E+00
         0.67485E-02
         0.27676E-02
         0.45078E-02
         0.91388E-02
         0.62982E-02
         0.56346E-02
         0.93359E-02
         0.81611E-02
         0.82322E-02
         0.56517E-02
         0.47072E-02
         0.76097E-02
         0.38976E-02
         0.28440E-02
         0.17909E-02
         0.26798E-02
         0.63905E-02
         0.33913E-02
         0.39203E-01
         0.40230E-01
         0.42223E-01
         0.41892E-01
         0.44882E-01
         0.48444E-01
         0.46337E-01
         0.40816E-01
         0.39686E-01
         0.42719E-01
         0.41803E-01
         0.41195E-01
         0.33443E-01
         0.31622E-01
         0.35087E-01
         0.37836E-01
         0.39398E-01
         0.43348E-01
         0.41549E-01
         0.42770E-01
         0.38159E-01
         0.36056E-01
         0.38673E-01
         0.37715E-01
         0.38916E-01
         0.38560E-01
         0.42271E-02
         0.12876E-02
         0.10410E-02
         0.00000E+00
         0.44926E-02
         0.21374E-02
         0.00000E+00
         0.41085E-02
         0.14126E-02
         0.37166E-02
         0.19809E-03
         0.11228E-01
         0.77603E-02
         0.22754E-02
         0.11946E-01
         0.22151E-02
         0.00000E+00
         0.00000E+00
         0.47495E-03
         0.00000E+00
         0.81437E-02
         0.74390E-02
         0.71612E-02
         0.00000E+00
         0.13027E-02
         0.00000E+00
         0.19977E-02
         0.00000E+00
         0.00000E+00
         0.16521E-02
         0.14397E-02
         0.00000E+00
         0.00000E+00
         0.00000E+00
         0.67530E-02
         0.27661E-02
         0.45060E-02
         0.91581E-02
         0.63195E-02
         0.56469E-02
         0.93444E-02
         0.81672E-02
         0.82338E-02
         0.56519E-02
         0.47059E-02
         0.76094E-02
         0.38976E-02
         0.28436E-02
         0.17840E-02
         0.26718E-02
         0.63853E-02
         0.33813E-02
         0.39187E-01
         0.40220E-01
         0.42223E-01
         0.41892E-01
         0.44874E-01
         0.48427E-01
         0.46317E-01
         0.40805E-01
         0.39675E-01
         0.42705E-01
         0.41795E-01
         0.41196E-01
         0.33439E-01
         0.31621E-01
         0.35092E-01
         0.37846E-01
         0.39409E-01
         0.43358E-01
         0.41547E-01
         0.42767E-01
         0.38154E-01
         0.36053E-01
         0.38659E-01
         0.37688E-01
         0.38892E-01
         0.38537E-01
         0.42327E-02
         0.12886E-02
         0.10434E-02
         0.00000E+00
         0.44891E-02
         0.21344E-02
         0.00000E+00
         0.41154E-02
         0.14203E-02
         0.37361E-02
         0.19810E-03
         0.11228E-01
         0.77648E-02
         0.22627E-02
         0.11961E-01
         0.22198E-02
         0.00000E+00
         0.00000E+00
         0.47724E-03
         0.00000E+00
         0.81452E-02
         0.74386E-02
         0.71613E-02
         0.00000E+00
         0.13209E-02
         0.00000E+00
         0.19991E-02
         0.00000E+00
         0.00000E+00
         0.16594E-02
         0.14443E-02
         0.00000E+00
         0.00000E+00
         0.00000E+00
         0.67572E-02
         0.27645E-02
         0.45042E-02
         0.91774E-02
         0.63412E-02
         0.56599E-02
         0.93534E-02
         0.81734E-02
         0.82359E-02
         0.56529E-02
         0.47050E-02
         0.76093E-02
         0.38982E-02
         0.28432E-02
         0.17770E-02
         0.26638E-02
         0.63798E-02
         0.33712E-02
         0.39172E-01
         0.40209E-01
         0.42223E-01
         0.41892E-01
         0.44866E-01
         0.48409E-01
         0.46296E-01
         0.40793E-01
         0.39665E-01
         0.42691E-01
         0.41787E-01
         0.41199E-01
         0.33437E-01
         0.31620E-01
         0.35097E-01
         0.37858E-01
         0.39422E-01
         0.43369E-01
         0.41544E-01
         0.42765E-01
         0.38150E-01
         0.36051E-01
         0.38644E-01
         0.37661E-01
         0.38868E-01
         0.38515E-01
         0.42382E-02
         0.12896E-02
         0.10458E-02
         0.00000E+00
         0.44857E-02
         0.21314E-02
         0.00000E+00
         0.41222E-02
         0.14281E-02
         0.37552E-02
         0.19818E-03
         0.11227E-01
         0.77691E-02
         0.22501E-02
         0.11977E-01
         0.22250E-02
         0.00000E+00
         0.00000E+00
         0.47957E-03
         0.00000E+00
         0.81469E-02
         0.74384E-02
         0.71620E-02
         0.00000E+00
         0.13388E-02
         0.00000E+00
         0.20004E-02
         0.00000E+00
         0.00000E+00
         0.16660E-02
         0.14491E-02
         0.00000E+00
         0.00000E+00
         0.00000E+00
         0.67617E-02
         0.27628E-02
         0.45025E-02
         0.91967E-02
         0.63633E-02
         0.56734E-02
         0.93631E-02
         0.81800E-02
         0.82385E-02
         0.56548E-02
         0.47047E-02
         0.76097E-02
         0.38990E-02
         0.28431E-02
         0.17702E-02
         0.26557E-02
         0.63746E-02
         0.33611E-02
         0.39156E-01
         0.40199E-01
         0.42222E-01
         0.41892E-01
         0.44858E-01
         0.48391E-01
         0.46275E-01
         0.40781E-01
         0.39654E-01
         0.42677E-01
         0.41780E-01
         0.41201E-01
         0.33435E-01
         0.31619E-01
         0.35103E-01
         0.37871E-01
         0.39436E-01
         0.43380E-01
         0.41542E-01
         0.42762E-01
         0.38145E-01
         0.36048E-01
         0.38630E-01
         0.37634E-01
         0.38844E-01
         0.38493E-01
         0.42435E-02
         0.12903E-02
         0.10480E-02
         0.00000E+00
         0.44822E-02
         0.21284E-02
         0.00000E+00
         0.41286E-02
         0.14358E-02
         0.37738E-02
         0.19854E-03
         0.11227E-01
         0.77735E-02
         0.22374E-02
         0.11993E-01
         0.22302E-02
         0.00000E+00
         0.00000E+00
         0.48192E-03
         0.00000E+00
         0.81489E-02
         0.74383E-02
         0.71630E-02
         0.00000E+00
         0.13562E-02
         0.00000E+00
         0.20016E-02
         0.00000E+00
         0.00000E+00
         0.16724E-02
         0.14538E-02
         0.00000E+00
         0.00000E+00
         0.00000E+00
         0.67663E-02
         0.27615E-02
         0.45010E-02
         0.92162E-02
         0.63856E-02
         0.56873E-02
         0.93729E-02
         0.81867E-02
         0.82413E-02
         0.56569E-02
         0.47049E-02
         0.76107E-02
         0.39000E-02
         0.28433E-02
         0.17636E-02
         0.26479E-02
         0.63695E-02
         0.33513E-02
         0.39141E-01
         0.40188E-01
         0.42222E-01
         0.41893E-01
         0.44850E-01
         0.48374E-01
         0.46254E-01
         0.40769E-01
         0.39643E-01
         0.42663E-01
         0.41773E-01
         0.41204E-01
         0.33434E-01
         0.31618E-01
         0.35108E-01
         0.37885E-01
         0.39451E-01
         0.43391E-01
         0.41540E-01
         0.42759E-01
         0.38141E-01
         0.36046E-01
         0.38615E-01
         0.37607E-01
         0.38821E-01
         0.38470E-01
         0.42483E-02
         0.12904E-02
         0.10502E-02
         0.00000E+00
         0.44789E-02
         0.21255E-02
         0.00000E+00
         0.41341E-02
         0.14438E-02
         0.37915E-02
         0.19939E-03
         0.11227E-01
         0.77785E-02
         0.22249E-02
         0.12009E-01
         0.22355E-02
         0.00000E+00
         0.00000E+00
         0.48433E-03
         0.00000E+00
         0.81508E-02
         0.74384E-02
         0.71642E-02
         0.00000E+00
         0.13732E-02
         0.00000E+00
         0.20029E-02
         0.00000E+00
         0.00000E+00
         0.16788E-02
         0.14581E-02
         0.00000E+00
         0.00000E+00
         0.00000E+00
         0.67709E-02
         0.27604E-02
         0.44996E-02
         0.92359E-02
         0.64081E-02
         0.57012E-02
         0.93829E-02
         0.81936E-02
         0.82442E-02
         0.56592E-02
         0.47055E-02
         0.76121E-02
         0.39016E-02
         0.28440E-02
         0.17580E-02
         0.26404E-02
         0.63648E-02
         0.33414E-02
         0.39125E-01
         0.40178E-01
         0.42222E-01
         0.41893E-01
         0.44842E-01
         0.48356E-01
         0.46233E-01
         0.40757E-01
         0.39632E-01
         0.42649E-01
         0.41766E-01
         0.41207E-01
         0.33433E-01
         0.31617E-01
         0.35114E-01
         0.37899E-01
         0.39466E-01
         0.43403E-01
         0.41537E-01
         0.42756E-01
         0.38137E-01
         0.36044E-01
         0.38601E-01
         0.37580E-01
         0.38797E-01
         0.38448E-01
         0.42529E-02
         0.12905E-02
         0.10524E-02
         0.00000E+00
         0.44758E-02
         0.21225E-02
         0.00000E+00
         0.41390E-02
         0.14518E-02
         0.38089E-02
         0.20052E-03
         0.11227E-01
         0.77834E-02
         0.22124E-02
         0.12025E-01
         0.22409E-02
         0.00000E+00
         0.00000E+00
         0.48671E-03
         0.00000E+00
         0.81528E-02
         0.74384E-02
         0.71653E-02
         0.00000E+00
         0.13898E-02
         0.00000E+00
         0.20043E-02
         0.00000E+00
         0.00000E+00
         0.16851E-02
         0.14623E-02
         0.00000E+00
         0.00000E+00
         0.00000E+00
         0.67758E-02
         0.27595E-02
         0.44986E-02
         0.92557E-02
         0.64307E-02
         0.57153E-02
         0.93929E-02
         0.82006E-02
         0.82472E-02
         0.56617E-02
         0.47062E-02
         0.76139E-02
         0.39033E-02
         0.28449E-02
         0.17528E-02
         0.26331E-02
         0.63602E-02
         0.33319E-02
         0.39110E-01
         0.40168E-01
         0.42221E-01
         0.41893E-01
         0.44834E-01
         0.48339E-01
         0.46212E-01
         0.40745E-01
         0.39621E-01
         0.42635E-01
         0.41758E-01
         0.41210E-01
         0.33431E-01
         0.31617E-01
         0.35120E-01
         0.37913E-01
         0.39480E-01
         0.43413E-01
         0.41534E-01
         0.42753E-01
         0.38133E-01
         0.36042E-01
         0.38586E-01
         0.37553E-01
         0.38773E-01
         0.38426E-01
         0.42575E-02
         0.12905E-02
         0.10545E-02
         0.00000E+00
         0.44725E-02
         0.21195E-02
         0.00000E+00
         0.41440E-02
         0.14598E-02
         0.38263E-02
         0.20157E-03
         0.11227E-01
         0.77883E-02
         0.22000E-02
         0.12041E-01
         0.22462E-02
         0.00000E+00
         0.00000E+00
         0.48907E-03
         0.00000E+00
         0.81547E-02
         0.74384E-02
         0.71664E-02
         0.00000E+00
         0.14065E-02
         0.00000E+00
         0.20058E-02
         0.00000E+00
         0.00000E+00
         0.16915E-02
         0.14665E-02
         0.00000E+00
         0.00000E+00
         0.00000E+00
         0.67808E-02
         0.27584E-02
         0.44976E-02
         0.92755E-02
         0.64534E-02
         0.57292E-02
         0.94029E-02
         0.82075E-02
         0.82502E-02
         0.56642E-02
         0.47071E-02
         0.76157E-02
         0.39049E-02
         0.28458E-02
         0.17477E-02
         0.26258E-02
         0.63558E-02
         0.33221E-02
         0.39094E-01
         0.40157E-01
         0.42221E-01
         0.41894E-01
         0.44827E-01
         0.48321E-01
         0.46191E-01
         0.40734E-01
         0.39610E-01
         0.42621E-01
         0.41751E-01
         0.41213E-01
         0.33430E-01
         0.31616E-01
         0.35126E-01
         0.37926E-01
         0.39495E-01
         0.43424E-01
         0.41531E-01
         0.42751E-01
         0.38129E-01
         0.36041E-01
         0.38572E-01
         0.37526E-01
         0.38750E-01
         0.38403E-01
         0.42621E-02
         0.12904E-02
         0.10565E-02
         0.00000E+00
         0.44692E-02
         0.21165E-02
         0.00000E+00
         0.41490E-02
         0.14679E-02
         0.38436E-02
         0.20281E-03
         0.11227E-01
         0.77934E-02
         0.21876E-02
         0.12056E-01
         0.22515E-02
         0.00000E+00
         0.00000E+00
         0.49141E-03
         0.00000E+00
         0.81567E-02
         0.74384E-02
         0.71674E-02
         0.00000E+00
         0.14231E-02
         0.00000E+00
         0.20072E-02
         0.00000E+00
         0.00000E+00
         0.16979E-02
         0.14707E-02
         0.00000E+00
         0.00000E+00
         0.00000E+00
         0.67855E-02
         0.27576E-02
         0.44966E-02
         0.92954E-02
         0.64760E-02
         0.57433E-02
         0.94129E-02
         0.82144E-02
         0.82532E-02
         0.56667E-02
         0.47078E-02
         0.76173E-02
         0.39067E-02
         0.28469E-02
         0.17425E-02
         0.26184E-02
         0.63511E-02
         0.33124E-02
         0.39079E-01
         0.40147E-01
         0.42220E-01
         0.41894E-01
         0.44819E-01
         0.48303E-01
         0.46170E-01
         0.40722E-01
         0.39599E-01
         0.42607E-01
         0.41743E-01
         0.41216E-01
         0.33428E-01
         0.31615E-01
         0.35132E-01
         0.37940E-01
         0.39510E-01
         0.43435E-01
         0.41527E-01
         0.42748E-01
         0.38126E-01
         0.36039E-01
         0.38557E-01
         0.37499E-01
         0.38726E-01
         0.38381E-01
         0.42666E-02
         0.12903E-02
         0.10587E-02
         0.00000E+00
         0.44660E-02
         0.21136E-02
         0.00000E+00
         0.41540E-02
         0.14759E-02
         0.38610E-02
         0.20407E-03
         0.11227E-01
         0.77984E-02
         0.21752E-02
         0.12073E-01
         0.22568E-02
         0.00000E+00
         0.00000E+00
         0.49379E-03
         0.00000E+00
         0.81586E-02
         0.74384E-02
         0.71686E-02
         0.00000E+00
         0.14396E-02
         0.00000E+00
         0.20088E-02
         0.00000E+00
         0.00000E+00
         0.17042E-02
         0.14748E-02
         0.00000E+00
         0.00000E+00
         0.00000E+00
         0.67904E-02
         0.27566E-02
         0.44956E-02
         0.93152E-02
         0.64987E-02
         0.57571E-02
         0.94229E-02
         0.82213E-02
         0.82561E-02
         0.56691E-02
         0.47086E-02
         0.76191E-02
         0.39084E-02
         0.28478E-02
         0.17373E-02
         0.26112E-02
         0.63468E-02
         0.33028E-02
         0.39063E-01
         0.40137E-01
         0.42219E-01
         0.41894E-01
         0.44810E-01
         0.48285E-01
         0.46148E-01
         0.40710E-01
         0.39589E-01
         0.42592E-01
         0.41736E-01
         0.41219E-01
         0.33427E-01
         0.31615E-01
         0.35138E-01
         0.37954E-01
         0.39525E-01
         0.43446E-01
         0.41524E-01
         0.42745E-01
         0.38122E-01
         0.36037E-01
         0.38542E-01
         0.37473E-01
         0.38702E-01
         0.38359E-01
         0.42712E-02
         0.12903E-02
         0.10608E-02
         0.00000E+00
         0.44628E-02
         0.21106E-02
         0.00000E+00
         0.41589E-02
         0.14840E-02
         0.38783E-02
         0.20538E-03
         0.11227E-01
         0.78033E-02
         0.21629E-02
         0.12088E-01
         0.22621E-02
         0.00000E+00
         0.00000E+00
         0.49616E-03
         0.00000E+00
         0.81605E-02
         0.74383E-02
         0.71698E-02
         0.00000E+00
         0.14562E-02
         0.00000E+00
         0.20102E-02
         0.00000E+00
         0.00000E+00
         0.17106E-02
         0.14790E-02
         0.00000E+00
         0.00000E+00
         0.00000E+00
         0.67954E-02
         0.27557E-02
         0.44945E-02
         0.93351E-02
         0.65214E-02
         0.57711E-02
         0.94329E-02
         0.82282E-02
         0.82591E-02
         0.56716E-02
         0.47094E-02
         0.76209E-02
         0.39101E-02
         0.28488E-02
         0.17322E-02
         0.26039E-02
         0.63422E-02
         0.32931E-02
         0.39048E-01
         0.40126E-01
         0.42219E-01
         0.41894E-01
         0.44803E-01
         0.48268E-01
         0.46127E-01
         0.40698E-01
         0.39578E-01
         0.42578E-01
         0.41729E-01
         0.41222E-01
         0.33425E-01
         0.31614E-01
         0.35143E-01
         0.37968E-01
         0.39540E-01
         0.43457E-01
         0.41521E-01
         0.42742E-01
         0.38118E-01
         0.36035E-01
         0.38528E-01
         0.37446E-01
         0.38679E-01
         0.38337E-01
         0.42757E-02
         0.12902E-02
         0.10629E-02
         0.00000E+00
         0.44596E-02
         0.21076E-02
         0.00000E+00
         0.41639E-02
         0.14921E-02
         0.38955E-02
         0.20675E-03
         0.11227E-01
         0.78084E-02
         0.21505E-02
         0.12105E-01
         0.22674E-02
         0.00000E+00
         0.00000E+00
         0.49852E-03
         0.00000E+00
         0.81624E-02
         0.74384E-02
         0.71708E-02
         0.00000E+00
         0.14727E-02
         0.00000E+00
         0.20117E-02
         0.00000E+00
         0.00000E+00
         0.17168E-02
         0.14832E-02
         0.00000E+00
         0.00000E+00
         0.00000E+00
         0.68002E-02
         0.27549E-02
         0.44935E-02
         0.93549E-02
         0.65442E-02
         0.57850E-02
         0.94431E-02
         0.82350E-02
         0.82621E-02
         0.56742E-02
         0.47103E-02
         0.76224E-02
         0.39119E-02
         0.28498E-02
         0.17271E-02
         0.25966E-02
         0.63375E-02
         0.32834E-02
         0.39032E-01
         0.40116E-01
         0.42218E-01
         0.41894E-01
         0.44795E-01
         0.48250E-01
         0.46106E-01
         0.40686E-01
         0.39567E-01
         0.42563E-01
         0.41721E-01
         0.41225E-01
         0.33424E-01
         0.31613E-01
         0.35149E-01
         0.37982E-01
         0.39554E-01
         0.43468E-01
         0.41518E-01
         0.42739E-01
         0.38114E-01
         0.36033E-01
         0.38513E-01
         0.37419E-01
         0.38656E-01
         0.38314E-01
         0.42803E-02
         0.12902E-02
         0.10650E-02
         0.00000E+00
         0.44565E-02
         0.21046E-02
         0.00000E+00
         0.41688E-02
         0.15002E-02
         0.39128E-02
         0.20816E-03
         0.11227E-01
         0.78133E-02
         0.21382E-02
         0.12120E-01
         0.22727E-02
         0.00000E+00
         0.00000E+00
         0.50089E-03
         0.00000E+00
         0.81643E-02
         0.74383E-02
         0.71720E-02
         0.00000E+00
         0.14892E-02
         0.00000E+00
         0.20131E-02
         0.00000E+00
         0.00000E+00
         0.17231E-02
         0.14874E-02
         0.00000E+00
         0.00000E+00
         0.00000E+00
         0.68052E-02
         0.27540E-02
         0.44924E-02
         0.93749E-02
         0.65670E-02
         0.57989E-02
         0.94531E-02
         0.82419E-02
         0.82650E-02
         0.56766E-02
         0.47111E-02
         0.76242E-02
         0.39137E-02
         0.28507E-02
         0.17219E-02
         0.25894E-02
         0.63331E-02
         0.32738E-02
         0.39016E-01
         0.40106E-01
         0.42217E-01
         0.41894E-01
         0.44787E-01
         0.48232E-01
         0.46084E-01
         0.40673E-01
         0.39556E-01
         0.42549E-01
         0.41714E-01
         0.41228E-01
         0.33423E-01
         0.31613E-01
         0.35155E-01
         0.37995E-01
         0.39569E-01
         0.43479E-01
         0.41516E-01
         0.42736E-01
         0.38111E-01
         0.36031E-01
         0.38498E-01
         0.37392E-01
         0.38632E-01
         0.38292E-01
         0.42848E-02
         0.12902E-02
         0.10671E-02
         0.00000E+00
         0.44532E-02
         0.21016E-02
         0.00000E+00
         0.41738E-02
         0.15083E-02
         0.39301E-02
         0.20962E-03
         0.11228E-01
         0.78183E-02
         0.21259E-02
         0.12136E-01
         0.22780E-02
         0.00000E+00
         0.00000E+00
         0.50325E-03
         0.00000E+00
         0.81664E-02
         0.74383E-02
         0.71730E-02
         0.00000E+00
         0.15057E-02
         0.00000E+00
         0.20145E-02
         0.00000E+00
         0.00000E+00
         0.17294E-02
         0.14915E-02
         0.00000E+00
         0.00000E+00
         0.00000E+00
         0.68100E-02
         0.27532E-02
         0.44914E-02
         0.93948E-02
         0.65898E-02
         0.58128E-02
         0.94631E-02
         0.82488E-02
         0.82680E-02
         0.56791E-02
         0.47119E-02
         0.76260E-02
         0.39153E-02
         0.28518E-02
         0.17168E-02
         0.25820E-02
         0.63286E-02
         0.32641E-02
         0.39001E-01
         0.40096E-01
         0.42217E-01
         0.41895E-01
         0.44779E-01
         0.48214E-01
         0.46063E-01
         0.40661E-01
         0.39546E-01
         0.42534E-01
         0.41706E-01
         0.41231E-01
         0.33421E-01
         0.31612E-01
         0.35161E-01
         0.38009E-01
         0.39584E-01
         0.43490E-01
         0.41513E-01
         0.42733E-01
         0.38107E-01
         0.36030E-01
         0.38484E-01
         0.37365E-01
         0.38609E-01
         0.38270E-01
         0.42893E-02
         0.12901E-02
         0.10691E-02
         0.00000E+00
         0.44500E-02
         0.20988E-02
         0.00000E+00
         0.41787E-02
         0.15164E-02
         0.39474E-02
         0.21111E-03
         0.11228E-01
         0.78234E-02
         0.21136E-02
         0.12152E-01
         0.22833E-02
         0.00000E+00
         0.00000E+00
         0.50561E-03
         0.00000E+00
         0.81683E-02
         0.74383E-02
         0.71741E-02
         0.00000E+00
         0.15222E-02
         0.00000E+00
         0.20160E-02
         0.00000E+00
         0.00000E+00
         0.17357E-02
         0.14957E-02
         0.00000E+00
         0.00000E+00
         0.00000E+00
         0.68150E-02
         0.27523E-02
         0.44904E-02
         0.94148E-02
         0.66126E-02
         0.58264E-02
         0.94730E-02
         0.82556E-02
         0.82709E-02
         0.56814E-02
         0.47128E-02
         0.76277E-02
         0.39171E-02
         0.28527E-02
         0.17117E-02
         0.25747E-02
         0.63241E-02
         0.32544E-02
         0.38985E-01
         0.40085E-01
         0.42216E-01
         0.41895E-01
         0.44771E-01
         0.48197E-01
         0.46041E-01
         0.40649E-01
         0.39535E-01
         0.42519E-01
         0.41699E-01
         0.41234E-01
         0.33420E-01
         0.31612E-01
         0.35167E-01
         0.38023E-01
         0.39599E-01
         0.43500E-01
         0.41510E-01
         0.42731E-01
         0.38103E-01
         0.36028E-01
         0.38469E-01
         0.37339E-01
         0.38585E-01
         0.38248E-01
         0.42938E-02
         0.12901E-02
         0.10712E-02
         0.00000E+00
         0.44469E-02
         0.20958E-02
         0.00000E+00
         0.41837E-02
         0.15245E-02
         0.39646E-02
         0.21267E-03
         0.11228E-01
         0.78283E-02
         0.21013E-02
         0.12168E-01
         0.22886E-02
         0.00000E+00
         0.00000E+00
         0.50798E-03
         0.00000E+00
         0.81703E-02
         0.74381E-02
         0.71752E-02
         0.00000E+00
         0.15386E-02
         0.00000E+00
         0.20173E-02
         0.00000E+00
         0.00000E+00
         0.17419E-02
         0.14999E-02
         0.00000E+00
         0.00000E+00
         0.00000E+00
         0.68201E-02
         0.27514E-02
         0.44893E-02
         0.94348E-02
         0.66354E-02
         0.58402E-02
         0.94828E-02
         0.82624E-02
         0.82738E-02
         0.56840E-02
         0.47137E-02
         0.76296E-02
         0.39189E-02
         0.28538E-02
         0.17066E-02
         0.25674E-02
         0.63195E-02
         0.32448E-02
         0.38970E-01
         0.40075E-01
         0.42215E-01
         0.41895E-01
         0.44763E-01
         0.48179E-01
         0.46020E-01
         0.40637E-01
         0.39524E-01
         0.42504E-01
         0.41692E-01
         0.41237E-01
         0.33419E-01
         0.31611E-01
         0.35173E-01
         0.38037E-01
         0.39614E-01
         0.43511E-01
         0.41507E-01
         0.42728E-01
         0.38100E-01
         0.36026E-01
         0.38454E-01
         0.37312E-01
         0.38562E-01
         0.38225E-01
         0.42983E-02
         0.12900E-02
         0.10733E-02
         0.00000E+00
         0.44437E-02
         0.20928E-02
         0.00000E+00
         0.41885E-02
         0.15327E-02
         0.39816E-02
         0.21424E-03
         0.11228E-01
         0.78332E-02
         0.20889E-02
         0.12184E-01
         0.22939E-02
         0.00000E+00
         0.00000E+00
         0.51038E-03
         0.00000E+00
         0.81722E-02
         0.74381E-02
         0.71764E-02
         0.00000E+00
         0.15550E-02
         0.00000E+00
         0.20182E-02
         0.00000E+00
         0.00000E+00
         0.17478E-02
         0.15041E-02
         0.00000E+00
         0.00000E+00
         0.00000E+00
         0.68249E-02
         0.27506E-02
         0.44883E-02
         0.94549E-02
         0.66582E-02
         0.58533E-02
         0.94921E-02
         0.82685E-02
         0.82764E-02
         0.56866E-02
         0.47145E-02
         0.76313E-02
         0.39205E-02
         0.28548E-02
         0.17014E-02
         0.25602E-02
         0.63152E-02
         0.32351E-02
         0.38954E-01
         0.40065E-01
         0.42214E-01
         0.41895E-01
         0.44755E-01
         0.48161E-01
         0.45998E-01
         0.40625E-01
         0.39513E-01
         0.42489E-01
         0.41685E-01
         0.41242E-01
         0.33418E-01
         0.31610E-01
         0.35179E-01
         0.38050E-01
         0.39629E-01
         0.43522E-01
         0.41504E-01
         0.42725E-01
         0.38096E-01
         0.36024E-01
         0.38439E-01
         0.37285E-01
         0.38538E-01
         0.38203E-01
         0.43027E-02
         0.12900E-02
         0.10754E-02
         0.00000E+00
         0.44404E-02
         0.20898E-02
         0.00000E+00
         0.41934E-02
         0.15409E-02
         0.39986E-02
         0.21586E-03
         0.11228E-01
         0.78383E-02
         0.20764E-02
         0.12200E-01
         0.22991E-02
         0.00000E+00
         0.00000E+00
         0.51276E-03
         0.00000E+00
         0.81742E-02
         0.74378E-02
         0.71776E-02
         0.00000E+00
         0.15713E-02
         0.00000E+00
         0.20188E-02
         0.00000E+00
         0.00000E+00
         0.17533E-02
         0.15082E-02
         0.00000E+00
         0.00000E+00
         0.00000E+00
         0.68300E-02
         0.27497E-02
         0.44873E-02
         0.94750E-02
         0.66808E-02
         0.58662E-02
         0.95008E-02
         0.82741E-02
         0.82787E-02
         0.56890E-02
         0.47155E-02
         0.76331E-02
         0.39223E-02
         0.28558E-02
         0.16964E-02
         0.25528E-02
         0.63105E-02
         0.32254E-02
         0.38939E-01
         0.40055E-01
         0.42214E-01
         0.41895E-01
         0.44747E-01
         0.48143E-01
         0.45976E-01
         0.40613E-01
         0.39502E-01
         0.42472E-01
         0.41677E-01
         0.41247E-01
         0.33418E-01
         0.31610E-01
         0.35184E-01
         0.38064E-01
         0.39643E-01
         0.43533E-01
         0.41501E-01
         0.42722E-01
         0.38092E-01
         0.36022E-01
         0.38425E-01
         0.37258E-01
         0.38515E-01
         0.38181E-01
         0.43073E-02
         0.12900E-02
         0.10776E-02
         0.00000E+00
         0.44374E-02
         0.20870E-02
         0.00000E+00
         0.41982E-02
         0.15492E-02
         0.40155E-02
         0.21754E-03
         0.11228E-01
         0.78432E-02
         0.20640E-02
         0.12216E-01
         0.23044E-02
         0.00000E+00
         0.00000E+00
         0.51518E-03
         0.00000E+00
         0.81761E-02
         0.74376E-02
         0.71785E-02
         0.00000E+00
         0.15876E-02
         0.00000E+00
         0.20192E-02
         0.00000E+00
         0.00000E+00
         0.17588E-02
         0.15125E-02
         0.00000E+00
         0.00000E+00
         0.00000E+00
         0.68351E-02
         0.27489E-02
         0.44862E-02
         0.94951E-02
         0.67034E-02
         0.58786E-02
         0.95092E-02
         0.82793E-02
         0.82810E-02
         0.56915E-02
         0.47162E-02
         0.76349E-02
         0.39241E-02
         0.28569E-02
         0.16913E-02
         0.25455E-02
         0.63062E-02
         0.32159E-02
         0.38923E-01
         0.40045E-01
         0.42213E-01
         0.41896E-01
         0.44739E-01
         0.48125E-01
         0.45955E-01
         0.40601E-01
         0.39491E-01
         0.42456E-01
         0.41670E-01
         0.41253E-01
         0.33419E-01
         0.31609E-01
         0.35190E-01
         0.38078E-01
         0.39658E-01
         0.43544E-01
         0.41498E-01
         0.42719E-01
         0.38089E-01
         0.36020E-01
         0.38410E-01
         0.37232E-01
         0.38492E-01
         0.38159E-01
         0.46496E-02
         0.18402E-02
         0.16452E-02
         0.46045E-03
         0.48935E-02
         0.26322E-02
         0.33279E-03
         0.46317E-02
         0.20302E-02
         0.44697E-02
         0.11673E-02
         0.11632E-01
         0.82496E-02
         0.27607E-02
         0.12638E-01
         0.27083E-02
         0.51155E-03
         0.00000E+00
         0.11958E-02
         0.00000E+00
         0.85165E-02
         0.77989E-02
         0.75137E-02
         0.34781E-03
         0.22175E-02
         0.00000E+00
         0.27150E-02
         0.00000E+00
         0.23823E-03
         0.24018E-02
         0.19785E-02
         0.13339E-03
         0.39854E-03
         0.25420E-03
         0.72869E-02
         0.33036E-02
         0.49380E-02
         0.99352E-02
         0.71959E-02
         0.63818E-02
         0.99230E-02
         0.86785E-02
         0.86421E-02
         0.60481E-02
         0.51360E-02
         0.80606E-02
         0.44180E-02
         0.33523E-02
         0.22527E-02
         0.30723E-02
         0.67319E-02
         0.37034E-02
         0.39431E-01
         0.40540E-01
         0.42728E-01
         0.42390E-01
         0.45246E-01
         0.48656E-01
         0.46489E-01
         0.41144E-01
         0.40043E-01
         0.43018E-01
         0.42218E-01
         0.41769E-01
         0.33864E-01
         0.32024E-01
         0.35609E-01
         0.38509E-01
         0.40096E-01
         0.44028E-01
         0.42020E-01
         0.43243E-01
         0.38559E-01
         0.36472E-01
         0.38868E-01
         0.37676E-01
         0.38932E-01
         0.38600E-01
         0.22777E-01
         0.22204E-01
         0.21780E-01
         0.19351E-01
         0.26014E-01
         0.23381E-01
         0.23516E-01
         0.25650E-01
         0.20783E-01
         0.25532E-01
         0.26203E-01
         0.35176E-01
         0.30278E-01
         0.27575E-01
         0.36963E-01
         0.20727E-01
         0.21291E-01
         0.18071E-01
         0.22258E-01
         0.23081E-01
         0.28402E-01
         0.28459E-01
         0.26772E-01
         0.21082E-01
         0.24684E-01
         0.20029E-01
         0.27478E-01
         0.26024E-01
         0.26298E-01
         0.25641E-01
         0.20568E-01
         0.20921E-01
         0.19493E-01
         0.20399E-01
         0.29620E-01
         0.25316E-01
         0.26273E-01
         0.34234E-01
         0.31711E-01
         0.30880E-01
         0.33711E-01
         0.31500E-01
         0.30095E-01
         0.25256E-01
         0.25555E-01
         0.30068E-01
         0.26040E-01
         0.24051E-01
         0.23069E-01
         0.24290E-01
         0.28258E-01
         0.24658E-01
         0.67704E-01
         0.67951E-01
         0.70725E-01
         0.69631E-01
         0.73288E-01
         0.78310E-01
         0.77136E-01
         0.72083E-01
         0.71145E-01
         0.74535E-01
         0.72866E-01
         0.70488E-01
         0.60023E-01
         0.56848E-01
         0.60028E-01
         0.62809E-01
         0.64526E-01
         0.70283E-01
         0.70134E-01
         0.71510E-01
         0.65150E-01
         0.62421E-01
         0.65519E-01
         0.64281E-01
         0.65099E-01
         0.64540E-01
  
SCALARS                            dam  double 1
LOOKUP_TABLE default
         0.00000E+00
         0.00000E+00
         0.00000E+00
         0.00000E+00
         0.00000E+00
         0.00000E+00
         0.00000E+00
         0.00000E+00
         0.00000E+00
         0.00000E+00
         0.00000E+00
         0.00000E+00
         0.00000E+00
         0.00000E+00
         0.00000E+00
         0.00000E+00
         0.00000E+00
         0.00000E+00
         0.00000E+00
         0.00000E+00
         0.00000E+00
         0.00000E+00
         0.00000E+00
         0.00000E+00
         0.00000E+00
         0.00000E+00
         0.00000E+00
         0.00000E+00
         0.00000E+00
         0.00000E+00
         0.00000E+00
         0.00000E+00
         0.00000E+00
         0.00000E+00
         0.00000E+00
         0.00000E+00
         0.00000E+00
         0.00000E+00
         0.00000E+00
         0.00000E+00
         0.00000E+00
         0.00000E+00
         0.00000E+00
         0.00000E+00
         0.00000E+00
         0.00000E+00
         0.00000E+00
         0.00000E+00
         0.00000E+00
         0.00000E+00
         0.00000E+00
         0.00000E+00
         0.00000E+00
         0.00000E+00
         0.00000E+00
         0.00000E+00
         0.00000E+00
         0.00000E+00
         0.00000E+00
         0.00000E+00
         0.00000E+00
         0.00000E+00
         0.00000E+00
         0.00000E+00
         0.00000E+00
         0.00000E+00
         0.00000E+00
         0.00000E+00
         0.00000E+00
         0.00000E+00
         0.00000E+00
         0.00000E+00
         0.00000E+00
         0.00000E+00
         0.00000E+00
         0.00000E+00
         0.00000E+00
         0.00000E+00
         0.00000E+00
         0.00000E+00
         0.00000E+00
         0.00000E+00
         0.00000E+00
         0.00000E+00
         0.00000E+00
         0.00000E+00
         0.00000E+00
         0.00000E+00
         0.00000E+00
         0.00000E+00
         0.00000E+00
         0.00000E+00
         0.00000E+00
         0.00000E+00
         0.00000E+00
         0.00000E+00
         0.00000E+00
         0.00000E+00
         0.00000E+00
         0.00000E+00
         0.00000E+00
         0.00000E+00
         0.00000E+00
         0.00000E+00
         0.00000E+00
         0.00000E+00
         0.00000E+00
         0.00000E+00
         0.00000E+00
         0.00000E+00
         0.00000E+00
         0.00000E+00
         0.00000E+00
         0.00000E+00
         0.00000E+00
         0.00000E+00
         0.00000E+00
         0.00000E+00
         0.00000E+00
         0.00000E+00
         0.00000E+00
         0.00000E+00
         0.00000E+00
         0.00000E+00
         0.00000E+00
         0.00000E+00
         0.00000E+00
         0.00000E+00
         0.00000E+00
         0.00000E+00
         0.00000E+00
         0.00000E+00
         0.00000E+00
         0.00000E+00
         0.00000E+00
         0.00000E+00
         0.00000E+00
         0.00000E+00
         0.00000E+00
         0.00000E+00
         0.00000E+00
         0.00000E+00
         0.00000E+00
         0.00000E+00
         0.00000E+00
         0.00000E+00
         0.00000E+00
         0.00000E+00
         0.00000E+00
         0.00000E+00
         0.00000E+00
         0.00000E+00
         0.00000E+00
         0.00000E+00
         0.00000E+00
         0.00000E+00
         0.00000E+00
         0.00000E+00
         0.00000E+00
         0.00000E+00
         0.00000E+00
         0.00000E+00
         0.00000E+00
         0.00000E+00
         0.00000E+00
         0.00000E+00
         0.00000E+00
         0.00000E+00
         0.00000E+00
         0.00000E+00
         0.00000E+00
         0.00000E+00
         0.00000E+00
         0.00000E+00
         0.00000E+00
         0.00000E+00
         0.00000E+00
         0.00000E+00
         0.00000E+00
         0.00000E+00
         0.00000E+00
         0.00000E+00
         0.00000E+00
         0.00000E+00
         0.00000E+00
         0.00000E+00
         0.00000E+00
         0.00000E+00
         0.00000E+00
         0.00000E+00
         0.00000E+00
         0.00000E+00
         0.00000E+00
         0.00000E+00
         0.00000E+00
         0.00000E+00
         0.00000E+00
         0.00000E+00
         0.00000E+00
         0.00000E+00
         0.00000E+00
         0.00000E+00
         0.00000E+00
         0.00000E+00
         0.00000E+00
         0.00000E+00
         0.00000E+00
         0.00000E+00
         0.00000E+00
         0.00000E+00
         0.00000E+00
         0.00000E+00
         0.00000E+00
         0.00000E+00
         0.00000E+00
         0.00000E+00
         0.00000E+00
         0.00000E+00
         0.00000E+00
         0.00000E+00
         0.00000E+00
         0.00000E+00
         0.00000E+00
         0.00000E+00
         0.00000E+00
         0.00000E+00
         0.00000E+00
         0.00000E+00
         0.00000E+00
         0.00000E+00
         0.00000E+00
         0.00000E+00
         0.00000E+00
         0.00000E+00
         0.00000E+00
         0.00000E+00
         0.00000E+00
         0.00000E+00
         0.00000E+00
         0.00000E+00
         0.00000E+00
         0.00000E+00
         0.00000E+00
         0.00000E+00
         0.00000E+00
         0.00000E+00
         0.00000E+00
         0.00000E+00
         0.00000E+00
         0.00000E+00
         0.00000E+00
         0.00000E+00
         0.00000E+00
         0.00000E+00
         0.00000E+00
         0.00000E+00
         0.00000E+00
         0.00000E+00
         0.00000E+00
         0.00000E+00
         0.00000E+00
         0.00000E+00
         0.00000E+00
         0.00000E+00
         0.00000E+00
         0.00000E+00
         0.00000E+00
         0.00000E+00
         0.00000E+00
         0.00000E+00
         0.00000E+00
         0.00000E+00
         0.00000E+00
         0.00000E+00
         0.00000E+00
         0.00000E+00
         0.00000E+00
         0.00000E+00
         0.00000E+00
         0.00000E+00
         0.00000E+00
         0.00000E+00
         0.00000E+00
         0.00000E+00
         0.00000E+00
         0.00000E+00
         0.00000E+00
         0.00000E+00
         0.00000E+00
         0.00000E+00
         0.00000E+00
         0.00000E+00
         0.00000E+00
         0.00000E+00
         0.00000E+00
         0.00000E+00
         0.00000E+00
         0.00000E+00
         0.00000E+00
         0.00000E+00
         0.00000E+00
         0.00000E+00
         0.00000E+00
         0.00000E+00
         0.00000E+00
         0.00000E+00
         0.00000E+00
         0.00000E+00
         0.00000E+00
         0.00000E+00
         0.00000E+00
         0.00000E+00
         0.00000E+00
         0.00000E+00
         0.00000E+00
         0.00000E+00
         0.00000E+00
         0.00000E+00
         0.00000E+00
         0.00000E+00
         0.00000E+00
         0.00000E+00
         0.00000E+00
         0.00000E+00
         0.00000E+00
         0.00000E+00
         0.00000E+00
         0.00000E+00
         0.00000E+00
         0.00000E+00
         0.00000E+00
         0.00000E+00
         0.00000E+00
         0.00000E+00
         0.00000E+00
         0.00000E+00
         0.00000E+00
         0.00000E+00
         0.00000E+00
         0.00000E+00
         0.00000E+00
         0.00000E+00
         0.00000E+00
         0.00000E+00
         0.00000E+00
         0.00000E+00
         0.00000E+00
         0.00000E+00
         0.00000E+00
         0.00000E+00
         0.00000E+00
         0.00000E+00
         0.00000E+00
         0.00000E+00
         0.00000E+00
         0.00000E+00
         0.00000E+00
         0.00000E+00
         0.00000E+00
         0.00000E+00
         0.00000E+00
         0.00000E+00
         0.00000E+00
         0.00000E+00
         0.00000E+00
         0.00000E+00
         0.00000E+00
         0.00000E+00
         0.00000E+00
         0.00000E+00
         0.00000E+00
         0.00000E+00
         0.00000E+00
         0.00000E+00
         0.00000E+00
         0.00000E+00
         0.00000E+00
         0.00000E+00
         0.00000E+00
         0.00000E+00
         0.00000E+00
         0.00000E+00
         0.00000E+00
         0.00000E+00
         0.00000E+00
         0.00000E+00
         0.00000E+00
         0.00000E+00
         0.00000E+00
         0.00000E+00
         0.00000E+00
         0.00000E+00
         0.00000E+00
         0.00000E+00
         0.00000E+00
         0.00000E+00
         0.00000E+00
         0.00000E+00
         0.00000E+00
         0.00000E+00
         0.00000E+00
         0.00000E+00
         0.00000E+00
         0.00000E+00
         0.00000E+00
         0.00000E+00
         0.00000E+00
         0.00000E+00
         0.00000E+00
         0.00000E+00
         0.00000E+00
         0.00000E+00
         0.00000E+00
         0.00000E+00
         0.00000E+00
         0.00000E+00
         0.00000E+00
         0.00000E+00
         0.00000E+00
         0.00000E+00
         0.00000E+00
         0.00000E+00
         0.00000E+00
         0.00000E+00
         0.00000E+00
         0.00000E+00
         0.00000E+00
         0.00000E+00
         0.00000E+00
         0.00000E+00
         0.00000E+00
         0.00000E+00
         0.00000E+00
         0.00000E+00
         0.00000E+00
         0.00000E+00
         0.00000E+00
         0.00000E+00
         0.00000E+00
         0.00000E+00
         0.00000E+00
         0.00000E+00
         0.00000E+00
         0.00000E+00
         0.00000E+00
         0.00000E+00
         0.00000E+00
         0.00000E+00
         0.00000E+00
         0.00000E+00
         0.00000E+00
         0.00000E+00
         0.00000E+00
         0.00000E+00
         0.00000E+00
         0.00000E+00
         0.00000E+00
         0.00000E+00
         0.00000E+00
         0.00000E+00
         0.00000E+00
         0.00000E+00
         0.00000E+00
         0.00000E+00
         0.00000E+00
         0.00000E+00
         0.00000E+00
         0.00000E+00
         0.00000E+00
         0.00000E+00
         0.00000E+00
         0.00000E+00
         0.00000E+00
         0.00000E+00
         0.00000E+00
         0.00000E+00
         0.00000E+00
         0.00000E+00
         0.00000E+00
         0.00000E+00
         0.00000E+00
         0.00000E+00
         0.00000E+00
         0.00000E+00
         0.00000E+00
         0.00000E+00
         0.00000E+00
         0.00000E+00
         0.00000E+00
         0.00000E+00
         0.00000E+00
         0.00000E+00
         0.00000E+00
         0.00000E+00
         0.00000E+00
         0.00000E+00
         0.00000E+00
         0.00000E+00
         0.00000E+00
         0.00000E+00
         0.00000E+00
         0.00000E+00
         0.00000E+00
         0.00000E+00
         0.00000E+00
         0.00000E+00
         0.00000E+00
         0.00000E+00
         0.00000E+00
         0.00000E+00
         0.00000E+00
         0.00000E+00
         0.00000E+00
         0.00000E+00
         0.00000E+00
         0.00000E+00
         0.00000E+00
         0.00000E+00
         0.00000E+00
         0.00000E+00
         0.00000E+00
         0.00000E+00
         0.00000E+00
         0.00000E+00
         0.00000E+00
         0.00000E+00
         0.00000E+00
         0.00000E+00
         0.00000E+00
         0.00000E+00
         0.00000E+00
         0.00000E+00
         0.00000E+00
         0.00000E+00
         0.00000E+00
         0.00000E+00
         0.00000E+00
         0.00000E+00
         0.00000E+00
         0.00000E+00
         0.00000E+00
         0.00000E+00
         0.00000E+00
         0.00000E+00
         0.00000E+00
         0.00000E+00
         0.00000E+00
         0.00000E+00
         0.00000E+00
         0.00000E+00
         0.00000E+00
         0.00000E+00
         0.00000E+00
         0.00000E+00
         0.00000E+00
         0.00000E+00
         0.00000E+00
         0.00000E+00
         0.00000E+00
         0.00000E+00
         0.00000E+00
         0.00000E+00
         0.00000E+00
         0.00000E+00
         0.00000E+00
         0.00000E+00
         0.00000E+00
         0.00000E+00
         0.00000E+00
         0.00000E+00
         0.00000E+00
         0.00000E+00
         0.00000E+00
         0.00000E+00
         0.00000E+00
         0.00000E+00
         0.00000E+00
         0.00000E+00
         0.00000E+00
         0.00000E+00
         0.00000E+00
         0.00000E+00
         0.00000E+00
         0.00000E+00
         0.00000E+00
         0.00000E+00
         0.00000E+00
         0.00000E+00
         0.00000E+00
         0.00000E+00
         0.00000E+00
         0.00000E+00
         0.00000E+00
         0.00000E+00
         0.00000E+00
         0.00000E+00
         0.00000E+00
         0.00000E+00
         0.00000E+00
         0.00000E+00
         0.00000E+00
         0.00000E+00
         0.00000E+00
         0.00000E+00
         0.00000E+00
         0.00000E+00
         0.00000E+00
         0.00000E+00
         0.00000E+00
         0.00000E+00
         0.00000E+00
         0.00000E+00
         0.00000E+00
         0.00000E+00
         0.00000E+00
         0.00000E+00
         0.00000E+00
         0.00000E+00
         0.00000E+00
         0.00000E+00
         0.00000E+00
         0.00000E+00
         0.00000E+00
         0.00000E+00
         0.00000E+00
         0.00000E+00
         0.00000E+00
         0.00000E+00
         0.00000E+00
         0.00000E+00
         0.00000E+00
         0.00000E+00
         0.00000E+00
         0.00000E+00
         0.00000E+00
         0.00000E+00
         0.00000E+00
         0.00000E+00
         0.00000E+00
         0.00000E+00
         0.00000E+00
         0.00000E+00
         0.00000E+00
         0.00000E+00
         0.00000E+00
         0.00000E+00
         0.00000E+00
         0.00000E+00
         0.00000E+00
         0.00000E+00
         0.00000E+00
         0.00000E+00
         0.00000E+00
         0.00000E+00
         0.00000E+00
         0.00000E+00
         0.00000E+00
         0.00000E+00
         0.00000E+00
         0.00000E+00
         0.00000E+00
         0.00000E+00
         0.00000E+00
         0.00000E+00
         0.00000E+00
         0.00000E+00
         0.00000E+00
         0.00000E+00
         0.00000E+00
         0.00000E+00
         0.00000E+00
         0.00000E+00
         0.00000E+00
         0.00000E+00
         0.00000E+00
         0.00000E+00
         0.00000E+00
         0.00000E+00
         0.00000E+00
         0.00000E+00
         0.00000E+00
         0.00000E+00
         0.00000E+00
         0.00000E+00
         0.00000E+00
         0.00000E+00
         0.00000E+00
         0.00000E+00
         0.00000E+00
         0.00000E+00
         0.00000E+00
         0.00000E+00
         0.00000E+00
         0.00000E+00
         0.00000E+00
         0.00000E+00
         0.00000E+00
         0.00000E+00
         0.00000E+00
         0.00000E+00
         0.00000E+00
         0.00000E+00
         0.00000E+00
         0.00000E+00
         0.00000E+00
         0.00000E+00
         0.00000E+00
         0.00000E+00
         0.00000E+00
         0.00000E+00
         0.00000E+00
         0.00000E+00
         0.00000E+00
         0.00000E+00
         0.00000E+00
         0.00000E+00
         0.00000E+00
         0.00000E+00
         0.00000E+00
         0.00000E+00
         0.00000E+00
         0.00000E+00
         0.00000E+00
         0.00000E+00
         0.00000E+00
         0.00000E+00
         0.00000E+00
         0.00000E+00
         0.00000E+00
         0.00000E+00
         0.00000E+00
         0.00000E+00
         0.00000E+00
         0.00000E+00
         0.00000E+00
         0.00000E+00
         0.00000E+00
         0.00000E+00
         0.00000E+00
         0.00000E+00
         0.00000E+00
         0.00000E+00
         0.00000E+00
         0.00000E+00
         0.00000E+00
         0.00000E+00
         0.00000E+00
         0.00000E+00
         0.00000E+00
         0.00000E+00
         0.00000E+00
         0.00000E+00
         0.00000E+00
         0.00000E+00
         0.00000E+00
         0.00000E+00
         0.00000E+00
         0.00000E+00
         0.00000E+00
         0.00000E+00
         0.00000E+00
         0.00000E+00
         0.00000E+00
         0.00000E+00
         0.00000E+00
         0.00000E+00
         0.00000E+00
         0.00000E+00
         0.00000E+00
         0.00000E+00
         0.00000E+00
         0.00000E+00
         0.00000E+00
         0.00000E+00
         0.00000E+00
         0.00000E+00
         0.00000E+00
         0.00000E+00
         0.00000E+00
         0.00000E+00
         0.00000E+00
         0.00000E+00
         0.00000E+00
         0.00000E+00
         0.00000E+00
         0.00000E+00
         0.00000E+00
         0.00000E+00
         0.00000E+00
         0.00000E+00
         0.00000E+00
         0.00000E+00
         0.00000E+00
         0.00000E+00
         0.00000E+00
         0.00000E+00
         0.00000E+00
         0.00000E+00
         0.00000E+00
         0.00000E+00
         0.00000E+00
         0.00000E+00
         0.00000E+00
         0.00000E+00
         0.00000E+00
         0.00000E+00
         0.00000E+00
         0.00000E+00
         0.00000E+00
         0.00000E+00
         0.00000E+00
         0.00000E+00
         0.00000E+00
         0.00000E+00
         0.00000E+00
         0.00000E+00
         0.00000E+00
         0.00000E+00
         0.00000E+00
         0.00000E+00
         0.00000E+00
         0.00000E+00
         0.00000E+00
         0.00000E+00
         0.00000E+00
         0.00000E+00
         0.00000E+00
         0.00000E+00
         0.00000E+00
         0.00000E+00
         0.00000E+00
         0.00000E+00
         0.00000E+00
         0.00000E+00
         0.00000E+00
         0.00000E+00
         0.00000E+00
         0.00000E+00
         0.00000E+00
         0.00000E+00
         0.00000E+00
         0.00000E+00
         0.00000E+00
         0.00000E+00
         0.00000E+00
         0.00000E+00
         0.00000E+00
         0.00000E+00
         0.00000E+00
         0.00000E+00
         0.00000E+00
         0.00000E+00
         0.00000E+00
         0.00000E+00
         0.00000E+00
         0.00000E+00
         0.00000E+00
         0.00000E+00
         0.00000E+00
         0.00000E+00
         0.00000E+00
         0.00000E+00
         0.00000E+00
         0.00000E+00
         0.00000E+00
         0.00000E+00
         0.00000E+00
         0.00000E+00
         0.00000E+00
         0.00000E+00
         0.00000E+00
         0.00000E+00
         0.00000E+00
         0.00000E+00
         0.00000E+00
         0.00000E+00
         0.00000E+00
         0.00000E+00
         0.00000E+00
         0.00000E+00
         0.00000E+00
         0.00000E+00
         0.00000E+00
         0.00000E+00
         0.00000E+00
         0.00000E+00
         0.00000E+00
         0.00000E+00
         0.00000E+00
         0.00000E+00
         0.00000E+00
         0.00000E+00
         0.00000E+00
         0.00000E+00
         0.00000E+00
         0.00000E+00
         0.00000E+00
         0.00000E+00
         0.00000E+00
         0.00000E+00
         0.00000E+00
         0.00000E+00
         0.00000E+00
         0.00000E+00
         0.00000E+00
         0.00000E+00
         0.00000E+00
         0.00000E+00
         0.00000E+00
         0.00000E+00
         0.00000E+00
         0.00000E+00
         0.00000E+00
         0.00000E+00
         0.00000E+00
         0.00000E+00
         0.00000E+00
         0.00000E+00
         0.00000E+00
         0.00000E+00
         0.00000E+00
         0.00000E+00
         0.00000E+00
         0.00000E+00
         0.00000E+00
         0.00000E+00
         0.00000E+00
         0.00000E+00
         0.00000E+00
         0.00000E+00
         0.00000E+00
         0.00000E+00
         0.00000E+00
         0.00000E+00
         0.00000E+00
         0.00000E+00
         0.00000E+00
         0.00000E+00
         0.00000E+00
         0.00000E+00
         0.00000E+00
         0.00000E+00
         0.00000E+00
         0.00000E+00
         0.00000E+00
         0.00000E+00
         0.00000E+00
         0.00000E+00
         0.00000E+00
         0.00000E+00
         0.00000E+00
         0.00000E+00
         0.00000E+00
         0.00000E+00
         0.00000E+00
         0.00000E+00
         0.00000E+00
         0.00000E+00
         0.00000E+00
         0.00000E+00
         0.00000E+00
         0.00000E+00
         0.00000E+00
         0.00000E+00
         0.00000E+00
         0.00000E+00
         0.00000E+00
         0.00000E+00
         0.00000E+00
         0.00000E+00
         0.00000E+00
         0.00000E+00
         0.00000E+00
         0.00000E+00
         0.00000E+00
         0.00000E+00
         0.00000E+00
         0.00000E+00
         0.00000E+00
         0.00000E+00
         0.00000E+00
         0.00000E+00
         0.00000E+00
         0.00000E+00
         0.00000E+00
         0.00000E+00
         0.00000E+00
         0.00000E+00
         0.00000E+00
         0.00000E+00
         0.00000E+00
         0.00000E+00
         0.00000E+00
         0.00000E+00
         0.00000E+00
         0.00000E+00
         0.00000E+00
         0.00000E+00
         0.00000E+00
         0.00000E+00
         0.00000E+00
         0.00000E+00
         0.00000E+00
         0.00000E+00
         0.00000E+00
         0.00000E+00
         0.00000E+00
         0.00000E+00
         0.00000E+00
         0.00000E+00
         0.00000E+00
         0.00000E+00
         0.00000E+00
         0.00000E+00
         0.00000E+00
         0.00000E+00
         0.00000E+00
         0.00000E+00
         0.00000E+00
         0.00000E+00
         0.00000E+00
         0.00000E+00
         0.00000E+00
         0.00000E+00
         0.00000E+00
         0.00000E+00
         0.00000E+00
         0.00000E+00
         0.00000E+00
         0.00000E+00
         0.00000E+00
         0.00000E+00
         0.00000E+00
         0.00000E+00
         0.00000E+00
         0.00000E+00
         0.00000E+00
         0.00000E+00
         0.00000E+00
         0.00000E+00
         0.00000E+00
         0.00000E+00
         0.00000E+00
         0.00000E+00
         0.00000E+00
         0.00000E+00
         0.00000E+00
         0.00000E+00
         0.00000E+00
         0.00000E+00
         0.00000E+00
         0.00000E+00
         0.00000E+00
         0.00000E+00
         0.00000E+00
         0.00000E+00
         0.00000E+00
         0.00000E+00
         0.00000E+00
         0.00000E+00
         0.00000E+00
         0.00000E+00
         0.00000E+00
         0.00000E+00
         0.00000E+00
         0.00000E+00
         0.00000E+00
         0.00000E+00
         0.00000E+00
         0.00000E+00
         0.00000E+00
         0.00000E+00
         0.00000E+00
         0.00000E+00
         0.00000E+00
         0.00000E+00
         0.00000E+00
         0.00000E+00
         0.00000E+00
         0.00000E+00
         0.00000E+00
         0.00000E+00
         0.00000E+00
         0.00000E+00
         0.00000E+00
         0.00000E+00
         0.00000E+00
         0.00000E+00
         0.00000E+00
         0.00000E+00
         0.00000E+00
         0.00000E+00
         0.00000E+00
         0.00000E+00
         0.00000E+00
         0.00000E+00
         0.00000E+00
         0.00000E+00
         0.00000E+00
         0.00000E+00
         0.00000E+00
         0.00000E+00
         0.00000E+00
         0.00000E+00
         0.00000E+00
         0.00000E+00
         0.00000E+00
         0.00000E+00
         0.00000E+00
         0.00000E+00
         0.00000E+00
         0.00000E+00
         0.00000E+00
         0.00000E+00
         0.00000E+00
         0.00000E+00
         0.00000E+00
         0.00000E+00
         0.00000E+00
         0.00000E+00
         0.00000E+00
         0.00000E+00
         0.00000E+00
         0.00000E+00
         0.00000E+00
         0.00000E+00
         0.00000E+00
         0.00000E+00
         0.00000E+00
         0.00000E+00
         0.00000E+00
         0.00000E+00
         0.00000E+00
         0.00000E+00
         0.00000E+00
         0.00000E+00
         0.00000E+00
         0.00000E+00
         0.00000E+00
         0.00000E+00
         0.00000E+00
         0.00000E+00
         0.00000E+00
         0.00000E+00
         0.00000E+00
         0.00000E+00
         0.00000E+00
         0.00000E+00
         0.00000E+00
         0.00000E+00
         0.00000E+00
         0.00000E+00
         0.00000E+00
         0.00000E+00
         0.00000E+00
         0.00000E+00
         0.00000E+00
         0.00000E+00
         0.00000E+00
         0.00000E+00
         0.00000E+00
         0.00000E+00
         0.00000E+00
         0.00000E+00
         0.00000E+00
         0.00000E+00
         0.00000E+00
         0.00000E+00
         0.00000E+00
         0.00000E+00
         0.00000E+00
         0.00000E+00
         0.00000E+00
         0.00000E+00
         0.00000E+00
         0.00000E+00
         0.00000E+00
         0.00000E+00
         0.00000E+00
         0.00000E+00
         0.00000E+00
         0.00000E+00
         0.00000E+00
         0.00000E+00
         0.00000E+00
         0.00000E+00
         0.00000E+00
         0.00000E+00
         0.00000E+00
         0.00000E+00
         0.00000E+00
         0.00000E+00
         0.00000E+00
         0.00000E+00
         0.00000E+00
         0.00000E+00
         0.00000E+00
         0.00000E+00
         0.00000E+00
         0.00000E+00
         0.00000E+00
         0.00000E+00
         0.00000E+00
         0.00000E+00
         0.00000E+00
         0.00000E+00
         0.00000E+00
         0.00000E+00
         0.00000E+00
         0.00000E+00
         0.00000E+00
         0.00000E+00
         0.00000E+00
         0.00000E+00
         0.00000E+00
         0.00000E+00
         0.00000E+00
         0.00000E+00
         0.00000E+00
         0.00000E+00
         0.00000E+00
         0.00000E+00
         0.00000E+00
         0.00000E+00
         0.00000E+00
         0.00000E+00
         0.00000E+00
         0.00000E+00
         0.00000E+00
         0.00000E+00
         0.00000E+00
         0.00000E+00
         0.00000E+00
         0.00000E+00
         0.00000E+00
         0.00000E+00
         0.00000E+00
         0.00000E+00
         0.00000E+00
         0.00000E+00
         0.00000E+00
         0.00000E+00
         0.00000E+00
         0.00000E+00
         0.00000E+00
         0.00000E+00
         0.00000E+00
         0.00000E+00
         0.00000E+00
         0.00000E+00
         0.00000E+00
         0.00000E+00
         0.00000E+00
         0.00000E+00
         0.00000E+00
         0.00000E+00
         0.00000E+00
         0.00000E+00
         0.00000E+00
         0.00000E+00
         0.00000E+00
         0.00000E+00
         0.00000E+00
         0.00000E+00
         0.00000E+00
         0.00000E+00
         0.00000E+00
         0.00000E+00
         0.00000E+00
         0.00000E+00
         0.00000E+00
         0.00000E+00
         0.00000E+00
         0.00000E+00
         0.00000E+00
         0.00000E+00
         0.00000E+00
         0.00000E+00
         0.00000E+00
         0.00000E+00
         0.00000E+00
         0.00000E+00
         0.00000E+00
         0.00000E+00
         0.00000E+00
         0.00000E+00
         0.00000E+00
         0.00000E+00
         0.00000E+00
         0.00000E+00
         0.00000E+00
         0.00000E+00
         0.00000E+00
         0.00000E+00
         0.00000E+00
         0.00000E+00
         0.00000E+00
         0.00000E+00
         0.00000E+00
         0.00000E+00
         0.00000E+00
         0.00000E+00
         0.00000E+00
         0.00000E+00
         0.00000E+00
         0.00000E+00
         0.00000E+00
         0.00000E+00
         0.00000E+00
         0.00000E+00
         0.00000E+00
         0.00000E+00
         0.00000E+00
         0.00000E+00
         0.00000E+00
         0.00000E+00
         0.00000E+00
         0.00000E+00
         0.00000E+00
         0.00000E+00
         0.00000E+00
         0.00000E+00
         0.00000E+00
         0.00000E+00
         0.00000E+00
         0.00000E+00
         0.00000E+00
         0.00000E+00
         0.00000E+00
         0.00000E+00
         0.00000E+00
         0.00000E+00
         0.00000E+00
         0.00000E+00
         0.00000E+00
         0.00000E+00
         0.00000E+00
         0.00000E+00
         0.00000E+00
         0.00000E+00
         0.00000E+00
         0.00000E+00
         0.00000E+00
         0.00000E+00
         0.00000E+00
         0.00000E+00
         0.00000E+00
         0.00000E+00
         0.00000E+00
         0.00000E+00
         0.00000E+00
         0.00000E+00
         0.00000E+00
         0.00000E+00
         0.00000E+00
         0.00000E+00
         0.00000E+00
         0.00000E+00
         0.00000E+00
         0.00000E+00
         0.00000E+00
         0.00000E+00
         0.00000E+00
         0.00000E+00
         0.00000E+00
         0.00000E+00
         0.00000E+00
         0.00000E+00
         0.00000E+00
         0.00000E+00
         0.00000E+00
         0.00000E+00
         0.00000E+00
         0.00000E+00
         0.00000E+00
         0.00000E+00
         0.00000E+00
         0.00000E+00
         0.00000E+00
         0.00000E+00
         0.00000E+00
         0.00000E+00
         0.00000E+00
         0.00000E+00
         0.00000E+00
         0.00000E+00
         0.00000E+00
         0.00000E+00
         0.00000E+00
         0.00000E+00
         0.00000E+00
         0.00000E+00
         0.00000E+00
         0.00000E+00
         0.00000E+00
         0.00000E+00
         0.00000E+00
         0.00000E+00
         0.00000E+00
         0.00000E+00
         0.00000E+00
         0.00000E+00
         0.00000E+00
         0.00000E+00
         0.00000E+00
         0.00000E+00
         0.00000E+00
         0.00000E+00
         0.00000E+00
         0.00000E+00
         0.00000E+00
         0.00000E+00
         0.00000E+00
         0.00000E+00
         0.00000E+00
         0.00000E+00
         0.00000E+00
         0.00000E+00
         0.00000E+00
         0.00000E+00
         0.00000E+00
         0.00000E+00
         0.00000E+00
         0.00000E+00
         0.00000E+00
         0.00000E+00
         0.00000E+00
         0.00000E+00
         0.00000E+00
         0.00000E+00
         0.00000E+00
         0.00000E+00
         0.00000E+00
         0.00000E+00
         0.00000E+00
         0.00000E+00
         0.00000E+00
         0.00000E+00
         0.00000E+00
         0.00000E+00
         0.00000E+00
         0.00000E+00
         0.00000E+00
         0.00000E+00
         0.00000E+00
         0.00000E+00
         0.00000E+00
         0.00000E+00
         0.00000E+00
         0.00000E+00
         0.00000E+00
         0.00000E+00
         0.00000E+00
         0.00000E+00
         0.00000E+00
         0.00000E+00
         0.00000E+00
         0.00000E+00
         0.00000E+00
         0.00000E+00
         0.00000E+00
         0.00000E+00
         0.00000E+00
         0.00000E+00
         0.00000E+00
         0.00000E+00
         0.00000E+00
         0.00000E+00
         0.00000E+00
         0.00000E+00
         0.00000E+00
         0.00000E+00
         0.00000E+00
         0.00000E+00
         0.00000E+00
         0.00000E+00
         0.00000E+00
         0.00000E+00
         0.00000E+00
         0.00000E+00
         0.00000E+00
         0.00000E+00
         0.00000E+00
         0.00000E+00
         0.00000E+00
         0.00000E+00
         0.00000E+00
         0.00000E+00
         0.00000E+00
         0.00000E+00
         0.00000E+00
         0.00000E+00
         0.00000E+00
         0.00000E+00
         0.00000E+00
         0.00000E+00
         0.00000E+00
         0.00000E+00
         0.00000E+00
         0.00000E+00
         0.00000E+00
         0.00000E+00
         0.00000E+00
         0.00000E+00
         0.00000E+00
         0.00000E+00
         0.00000E+00
         0.00000E+00
         0.00000E+00
         0.00000E+00
         0.00000E+00
         0.00000E+00
         0.00000E+00
         0.00000E+00
         0.00000E+00
         0.00000E+00
         0.00000E+00
         0.00000E+00
         0.00000E+00
         0.00000E+00
         0.00000E+00
         0.00000E+00
         0.00000E+00
         0.00000E+00
         0.00000E+00
         0.00000E+00
         0.00000E+00
         0.00000E+00
         0.00000E+00
         0.00000E+00
         0.00000E+00
         0.00000E+00
         0.00000E+00
         0.00000E+00
         0.00000E+00
         0.00000E+00
         0.00000E+00
         0.00000E+00
         0.00000E+00
         0.00000E+00
         0.00000E+00
         0.00000E+00
         0.00000E+00
         0.00000E+00
         0.00000E+00
         0.00000E+00
         0.00000E+00
         0.00000E+00
         0.00000E+00
         0.00000E+00
         0.00000E+00
         0.00000E+00
         0.00000E+00
         0.00000E+00
         0.00000E+00
         0.00000E+00
         0.00000E+00
         0.00000E+00
         0.00000E+00
         0.00000E+00
         0.00000E+00
         0.00000E+00
         0.00000E+00
         0.00000E+00
         0.00000E+00
         0.00000E+00
         0.00000E+00
         0.00000E+00
         0.00000E+00
         0.00000E+00
         0.00000E+00
         0.00000E+00
         0.00000E+00
         0.00000E+00
         0.00000E+00
         0.00000E+00
         0.00000E+00
         0.00000E+00
         0.00000E+00
         0.00000E+00
         0.00000E+00
         0.00000E+00
         0.00000E+00
         0.00000E+00
         0.00000E+00
         0.00000E+00
         0.00000E+00
         0.00000E+00
         0.00000E+00
         0.00000E+00
         0.00000E+00
         0.00000E+00
         0.00000E+00
         0.00000E+00
         0.00000E+00
         0.00000E+00
         0.00000E+00
         0.00000E+00
         0.00000E+00
         0.00000E+00
         0.00000E+00
         0.00000E+00
         0.00000E+00
         0.00000E+00
         0.00000E+00
         0.00000E+00
         0.00000E+00
         0.00000E+00
         0.00000E+00
         0.00000E+00
         0.00000E+00
         0.00000E+00
         0.00000E+00
         0.00000E+00
         0.00000E+00
         0.00000E+00
         0.00000E+00
         0.00000E+00
         0.00000E+00
         0.00000E+00
         0.00000E+00
         0.00000E+00
         0.00000E+00
         0.00000E+00
         0.00000E+00
         0.00000E+00
         0.00000E+00
         0.00000E+00
         0.00000E+00
         0.00000E+00
         0.00000E+00
         0.00000E+00
         0.00000E+00
         0.00000E+00
         0.00000E+00
         0.00000E+00
         0.00000E+00
         0.00000E+00
         0.00000E+00
         0.00000E+00
         0.00000E+00
         0.00000E+00
         0.00000E+00
         0.00000E+00
         0.00000E+00
         0.00000E+00
         0.00000E+00
         0.00000E+00
         0.00000E+00
         0.00000E+00
         0.00000E+00
         0.00000E+00
         0.00000E+00
         0.00000E+00
         0.00000E+00
         0.00000E+00
         0.00000E+00
         0.00000E+00
         0.00000E+00
         0.00000E+00
         0.00000E+00
         0.00000E+00
         0.00000E+00
         0.00000E+00
         0.00000E+00
         0.00000E+00
         0.00000E+00
         0.00000E+00
         0.00000E+00
         0.00000E+00
         0.00000E+00
         0.00000E+00
         0.00000E+00
         0.00000E+00
         0.00000E+00
         0.00000E+00
         0.00000E+00
         0.00000E+00
         0.00000E+00
         0.00000E+00
         0.00000E+00
         0.00000E+00
         0.00000E+00
         0.00000E+00
         0.00000E+00
         0.00000E+00
         0.00000E+00
         0.00000E+00
         0.00000E+00
         0.00000E+00
         0.00000E+00
         0.00000E+00
         0.00000E+00
         0.00000E+00
         0.00000E+00
         0.00000E+00
         0.00000E+00
         0.00000E+00
         0.00000E+00
         0.00000E+00
         0.00000E+00
         0.00000E+00
         0.00000E+00
         0.00000E+00
         0.00000E+00
         0.00000E+00
         0.00000E+00
         0.00000E+00
         0.00000E+00
         0.00000E+00
         0.00000E+00
         0.00000E+00
         0.00000E+00
         0.00000E+00
         0.00000E+00
         0.00000E+00
         0.00000E+00
         0.00000E+00
         0.00000E+00
         0.00000E+00
         0.00000E+00
         0.00000E+00
         0.00000E+00
         0.00000E+00
         0.00000E+00
         0.00000E+00
         0.00000E+00
         0.00000E+00
         0.00000E+00
         0.00000E+00
         0.00000E+00
         0.00000E+00
         0.00000E+00
         0.00000E+00
         0.00000E+00
         0.00000E+00
         0.00000E+00
         0.00000E+00
         0.00000E+00
         0.00000E+00
         0.00000E+00
         0.00000E+00
         0.00000E+00
         0.00000E+00
         0.00000E+00
         0.00000E+00
         0.00000E+00
         0.00000E+00
         0.00000E+00
         0.00000E+00
         0.00000E+00
         0.00000E+00
         0.00000E+00
         0.00000E+00
         0.00000E+00
         0.00000E+00
         0.00000E+00
         0.00000E+00
         0.00000E+00
         0.00000E+00
         0.00000E+00
         0.00000E+00
         0.00000E+00
         0.00000E+00
         0.00000E+00
         0.00000E+00
         0.00000E+00
         0.00000E+00
         0.00000E+00
         0.00000E+00
         0.00000E+00
         0.00000E+00
         0.00000E+00
         0.00000E+00
         0.00000E+00
         0.00000E+00
         0.00000E+00
         0.00000E+00
         0.00000E+00
         0.00000E+00
         0.00000E+00
         0.00000E+00
         0.00000E+00
         0.00000E+00
         0.00000E+00
         0.00000E+00
         0.00000E+00
         0.00000E+00
         0.00000E+00
         0.00000E+00
         0.00000E+00
         0.00000E+00
         0.00000E+00
         0.00000E+00
         0.00000E+00
         0.00000E+00
         0.00000E+00
         0.00000E+00
         0.00000E+00
         0.00000E+00
         0.00000E+00
         0.00000E+00
         0.00000E+00
         0.00000E+00
         0.00000E+00
         0.00000E+00
         0.00000E+00
         0.00000E+00
         0.00000E+00
         0.00000E+00
         0.00000E+00
         0.00000E+00
         0.00000E+00
         0.00000E+00
         0.00000E+00
         0.00000E+00
         0.00000E+00
         0.00000E+00
         0.00000E+00
         0.00000E+00
         0.00000E+00
         0.00000E+00
         0.00000E+00
         0.00000E+00
         0.00000E+00
         0.00000E+00
         0.00000E+00
         0.00000E+00
         0.00000E+00
         0.00000E+00
         0.00000E+00
         0.00000E+00
         0.00000E+00
         0.00000E+00
         0.00000E+00
         0.00000E+00
         0.00000E+00
         0.00000E+00
         0.00000E+00
         0.00000E+00
         0.00000E+00
         0.00000E+00
         0.00000E+00
         0.00000E+00
         0.00000E+00
         0.00000E+00
         0.00000E+00
         0.00000E+00
         0.00000E+00
         0.00000E+00
         0.00000E+00
         0.00000E+00
         0.00000E+00
         0.00000E+00
         0.00000E+00
         0.00000E+00
         0.00000E+00
         0.00000E+00
         0.00000E+00
         0.00000E+00
         0.00000E+00
         0.00000E+00
         0.00000E+00
         0.00000E+00
         0.00000E+00
         0.00000E+00
         0.00000E+00
         0.00000E+00
         0.00000E+00
         0.00000E+00
         0.00000E+00
         0.00000E+00
         0.00000E+00
         0.00000E+00
         0.00000E+00
         0.00000E+00
         0.00000E+00
         0.00000E+00
         0.00000E+00
         0.00000E+00
         0.00000E+00
         0.00000E+00
         0.00000E+00
         0.00000E+00
         0.00000E+00
         0.00000E+00
         0.00000E+00
         0.00000E+00
         0.00000E+00
         0.00000E+00
         0.00000E+00
         0.00000E+00
         0.00000E+00
         0.00000E+00
         0.00000E+00
         0.00000E+00
         0.00000E+00
         0.00000E+00
         0.00000E+00
         0.00000E+00
         0.00000E+00
         0.00000E+00
         0.00000E+00
         0.00000E+00
         0.00000E+00
         0.00000E+00
         0.00000E+00
         0.00000E+00
         0.00000E+00
         0.00000E+00
         0.00000E+00
         0.00000E+00
         0.00000E+00
         0.00000E+00
         0.00000E+00
         0.00000E+00
         0.00000E+00
         0.00000E+00
         0.00000E+00
         0.00000E+00
         0.00000E+00
         0.00000E+00
         0.00000E+00
         0.00000E+00
         0.00000E+00
         0.00000E+00
         0.00000E+00
         0.00000E+00
         0.00000E+00
         0.00000E+00
         0.00000E+00
         0.00000E+00
         0.00000E+00
         0.00000E+00
         0.00000E+00
         0.00000E+00
         0.00000E+00
         0.00000E+00
         0.00000E+00
         0.00000E+00
         0.00000E+00
         0.00000E+00
         0.00000E+00
         0.00000E+00
         0.00000E+00
         0.00000E+00
         0.00000E+00
         0.00000E+00
         0.00000E+00
         0.00000E+00
  
SCALARS           initial_coordinate_x  double 1
LOOKUP_TABLE default
         0.10378E-02
         0.17452E-02
         0.23177E-02
         0.16698E-02
         0.10379E-02
         0.17453E-02
         0.23178E-02
         0.16700E-02
         0.30377E-02
         0.27791E-02
         0.30377E-02
         0.27788E-02
         0.12850E-02
         0.65139E-03
         0.12851E-02
         0.65164E-03
         0.12757E-03
        -0.12822E-03
         0.12783E-03
        -0.12804E-03
         0.94500E-03
         0.11327E-02
         0.17490E-02
         0.94533E-03
         0.11330E-02
         0.17494E-02
         0.40588E-03
         0.39779E-03
         0.40594E-03
         0.39781E-03
        -0.76303E-03
        -0.86604E-03
         0.46119E-03
        -0.76268E-03
        -0.86593E-03
         0.46164E-03
        -0.18300E-02
        -0.18440E-02
        -0.18297E-02
        -0.18441E-02
        -0.27238E-02
        -0.28028E-02
        -0.27238E-02
        -0.28031E-02
        -0.25365E-02
        -0.19287E-02
        -0.25363E-02
        -0.19283E-02
        -0.99363E-03
        -0.99377E-03
        -0.14380E-02
        -0.14377E-02
        -0.31574E-03
        -0.31594E-03
        -0.11068E-02
        -0.11071E-02
        -0.18845E-02
        -0.18713E-02
        -0.18846E-02
        -0.18714E-02
        -0.15871E-03
        -0.94089E-03
        -0.15844E-03
        -0.94029E-03
         0.78856E-03
         0.78922E-03
         0.17211E-02
         0.17211E-02
         0.32050E-02
         0.28046E-02
         0.32047E-02
         0.28047E-02
         0.23059E-02
         0.23060E-02
        -0.40614E-03
        -0.40627E-03
        -0.12092E-02
        -0.12092E-02
        -0.19448E-02
        -0.19448E-02
        -0.25029E-02
        -0.26371E-02
        -0.25029E-02
        -0.26372E-02
        -0.27671E-02
        -0.27674E-02
        -0.21123E-02
        -0.21122E-02
        -0.16087E-02
        -0.16087E-02
        -0.11939E-02
        -0.58641E-03
        -0.11937E-02
        -0.58606E-03
         0.20912E-03
         0.20952E-03
         0.10586E-02
         0.10589E-02
         0.18413E-02
         0.18413E-02
         0.24544E-02
         0.26022E-02
         0.24543E-02
         0.26021E-02
         0.37964E-02
         0.39100E-02
         0.37964E-02
         0.39100E-02
         0.34621E-02
         0.34621E-02
         0.29267E-02
         0.29267E-02
         0.22211E-02
         0.22211E-02
         0.13865E-02
         0.13865E-02
         0.47130E-03
         0.47130E-03
        -0.47130E-03
        -0.47130E-03
        -0.13865E-02
        -0.13865E-02
        -0.22211E-02
        -0.22211E-02
        -0.29267E-02
        -0.29267E-02
        -0.34621E-02
        -0.34621E-02
        -0.37964E-02
        -0.37964E-02
        -0.39100E-02
        -0.39100E-02
        -0.37964E-02
        -0.37964E-02
        -0.34621E-02
        -0.34621E-02
        -0.29267E-02
        -0.29267E-02
        -0.22211E-02
        -0.22211E-02
        -0.13865E-02
        -0.13865E-02
        -0.47130E-03
        -0.47130E-03
         0.47130E-03
         0.47130E-03
         0.13865E-02
         0.13865E-02
         0.22211E-02
         0.22211E-02
         0.29267E-02
         0.29267E-02
         0.34621E-02
         0.34621E-02
         0.37964E-02
         0.37964E-02
         0.10376E-02
         0.17450E-02
         0.23175E-02
         0.16696E-02
         0.30377E-02
         0.27795E-02
         0.12849E-02
         0.65115E-03
         0.12731E-03
        -0.12841E-03
         0.94467E-03
         0.11323E-02
         0.17487E-02
         0.40583E-03
         0.39777E-03
        -0.76338E-03
        -0.86615E-03
         0.46074E-03
        -0.18303E-02
        -0.18439E-02
        -0.27238E-02
        -0.28025E-02
        -0.25366E-02
        -0.19292E-02
        -0.99349E-03
        -0.14384E-02
        -0.31554E-03
        -0.11064E-02
        -0.18845E-02
        -0.18712E-02
        -0.15899E-03
        -0.94149E-03
         0.78790E-03
         0.17210E-02
         0.32053E-02
         0.28046E-02
         0.23058E-02
        -0.40600E-03
        -0.12092E-02
        -0.19447E-02
        -0.25028E-02
        -0.26370E-02
        -0.27668E-02
        -0.21125E-02
        -0.16088E-02
        -0.11940E-02
        -0.58676E-03
         0.20871E-03
         0.10583E-02
         0.18413E-02
         0.24545E-02
         0.26022E-02
         0.37964E-02
         0.39100E-02
         0.34621E-02
         0.29267E-02
         0.22211E-02
         0.13865E-02
         0.47130E-03
        -0.47130E-03
        -0.13865E-02
        -0.22211E-02
        -0.29267E-02
        -0.34621E-02
        -0.37964E-02
        -0.39100E-02
        -0.37964E-02
        -0.34621E-02
        -0.29267E-02
        -0.22211E-02
        -0.13865E-02
        -0.47130E-03
         0.47130E-03
         0.13865E-02
         0.22211E-02
         0.29267E-02
         0.34621E-02
         0.37964E-02
         0.10375E-02
         0.17448E-02
         0.23174E-02
         0.16694E-02
         0.30377E-02
         0.27798E-02
         0.12848E-02
         0.65090E-03
         0.12705E-03
        -0.12859E-03
         0.94434E-03
         0.11320E-02
         0.17483E-02
         0.40577E-03
         0.39776E-03
        -0.76374E-03
        -0.86626E-03
         0.46029E-03
        -0.18306E-02
        -0.18438E-02
        -0.27238E-02
        -0.28022E-02
        -0.25368E-02
        -0.19296E-02
        -0.99334E-03
        -0.14387E-02
        -0.31534E-03
        -0.11061E-02
        -0.18844E-02
        -0.18710E-02
        -0.15926E-03
        -0.94209E-03
         0.78724E-03
         0.17210E-02
         0.32056E-02
         0.28046E-02
         0.23057E-02
        -0.40586E-03
        -0.12092E-02
        -0.19447E-02
        -0.25028E-02
        -0.26369E-02
        -0.27665E-02
        -0.21126E-02
        -0.16088E-02
        -0.11941E-02
        -0.58711E-03
         0.20830E-03
         0.10580E-02
         0.18414E-02
         0.24546E-02
         0.26023E-02
         0.37964E-02
         0.39100E-02
         0.34621E-02
         0.29267E-02
         0.22211E-02
         0.13865E-02
         0.47130E-03
        -0.47130E-03
        -0.13865E-02
        -0.22211E-02
        -0.29267E-02
        -0.34621E-02
        -0.37964E-02
        -0.39100E-02
        -0.37964E-02
        -0.34621E-02
        -0.29267E-02
        -0.22211E-02
        -0.13865E-02
        -0.47130E-03
         0.47130E-03
         0.13865E-02
         0.22211E-02
         0.29267E-02
         0.34621E-02
         0.37964E-02
         0.10374E-02
         0.17446E-02
         0.23173E-02
         0.16692E-02
         0.30376E-02
         0.27801E-02
         0.12847E-02
         0.65065E-03
         0.12678E-03
        -0.12878E-03
         0.94401E-03
         0.11316E-02
         0.17479E-02
         0.40572E-03
         0.39774E-03
        -0.76409E-03
        -0.86637E-03
         0.45985E-03
        -0.18309E-02
        -0.18437E-02
        -0.27237E-02
        -0.28020E-02
        -0.25369E-02
        -0.19300E-02
        -0.99320E-03
        -0.14391E-02
        -0.31514E-03
        -0.11057E-02
        -0.18844E-02
        -0.18709E-02
        -0.15954E-03
        -0.94269E-03
         0.78658E-03
         0.17209E-02
         0.32060E-02
         0.28046E-02
         0.23056E-02
        -0.40572E-03
        -0.12092E-02
        -0.19446E-02
        -0.25028E-02
        -0.26368E-02
        -0.27662E-02
        -0.21128E-02
        -0.16088E-02
        -0.11942E-02
        -0.58746E-03
         0.20790E-03
         0.10577E-02
         0.18414E-02
         0.24548E-02
         0.26024E-02
         0.37964E-02
         0.39100E-02
         0.34621E-02
         0.29267E-02
         0.22211E-02
         0.13865E-02
         0.47130E-03
        -0.47130E-03
        -0.13865E-02
        -0.22211E-02
        -0.29267E-02
        -0.34621E-02
        -0.37964E-02
        -0.39100E-02
        -0.37964E-02
        -0.34621E-02
        -0.29267E-02
        -0.22211E-02
        -0.13865E-02
        -0.47130E-03
         0.47130E-03
         0.13865E-02
         0.22211E-02
         0.29267E-02
         0.34621E-02
         0.37964E-02
         0.10373E-02
         0.17445E-02
         0.23172E-02
         0.16689E-02
         0.30376E-02
         0.27805E-02
         0.12846E-02
         0.65041E-03
         0.12652E-03
        -0.12896E-03
         0.94367E-03
         0.11313E-02
         0.17475E-02
         0.40566E-03
         0.39772E-03
        -0.76444E-03
        -0.86648E-03
         0.45940E-03
        -0.18312E-02
        -0.18436E-02
        -0.27237E-02
        -0.28017E-02
        -0.25371E-02
        -0.19305E-02
        -0.99305E-03
        -0.14394E-02
        -0.31494E-03
        -0.11054E-02
        -0.18843E-02
        -0.18708E-02
        -0.15981E-03
        -0.94328E-03
         0.78592E-03
         0.17209E-02
         0.32063E-02
         0.28045E-02
         0.23055E-02
        -0.40558E-03
        -0.12092E-02
        -0.19446E-02
        -0.25027E-02
        -0.26367E-02
        -0.27658E-02
        -0.21129E-02
        -0.16089E-02
        -0.11943E-02
        -0.58781E-03
         0.20749E-03
         0.10574E-02
         0.18415E-02
         0.24549E-02
         0.26025E-02
         0.37964E-02
         0.39100E-02
         0.34621E-02
         0.29267E-02
         0.22211E-02
         0.13865E-02
         0.47130E-03
        -0.47130E-03
        -0.13865E-02
        -0.22211E-02
        -0.29267E-02
        -0.34621E-02
        -0.37964E-02
        -0.39100E-02
        -0.37964E-02
        -0.34621E-02
        -0.29267E-02
        -0.22211E-02
        -0.13865E-02
        -0.47130E-03
         0.47130E-03
         0.13865E-02
         0.22211E-02
         0.29267E-02
         0.34621E-02
         0.37964E-02
         0.10372E-02
         0.17443E-02
         0.23171E-02
         0.16687E-02
         0.30376E-02
         0.27808E-02
         0.12845E-02
         0.65016E-03
         0.12626E-03
        -0.12915E-03
         0.94334E-03
         0.11310E-02
         0.17471E-02
         0.40561E-03
         0.39770E-03
        -0.76480E-03
        -0.86659E-03
         0.45895E-03
        -0.18315E-02
        -0.18435E-02
        -0.27237E-02
        -0.28014E-02
        -0.25372E-02
        -0.19309E-02
        -0.99291E-03
        -0.14398E-02
        -0.31474E-03
        -0.11051E-02
        -0.18843E-02
        -0.18706E-02
        -0.16009E-03
        -0.94388E-03
         0.78526E-03
         0.17208E-02
         0.32066E-02
         0.28045E-02
         0.23053E-02
        -0.40545E-03
        -0.12092E-02
        -0.19446E-02
        -0.25027E-02
        -0.26366E-02
        -0.27655E-02
        -0.21130E-02
        -0.16089E-02
        -0.11944E-02
        -0.58816E-03
         0.20709E-03
         0.10571E-02
         0.18415E-02
         0.24550E-02
         0.26025E-02
         0.37964E-02
         0.39100E-02
         0.34621E-02
         0.29267E-02
         0.22211E-02
         0.13865E-02
         0.47130E-03
        -0.47130E-03
        -0.13865E-02
        -0.22211E-02
        -0.29267E-02
        -0.34621E-02
        -0.37964E-02
        -0.39100E-02
        -0.37964E-02
        -0.34621E-02
        -0.29267E-02
        -0.22211E-02
        -0.13865E-02
        -0.47130E-03
         0.47130E-03
         0.13865E-02
         0.22211E-02
         0.29267E-02
         0.34621E-02
         0.37964E-02
         0.10371E-02
         0.17441E-02
         0.23169E-02
         0.16685E-02
         0.30376E-02
         0.27812E-02
         0.12844E-02
         0.64992E-03
         0.12600E-03
        -0.12933E-03
         0.94301E-03
         0.11306E-02
         0.17467E-02
         0.40556E-03
         0.39769E-03
        -0.76515E-03
        -0.86670E-03
         0.45850E-03
        -0.18318E-02
        -0.18434E-02
        -0.27236E-02
        -0.28011E-02
        -0.25374E-02
        -0.19313E-02
        -0.99277E-03
        -0.14401E-02
        -0.31454E-03
        -0.11047E-02
        -0.18842E-02
        -0.18705E-02
        -0.16036E-03
        -0.94448E-03
         0.78460E-03
         0.17208E-02
         0.32070E-02
         0.28045E-02
         0.23052E-02
        -0.40531E-03
        -0.12092E-02
        -0.19445E-02
        -0.25027E-02
        -0.26366E-02
        -0.27652E-02
        -0.21132E-02
        -0.16090E-02
        -0.11946E-02
        -0.58851E-03
         0.20668E-03
         0.10567E-02
         0.18416E-02
         0.24551E-02
         0.26026E-02
         0.37964E-02
         0.39100E-02
         0.34621E-02
         0.29267E-02
         0.22211E-02
         0.13865E-02
         0.47130E-03
        -0.47130E-03
        -0.13865E-02
        -0.22211E-02
        -0.29267E-02
        -0.34621E-02
        -0.37964E-02
        -0.39100E-02
        -0.37964E-02
        -0.34621E-02
        -0.29267E-02
        -0.22211E-02
        -0.13865E-02
        -0.47130E-03
         0.47130E-03
         0.13865E-02
         0.22211E-02
         0.29267E-02
         0.34621E-02
         0.37964E-02
         0.10370E-02
         0.17439E-02
         0.23168E-02
         0.16683E-02
         0.30375E-02
         0.27815E-02
         0.12843E-02
         0.64967E-03
         0.12573E-03
        -0.12952E-03
         0.94268E-03
         0.11303E-02
         0.17463E-02
         0.40550E-03
         0.39767E-03
        -0.76551E-03
        -0.86680E-03
         0.45806E-03
        -0.18321E-02
        -0.18433E-02
        -0.27236E-02
        -0.28009E-02
        -0.25375E-02
        -0.19317E-02
        -0.99262E-03
        -0.14405E-02
        -0.31434E-03
        -0.11044E-02
        -0.18842E-02
        -0.18704E-02
        -0.16064E-03
        -0.94508E-03
         0.78394E-03
         0.17208E-02
         0.32073E-02
         0.28045E-02
         0.23051E-02
        -0.40517E-03
        -0.12092E-02
        -0.19445E-02
        -0.25026E-02
        -0.26365E-02
        -0.27649E-02
        -0.21133E-02
        -0.16090E-02
        -0.11947E-02
        -0.58886E-03
         0.20627E-03
         0.10564E-02
         0.18416E-02
         0.24553E-02
         0.26027E-02
         0.37964E-02
         0.39100E-02
         0.34621E-02
         0.29267E-02
         0.22211E-02
         0.13865E-02
         0.47130E-03
        -0.47130E-03
        -0.13865E-02
        -0.22211E-02
        -0.29267E-02
        -0.34621E-02
        -0.37964E-02
        -0.39100E-02
        -0.37964E-02
        -0.34621E-02
        -0.29267E-02
        -0.22211E-02
        -0.13865E-02
        -0.47130E-03
         0.47130E-03
         0.13865E-02
         0.22211E-02
         0.29267E-02
         0.34621E-02
         0.37964E-02
         0.10368E-02
         0.17438E-02
         0.23167E-02
         0.16681E-02
         0.30375E-02
         0.27819E-02
         0.12842E-02
         0.64943E-03
         0.12547E-03
        -0.12970E-03
         0.94235E-03
         0.11300E-02
         0.17459E-02
         0.40545E-03
         0.39766E-03
        -0.76586E-03
        -0.86691E-03
         0.45761E-03
        -0.18324E-02
        -0.18432E-02
        -0.27236E-02
        -0.28006E-02
        -0.25377E-02
        -0.19322E-02
        -0.99248E-03
        -0.14408E-02
        -0.31414E-03
        -0.11040E-02
        -0.18841E-02
        -0.18703E-02
        -0.16091E-03
        -0.94568E-03
         0.78328E-03
         0.17207E-02
         0.32076E-02
         0.28044E-02
         0.23050E-02
        -0.40503E-03
        -0.12092E-02
        -0.19445E-02
        -0.25026E-02
        -0.26364E-02
        -0.27646E-02
        -0.21134E-02
        -0.16091E-02
        -0.11948E-02
        -0.58921E-03
         0.20587E-03
         0.10561E-02
         0.18416E-02
         0.24554E-02
         0.26027E-02
         0.37964E-02
         0.39100E-02
         0.34621E-02
         0.29267E-02
         0.22211E-02
         0.13865E-02
         0.47130E-03
        -0.47130E-03
        -0.13865E-02
        -0.22211E-02
        -0.29267E-02
        -0.34621E-02
        -0.37964E-02
        -0.39100E-02
        -0.37964E-02
        -0.34621E-02
        -0.29267E-02
        -0.22211E-02
        -0.13865E-02
        -0.47130E-03
         0.47130E-03
         0.13865E-02
         0.22211E-02
         0.29267E-02
         0.34621E-02
         0.37964E-02
         0.10367E-02
         0.17436E-02
         0.23166E-02
         0.16679E-02
         0.30375E-02
         0.27822E-02
         0.12841E-02
         0.64918E-03
         0.12521E-03
        -0.12989E-03
         0.94202E-03
         0.11296E-02
         0.17455E-02
         0.40539E-03
         0.39764E-03
        -0.76621E-03
        -0.86702E-03
         0.45716E-03
        -0.18326E-02
        -0.18431E-02
        -0.27235E-02
        -0.28003E-02
        -0.25379E-02
        -0.19326E-02
        -0.99233E-03
        -0.14412E-02
        -0.31394E-03
        -0.11037E-02
        -0.18841E-02
        -0.18701E-02
        -0.16119E-03
        -0.94628E-03
         0.78262E-03
         0.17207E-02
         0.32079E-02
         0.28044E-02
         0.23049E-02
        -0.40490E-03
        -0.12093E-02
        -0.19444E-02
        -0.25026E-02
        -0.26363E-02
        -0.27643E-02
        -0.21136E-02
        -0.16091E-02
        -0.11949E-02
        -0.58956E-03
         0.20546E-03
         0.10558E-02
         0.18417E-02
         0.24555E-02
         0.26028E-02
         0.37964E-02
         0.39100E-02
         0.34621E-02
         0.29267E-02
         0.22211E-02
         0.13865E-02
         0.47130E-03
        -0.47130E-03
        -0.13865E-02
        -0.22211E-02
        -0.29267E-02
        -0.34621E-02
        -0.37964E-02
        -0.39100E-02
        -0.37964E-02
        -0.34621E-02
        -0.29267E-02
        -0.22211E-02
        -0.13865E-02
        -0.47130E-03
         0.47130E-03
         0.13865E-02
         0.22211E-02
         0.29267E-02
         0.34621E-02
         0.37964E-02
         0.10366E-02
         0.17434E-02
         0.23164E-02
         0.16677E-02
         0.30375E-02
         0.27825E-02
         0.12840E-02
         0.64894E-03
         0.12495E-03
        -0.13007E-03
         0.94169E-03
         0.11293E-02
         0.17451E-02
         0.40534E-03
         0.39762E-03
        -0.76657E-03
        -0.86713E-03
         0.45671E-03
        -0.18329E-02
        -0.18430E-02
        -0.27235E-02
        -0.28001E-02
        -0.25380E-02
        -0.19330E-02
        -0.99219E-03
        -0.14415E-02
        -0.31374E-03
        -0.11033E-02
        -0.18840E-02
        -0.18700E-02
        -0.16146E-03
        -0.94687E-03
         0.78195E-03
         0.17207E-02
         0.32083E-02
         0.28044E-02
         0.23048E-02
        -0.40476E-03
        -0.12093E-02
        -0.19444E-02
        -0.25026E-02
        -0.26362E-02
        -0.27640E-02
        -0.21137E-02
        -0.16091E-02
        -0.11950E-02
        -0.58991E-03
         0.20505E-03
         0.10555E-02
         0.18417E-02
         0.24556E-02
         0.26029E-02
         0.37964E-02
         0.39100E-02
         0.34621E-02
         0.29267E-02
         0.22211E-02
         0.13865E-02
         0.47130E-03
        -0.47130E-03
        -0.13865E-02
        -0.22211E-02
        -0.29267E-02
        -0.34621E-02
        -0.37964E-02
        -0.39100E-02
        -0.37964E-02
        -0.34621E-02
        -0.29267E-02
        -0.22211E-02
        -0.13865E-02
        -0.47130E-03
         0.47130E-03
         0.13865E-02
         0.22211E-02
         0.29267E-02
         0.34621E-02
         0.37964E-02
         0.10365E-02
         0.17432E-02
         0.23163E-02
         0.16675E-02
         0.30374E-02
         0.27829E-02
         0.12839E-02
         0.64869E-03
         0.12468E-03
        -0.13026E-03
         0.94135E-03
         0.11289E-02
         0.17447E-02
         0.40528E-03
         0.39760E-03
        -0.76692E-03
        -0.86724E-03
         0.45626E-03
        -0.18332E-02
        -0.18430E-02
        -0.27235E-02
        -0.27998E-02
        -0.25382E-02
        -0.19334E-02
        -0.99205E-03
        -0.14419E-02
        -0.31354E-03
        -0.11030E-02
        -0.18840E-02
        -0.18699E-02
        -0.16174E-03
        -0.94747E-03
         0.78129E-03
         0.17206E-02
         0.32086E-02
         0.28044E-02
         0.23047E-02
        -0.40462E-03
        -0.12093E-02
        -0.19444E-02
        -0.25025E-02
        -0.26361E-02
        -0.27637E-02
        -0.21139E-02
        -0.16092E-02
        -0.11951E-02
        -0.59025E-03
         0.20465E-03
         0.10552E-02
         0.18418E-02
         0.24558E-02
         0.26030E-02
         0.37964E-02
         0.39100E-02
         0.34621E-02
         0.29267E-02
         0.22211E-02
         0.13865E-02
         0.47130E-03
        -0.47130E-03
        -0.13865E-02
        -0.22211E-02
        -0.29267E-02
        -0.34621E-02
        -0.37964E-02
        -0.39100E-02
        -0.37964E-02
        -0.34621E-02
        -0.29267E-02
        -0.22211E-02
        -0.13865E-02
        -0.47130E-03
         0.47130E-03
         0.13865E-02
         0.22211E-02
         0.29267E-02
         0.34621E-02
         0.37964E-02
         0.10364E-02
         0.17430E-02
         0.23162E-02
         0.16672E-02
         0.30374E-02
         0.27832E-02
         0.12838E-02
         0.64845E-03
         0.12442E-03
        -0.13044E-03
         0.94102E-03
         0.11286E-02
         0.17443E-02
         0.40523E-03
         0.39759E-03
        -0.76727E-03
        -0.86735E-03
         0.45582E-03
        -0.18335E-02
        -0.18429E-02
        -0.27235E-02
        -0.27995E-02
        -0.25383E-02
        -0.19339E-02
        -0.99190E-03
        -0.14422E-02
        -0.31334E-03
        -0.11026E-02
        -0.18839E-02
        -0.18697E-02
        -0.16201E-03
        -0.94807E-03
         0.78063E-03
         0.17206E-02
         0.32089E-02
         0.28043E-02
         0.23046E-02
        -0.40448E-03
        -0.12093E-02
        -0.19443E-02
        -0.25025E-02
        -0.26360E-02
        -0.27633E-02
        -0.21140E-02
        -0.16092E-02
        -0.11953E-02
        -0.59060E-03
         0.20424E-03
         0.10549E-02
         0.18418E-02
         0.24559E-02
         0.26030E-02
         0.37964E-02
         0.39100E-02
         0.34621E-02
         0.29267E-02
         0.22211E-02
         0.13865E-02
         0.47130E-03
        -0.47130E-03
        -0.13865E-02
        -0.22211E-02
        -0.29267E-02
        -0.34621E-02
        -0.37964E-02
        -0.39100E-02
        -0.37964E-02
        -0.34621E-02
        -0.29267E-02
        -0.22211E-02
        -0.13865E-02
        -0.47130E-03
         0.47130E-03
         0.13865E-02
         0.22211E-02
         0.29267E-02
         0.34621E-02
         0.37964E-02
         0.10363E-02
         0.17429E-02
         0.23161E-02
         0.16670E-02
         0.30374E-02
         0.27836E-02
         0.12837E-02
         0.64820E-03
         0.12416E-03
        -0.13063E-03
         0.94069E-03
         0.11282E-02
         0.17439E-02
         0.40518E-03
         0.39757E-03
        -0.76763E-03
        -0.86746E-03
         0.45537E-03
        -0.18338E-02
        -0.18428E-02
        -0.27234E-02
        -0.27992E-02
        -0.25385E-02
        -0.19343E-02
        -0.99176E-03
        -0.14425E-02
        -0.31314E-03
        -0.11023E-02
        -0.18839E-02
        -0.18696E-02
        -0.16229E-03
        -0.94867E-03
         0.77997E-03
         0.17205E-02
         0.32092E-02
         0.28043E-02
         0.23044E-02
        -0.40434E-03
        -0.12093E-02
        -0.19443E-02
        -0.25025E-02
        -0.26359E-02
        -0.27630E-02
        -0.21141E-02
        -0.16093E-02
        -0.11954E-02
        -0.59095E-03
         0.20384E-03
         0.10546E-02
         0.18419E-02
         0.24560E-02
         0.26031E-02
         0.37964E-02
         0.39100E-02
         0.34621E-02
         0.29267E-02
         0.22211E-02
         0.13865E-02
         0.47130E-03
        -0.47130E-03
        -0.13865E-02
        -0.22211E-02
        -0.29267E-02
        -0.34621E-02
        -0.37964E-02
        -0.39100E-02
        -0.37964E-02
        -0.34621E-02
        -0.29267E-02
        -0.22211E-02
        -0.13865E-02
        -0.47130E-03
         0.47130E-03
         0.13865E-02
         0.22211E-02
         0.29267E-02
         0.34621E-02
         0.37964E-02
         0.10362E-02
         0.17427E-02
         0.23160E-02
         0.16668E-02
         0.30373E-02
         0.27839E-02
         0.12836E-02
         0.64796E-03
         0.12390E-03
        -0.13082E-03
         0.94036E-03
         0.11279E-02
         0.17435E-02
         0.40512E-03
         0.39755E-03
        -0.76798E-03
        -0.86756E-03
         0.45492E-03
        -0.18341E-02
        -0.18427E-02
        -0.27234E-02
        -0.27990E-02
        -0.25386E-02
        -0.19347E-02
        -0.99161E-03
        -0.14429E-02
        -0.31294E-03
        -0.11019E-02
        -0.18838E-02
        -0.18695E-02
        -0.16256E-03
        -0.94927E-03
         0.77931E-03
         0.17205E-02
         0.32096E-02
         0.28043E-02
         0.23043E-02
        -0.40420E-03
        -0.12093E-02
        -0.19443E-02
        -0.25024E-02
        -0.26358E-02
        -0.27627E-02
        -0.21143E-02
        -0.16093E-02
        -0.11955E-02
        -0.59130E-03
         0.20343E-03
         0.10543E-02
         0.18419E-02
         0.24561E-02
         0.26032E-02
         0.37964E-02
         0.39100E-02
         0.34621E-02
         0.29267E-02
         0.22211E-02
         0.13865E-02
         0.47130E-03
        -0.47130E-03
        -0.13865E-02
        -0.22211E-02
        -0.29267E-02
        -0.34621E-02
        -0.37964E-02
        -0.39100E-02
        -0.37964E-02
        -0.34621E-02
        -0.29267E-02
        -0.22211E-02
        -0.13865E-02
        -0.47130E-03
         0.47130E-03
         0.13865E-02
         0.22211E-02
         0.29267E-02
         0.34621E-02
         0.37964E-02
         0.10360E-02
         0.17425E-02
         0.23158E-02
         0.16666E-02
         0.30373E-02
         0.27842E-02
         0.12835E-02
         0.64771E-03
         0.12363E-03
        -0.13100E-03
         0.94003E-03
         0.11276E-02
         0.17432E-02
         0.40507E-03
         0.39754E-03
        -0.76834E-03
        -0.86767E-03
         0.45447E-03
        -0.18344E-02
        -0.18426E-02
        -0.27234E-02
        -0.27987E-02
        -0.25388E-02
        -0.19352E-02
        -0.99147E-03
        -0.14433E-02
        -0.31274E-03
        -0.11016E-02
        -0.18838E-02
        -0.18694E-02
        -0.16284E-03
        -0.94986E-03
         0.77865E-03
         0.17205E-02
         0.32099E-02
         0.28042E-02
         0.23042E-02
        -0.40407E-03
        -0.12093E-02
        -0.19442E-02
        -0.25024E-02
        -0.26358E-02
        -0.27624E-02
        -0.21144E-02
        -0.16094E-02
        -0.11956E-02
        -0.59165E-03
         0.20302E-03
         0.10540E-02
         0.18419E-02
         0.24563E-02
         0.26033E-02
         0.37964E-02
         0.39100E-02
         0.34621E-02
         0.29267E-02
         0.22211E-02
         0.13865E-02
         0.47130E-03
        -0.47130E-03
        -0.13865E-02
        -0.22211E-02
        -0.29267E-02
        -0.34621E-02
        -0.37964E-02
        -0.39100E-02
        -0.37964E-02
        -0.34621E-02
        -0.29267E-02
        -0.22211E-02
        -0.13865E-02
        -0.47130E-03
         0.47130E-03
         0.13865E-02
         0.22211E-02
         0.29267E-02
         0.34621E-02
         0.37964E-02
         0.10359E-02
         0.17423E-02
         0.23157E-02
         0.16664E-02
         0.30373E-02
         0.27846E-02
         0.12834E-02
         0.64747E-03
         0.12337E-03
        -0.13118E-03
         0.93970E-03
         0.11272E-02
         0.17428E-02
         0.40501E-03
         0.39752E-03
        -0.76869E-03
        -0.86778E-03
         0.45402E-03
        -0.18347E-02
        -0.18425E-02
        -0.27234E-02
        -0.27984E-02
        -0.25389E-02
        -0.19356E-02
        -0.99133E-03
        -0.14436E-02
        -0.31254E-03
        -0.11013E-02
        -0.18837E-02
        -0.18692E-02
        -0.16311E-03
        -0.95046E-03
         0.77799E-03
         0.17204E-02
         0.32102E-02
         0.28042E-02
         0.23041E-02
        -0.40393E-03
        -0.12093E-02
        -0.19442E-02
        -0.25024E-02
        -0.26357E-02
        -0.27621E-02
        -0.21146E-02
        -0.16094E-02
        -0.11957E-02
        -0.59200E-03
         0.20262E-03
         0.10536E-02
         0.18420E-02
         0.24564E-02
         0.26033E-02
         0.37964E-02
         0.39100E-02
         0.34621E-02
         0.29267E-02
         0.22211E-02
         0.13865E-02
         0.47130E-03
        -0.47130E-03
        -0.13865E-02
        -0.22211E-02
        -0.29267E-02
        -0.34621E-02
        -0.37964E-02
        -0.39100E-02
        -0.37964E-02
        -0.34621E-02
        -0.29267E-02
        -0.22211E-02
        -0.13865E-02
        -0.47130E-03
         0.47130E-03
         0.13865E-02
         0.22211E-02
         0.29267E-02
         0.34621E-02
         0.37964E-02
         0.10358E-02
         0.17422E-02
         0.23156E-02
         0.16662E-02
         0.30373E-02
         0.27849E-02
         0.12833E-02
         0.64722E-03
         0.12311E-03
        -0.13137E-03
         0.93937E-03
         0.11269E-02
         0.17424E-02
         0.40496E-03
         0.39750E-03
        -0.76904E-03
        -0.86789E-03
         0.45358E-03
        -0.18350E-02
        -0.18424E-02
        -0.27233E-02
        -0.27981E-02
        -0.25391E-02
        -0.19360E-02
        -0.99118E-03
        -0.14440E-02
        -0.31234E-03
        -0.11009E-02
        -0.18836E-02
        -0.18691E-02
        -0.16339E-03
        -0.95106E-03
         0.77733E-03
         0.17204E-02
         0.32105E-02
         0.28042E-02
         0.23040E-02
        -0.40379E-03
        -0.12093E-02
        -0.19441E-02
        -0.25023E-02
        -0.26356E-02
        -0.27618E-02
        -0.21147E-02
        -0.16094E-02
        -0.11958E-02
        -0.59235E-03
         0.20221E-03
         0.10533E-02
         0.18420E-02
         0.24565E-02
         0.26034E-02
         0.37964E-02
         0.39100E-02
         0.34621E-02
         0.29267E-02
         0.22211E-02
         0.13865E-02
         0.47130E-03
        -0.47130E-03
        -0.13865E-02
        -0.22211E-02
        -0.29267E-02
        -0.34621E-02
        -0.37964E-02
        -0.39100E-02
        -0.37964E-02
        -0.34621E-02
        -0.29267E-02
        -0.22211E-02
        -0.13865E-02
        -0.47130E-03
         0.47130E-03
         0.13865E-02
         0.22211E-02
         0.29267E-02
         0.34621E-02
         0.37964E-02
         0.10357E-02
         0.17420E-02
         0.23155E-02
         0.16660E-02
         0.30372E-02
         0.27853E-02
         0.12832E-02
         0.64698E-03
         0.12285E-03
        -0.13155E-03
         0.93903E-03
         0.11266E-02
         0.17420E-02
         0.40490E-03
         0.39749E-03
        -0.76940E-03
        -0.86800E-03
         0.45313E-03
        -0.18353E-02
        -0.18423E-02
        -0.27233E-02
        -0.27979E-02
        -0.25393E-02
        -0.19365E-02
        -0.99104E-03
        -0.14443E-02
        -0.31214E-03
        -0.11006E-02
        -0.18836E-02
        -0.18690E-02
        -0.16366E-03
        -0.95166E-03
         0.77667E-03
         0.17203E-02
         0.32109E-02
         0.28042E-02
         0.23039E-02
        -0.40365E-03
        -0.12093E-02
        -0.19441E-02
        -0.25023E-02
        -0.26355E-02
        -0.27615E-02
        -0.21148E-02
        -0.16095E-02
        -0.11960E-02
        -0.59270E-03
         0.20180E-03
         0.10530E-02
         0.18421E-02
         0.24566E-02
         0.26035E-02
         0.37964E-02
         0.39100E-02
         0.34621E-02
         0.29267E-02
         0.22211E-02
         0.13865E-02
         0.47130E-03
        -0.47130E-03
        -0.13865E-02
        -0.22211E-02
        -0.29267E-02
        -0.34621E-02
        -0.37964E-02
        -0.39100E-02
        -0.37964E-02
        -0.34621E-02
        -0.29267E-02
        -0.22211E-02
        -0.13865E-02
        -0.47130E-03
         0.47130E-03
         0.13865E-02
         0.22211E-02
         0.29267E-02
         0.34621E-02
         0.37964E-02
         0.10356E-02
         0.17418E-02
         0.23153E-02
         0.16657E-02
         0.30372E-02
         0.27856E-02
         0.12830E-02
         0.64673E-03
         0.12259E-03
        -0.13174E-03
         0.93870E-03
         0.11262E-02
         0.17416E-02
         0.40485E-03
         0.39747E-03
        -0.76975E-03
        -0.86811E-03
         0.45268E-03
        -0.18356E-02
        -0.18422E-02
        -0.27233E-02
        -0.27976E-02
        -0.25394E-02
        -0.19369E-02
        -0.99090E-03
        -0.14446E-02
        -0.31194E-03
        -0.11002E-02
        -0.18835E-02
        -0.18689E-02
        -0.16394E-03
        -0.95226E-03
         0.77601E-03
         0.17203E-02
         0.32112E-02
         0.28042E-02
         0.23038E-02
        -0.40352E-03
        -0.12093E-02
        -0.19441E-02
        -0.25023E-02
        -0.26354E-02
        -0.27612E-02
        -0.21150E-02
        -0.16095E-02
        -0.11961E-02
        -0.59305E-03
         0.20140E-03
         0.10527E-02
         0.18421E-02
         0.24568E-02
         0.26036E-02
         0.37964E-02
         0.39100E-02
         0.34621E-02
         0.29267E-02
         0.22211E-02
         0.13865E-02
         0.47130E-03
        -0.47130E-03
        -0.13865E-02
        -0.22211E-02
        -0.29267E-02
        -0.34621E-02
        -0.37964E-02
        -0.39100E-02
        -0.37964E-02
        -0.34621E-02
        -0.29267E-02
        -0.22211E-02
        -0.13865E-02
        -0.47130E-03
         0.47130E-03
         0.13865E-02
         0.22211E-02
         0.29267E-02
         0.34621E-02
         0.37964E-02
         0.10355E-02
         0.17416E-02
         0.23152E-02
         0.16655E-02
         0.30372E-02
         0.27860E-02
         0.12829E-02
         0.64649E-03
         0.12232E-03
        -0.13193E-03
         0.93837E-03
         0.11259E-02
         0.17412E-02
         0.40480E-03
         0.39745E-03
        -0.77011E-03
        -0.86822E-03
         0.45223E-03
        -0.18359E-02
        -0.18421E-02
        -0.27232E-02
        -0.27973E-02
        -0.25396E-02
        -0.19373E-02
        -0.99075E-03
        -0.14450E-02
        -0.31173E-03
        -0.10999E-02
        -0.18835E-02
        -0.18687E-02
        -0.16421E-03
        -0.95285E-03
         0.77535E-03
         0.17202E-02
         0.32115E-02
         0.28041E-02
         0.23037E-02
        -0.40338E-03
        -0.12093E-02
        -0.19440E-02
        -0.25023E-02
        -0.26353E-02
        -0.27609E-02
        -0.21151E-02
        -0.16096E-02
        -0.11962E-02
        -0.59340E-03
         0.20099E-03
         0.10524E-02
         0.18422E-02
         0.24569E-02
         0.26036E-02
         0.37964E-02
         0.39100E-02
         0.34621E-02
         0.29267E-02
         0.22211E-02
         0.13865E-02
         0.47130E-03
        -0.47130E-03
        -0.13865E-02
        -0.22211E-02
        -0.29267E-02
        -0.34621E-02
        -0.37964E-02
        -0.39100E-02
        -0.37964E-02
        -0.34621E-02
        -0.29267E-02
        -0.22211E-02
        -0.13865E-02
        -0.47130E-03
         0.47130E-03
         0.13865E-02
         0.22211E-02
         0.29267E-02
         0.34621E-02
         0.37964E-02
         0.10354E-02
         0.17414E-02
         0.23151E-02
         0.16653E-02
         0.30372E-02
         0.27863E-02
         0.12829E-02
         0.64624E-03
         0.12206E-03
        -0.13211E-03
         0.93804E-03
         0.11255E-02
         0.17408E-02
         0.40474E-03
         0.39744E-03
        -0.77046E-03
        -0.86832E-03
         0.45179E-03
        -0.18362E-02
        -0.18420E-02
        -0.27232E-02
        -0.27970E-02
        -0.25397E-02
        -0.19377E-02
        -0.99061E-03
        -0.14453E-02
        -0.31153E-03
        -0.10995E-02
        -0.18834E-02
        -0.18686E-02
        -0.16449E-03
        -0.95345E-03
         0.77469E-03
         0.17202E-02
         0.32119E-02
         0.28041E-02
         0.23036E-02
        -0.40324E-03
        -0.12093E-02
        -0.19440E-02
        -0.25022E-02
        -0.26352E-02
        -0.27606E-02
        -0.21152E-02
        -0.16096E-02
        -0.11963E-02
        -0.59375E-03
         0.20059E-03
         0.10521E-02
         0.18422E-02
         0.24570E-02
         0.26037E-02
         0.37964E-02
         0.39100E-02
         0.34621E-02
         0.29267E-02
         0.22211E-02
         0.13865E-02
         0.47130E-03
        -0.47130E-03
        -0.13865E-02
        -0.22211E-02
        -0.29267E-02
        -0.34621E-02
        -0.37964E-02
        -0.39100E-02
        -0.37964E-02
        -0.34621E-02
        -0.29267E-02
        -0.22211E-02
        -0.13865E-02
        -0.47130E-03
         0.47130E-03
         0.13865E-02
         0.22211E-02
         0.29267E-02
         0.34621E-02
         0.37964E-02
         0.10352E-02
         0.17413E-02
         0.23150E-02
         0.16651E-02
         0.30371E-02
         0.27866E-02
         0.12827E-02
         0.64600E-03
         0.12180E-03
        -0.13230E-03
         0.93771E-03
         0.11252E-02
         0.17404E-02
         0.40469E-03
         0.39742E-03
        -0.77081E-03
        -0.86843E-03
         0.45134E-03
        -0.18365E-02
        -0.18419E-02
        -0.27232E-02
        -0.27968E-02
        -0.25399E-02
        -0.19382E-02
        -0.99046E-03
        -0.14457E-02
        -0.31133E-03
        -0.10992E-02
        -0.18834E-02
        -0.18685E-02
        -0.16476E-03
        -0.95405E-03
         0.77402E-03
         0.17202E-02
         0.32122E-02
         0.28041E-02
         0.23034E-02
        -0.40310E-03
        -0.12093E-02
        -0.19440E-02
        -0.25022E-02
        -0.26351E-02
        -0.27602E-02
        -0.21154E-02
        -0.16097E-02
        -0.11964E-02
        -0.59409E-03
         0.20018E-03
         0.10518E-02
         0.18422E-02
         0.24571E-02
         0.26038E-02
         0.37964E-02
         0.39100E-02
         0.34621E-02
         0.29267E-02
         0.22211E-02
         0.13865E-02
         0.47130E-03
        -0.47130E-03
        -0.13865E-02
        -0.22211E-02
        -0.29267E-02
        -0.34621E-02
        -0.37964E-02
        -0.39100E-02
        -0.37964E-02
        -0.34621E-02
        -0.29267E-02
        -0.22211E-02
        -0.13865E-02
        -0.47130E-03
         0.47130E-03
         0.13865E-02
         0.22211E-02
         0.29267E-02
         0.34621E-02
         0.37964E-02
         0.10351E-02
         0.17411E-02
         0.23149E-02
         0.16649E-02
         0.30371E-02
         0.27870E-02
         0.12826E-02
         0.64575E-03
         0.12154E-03
        -0.13248E-03
         0.93738E-03
         0.11249E-02
         0.17400E-02
         0.40463E-03
         0.39740E-03
        -0.77117E-03
        -0.86854E-03
         0.45089E-03
        -0.18368E-02
        -0.18418E-02
        -0.27232E-02
        -0.27965E-02
        -0.25400E-02
        -0.19386E-02
        -0.99032E-03
        -0.14460E-02
        -0.31113E-03
        -0.10988E-02
        -0.18833E-02
        -0.18683E-02
        -0.16504E-03
        -0.95465E-03
         0.77336E-03
         0.17201E-02
         0.32125E-02
         0.28041E-02
         0.23033E-02
        -0.40296E-03
        -0.12093E-02
        -0.19439E-02
        -0.25022E-02
        -0.26350E-02
        -0.27599E-02
        -0.21155E-02
        -0.16097E-02
        -0.11965E-02
        -0.59444E-03
         0.19977E-03
         0.10515E-02
         0.18423E-02
         0.24573E-02
         0.26039E-02
         0.37964E-02
         0.39100E-02
         0.34621E-02
         0.29267E-02
         0.22211E-02
         0.13865E-02
         0.47130E-03
        -0.47130E-03
        -0.13865E-02
        -0.22211E-02
        -0.29267E-02
        -0.34621E-02
        -0.37964E-02
        -0.39100E-02
        -0.37964E-02
        -0.34621E-02
        -0.29267E-02
        -0.22211E-02
        -0.13865E-02
        -0.47130E-03
         0.47130E-03
         0.13865E-02
         0.22211E-02
         0.29267E-02
         0.34621E-02
         0.37964E-02
  
SCALARS           initial_coordinate_y  double 1
LOOKUP_TABLE default
         0.67292E-03
         0.12308E-02
         0.59151E-03
        -0.33775E-03
         0.67237E-03
         0.12301E-02
         0.59098E-03
        -0.33851E-03
         0.14882E-03
        -0.67643E-03
         0.14846E-03
        -0.67692E-03
         0.18412E-02
         0.14576E-02
         0.18410E-02
         0.14566E-02
         0.29933E-03
         0.11672E-02
         0.29819E-03
         0.11655E-02
         0.22748E-02
         0.28286E-02
         0.24238E-02
         0.22746E-02
         0.28291E-02
         0.24236E-02
         0.21685E-02
         0.29366E-02
         0.21684E-02
         0.29369E-02
        -0.10033E-02
         0.78969E-04
        -0.70318E-03
        -0.10032E-02
         0.78160E-04
        -0.70391E-03
        -0.71196E-03
         0.82749E-04
        -0.71210E-03
         0.82626E-04
        -0.77865E-03
         0.40713E-04
        -0.77882E-03
         0.40439E-04
        -0.15195E-02
        -0.13230E-02
        -0.15195E-02
        -0.13231E-02
         0.98847E-03
         0.98712E-03
        -0.17325E-02
        -0.17325E-02
         0.20220E-02
         0.20217E-02
         0.18615E-02
         0.18616E-02
         0.17175E-02
         0.90940E-03
         0.17175E-02
         0.90916E-03
        -0.19800E-02
        -0.23489E-02
        -0.19800E-02
        -0.23489E-02
        -0.17074E-02
        -0.17074E-02
        -0.14894E-02
        -0.14892E-02
         0.76036E-03
         0.12477E-02
         0.75936E-03
         0.12473E-02
         0.18665E-02
         0.18664E-02
         0.29038E-02
         0.29049E-02
         0.27207E-02
         0.27212E-02
         0.24642E-02
         0.24645E-02
         0.22359E-02
         0.16503E-02
         0.22359E-02
         0.16503E-02
         0.87493E-03
         0.87466E-03
        -0.21373E-02
        -0.21373E-02
        -0.26931E-02
        -0.26931E-02
        -0.31291E-02
        -0.30382E-02
        -0.31291E-02
        -0.30382E-02
        -0.28748E-02
        -0.28748E-02
        -0.26423E-02
        -0.26420E-02
        -0.23707E-02
        -0.23705E-02
        -0.21445E-02
        -0.15105E-02
        -0.21439E-02
        -0.15106E-02
         0.93572E-03
         0.00000E+00
         0.93572E-03
         0.00000E+00
         0.18171E-02
         0.18171E-02
         0.25928E-02
         0.25928E-02
         0.32179E-02
         0.32179E-02
         0.36559E-02
         0.36559E-02
         0.38815E-02
         0.38815E-02
         0.38815E-02
         0.38815E-02
         0.36559E-02
         0.36559E-02
         0.32179E-02
         0.32179E-02
         0.25928E-02
         0.25928E-02
         0.18171E-02
         0.18171E-02
         0.93572E-03
         0.93572E-03
         0.22152E-17
        -0.47884E-18
        -0.93572E-03
        -0.93572E-03
        -0.18171E-02
        -0.18171E-02
        -0.25928E-02
        -0.25928E-02
        -0.32179E-02
        -0.32179E-02
        -0.36559E-02
        -0.36559E-02
        -0.38815E-02
        -0.38815E-02
        -0.38815E-02
        -0.38815E-02
        -0.36559E-02
        -0.36559E-02
        -0.32179E-02
        -0.32179E-02
        -0.25928E-02
        -0.25928E-02
        -0.18171E-02
        -0.18171E-02
        -0.93572E-03
        -0.93572E-03
         0.67348E-03
         0.12314E-02
         0.59203E-03
        -0.33700E-03
         0.14918E-03
        -0.67594E-03
         0.18414E-02
         0.14586E-02
         0.30048E-03
         0.11690E-02
         0.22749E-02
         0.28282E-02
         0.24239E-02
         0.21685E-02
         0.29364E-02
        -0.10035E-02
         0.79778E-04
        -0.70245E-03
        -0.71182E-03
         0.82873E-04
        -0.77848E-03
         0.40986E-04
        -0.15194E-02
        -0.13228E-02
         0.98983E-03
        -0.17324E-02
         0.20223E-02
         0.18614E-02
         0.17175E-02
         0.90964E-03
        -0.19800E-02
        -0.23489E-02
        -0.17074E-02
        -0.14896E-02
         0.76137E-03
         0.12481E-02
         0.18665E-02
         0.29027E-02
         0.27202E-02
         0.24640E-02
         0.22359E-02
         0.16503E-02
         0.87519E-03
        -0.21373E-02
        -0.26932E-02
        -0.31291E-02
        -0.30382E-02
        -0.28748E-02
        -0.26426E-02
        -0.23709E-02
        -0.21450E-02
        -0.15104E-02
         0.93572E-03
         0.00000E+00
         0.18171E-02
         0.25928E-02
         0.32179E-02
         0.36559E-02
         0.38815E-02
         0.38815E-02
         0.36559E-02
         0.32179E-02
         0.25928E-02
         0.18171E-02
         0.93572E-03
        -0.47884E-18
        -0.93572E-03
        -0.18171E-02
        -0.25928E-02
        -0.32179E-02
        -0.36559E-02
        -0.38815E-02
        -0.38815E-02
        -0.36559E-02
        -0.32179E-02
        -0.25928E-02
        -0.18171E-02
        -0.93572E-03
         0.67403E-03
         0.12321E-02
         0.59255E-03
        -0.33624E-03
         0.14955E-03
        -0.67544E-03
         0.18415E-02
         0.14596E-02
         0.30163E-03
         0.11707E-02
         0.22750E-02
         0.28277E-02
         0.24241E-02
         0.21685E-02
         0.29361E-02
        -0.10036E-02
         0.80588E-04
        -0.70173E-03
        -0.71168E-03
         0.82996E-04
        -0.77831E-03
         0.41259E-04
        -0.15194E-02
        -0.13227E-02
         0.99119E-03
        -0.17324E-02
         0.20226E-02
         0.18613E-02
         0.17175E-02
         0.90988E-03
        -0.19801E-02
        -0.23490E-02
        -0.17074E-02
        -0.14899E-02
         0.76237E-03
         0.12485E-02
         0.18666E-02
         0.29017E-02
         0.27198E-02
         0.24638E-02
         0.22359E-02
         0.16503E-02
         0.87545E-03
        -0.21374E-02
        -0.26932E-02
        -0.31291E-02
        -0.30382E-02
        -0.28748E-02
        -0.26428E-02
        -0.23711E-02
        -0.21456E-02
        -0.15103E-02
         0.93572E-03
         0.00000E+00
         0.18171E-02
         0.25928E-02
         0.32179E-02
         0.36559E-02
         0.38815E-02
         0.38815E-02
         0.36559E-02
         0.32179E-02
         0.25928E-02
         0.18171E-02
         0.93572E-03
         0.39516E-17
        -0.93572E-03
        -0.18171E-02
        -0.25928E-02
        -0.32179E-02
        -0.36559E-02
        -0.38815E-02
        -0.38815E-02
        -0.36559E-02
        -0.32179E-02
        -0.25928E-02
        -0.18171E-02
        -0.93572E-03
         0.67459E-03
         0.12328E-02
         0.59308E-03
        -0.33549E-03
         0.14991E-03
        -0.67495E-03
         0.18417E-02
         0.14606E-02
         0.30278E-03
         0.11725E-02
         0.22752E-02
         0.28273E-02
         0.24242E-02
         0.21686E-02
         0.29359E-02
        -0.10038E-02
         0.81397E-04
        -0.70100E-03
        -0.71154E-03
         0.83120E-04
        -0.77814E-03
         0.41533E-04
        -0.15193E-02
        -0.13227E-02
         0.99254E-03
        -0.17324E-02
         0.20228E-02
         0.18611E-02
         0.17175E-02
         0.91012E-03
        -0.19801E-02
        -0.23490E-02
        -0.17074E-02
        -0.14901E-02
         0.76338E-03
         0.12490E-02
         0.18666E-02
         0.29006E-02
         0.27193E-02
         0.24636E-02
         0.22359E-02
         0.16503E-02
         0.87571E-03
        -0.21374E-02
        -0.26932E-02
        -0.31291E-02
        -0.30382E-02
        -0.28748E-02
        -0.26431E-02
        -0.23713E-02
        -0.21461E-02
        -0.15102E-02
         0.93572E-03
         0.00000E+00
         0.18171E-02
         0.25928E-02
         0.32179E-02
         0.36559E-02
         0.38815E-02
         0.38815E-02
         0.36559E-02
         0.32179E-02
         0.25928E-02
         0.18171E-02
         0.93572E-03
        -0.47884E-18
        -0.93572E-03
        -0.18171E-02
        -0.25928E-02
        -0.32179E-02
        -0.36559E-02
        -0.38815E-02
        -0.38815E-02
        -0.36559E-02
        -0.32179E-02
        -0.25928E-02
        -0.18171E-02
        -0.93572E-03
         0.67514E-03
         0.12334E-02
         0.59360E-03
        -0.33474E-03
         0.15027E-03
        -0.67446E-03
         0.18419E-02
         0.14616E-02
         0.30393E-03
         0.11742E-02
         0.22753E-02
         0.28269E-02
         0.24244E-02
         0.21686E-02
         0.29356E-02
        -0.10039E-02
         0.82206E-04
        -0.70028E-03
        -0.71140E-03
         0.83243E-04
        -0.77797E-03
         0.41806E-04
        -0.15193E-02
        -0.13226E-02
         0.99390E-03
        -0.17323E-02
         0.20231E-02
         0.18610E-02
         0.17175E-02
         0.91036E-03
        -0.19801E-02
        -0.23490E-02
        -0.17074E-02
        -0.14904E-02
         0.76439E-03
         0.12494E-02
         0.18666E-02
         0.28995E-02
         0.27188E-02
         0.24633E-02
         0.22359E-02
         0.16503E-02
         0.87597E-03
        -0.21374E-02
        -0.26932E-02
        -0.31291E-02
        -0.30382E-02
        -0.28748E-02
        -0.26434E-02
        -0.23715E-02
        -0.21467E-02
        -0.15101E-02
         0.93572E-03
         0.00000E+00
         0.18171E-02
         0.25928E-02
         0.32179E-02
         0.36559E-02
         0.38815E-02
         0.38815E-02
         0.36559E-02
         0.32179E-02
         0.25928E-02
         0.18171E-02
         0.93572E-03
        -0.47884E-18
        -0.93572E-03
        -0.18171E-02
        -0.25928E-02
        -0.32179E-02
        -0.36559E-02
        -0.38815E-02
        -0.38815E-02
        -0.36559E-02
        -0.32179E-02
        -0.25928E-02
        -0.18171E-02
        -0.93572E-03
         0.67570E-03
         0.12341E-02
         0.59412E-03
        -0.33398E-03
         0.15064E-03
        -0.67396E-03
         0.18421E-02
         0.14626E-02
         0.30507E-03
         0.11760E-02
         0.22754E-02
         0.28264E-02
         0.24245E-02
         0.21686E-02
         0.29353E-02
        -0.10040E-02
         0.83015E-04
        -0.69955E-03
        -0.71126E-03
         0.83367E-04
        -0.77780E-03
         0.42080E-04
        -0.15192E-02
        -0.13224E-02
         0.99526E-03
        -0.17323E-02
         0.20234E-02
         0.18609E-02
         0.17175E-02
         0.91060E-03
        -0.19801E-02
        -0.23490E-02
        -0.17074E-02
        -0.14906E-02
         0.76539E-03
         0.12498E-02
         0.18667E-02
         0.28984E-02
         0.27184E-02
         0.24631E-02
         0.22359E-02
         0.16503E-02
         0.87623E-03
        -0.21374E-02
        -0.26932E-02
        -0.31291E-02
        -0.30382E-02
        -0.28748E-02
        -0.26436E-02
        -0.23717E-02
        -0.21472E-02
        -0.15100E-02
         0.93572E-03
         0.00000E+00
         0.18171E-02
         0.25928E-02
         0.32179E-02
         0.36559E-02
         0.38815E-02
         0.38815E-02
         0.36559E-02
         0.32179E-02
         0.25928E-02
         0.18171E-02
         0.93572E-03
        -0.47884E-18
        -0.93572E-03
        -0.18171E-02
        -0.25928E-02
        -0.32179E-02
        -0.36559E-02
        -0.38815E-02
        -0.38815E-02
        -0.36559E-02
        -0.32179E-02
        -0.25928E-02
        -0.18171E-02
        -0.93572E-03
         0.67625E-03
         0.12348E-02
         0.59465E-03
        -0.33323E-03
         0.15100E-03
        -0.67347E-03
         0.18423E-02
         0.14636E-02
         0.30622E-03
         0.11777E-02
         0.22755E-02
         0.28260E-02
         0.24247E-02
         0.21687E-02
         0.29351E-02
        -0.10042E-02
         0.83825E-04
        -0.69882E-03
        -0.71112E-03
         0.83490E-04
        -0.77763E-03
         0.42353E-04
        -0.15192E-02
        -0.13223E-02
         0.99661E-03
        -0.17322E-02
         0.20237E-02
         0.18607E-02
         0.17175E-02
         0.91084E-03
        -0.19801E-02
        -0.23491E-02
        -0.17074E-02
        -0.14909E-02
         0.76640E-03
         0.12503E-02
         0.18667E-02
         0.28974E-02
         0.27179E-02
         0.24629E-02
         0.22359E-02
         0.16503E-02
         0.87650E-03
        -0.21374E-02
        -0.26933E-02
        -0.31291E-02
        -0.30382E-02
        -0.28749E-02
        -0.26439E-02
        -0.23719E-02
        -0.21478E-02
        -0.15099E-02
         0.93572E-03
         0.00000E+00
         0.18171E-02
         0.25928E-02
         0.32179E-02
         0.36559E-02
         0.38815E-02
         0.38815E-02
         0.36559E-02
         0.32179E-02
         0.25928E-02
         0.18171E-02
         0.93572E-03
        -0.47884E-18
        -0.93572E-03
        -0.18171E-02
        -0.25928E-02
        -0.32179E-02
        -0.36559E-02
        -0.38815E-02
        -0.38815E-02
        -0.36559E-02
        -0.32179E-02
        -0.25928E-02
        -0.18171E-02
        -0.93572E-03
         0.67680E-03
         0.12354E-02
         0.59517E-03
        -0.33247E-03
         0.15136E-03
        -0.67298E-03
         0.18425E-02
         0.14646E-02
         0.30737E-03
         0.11795E-02
         0.22757E-02
         0.28255E-02
         0.24248E-02
         0.21687E-02
         0.29348E-02
        -0.10043E-02
         0.84634E-04
        -0.69810E-03
        -0.71098E-03
         0.83614E-04
        -0.77746E-03
         0.42626E-04
        -0.15191E-02
        -0.13223E-02
         0.99797E-03
        -0.17322E-02
         0.20240E-02
         0.18606E-02
         0.17175E-02
         0.91108E-03
        -0.19802E-02
        -0.23491E-02
        -0.17074E-02
        -0.14911E-02
         0.76740E-03
         0.12507E-02
         0.18668E-02
         0.28963E-02
         0.27174E-02
         0.24627E-02
         0.22358E-02
         0.16503E-02
         0.87676E-03
        -0.21374E-02
        -0.26933E-02
        -0.31291E-02
        -0.30382E-02
        -0.28749E-02
        -0.26442E-02
        -0.23721E-02
        -0.21483E-02
        -0.15097E-02
         0.93572E-03
         0.00000E+00
         0.18171E-02
         0.25928E-02
         0.32179E-02
         0.36559E-02
         0.38815E-02
         0.38815E-02
         0.36559E-02
         0.32179E-02
         0.25928E-02
         0.18171E-02
         0.93572E-03
        -0.47884E-18
        -0.93572E-03
        -0.18171E-02
        -0.25928E-02
        -0.32179E-02
        -0.36559E-02
        -0.38815E-02
        -0.38815E-02
        -0.36559E-02
        -0.32179E-02
        -0.25928E-02
        -0.18171E-02
        -0.93572E-03
         0.67736E-03
         0.12361E-02
         0.59570E-03
        -0.33172E-03
         0.15173E-03
        -0.67248E-03
         0.18427E-02
         0.14656E-02
         0.30852E-03
         0.11812E-02
         0.22758E-02
         0.28251E-02
         0.24249E-02
         0.21688E-02
         0.29345E-02
        -0.10044E-02
         0.85443E-04
        -0.69737E-03
        -0.71084E-03
         0.83737E-04
        -0.77729E-03
         0.42899E-04
        -0.15191E-02
        -0.13222E-02
         0.99932E-03
        -0.17322E-02
         0.20243E-02
         0.18605E-02
         0.17175E-02
         0.91132E-03
        -0.19802E-02
        -0.23491E-02
        -0.17074E-02
        -0.14914E-02
         0.76841E-03
         0.12511E-02
         0.18668E-02
         0.28952E-02
         0.27170E-02
         0.24624E-02
         0.22358E-02
         0.16503E-02
         0.87702E-03
        -0.21374E-02
        -0.26933E-02
        -0.31291E-02
        -0.30382E-02
        -0.28749E-02
        -0.26444E-02
        -0.23723E-02
        -0.21489E-02
        -0.15096E-02
         0.93572E-03
         0.00000E+00
         0.18171E-02
         0.25928E-02
         0.32179E-02
         0.36559E-02
         0.38815E-02
         0.38815E-02
         0.36559E-02
         0.32179E-02
         0.25928E-02
         0.18171E-02
         0.93572E-03
        -0.47884E-18
        -0.93572E-03
        -0.18171E-02
        -0.25928E-02
        -0.32179E-02
        -0.36559E-02
        -0.38815E-02
        -0.38815E-02
        -0.36559E-02
        -0.32179E-02
        -0.25928E-02
        -0.18171E-02
        -0.93572E-03
         0.67791E-03
         0.12368E-02
         0.59622E-03
        -0.33096E-03
         0.15209E-03
        -0.67199E-03
         0.18429E-02
         0.14666E-02
         0.30967E-03
         0.11830E-02
         0.22759E-02
         0.28247E-02
         0.24251E-02
         0.21688E-02
         0.29343E-02
        -0.10046E-02
         0.86253E-04
        -0.69665E-03
        -0.71070E-03
         0.83861E-04
        -0.77712E-03
         0.43173E-04
        -0.15190E-02
        -0.13220E-02
         0.10007E-02
        -0.17321E-02
         0.20245E-02
         0.18603E-02
         0.17175E-02
         0.91156E-03
        -0.19802E-02
        -0.23491E-02
        -0.17074E-02
        -0.14916E-02
         0.76941E-03
         0.12515E-02
         0.18668E-02
         0.28942E-02
         0.27165E-02
         0.24622E-02
         0.22358E-02
         0.16503E-02
         0.87728E-03
        -0.21374E-02
        -0.26933E-02
        -0.31291E-02
        -0.30382E-02
        -0.28749E-02
        -0.26447E-02
        -0.23725E-02
        -0.21494E-02
        -0.15095E-02
         0.93572E-03
         0.00000E+00
         0.18171E-02
         0.25928E-02
         0.32179E-02
         0.36559E-02
         0.38815E-02
         0.38815E-02
         0.36559E-02
         0.32179E-02
         0.25928E-02
         0.18171E-02
         0.93572E-03
        -0.47884E-18
        -0.93572E-03
        -0.18171E-02
        -0.25928E-02
        -0.32179E-02
        -0.36559E-02
        -0.38815E-02
        -0.38815E-02
        -0.36559E-02
        -0.32179E-02
        -0.25928E-02
        -0.18171E-02
        -0.93572E-03
         0.67847E-03
         0.12374E-02
         0.59674E-03
        -0.33021E-03
         0.15245E-03
        -0.67150E-03
         0.18430E-02
         0.14676E-02
         0.31081E-03
         0.11847E-02
         0.22761E-02
         0.28242E-02
         0.24252E-02
         0.21688E-02
         0.29340E-02
        -0.10047E-02
         0.87062E-04
        -0.69592E-03
        -0.71056E-03
         0.83985E-04
        -0.77695E-03
         0.43446E-04
        -0.15190E-02
        -0.13219E-02
         0.10020E-02
        -0.17321E-02
         0.20248E-02
         0.18602E-02
         0.17175E-02
         0.91180E-03
        -0.19803E-02
        -0.23491E-02
        -0.17073E-02
        -0.14919E-02
         0.77042E-03
         0.12520E-02
         0.18669E-02
         0.28931E-02
         0.27160E-02
         0.24620E-02
         0.22358E-02
         0.16503E-02
         0.87754E-03
        -0.21374E-02
        -0.26933E-02
        -0.31291E-02
        -0.30382E-02
        -0.28749E-02
        -0.26450E-02
        -0.23727E-02
        -0.21500E-02
        -0.15094E-02
         0.93572E-03
         0.00000E+00
         0.18171E-02
         0.25928E-02
         0.32179E-02
         0.36559E-02
         0.38815E-02
         0.38815E-02
         0.36559E-02
         0.32179E-02
         0.25928E-02
         0.18171E-02
         0.93572E-03
         0.39516E-17
        -0.93572E-03
        -0.18171E-02
        -0.25928E-02
        -0.32179E-02
        -0.36559E-02
        -0.38815E-02
        -0.38815E-02
        -0.36559E-02
        -0.32179E-02
        -0.25928E-02
        -0.18171E-02
        -0.93572E-03
         0.67902E-03
         0.12381E-02
         0.59727E-03
        -0.32945E-03
         0.15282E-03
        -0.67100E-03
         0.18432E-02
         0.14686E-02
         0.31196E-03
         0.11865E-02
         0.22762E-02
         0.28238E-02
         0.24254E-02
         0.21688E-02
         0.29337E-02
        -0.10049E-02
         0.87871E-04
        -0.69519E-03
        -0.71042E-03
         0.84108E-04
        -0.77678E-03
         0.43720E-04
        -0.15189E-02
        -0.13219E-02
         0.10034E-02
        -0.17320E-02
         0.20251E-02
         0.18601E-02
         0.17175E-02
         0.91204E-03
        -0.19803E-02
        -0.23492E-02
        -0.17073E-02
        -0.14921E-02
         0.77142E-03
         0.12524E-02
         0.18669E-02
         0.28920E-02
         0.27155E-02
         0.24618E-02
         0.22358E-02
         0.16503E-02
         0.87781E-03
        -0.21374E-02
        -0.26934E-02
        -0.31291E-02
        -0.30382E-02
        -0.28749E-02
        -0.26452E-02
        -0.23729E-02
        -0.21505E-02
        -0.15093E-02
         0.93572E-03
         0.00000E+00
         0.18171E-02
         0.25928E-02
         0.32179E-02
         0.36559E-02
         0.38815E-02
         0.38815E-02
         0.36559E-02
         0.32179E-02
         0.25928E-02
         0.18171E-02
         0.93572E-03
        -0.47884E-18
        -0.93572E-03
        -0.18171E-02
        -0.25928E-02
        -0.32179E-02
        -0.36559E-02
        -0.38815E-02
        -0.38815E-02
        -0.36559E-02
        -0.32179E-02
        -0.25928E-02
        -0.18171E-02
        -0.93572E-03
         0.67958E-03
         0.12387E-02
         0.59779E-03
        -0.32870E-03
         0.15318E-03
        -0.67051E-03
         0.18434E-02
         0.14696E-02
         0.31311E-03
         0.11882E-02
         0.22763E-02
         0.28233E-02
         0.24255E-02
         0.21689E-02
         0.29335E-02
        -0.10050E-02
         0.88681E-04
        -0.69447E-03
        -0.71028E-03
         0.84232E-04
        -0.77661E-03
         0.43993E-04
        -0.15189E-02
        -0.13218E-02
         0.10048E-02
        -0.17320E-02
         0.20254E-02
         0.18599E-02
         0.17175E-02
         0.91228E-03
        -0.19803E-02
        -0.23492E-02
        -0.17073E-02
        -0.14923E-02
         0.77243E-03
         0.12528E-02
         0.18670E-02
         0.28910E-02
         0.27151E-02
         0.24615E-02
         0.22358E-02
         0.16503E-02
         0.87807E-03
        -0.21374E-02
        -0.26934E-02
        -0.31291E-02
        -0.30382E-02
        -0.28749E-02
        -0.26455E-02
        -0.23732E-02
        -0.21511E-02
        -0.15092E-02
         0.93572E-03
         0.00000E+00
         0.18171E-02
         0.25928E-02
         0.32179E-02
         0.36559E-02
         0.38815E-02
         0.38815E-02
         0.36559E-02
         0.32179E-02
         0.25928E-02
         0.18171E-02
         0.93572E-03
         0.22152E-17
        -0.93572E-03
        -0.18171E-02
        -0.25928E-02
        -0.32179E-02
        -0.36559E-02
        -0.38815E-02
        -0.38815E-02
        -0.36559E-02
        -0.32179E-02
        -0.25928E-02
        -0.18171E-02
        -0.93572E-03
         0.68013E-03
         0.12394E-02
         0.59831E-03
        -0.32794E-03
         0.15354E-03
        -0.67002E-03
         0.18436E-02
         0.14706E-02
         0.31426E-03
         0.11900E-02
         0.22765E-02
         0.28229E-02
         0.24257E-02
         0.21689E-02
         0.29332E-02
        -0.10051E-02
         0.89490E-04
        -0.69374E-03
        -0.71013E-03
         0.84355E-04
        -0.77644E-03
         0.44266E-04
        -0.15188E-02
        -0.13216E-02
         0.10061E-02
        -0.17320E-02
         0.20257E-02
         0.18598E-02
         0.17175E-02
         0.91252E-03
        -0.19803E-02
        -0.23492E-02
        -0.17073E-02
        -0.14926E-02
         0.77343E-03
         0.12533E-02
         0.18670E-02
         0.28899E-02
         0.27146E-02
         0.24613E-02
         0.22358E-02
         0.16503E-02
         0.87833E-03
        -0.21374E-02
        -0.26934E-02
        -0.31291E-02
        -0.30382E-02
        -0.28750E-02
        -0.26458E-02
        -0.23734E-02
        -0.21516E-02
        -0.15091E-02
         0.93572E-03
         0.00000E+00
         0.18171E-02
         0.25928E-02
         0.32179E-02
         0.36559E-02
         0.38815E-02
         0.38815E-02
         0.36559E-02
         0.32179E-02
         0.25928E-02
         0.18171E-02
         0.93572E-03
        -0.47884E-18
        -0.93572E-03
        -0.18171E-02
        -0.25928E-02
        -0.32179E-02
        -0.36559E-02
        -0.38815E-02
        -0.38815E-02
        -0.36559E-02
        -0.32179E-02
        -0.25928E-02
        -0.18171E-02
        -0.93572E-03
         0.68068E-03
         0.12401E-02
         0.59884E-03
        -0.32719E-03
         0.15391E-03
        -0.66953E-03
         0.18438E-02
         0.14716E-02
         0.31541E-03
         0.11917E-02
         0.22766E-02
         0.28225E-02
         0.24258E-02
         0.21690E-02
         0.29330E-02
        -0.10053E-02
         0.90299E-04
        -0.69302E-03
        -0.70999E-03
         0.84479E-04
        -0.77627E-03
         0.44540E-04
        -0.15188E-02
        -0.13215E-02
         0.10075E-02
        -0.17319E-02
         0.20260E-02
         0.18597E-02
         0.17175E-02
         0.91276E-03
        -0.19804E-02
        -0.23493E-02
        -0.17073E-02
        -0.14928E-02
         0.77444E-03
         0.12537E-02
         0.18670E-02
         0.28888E-02
         0.27141E-02
         0.24611E-02
         0.22358E-02
         0.16503E-02
         0.87859E-03
        -0.21374E-02
        -0.26934E-02
        -0.31291E-02
        -0.30382E-02
        -0.28750E-02
        -0.26460E-02
        -0.23736E-02
        -0.21521E-02
        -0.15090E-02
         0.93572E-03
         0.00000E+00
         0.18171E-02
         0.25928E-02
         0.32179E-02
         0.36559E-02
         0.38815E-02
         0.38815E-02
         0.36559E-02
         0.32179E-02
         0.25928E-02
         0.18171E-02
         0.93572E-03
         0.22152E-17
        -0.93572E-03
        -0.18171E-02
        -0.25928E-02
        -0.32179E-02
        -0.36559E-02
        -0.38815E-02
        -0.38815E-02
        -0.36559E-02
        -0.32179E-02
        -0.25928E-02
        -0.18171E-02
        -0.93572E-03
         0.68124E-03
         0.12407E-02
         0.59936E-03
        -0.32643E-03
         0.15427E-03
        -0.66903E-03
         0.18440E-02
         0.14727E-02
         0.31656E-03
         0.11935E-02
         0.22767E-02
         0.28220E-02
         0.24260E-02
         0.21690E-02
         0.29327E-02
        -0.10054E-02
         0.91108E-04
        -0.69229E-03
        -0.70985E-03
         0.84602E-04
        -0.77610E-03
         0.44813E-04
        -0.15187E-02
        -0.13215E-02
         0.10088E-02
        -0.17319E-02
         0.20262E-02
         0.18595E-02
         0.17175E-02
         0.91300E-03
        -0.19804E-02
        -0.23493E-02
        -0.17073E-02
        -0.14931E-02
         0.77544E-03
         0.12541E-02
         0.18671E-02
         0.28877E-02
         0.27137E-02
         0.24609E-02
         0.22358E-02
         0.16503E-02
         0.87885E-03
        -0.21374E-02
        -0.26934E-02
        -0.31291E-02
        -0.30382E-02
        -0.28750E-02
        -0.26463E-02
        -0.23738E-02
        -0.21527E-02
        -0.15088E-02
         0.93572E-03
         0.00000E+00
         0.18171E-02
         0.25928E-02
         0.32179E-02
         0.36559E-02
         0.38815E-02
         0.38815E-02
         0.36559E-02
         0.32179E-02
         0.25928E-02
         0.18171E-02
         0.93572E-03
        -0.47884E-18
        -0.93572E-03
        -0.18171E-02
        -0.25928E-02
        -0.32179E-02
        -0.36559E-02
        -0.38815E-02
        -0.38815E-02
        -0.36559E-02
        -0.32179E-02
        -0.25928E-02
        -0.18171E-02
        -0.93572E-03
         0.68179E-03
         0.12414E-02
         0.59988E-03
        -0.32568E-03
         0.15463E-03
        -0.66854E-03
         0.18442E-02
         0.14736E-02
         0.31770E-03
         0.11952E-02
         0.22768E-02
         0.28216E-02
         0.24261E-02
         0.21690E-02
         0.29324E-02
        -0.10056E-02
         0.91918E-04
        -0.69156E-03
        -0.70971E-03
         0.84726E-04
        -0.77593E-03
         0.45086E-04
        -0.15187E-02
        -0.13213E-02
         0.10102E-02
        -0.17318E-02
         0.20265E-02
         0.18594E-02
         0.17175E-02
         0.91324E-03
        -0.19804E-02
        -0.23493E-02
        -0.17073E-02
        -0.14933E-02
         0.77645E-03
         0.12545E-02
         0.18671E-02
         0.28867E-02
         0.27132E-02
         0.24606E-02
         0.22358E-02
         0.16503E-02
         0.87912E-03
        -0.21374E-02
        -0.26935E-02
        -0.31291E-02
        -0.30381E-02
        -0.28750E-02
        -0.26466E-02
        -0.23740E-02
        -0.21533E-02
        -0.15087E-02
         0.93572E-03
         0.00000E+00
         0.18171E-02
         0.25928E-02
         0.32179E-02
         0.36559E-02
         0.38815E-02
         0.38815E-02
         0.36559E-02
         0.32179E-02
         0.25928E-02
         0.18171E-02
         0.93572E-03
        -0.47884E-18
        -0.93572E-03
        -0.18171E-02
        -0.25928E-02
        -0.32179E-02
        -0.36559E-02
        -0.38815E-02
        -0.38815E-02
        -0.36559E-02
        -0.32179E-02
        -0.25928E-02
        -0.18171E-02
        -0.93572E-03
         0.68235E-03
         0.12421E-02
         0.60041E-03
        -0.32493E-03
         0.15500E-03
        -0.66805E-03
         0.18444E-02
         0.14747E-02
         0.31885E-03
         0.11970E-02
         0.22770E-02
         0.28211E-02
         0.24262E-02
         0.21691E-02
         0.29322E-02
        -0.10057E-02
         0.92727E-04
        -0.69084E-03
        -0.70957E-03
         0.84849E-04
        -0.77576E-03
         0.45359E-04
        -0.15186E-02
        -0.13212E-02
         0.10115E-02
        -0.17318E-02
         0.20268E-02
         0.18593E-02
         0.17175E-02
         0.91347E-03
        -0.19804E-02
        -0.23493E-02
        -0.17073E-02
        -0.14936E-02
         0.77745E-03
         0.12550E-02
         0.18671E-02
         0.28856E-02
         0.27127E-02
         0.24604E-02
         0.22358E-02
         0.16503E-02
         0.87938E-03
        -0.21374E-02
        -0.26935E-02
        -0.31291E-02
        -0.30381E-02
        -0.28750E-02
        -0.26468E-02
        -0.23742E-02
        -0.21538E-02
        -0.15086E-02
         0.93572E-03
         0.00000E+00
         0.18171E-02
         0.25928E-02
         0.32179E-02
         0.36559E-02
         0.38815E-02
         0.38815E-02
         0.36559E-02
         0.32179E-02
         0.25928E-02
         0.18171E-02
         0.93572E-03
        -0.47884E-18
        -0.93572E-03
        -0.18171E-02
        -0.25928E-02
        -0.32179E-02
        -0.36559E-02
        -0.38815E-02
        -0.38815E-02
        -0.36559E-02
        -0.32179E-02
        -0.25928E-02
        -0.18171E-02
        -0.93572E-03
         0.68290E-03
         0.12427E-02
         0.60093E-03
        -0.32417E-03
         0.15536E-03
        -0.66755E-03
         0.18445E-02
         0.14757E-02
         0.32000E-03
         0.11987E-02
         0.22771E-02
         0.28207E-02
         0.24264E-02
         0.21691E-02
         0.29319E-02
        -0.10058E-02
         0.93536E-04
        -0.69011E-03
        -0.70943E-03
         0.84973E-04
        -0.77559E-03
         0.45633E-04
        -0.15186E-02
        -0.13212E-02
         0.10129E-02
        -0.17318E-02
         0.20271E-02
         0.18592E-02
         0.17175E-02
         0.91371E-03
        -0.19805E-02
        -0.23493E-02
        -0.17073E-02
        -0.14938E-02
         0.77846E-03
         0.12554E-02
         0.18672E-02
         0.28845E-02
         0.27122E-02
         0.24602E-02
         0.22358E-02
         0.16502E-02
         0.87964E-03
        -0.21374E-02
        -0.26935E-02
        -0.31291E-02
        -0.30381E-02
        -0.28750E-02
        -0.26471E-02
        -0.23744E-02
        -0.21543E-02
        -0.15085E-02
         0.93572E-03
         0.00000E+00
         0.18171E-02
         0.25928E-02
         0.32179E-02
         0.36559E-02
         0.38815E-02
         0.38815E-02
         0.36559E-02
         0.32179E-02
         0.25928E-02
         0.18171E-02
         0.93572E-03
        -0.47884E-18
        -0.93572E-03
        -0.18171E-02
        -0.25928E-02
        -0.32179E-02
        -0.36559E-02
        -0.38815E-02
        -0.38815E-02
        -0.36559E-02
        -0.32179E-02
        -0.25928E-02
        -0.18171E-02
        -0.93572E-03
         0.68346E-03
         0.12434E-02
         0.60145E-03
        -0.32342E-03
         0.15572E-03
        -0.66706E-03
         0.18447E-02
         0.14767E-02
         0.32115E-03
         0.12005E-02
         0.22772E-02
         0.28203E-02
         0.24265E-02
         0.21691E-02
         0.29316E-02
        -0.10060E-02
         0.94345E-04
        -0.68939E-03
        -0.70929E-03
         0.85096E-04
        -0.77542E-03
         0.45906E-04
        -0.15185E-02
        -0.13211E-02
         0.10142E-02
        -0.17317E-02
         0.20274E-02
         0.18590E-02
         0.17175E-02
         0.91395E-03
        -0.19805E-02
        -0.23494E-02
        -0.17073E-02
        -0.14941E-02
         0.77946E-03
         0.12558E-02
         0.18672E-02
         0.28835E-02
         0.27118E-02
         0.24600E-02
         0.22358E-02
         0.16502E-02
         0.87990E-03
        -0.21374E-02
        -0.26935E-02
        -0.31291E-02
        -0.30381E-02
        -0.28750E-02
        -0.26474E-02
        -0.23746E-02
        -0.21549E-02
        -0.15084E-02
         0.93572E-03
         0.00000E+00
         0.18171E-02
         0.25928E-02
         0.32179E-02
         0.36559E-02
         0.38815E-02
         0.38815E-02
         0.36559E-02
         0.32179E-02
         0.25928E-02
         0.18171E-02
         0.93572E-03
         0.22152E-17
        -0.93572E-03
        -0.18171E-02
        -0.25928E-02
        -0.32179E-02
        -0.36559E-02
        -0.38815E-02
        -0.38815E-02
        -0.36559E-02
        -0.32179E-02
        -0.25928E-02
        -0.18171E-02
        -0.93572E-03
         0.68401E-03
         0.12440E-02
         0.60198E-03
        -0.32266E-03
         0.15609E-03
        -0.66657E-03
         0.18449E-02
         0.14777E-02
         0.32230E-03
         0.12022E-02
         0.22774E-02
         0.28198E-02
         0.24267E-02
         0.21692E-02
         0.29314E-02
        -0.10061E-02
         0.95155E-04
        -0.68866E-03
        -0.70915E-03
         0.85220E-04
        -0.77525E-03
         0.46180E-04
        -0.15185E-02
        -0.13210E-02
         0.10156E-02
        -0.17317E-02
         0.20277E-02
         0.18589E-02
         0.17175E-02
         0.91419E-03
        -0.19805E-02
        -0.23494E-02
        -0.17073E-02
        -0.14943E-02
         0.78047E-03
         0.12563E-02
         0.18672E-02
         0.28824E-02
         0.27113E-02
         0.24597E-02
         0.22358E-02
         0.16502E-02
         0.88016E-03
        -0.21374E-02
        -0.26935E-02
        -0.31291E-02
        -0.30381E-02
        -0.28751E-02
        -0.26476E-02
        -0.23748E-02
        -0.21554E-02
        -0.15083E-02
         0.93572E-03
         0.00000E+00
         0.18171E-02
         0.25928E-02
         0.32179E-02
         0.36559E-02
         0.38815E-02
         0.38815E-02
         0.36559E-02
         0.32179E-02
         0.25928E-02
         0.18171E-02
         0.93572E-03
        -0.47884E-18
        -0.93572E-03
        -0.18171E-02
        -0.25928E-02
        -0.32179E-02
        -0.36559E-02
        -0.38815E-02
        -0.38815E-02
        -0.36559E-02
        -0.32179E-02
        -0.25928E-02
        -0.18171E-02
        -0.93572E-03
         0.68457E-03
         0.12447E-02
         0.60250E-03
        -0.32191E-03
         0.15645E-03
        -0.66607E-03
         0.18451E-02
         0.14787E-02
         0.32345E-03
         0.12040E-02
         0.22775E-02
         0.28194E-02
         0.24268E-02
         0.21692E-02
         0.29311E-02
        -0.10062E-02
         0.95964E-04
        -0.68793E-03
        -0.70901E-03
         0.85343E-04
        -0.77507E-03
         0.46453E-04
        -0.15184E-02
        -0.13209E-02
         0.10169E-02
        -0.17316E-02
         0.20280E-02
         0.18588E-02
         0.17175E-02
         0.91443E-03
        -0.19806E-02
        -0.23494E-02
        -0.17073E-02
        -0.14945E-02
         0.78148E-03
         0.12567E-02
         0.18673E-02
         0.28813E-02
         0.27108E-02
         0.24595E-02
         0.22358E-02
         0.16502E-02
         0.88043E-03
        -0.21374E-02
        -0.26936E-02
        -0.31291E-02
        -0.30381E-02
        -0.28751E-02
        -0.26479E-02
        -0.23750E-02
        -0.21560E-02
        -0.15082E-02
         0.93572E-03
         0.00000E+00
         0.18171E-02
         0.25928E-02
         0.32179E-02
         0.36559E-02
         0.38815E-02
         0.38815E-02
         0.36559E-02
         0.32179E-02
         0.25928E-02
         0.18171E-02
         0.93572E-03
        -0.47884E-18
        -0.93572E-03
        -0.18171E-02
        -0.25928E-02
        -0.32179E-02
        -0.36559E-02
        -0.38815E-02
        -0.38815E-02
        -0.36559E-02
        -0.32179E-02
        -0.25928E-02
        -0.18171E-02
        -0.93572E-03
         0.68512E-03
         0.12454E-02
         0.60302E-03
        -0.32115E-03
         0.15681E-03
        -0.66558E-03
         0.18453E-02
         0.14797E-02
         0.32459E-03
         0.12058E-02
         0.22776E-02
         0.28189E-02
         0.24270E-02
         0.21693E-02
         0.29308E-02
        -0.10064E-02
         0.96773E-04
        -0.68721E-03
        -0.70887E-03
         0.85467E-04
        -0.77490E-03
         0.46726E-04
        -0.15184E-02
        -0.13208E-02
         0.10183E-02
        -0.17316E-02
         0.20283E-02
         0.18586E-02
         0.17175E-02
         0.91467E-03
        -0.19806E-02
        -0.23494E-02
        -0.17073E-02
        -0.14948E-02
         0.78248E-03
         0.12571E-02
         0.18673E-02
         0.28802E-02
         0.27103E-02
         0.24593E-02
         0.22358E-02
         0.16502E-02
         0.88069E-03
        -0.21374E-02
        -0.26936E-02
        -0.31291E-02
        -0.30381E-02
        -0.28751E-02
        -0.26482E-02
        -0.23752E-02
        -0.21565E-02
        -0.15081E-02
         0.93572E-03
         0.00000E+00
         0.18171E-02
         0.25928E-02
         0.32179E-02
         0.36559E-02
         0.38815E-02
         0.38815E-02
         0.36559E-02
         0.32179E-02
         0.25928E-02
         0.18171E-02
         0.93572E-03
        -0.47884E-18
        -0.93572E-03
        -0.18171E-02
        -0.25928E-02
        -0.32179E-02
        -0.36559E-02
        -0.38815E-02
        -0.38815E-02
        -0.36559E-02
        -0.32179E-02
        -0.25928E-02
        -0.18171E-02
        -0.93572E-03
         0.68567E-03
         0.12460E-02
         0.60355E-03
        -0.32040E-03
         0.15718E-03
        -0.66509E-03
         0.18455E-02
         0.14807E-02
         0.32574E-03
         0.12075E-02
         0.22777E-02
         0.28185E-02
         0.24271E-02
         0.21693E-02
         0.29306E-02
        -0.10065E-02
         0.97583E-04
        -0.68648E-03
        -0.70873E-03
         0.85591E-04
        -0.77474E-03
         0.47000E-04
        -0.15183E-02
        -0.13207E-02
         0.10197E-02
        -0.17316E-02
         0.20285E-02
         0.18585E-02
         0.17175E-02
         0.91491E-03
        -0.19806E-02
        -0.23495E-02
        -0.17073E-02
        -0.14950E-02
         0.78348E-03
         0.12576E-02
         0.18674E-02
         0.28792E-02
         0.27099E-02
         0.24591E-02
         0.22358E-02
         0.16502E-02
         0.88095E-03
        -0.21374E-02
        -0.26936E-02
        -0.31290E-02
        -0.30381E-02
        -0.28751E-02
        -0.26484E-02
        -0.23754E-02
        -0.21571E-02
        -0.15080E-02
         0.93572E-03
         0.00000E+00
         0.18171E-02
         0.25928E-02
         0.32179E-02
         0.36559E-02
         0.38815E-02
         0.38815E-02
         0.36559E-02
         0.32179E-02
         0.25928E-02
         0.18171E-02
         0.93572E-03
         0.47884E-18
        -0.93572E-03
        -0.18171E-02
        -0.25928E-02
        -0.32179E-02
        -0.36559E-02
        -0.38815E-02
        -0.38815E-02
        -0.36559E-02
        -0.32179E-02
        -0.25928E-02
        -0.18171E-02
        -0.93572E-03
  
SCALARS           initial_coordinate_z  double 1
LOOKUP_TABLE default
        -0.10771E-01
        -0.10771E-01
        -0.10771E-01
        -0.10771E-01
        -0.11750E-01
        -0.11750E-01
        -0.11750E-01
        -0.11750E-01
        -0.10771E-01
        -0.10771E-01
        -0.11750E-01
        -0.11750E-01
        -0.10771E-01
        -0.10771E-01
        -0.11750E-01
        -0.11750E-01
        -0.10771E-01
        -0.10771E-01
        -0.11750E-01
        -0.11750E-01
        -0.10771E-01
        -0.10771E-01
        -0.10771E-01
        -0.11750E-01
        -0.11750E-01
        -0.11750E-01
        -0.10771E-01
        -0.10771E-01
        -0.11750E-01
        -0.11750E-01
        -0.10771E-01
        -0.10771E-01
        -0.10771E-01
        -0.11750E-01
        -0.11750E-01
        -0.11750E-01
        -0.10771E-01
        -0.10771E-01
        -0.11750E-01
        -0.11750E-01
        -0.10771E-01
        -0.10771E-01
        -0.11750E-01
        -0.11750E-01
        -0.10771E-01
        -0.10771E-01
        -0.11750E-01
        -0.11750E-01
        -0.10771E-01
        -0.11750E-01
        -0.10771E-01
        -0.11750E-01
        -0.10771E-01
        -0.11750E-01
        -0.10771E-01
        -0.11750E-01
        -0.10771E-01
        -0.10771E-01
        -0.11750E-01
        -0.11750E-01
        -0.10771E-01
        -0.10771E-01
        -0.11750E-01
        -0.11750E-01
        -0.10771E-01
        -0.11750E-01
        -0.10771E-01
        -0.11750E-01
        -0.10771E-01
        -0.10771E-01
        -0.11750E-01
        -0.11750E-01
        -0.10771E-01
        -0.11750E-01
        -0.10771E-01
        -0.11750E-01
        -0.10771E-01
        -0.11750E-01
        -0.10771E-01
        -0.11750E-01
        -0.10771E-01
        -0.10771E-01
        -0.11750E-01
        -0.11750E-01
        -0.10771E-01
        -0.11750E-01
        -0.10771E-01
        -0.11750E-01
        -0.10771E-01
        -0.11750E-01
        -0.10771E-01
        -0.10771E-01
        -0.11750E-01
        -0.11750E-01
        -0.10771E-01
        -0.11750E-01
        -0.10771E-01
        -0.11750E-01
        -0.10771E-01
        -0.11750E-01
        -0.10771E-01
        -0.10771E-01
        -0.11750E-01
        -0.11750E-01
        -0.10771E-01
        -0.10771E-01
        -0.11750E-01
        -0.11750E-01
        -0.10771E-01
        -0.11750E-01
        -0.10771E-01
        -0.11750E-01
        -0.10771E-01
        -0.11750E-01
        -0.10771E-01
        -0.11750E-01
        -0.10771E-01
        -0.11750E-01
        -0.10771E-01
        -0.11750E-01
        -0.10771E-01
        -0.11750E-01
        -0.10771E-01
        -0.11750E-01
        -0.10771E-01
        -0.11750E-01
        -0.10771E-01
        -0.11750E-01
        -0.10771E-01
        -0.11750E-01
        -0.10771E-01
        -0.11750E-01
        -0.10771E-01
        -0.11750E-01
        -0.10771E-01
        -0.11750E-01
        -0.10771E-01
        -0.11750E-01
        -0.10771E-01
        -0.11750E-01
        -0.10771E-01
        -0.11750E-01
        -0.10771E-01
        -0.11750E-01
        -0.10771E-01
        -0.11750E-01
        -0.10771E-01
        -0.11750E-01
        -0.10771E-01
        -0.11750E-01
        -0.10771E-01
        -0.11750E-01
        -0.10771E-01
        -0.11750E-01
        -0.10771E-01
        -0.11750E-01
        -0.97917E-02
        -0.97917E-02
        -0.97917E-02
        -0.97917E-02
        -0.97917E-02
        -0.97917E-02
        -0.97917E-02
        -0.97917E-02
        -0.97917E-02
        -0.97917E-02
        -0.97917E-02
        -0.97917E-02
        -0.97917E-02
        -0.97917E-02
        -0.97917E-02
        -0.97917E-02
        -0.97917E-02
        -0.97917E-02
        -0.97917E-02
        -0.97917E-02
        -0.97917E-02
        -0.97917E-02
        -0.97917E-02
        -0.97917E-02
        -0.97917E-02
        -0.97917E-02
        -0.97917E-02
        -0.97917E-02
        -0.97917E-02
        -0.97917E-02
        -0.97917E-02
        -0.97917E-02
        -0.97917E-02
        -0.97917E-02
        -0.97917E-02
        -0.97917E-02
        -0.97917E-02
        -0.97917E-02
        -0.97917E-02
        -0.97917E-02
        -0.97917E-02
        -0.97917E-02
        -0.97917E-02
        -0.97917E-02
        -0.97917E-02
        -0.97917E-02
        -0.97917E-02
        -0.97917E-02
        -0.97917E-02
        -0.97917E-02
        -0.97917E-02
        -0.97917E-02
        -0.97917E-02
        -0.97917E-02
        -0.97917E-02
        -0.97917E-02
        -0.97917E-02
        -0.97917E-02
        -0.97917E-02
        -0.97917E-02
        -0.97917E-02
        -0.97917E-02
        -0.97917E-02
        -0.97917E-02
        -0.97917E-02
        -0.97917E-02
        -0.97917E-02
        -0.97917E-02
        -0.97917E-02
        -0.97917E-02
        -0.97917E-02
        -0.97917E-02
        -0.97917E-02
        -0.97917E-02
        -0.97917E-02
        -0.97917E-02
        -0.97917E-02
        -0.97917E-02
        -0.88125E-02
        -0.88125E-02
        -0.88125E-02
        -0.88125E-02
        -0.88125E-02
        -0.88125E-02
        -0.88125E-02
        -0.88125E-02
        -0.88125E-02
        -0.88125E-02
        -0.88125E-02
        -0.88125E-02
        -0.88125E-02
        -0.88125E-02
        -0.88125E-02
        -0.88125E-02
        -0.88125E-02
        -0.88125E-02
        -0.88125E-02
        -0.88125E-02
        -0.88125E-02
        -0.88125E-02
        -0.88125E-02
        -0.88125E-02
        -0.88125E-02
        -0.88125E-02
        -0.88125E-02
        -0.88125E-02
        -0.88125E-02
        -0.88125E-02
        -0.88125E-02
        -0.88125E-02
        -0.88125E-02
        -0.88125E-02
        -0.88125E-02
        -0.88125E-02
        -0.88125E-02
        -0.88125E-02
        -0.88125E-02
        -0.88125E-02
        -0.88125E-02
        -0.88125E-02
        -0.88125E-02
        -0.88125E-02
        -0.88125E-02
        -0.88125E-02
        -0.88125E-02
        -0.88125E-02
        -0.88125E-02
        -0.88125E-02
        -0.88125E-02
        -0.88125E-02
        -0.88125E-02
        -0.88125E-02
        -0.88125E-02
        -0.88125E-02
        -0.88125E-02
        -0.88125E-02
        -0.88125E-02
        -0.88125E-02
        -0.88125E-02
        -0.88125E-02
        -0.88125E-02
        -0.88125E-02
        -0.88125E-02
        -0.88125E-02
        -0.88125E-02
        -0.88125E-02
        -0.88125E-02
        -0.88125E-02
        -0.88125E-02
        -0.88125E-02
        -0.88125E-02
        -0.88125E-02
        -0.88125E-02
        -0.88125E-02
        -0.88125E-02
        -0.88125E-02
        -0.78333E-02
        -0.78333E-02
        -0.78333E-02
        -0.78333E-02
        -0.78333E-02
        -0.78333E-02
        -0.78333E-02
        -0.78333E-02
        -0.78333E-02
        -0.78333E-02
        -0.78333E-02
        -0.78333E-02
        -0.78333E-02
        -0.78333E-02
        -0.78333E-02
        -0.78333E-02
        -0.78333E-02
        -0.78333E-02
        -0.78333E-02
        -0.78333E-02
        -0.78333E-02
        -0.78333E-02
        -0.78333E-02
        -0.78333E-02
        -0.78333E-02
        -0.78333E-02
        -0.78333E-02
        -0.78333E-02
        -0.78333E-02
        -0.78333E-02
        -0.78333E-02
        -0.78333E-02
        -0.78333E-02
        -0.78333E-02
        -0.78333E-02
        -0.78333E-02
        -0.78333E-02
        -0.78333E-02
        -0.78333E-02
        -0.78333E-02
        -0.78333E-02
        -0.78333E-02
        -0.78333E-02
        -0.78333E-02
        -0.78333E-02
        -0.78333E-02
        -0.78333E-02
        -0.78333E-02
        -0.78333E-02
        -0.78333E-02
        -0.78333E-02
        -0.78333E-02
        -0.78333E-02
        -0.78333E-02
        -0.78333E-02
        -0.78333E-02
        -0.78333E-02
        -0.78333E-02
        -0.78333E-02
        -0.78333E-02
        -0.78333E-02
        -0.78333E-02
        -0.78333E-02
        -0.78333E-02
        -0.78333E-02
        -0.78333E-02
        -0.78333E-02
        -0.78333E-02
        -0.78333E-02
        -0.78333E-02
        -0.78333E-02
        -0.78333E-02
        -0.78333E-02
        -0.78333E-02
        -0.78333E-02
        -0.78333E-02
        -0.78333E-02
        -0.78333E-02
        -0.68542E-02
        -0.68542E-02
        -0.68542E-02
        -0.68542E-02
        -0.68542E-02
        -0.68542E-02
        -0.68542E-02
        -0.68542E-02
        -0.68542E-02
        -0.68542E-02
        -0.68542E-02
        -0.68542E-02
        -0.68542E-02
        -0.68542E-02
        -0.68542E-02
        -0.68542E-02
        -0.68542E-02
        -0.68542E-02
        -0.68542E-02
        -0.68542E-02
        -0.68542E-02
        -0.68542E-02
        -0.68542E-02
        -0.68542E-02
        -0.68542E-02
        -0.68542E-02
        -0.68542E-02
        -0.68542E-02
        -0.68542E-02
        -0.68542E-02
        -0.68542E-02
        -0.68542E-02
        -0.68542E-02
        -0.68542E-02
        -0.68542E-02
        -0.68542E-02
        -0.68542E-02
        -0.68542E-02
        -0.68542E-02
        -0.68542E-02
        -0.68542E-02
        -0.68542E-02
        -0.68542E-02
        -0.68542E-02
        -0.68542E-02
        -0.68542E-02
        -0.68542E-02
        -0.68542E-02
        -0.68542E-02
        -0.68542E-02
        -0.68542E-02
        -0.68542E-02
        -0.68542E-02
        -0.68542E-02
        -0.68542E-02
        -0.68542E-02
        -0.68542E-02
        -0.68542E-02
        -0.68542E-02
        -0.68542E-02
        -0.68542E-02
        -0.68542E-02
        -0.68542E-02
        -0.68542E-02
        -0.68542E-02
        -0.68542E-02
        -0.68542E-02
        -0.68542E-02
        -0.68542E-02
        -0.68542E-02
        -0.68542E-02
        -0.68542E-02
        -0.68542E-02
        -0.68542E-02
        -0.68542E-02
        -0.68542E-02
        -0.68542E-02
        -0.68542E-02
        -0.58750E-02
        -0.58750E-02
        -0.58750E-02
        -0.58750E-02
        -0.58750E-02
        -0.58750E-02
        -0.58750E-02
        -0.58750E-02
        -0.58750E-02
        -0.58750E-02
        -0.58750E-02
        -0.58750E-02
        -0.58750E-02
        -0.58750E-02
        -0.58750E-02
        -0.58750E-02
        -0.58750E-02
        -0.58750E-02
        -0.58750E-02
        -0.58750E-02
        -0.58750E-02
        -0.58750E-02
        -0.58750E-02
        -0.58750E-02
        -0.58750E-02
        -0.58750E-02
        -0.58750E-02
        -0.58750E-02
        -0.58750E-02
        -0.58750E-02
        -0.58750E-02
        -0.58750E-02
        -0.58750E-02
        -0.58750E-02
        -0.58750E-02
        -0.58750E-02
        -0.58750E-02
        -0.58750E-02
        -0.58750E-02
        -0.58750E-02
        -0.58750E-02
        -0.58750E-02
        -0.58750E-02
        -0.58750E-02
        -0.58750E-02
        -0.58750E-02
        -0.58750E-02
        -0.58750E-02
        -0.58750E-02
        -0.58750E-02
        -0.58750E-02
        -0.58750E-02
        -0.58750E-02
        -0.58750E-02
        -0.58750E-02
        -0.58750E-02
        -0.58750E-02
        -0.58750E-02
        -0.58750E-02
        -0.58750E-02
        -0.58750E-02
        -0.58750E-02
        -0.58750E-02
        -0.58750E-02
        -0.58750E-02
        -0.58750E-02
        -0.58750E-02
        -0.58750E-02
        -0.58750E-02
        -0.58750E-02
        -0.58750E-02
        -0.58750E-02
        -0.58750E-02
        -0.58750E-02
        -0.58750E-02
        -0.58750E-02
        -0.58750E-02
        -0.58750E-02
        -0.48958E-02
        -0.48958E-02
        -0.48958E-02
        -0.48958E-02
        -0.48958E-02
        -0.48958E-02
        -0.48958E-02
        -0.48958E-02
        -0.48958E-02
        -0.48958E-02
        -0.48958E-02
        -0.48958E-02
        -0.48958E-02
        -0.48958E-02
        -0.48958E-02
        -0.48958E-02
        -0.48958E-02
        -0.48958E-02
        -0.48958E-02
        -0.48958E-02
        -0.48958E-02
        -0.48958E-02
        -0.48958E-02
        -0.48958E-02
        -0.48958E-02
        -0.48958E-02
        -0.48958E-02
        -0.48958E-02
        -0.48958E-02
        -0.48958E-02
        -0.48958E-02
        -0.48958E-02
        -0.48958E-02
        -0.48958E-02
        -0.48958E-02
        -0.48958E-02
        -0.48958E-02
        -0.48958E-02
        -0.48958E-02
        -0.48958E-02
        -0.48958E-02
        -0.48958E-02
        -0.48958E-02
        -0.48958E-02
        -0.48958E-02
        -0.48958E-02
        -0.48958E-02
        -0.48958E-02
        -0.48958E-02
        -0.48958E-02
        -0.48958E-02
        -0.48958E-02
        -0.48958E-02
        -0.48958E-02
        -0.48958E-02
        -0.48958E-02
        -0.48958E-02
        -0.48958E-02
        -0.48958E-02
        -0.48958E-02
        -0.48958E-02
        -0.48958E-02
        -0.48958E-02
        -0.48958E-02
        -0.48958E-02
        -0.48958E-02
        -0.48958E-02
        -0.48958E-02
        -0.48958E-02
        -0.48958E-02
        -0.48958E-02
        -0.48958E-02
        -0.48958E-02
        -0.48958E-02
        -0.48958E-02
        -0.48958E-02
        -0.48958E-02
        -0.48958E-02
        -0.39167E-02
        -0.39167E-02
        -0.39167E-02
        -0.39167E-02
        -0.39167E-02
        -0.39167E-02
        -0.39167E-02
        -0.39167E-02
        -0.39167E-02
        -0.39167E-02
        -0.39167E-02
        -0.39167E-02
        -0.39167E-02
        -0.39167E-02
        -0.39167E-02
        -0.39167E-02
        -0.39167E-02
        -0.39167E-02
        -0.39167E-02
        -0.39167E-02
        -0.39167E-02
        -0.39167E-02
        -0.39167E-02
        -0.39167E-02
        -0.39167E-02
        -0.39167E-02
        -0.39167E-02
        -0.39167E-02
        -0.39167E-02
        -0.39167E-02
        -0.39167E-02
        -0.39167E-02
        -0.39167E-02
        -0.39167E-02
        -0.39167E-02
        -0.39167E-02
        -0.39167E-02
        -0.39167E-02
        -0.39167E-02
        -0.39167E-02
        -0.39167E-02
        -0.39167E-02
        -0.39167E-02
        -0.39167E-02
        -0.39167E-02
        -0.39167E-02
        -0.39167E-02
        -0.39167E-02
        -0.39167E-02
        -0.39167E-02
        -0.39167E-02
        -0.39167E-02
        -0.39167E-02
        -0.39167E-02
        -0.39167E-02
        -0.39167E-02
        -0.39167E-02
        -0.39167E-02
        -0.39167E-02
        -0.39167E-02
        -0.39167E-02
        -0.39167E-02
        -0.39167E-02
        -0.39167E-02
        -0.39167E-02
        -0.39167E-02
        -0.39167E-02
        -0.39167E-02
        -0.39167E-02
        -0.39167E-02
        -0.39167E-02
        -0.39167E-02
        -0.39167E-02
        -0.39167E-02
        -0.39167E-02
        -0.39167E-02
        -0.39167E-02
        -0.39167E-02
        -0.29375E-02
        -0.29375E-02
        -0.29375E-02
        -0.29375E-02
        -0.29375E-02
        -0.29375E-02
        -0.29375E-02
        -0.29375E-02
        -0.29375E-02
        -0.29375E-02
        -0.29375E-02
        -0.29375E-02
        -0.29375E-02
        -0.29375E-02
        -0.29375E-02
        -0.29375E-02
        -0.29375E-02
        -0.29375E-02
        -0.29375E-02
        -0.29375E-02
        -0.29375E-02
        -0.29375E-02
        -0.29375E-02
        -0.29375E-02
        -0.29375E-02
        -0.29375E-02
        -0.29375E-02
        -0.29375E-02
        -0.29375E-02
        -0.29375E-02
        -0.29375E-02
        -0.29375E-02
        -0.29375E-02
        -0.29375E-02
        -0.29375E-02
        -0.29375E-02
        -0.29375E-02
        -0.29375E-02
        -0.29375E-02
        -0.29375E-02
        -0.29375E-02
        -0.29375E-02
        -0.29375E-02
        -0.29375E-02
        -0.29375E-02
        -0.29375E-02
        -0.29375E-02
        -0.29375E-02
        -0.29375E-02
        -0.29375E-02
        -0.29375E-02
        -0.29375E-02
        -0.29375E-02
        -0.29375E-02
        -0.29375E-02
        -0.29375E-02
        -0.29375E-02
        -0.29375E-02
        -0.29375E-02
        -0.29375E-02
        -0.29375E-02
        -0.29375E-02
        -0.29375E-02
        -0.29375E-02
        -0.29375E-02
        -0.29375E-02
        -0.29375E-02
        -0.29375E-02
        -0.29375E-02
        -0.29375E-02
        -0.29375E-02
        -0.29375E-02
        -0.29375E-02
        -0.29375E-02
        -0.29375E-02
        -0.29375E-02
        -0.29375E-02
        -0.29375E-02
        -0.19583E-02
        -0.19583E-02
        -0.19583E-02
        -0.19583E-02
        -0.19583E-02
        -0.19583E-02
        -0.19583E-02
        -0.19583E-02
        -0.19583E-02
        -0.19583E-02
        -0.19583E-02
        -0.19583E-02
        -0.19583E-02
        -0.19583E-02
        -0.19583E-02
        -0.19583E-02
        -0.19583E-02
        -0.19583E-02
        -0.19583E-02
        -0.19583E-02
        -0.19583E-02
        -0.19583E-02
        -0.19583E-02
        -0.19583E-02
        -0.19583E-02
        -0.19583E-02
        -0.19583E-02
        -0.19583E-02
        -0.19583E-02
        -0.19583E-02
        -0.19583E-02
        -0.19583E-02
        -0.19583E-02
        -0.19583E-02
        -0.19583E-02
        -0.19583E-02
        -0.19583E-02
        -0.19583E-02
        -0.19583E-02
        -0.19583E-02
        -0.19583E-02
        -0.19583E-02
        -0.19583E-02
        -0.19583E-02
        -0.19583E-02
        -0.19583E-02
        -0.19583E-02
        -0.19583E-02
        -0.19583E-02
        -0.19583E-02
        -0.19583E-02
        -0.19583E-02
        -0.19583E-02
        -0.19583E-02
        -0.19583E-02
        -0.19583E-02
        -0.19583E-02
        -0.19583E-02
        -0.19583E-02
        -0.19583E-02
        -0.19583E-02
        -0.19583E-02
        -0.19583E-02
        -0.19583E-02
        -0.19583E-02
        -0.19583E-02
        -0.19583E-02
        -0.19583E-02
        -0.19583E-02
        -0.19583E-02
        -0.19583E-02
        -0.19583E-02
        -0.19583E-02
        -0.19583E-02
        -0.19583E-02
        -0.19583E-02
        -0.19583E-02
        -0.19583E-02
        -0.97917E-03
        -0.97917E-03
        -0.97917E-03
        -0.97917E-03
        -0.97917E-03
        -0.97917E-03
        -0.97917E-03
        -0.97917E-03
        -0.97917E-03
        -0.97917E-03
        -0.97917E-03
        -0.97917E-03
        -0.97917E-03
        -0.97917E-03
        -0.97917E-03
        -0.97917E-03
        -0.97917E-03
        -0.97917E-03
        -0.97917E-03
        -0.97917E-03
        -0.97917E-03
        -0.97917E-03
        -0.97917E-03
        -0.97917E-03
        -0.97917E-03
        -0.97917E-03
        -0.97917E-03
        -0.97917E-03
        -0.97917E-03
        -0.97917E-03
        -0.97917E-03
        -0.97917E-03
        -0.97917E-03
        -0.97917E-03
        -0.97917E-03
        -0.97917E-03
        -0.97917E-03
        -0.97917E-03
        -0.97917E-03
        -0.97917E-03
        -0.97917E-03
        -0.97917E-03
        -0.97917E-03
        -0.97917E-03
        -0.97917E-03
        -0.97917E-03
        -0.97917E-03
        -0.97917E-03
        -0.97917E-03
        -0.97917E-03
        -0.97917E-03
        -0.97917E-03
        -0.97917E-03
        -0.97917E-03
        -0.97917E-03
        -0.97917E-03
        -0.97917E-03
        -0.97917E-03
        -0.97917E-03
        -0.97917E-03
        -0.97917E-03
        -0.97917E-03
        -0.97917E-03
        -0.97917E-03
        -0.97917E-03
        -0.97917E-03
        -0.97917E-03
        -0.97917E-03
        -0.97917E-03
        -0.97917E-03
        -0.97917E-03
        -0.97917E-03
        -0.97917E-03
        -0.97917E-03
        -0.97917E-03
        -0.97917E-03
        -0.97917E-03
        -0.97917E-03
         0.38917E-18
         0.44621E-18
         0.34485E-18
         0.23671E-18
         0.26613E-18
         0.16162E-18
         0.53980E-18
         0.50579E-18
         0.36337E-18
         0.48798E-18
         0.60712E-18
         0.67611E-18
         0.60634E-18
         0.60658E-18
         0.70997E-18
         0.20892E-18
         0.35894E-18
         0.21887E-18
         0.27638E-18
         0.38382E-18
         0.29058E-18
         0.40326E-18
         0.18564E-18
         0.19650E-18
         0.48570E-18
         0.12837E-18
         0.60589E-18
         0.60416E-18
         0.60524E-18
         0.49621E-18
         0.61582E-19
         0.32255E-19
         0.73874E-19
         0.78478E-19
         0.34514E-18
         0.42054E-18
         0.51644E-18
         0.72521E-18
         0.72233E-18
         0.70722E-18
         0.69126E-18
         0.61573E-18
         0.51484E-18
         0.91170E-19
         0.30347E-20
        -0.66516E-19
        -0.69988E-19
        -0.68643E-19
        -0.59779E-19
        -0.43507E-19
        -0.29471E-19
         0.53205E-19
         0.86819E-18
         0.00000E+00
         0.86819E-18
         0.86819E-18
         0.00000E+00
         0.00000E+00
         0.00000E+00
         0.17364E-17
         0.17364E-17
         0.17364E-17
         0.43410E-18
         0.43410E-18
         0.43410E-18
         0.00000E+00
         0.00000E+00
         0.00000E+00
         0.00000E+00
         0.00000E+00
         0.21705E-18
        -0.21705E-18
         0.00000E+00
         0.00000E+00
         0.00000E+00
        -0.32557E-18
         0.54262E-19
        -0.40697E-18
         0.97917E-03
         0.97917E-03
         0.97917E-03
         0.97917E-03
         0.97917E-03
         0.97917E-03
         0.97917E-03
         0.97917E-03
         0.97917E-03
         0.97917E-03
         0.97917E-03
         0.97917E-03
         0.97917E-03
         0.97917E-03
         0.97917E-03
         0.97917E-03
         0.97917E-03
         0.97917E-03
         0.97917E-03
         0.97917E-03
         0.97917E-03
         0.97917E-03
         0.97917E-03
         0.97917E-03
         0.97917E-03
         0.97917E-03
         0.97917E-03
         0.97917E-03
         0.97917E-03
         0.97917E-03
         0.97917E-03
         0.97917E-03
         0.97917E-03
         0.97917E-03
         0.97917E-03
         0.97917E-03
         0.97917E-03
         0.97917E-03
         0.97917E-03
         0.97917E-03
         0.97917E-03
         0.97917E-03
         0.97917E-03
         0.97917E-03
         0.97917E-03
         0.97917E-03
         0.97917E-03
         0.97917E-03
         0.97917E-03
         0.97917E-03
         0.97917E-03
         0.97917E-03
         0.97917E-03
         0.97917E-03
         0.97917E-03
         0.97917E-03
         0.97917E-03
         0.97917E-03
         0.97917E-03
         0.97917E-03
         0.97917E-03
         0.97917E-03
         0.97917E-03
         0.97917E-03
         0.97917E-03
         0.97917E-03
         0.97917E-03
         0.97917E-03
         0.97917E-03
         0.97917E-03
         0.97917E-03
         0.97917E-03
         0.97917E-03
         0.97917E-03
         0.97917E-03
         0.97917E-03
         0.97917E-03
         0.97917E-03
         0.19583E-02
         0.19583E-02
         0.19583E-02
         0.19583E-02
         0.19583E-02
         0.19583E-02
         0.19583E-02
         0.19583E-02
         0.19583E-02
         0.19583E-02
         0.19583E-02
         0.19583E-02
         0.19583E-02
         0.19583E-02
         0.19583E-02
         0.19583E-02
         0.19583E-02
         0.19583E-02
         0.19583E-02
         0.19583E-02
         0.19583E-02
         0.19583E-02
         0.19583E-02
         0.19583E-02
         0.19583E-02
         0.19583E-02
         0.19583E-02
         0.19583E-02
         0.19583E-02
         0.19583E-02
         0.19583E-02
         0.19583E-02
         0.19583E-02
         0.19583E-02
         0.19583E-02
         0.19583E-02
         0.19583E-02
         0.19583E-02
         0.19583E-02
         0.19583E-02
         0.19583E-02
         0.19583E-02
         0.19583E-02
         0.19583E-02
         0.19583E-02
         0.19583E-02
         0.19583E-02
         0.19583E-02
         0.19583E-02
         0.19583E-02
         0.19583E-02
         0.19583E-02
         0.19583E-02
         0.19583E-02
         0.19583E-02
         0.19583E-02
         0.19583E-02
         0.19583E-02
         0.19583E-02
         0.19583E-02
         0.19583E-02
         0.19583E-02
         0.19583E-02
         0.19583E-02
         0.19583E-02
         0.19583E-02
         0.19583E-02
         0.19583E-02
         0.19583E-02
         0.19583E-02
         0.19583E-02
         0.19583E-02
         0.19583E-02
         0.19583E-02
         0.19583E-02
         0.19583E-02
         0.19583E-02
         0.19583E-02
         0.29375E-02
         0.29375E-02
         0.29375E-02
         0.29375E-02
         0.29375E-02
         0.29375E-02
         0.29375E-02
         0.29375E-02
         0.29375E-02
         0.29375E-02
         0.29375E-02
         0.29375E-02
         0.29375E-02
         0.29375E-02
         0.29375E-02
         0.29375E-02
         0.29375E-02
         0.29375E-02
         0.29375E-02
         0.29375E-02
         0.29375E-02
         0.29375E-02
         0.29375E-02
         0.29375E-02
         0.29375E-02
         0.29375E-02
         0.29375E-02
         0.29375E-02
         0.29375E-02
         0.29375E-02
         0.29375E-02
         0.29375E-02
         0.29375E-02
         0.29375E-02
         0.29375E-02
         0.29375E-02
         0.29375E-02
         0.29375E-02
         0.29375E-02
         0.29375E-02
         0.29375E-02
         0.29375E-02
         0.29375E-02
         0.29375E-02
         0.29375E-02
         0.29375E-02
         0.29375E-02
         0.29375E-02
         0.29375E-02
         0.29375E-02
         0.29375E-02
         0.29375E-02
         0.29375E-02
         0.29375E-02
         0.29375E-02
         0.29375E-02
         0.29375E-02
         0.29375E-02
         0.29375E-02
         0.29375E-02
         0.29375E-02
         0.29375E-02
         0.29375E-02
         0.29375E-02
         0.29375E-02
         0.29375E-02
         0.29375E-02
         0.29375E-02
         0.29375E-02
         0.29375E-02
         0.29375E-02
         0.29375E-02
         0.29375E-02
         0.29375E-02
         0.29375E-02
         0.29375E-02
         0.29375E-02
         0.29375E-02
         0.39167E-02
         0.39167E-02
         0.39167E-02
         0.39167E-02
         0.39167E-02
         0.39167E-02
         0.39167E-02
         0.39167E-02
         0.39167E-02
         0.39167E-02
         0.39167E-02
         0.39167E-02
         0.39167E-02
         0.39167E-02
         0.39167E-02
         0.39167E-02
         0.39167E-02
         0.39167E-02
         0.39167E-02
         0.39167E-02
         0.39167E-02
         0.39167E-02
         0.39167E-02
         0.39167E-02
         0.39167E-02
         0.39167E-02
         0.39167E-02
         0.39167E-02
         0.39167E-02
         0.39167E-02
         0.39167E-02
         0.39167E-02
         0.39167E-02
         0.39167E-02
         0.39167E-02
         0.39167E-02
         0.39167E-02
         0.39167E-02
         0.39167E-02
         0.39167E-02
         0.39167E-02
         0.39167E-02
         0.39167E-02
         0.39167E-02
         0.39167E-02
         0.39167E-02
         0.39167E-02
         0.39167E-02
         0.39167E-02
         0.39167E-02
         0.39167E-02
         0.39167E-02
         0.39167E-02
         0.39167E-02
         0.39167E-02
         0.39167E-02
         0.39167E-02
         0.39167E-02
         0.39167E-02
         0.39167E-02
         0.39167E-02
         0.39167E-02
         0.39167E-02
         0.39167E-02
         0.39167E-02
         0.39167E-02
         0.39167E-02
         0.39167E-02
         0.39167E-02
         0.39167E-02
         0.39167E-02
         0.39167E-02
         0.39167E-02
         0.39167E-02
         0.39167E-02
         0.39167E-02
         0.39167E-02
         0.39167E-02
         0.48958E-02
         0.48958E-02
         0.48958E-02
         0.48958E-02
         0.48958E-02
         0.48958E-02
         0.48958E-02
         0.48958E-02
         0.48958E-02
         0.48958E-02
         0.48958E-02
         0.48958E-02
         0.48958E-02
         0.48958E-02
         0.48958E-02
         0.48958E-02
         0.48958E-02
         0.48958E-02
         0.48958E-02
         0.48958E-02
         0.48958E-02
         0.48958E-02
         0.48958E-02
         0.48958E-02
         0.48958E-02
         0.48958E-02
         0.48958E-02
         0.48958E-02
         0.48958E-02
         0.48958E-02
         0.48958E-02
         0.48958E-02
         0.48958E-02
         0.48958E-02
         0.48958E-02
         0.48958E-02
         0.48958E-02
         0.48958E-02
         0.48958E-02
         0.48958E-02
         0.48958E-02
         0.48958E-02
         0.48958E-02
         0.48958E-02
         0.48958E-02
         0.48958E-02
         0.48958E-02
         0.48958E-02
         0.48958E-02
         0.48958E-02
         0.48958E-02
         0.48958E-02
         0.48958E-02
         0.48958E-02
         0.48958E-02
         0.48958E-02
         0.48958E-02
         0.48958E-02
         0.48958E-02
         0.48958E-02
         0.48958E-02
         0.48958E-02
         0.48958E-02
         0.48958E-02
         0.48958E-02
         0.48958E-02
         0.48958E-02
         0.48958E-02
         0.48958E-02
         0.48958E-02
         0.48958E-02
         0.48958E-02
         0.48958E-02
         0.48958E-02
         0.48958E-02
         0.48958E-02
         0.48958E-02
         0.48958E-02
         0.58750E-02
         0.58750E-02
         0.58750E-02
         0.58750E-02
         0.58750E-02
         0.58750E-02
         0.58750E-02
         0.58750E-02
         0.58750E-02
         0.58750E-02
         0.58750E-02
         0.58750E-02
         0.58750E-02
         0.58750E-02
         0.58750E-02
         0.58750E-02
         0.58750E-02
         0.58750E-02
         0.58750E-02
         0.58750E-02
         0.58750E-02
         0.58750E-02
         0.58750E-02
         0.58750E-02
         0.58750E-02
         0.58750E-02
         0.58750E-02
         0.58750E-02
         0.58750E-02
         0.58750E-02
         0.58750E-02
         0.58750E-02
         0.58750E-02
         0.58750E-02
         0.58750E-02
         0.58750E-02
         0.58750E-02
         0.58750E-02
         0.58750E-02
         0.58750E-02
         0.58750E-02
         0.58750E-02
         0.58750E-02
         0.58750E-02
         0.58750E-02
         0.58750E-02
         0.58750E-02
         0.58750E-02
         0.58750E-02
         0.58750E-02
         0.58750E-02
         0.58750E-02
         0.58750E-02
         0.58750E-02
         0.58750E-02
         0.58750E-02
         0.58750E-02
         0.58750E-02
         0.58750E-02
         0.58750E-02
         0.58750E-02
         0.58750E-02
         0.58750E-02
         0.58750E-02
         0.58750E-02
         0.58750E-02
         0.58750E-02
         0.58750E-02
         0.58750E-02
         0.58750E-02
         0.58750E-02
         0.58750E-02
         0.58750E-02
         0.58750E-02
         0.58750E-02
         0.58750E-02
         0.58750E-02
         0.58750E-02
         0.68542E-02
         0.68542E-02
         0.68542E-02
         0.68542E-02
         0.68542E-02
         0.68542E-02
         0.68542E-02
         0.68542E-02
         0.68542E-02
         0.68542E-02
         0.68542E-02
         0.68542E-02
         0.68542E-02
         0.68542E-02
         0.68542E-02
         0.68542E-02
         0.68542E-02
         0.68542E-02
         0.68542E-02
         0.68542E-02
         0.68542E-02
         0.68542E-02
         0.68542E-02
         0.68542E-02
         0.68542E-02
         0.68542E-02
         0.68542E-02
         0.68542E-02
         0.68542E-02
         0.68542E-02
         0.68542E-02
         0.68542E-02
         0.68542E-02
         0.68542E-02
         0.68542E-02
         0.68542E-02
         0.68542E-02
         0.68542E-02
         0.68542E-02
         0.68542E-02
         0.68542E-02
         0.68542E-02
         0.68542E-02
         0.68542E-02
         0.68542E-02
         0.68542E-02
         0.68542E-02
         0.68542E-02
         0.68542E-02
         0.68542E-02
         0.68542E-02
         0.68542E-02
         0.68542E-02
         0.68542E-02
         0.68542E-02
         0.68542E-02
         0.68542E-02
         0.68542E-02
         0.68542E-02
         0.68542E-02
         0.68542E-02
         0.68542E-02
         0.68542E-02
         0.68542E-02
         0.68542E-02
         0.68542E-02
         0.68542E-02
         0.68542E-02
         0.68542E-02
         0.68542E-02
         0.68542E-02
         0.68542E-02
         0.68542E-02
         0.68542E-02
         0.68542E-02
         0.68542E-02
         0.68542E-02
         0.68542E-02
         0.78333E-02
         0.78333E-02
         0.78333E-02
         0.78333E-02
         0.78333E-02
         0.78333E-02
         0.78333E-02
         0.78333E-02
         0.78333E-02
         0.78333E-02
         0.78333E-02
         0.78333E-02
         0.78333E-02
         0.78333E-02
         0.78333E-02
         0.78333E-02
         0.78333E-02
         0.78333E-02
         0.78333E-02
         0.78333E-02
         0.78333E-02
         0.78333E-02
         0.78333E-02
         0.78333E-02
         0.78333E-02
         0.78333E-02
         0.78333E-02
         0.78333E-02
         0.78333E-02
         0.78333E-02
         0.78333E-02
         0.78333E-02
         0.78333E-02
         0.78333E-02
         0.78333E-02
         0.78333E-02
         0.78333E-02
         0.78333E-02
         0.78333E-02
         0.78333E-02
         0.78333E-02
         0.78333E-02
         0.78333E-02
         0.78333E-02
         0.78333E-02
         0.78333E-02
         0.78333E-02
         0.78333E-02
         0.78333E-02
         0.78333E-02
         0.78333E-02
         0.78333E-02
         0.78333E-02
         0.78333E-02
         0.78333E-02
         0.78333E-02
         0.78333E-02
         0.78333E-02
         0.78333E-02
         0.78333E-02
         0.78333E-02
         0.78333E-02
         0.78333E-02
         0.78333E-02
         0.78333E-02
         0.78333E-02
         0.78333E-02
         0.78333E-02
         0.78333E-02
         0.78333E-02
         0.78333E-02
         0.78333E-02
         0.78333E-02
         0.78333E-02
         0.78333E-02
         0.78333E-02
         0.78333E-02
         0.78333E-02
         0.88125E-02
         0.88125E-02
         0.88125E-02
         0.88125E-02
         0.88125E-02
         0.88125E-02
         0.88125E-02
         0.88125E-02
         0.88125E-02
         0.88125E-02
         0.88125E-02
         0.88125E-02
         0.88125E-02
         0.88125E-02
         0.88125E-02
         0.88125E-02
         0.88125E-02
         0.88125E-02
         0.88125E-02
         0.88125E-02
         0.88125E-02
         0.88125E-02
         0.88125E-02
         0.88125E-02
         0.88125E-02
         0.88125E-02
         0.88125E-02
         0.88125E-02
         0.88125E-02
         0.88125E-02
         0.88125E-02
         0.88125E-02
         0.88125E-02
         0.88125E-02
         0.88125E-02
         0.88125E-02
         0.88125E-02
         0.88125E-02
         0.88125E-02
         0.88125E-02
         0.88125E-02
         0.88125E-02
         0.88125E-02
         0.88125E-02
         0.88125E-02
         0.88125E-02
         0.88125E-02
         0.88125E-02
         0.88125E-02
         0.88125E-02
         0.88125E-02
         0.88125E-02
         0.88125E-02
         0.88125E-02
         0.88125E-02
         0.88125E-02
         0.88125E-02
         0.88125E-02
         0.88125E-02
         0.88125E-02
         0.88125E-02
         0.88125E-02
         0.88125E-02
         0.88125E-02
         0.88125E-02
         0.88125E-02
         0.88125E-02
         0.88125E-02
         0.88125E-02
         0.88125E-02
         0.88125E-02
         0.88125E-02
         0.88125E-02
         0.88125E-02
         0.88125E-02
         0.88125E-02
         0.88125E-02
         0.88125E-02
         0.97917E-02
         0.97917E-02
         0.97917E-02
         0.97917E-02
         0.97917E-02
         0.97917E-02
         0.97917E-02
         0.97917E-02
         0.97917E-02
         0.97917E-02
         0.97917E-02
         0.97917E-02
         0.97917E-02
         0.97917E-02
         0.97917E-02
         0.97917E-02
         0.97917E-02
         0.97917E-02
         0.97917E-02
         0.97917E-02
         0.97917E-02
         0.97917E-02
         0.97917E-02
         0.97917E-02
         0.97917E-02
         0.97917E-02
         0.97917E-02
         0.97917E-02
         0.97917E-02
         0.97917E-02
         0.97917E-02
         0.97917E-02
         0.97917E-02
         0.97917E-02
         0.97917E-02
         0.97917E-02
         0.97917E-02
         0.97917E-02
         0.97917E-02
         0.97917E-02
         0.97917E-02
         0.97917E-02
         0.97917E-02
         0.97917E-02
         0.97917E-02
         0.97917E-02
         0.97917E-02
         0.97917E-02
         0.97917E-02
         0.97917E-02
         0.97917E-02
         0.97917E-02
         0.97917E-02
         0.97917E-02
         0.97917E-02
         0.97917E-02
         0.97917E-02
         0.97917E-02
         0.97917E-02
         0.97917E-02
         0.97917E-02
         0.97917E-02
         0.97917E-02
         0.97917E-02
         0.97917E-02
         0.97917E-02
         0.97917E-02
         0.97917E-02
         0.97917E-02
         0.97917E-02
         0.97917E-02
         0.97917E-02
         0.97917E-02
         0.97917E-02
         0.97917E-02
         0.97917E-02
         0.97917E-02
         0.97917E-02
         0.10771E-01
         0.10771E-01
         0.10771E-01
         0.10771E-01
         0.10771E-01
         0.10771E-01
         0.10771E-01
         0.10771E-01
         0.10771E-01
         0.10771E-01
         0.10771E-01
         0.10771E-01
         0.10771E-01
         0.10771E-01
         0.10771E-01
         0.10771E-01
         0.10771E-01
         0.10771E-01
         0.10771E-01
         0.10771E-01
         0.10771E-01
         0.10771E-01
         0.10771E-01
         0.10771E-01
         0.10771E-01
         0.10771E-01
         0.10771E-01
         0.10771E-01
         0.10771E-01
         0.10771E-01
         0.10771E-01
         0.10771E-01
         0.10771E-01
         0.10771E-01
         0.10771E-01
         0.10771E-01
         0.10771E-01
         0.10771E-01
         0.10771E-01
         0.10771E-01
         0.10771E-01
         0.10771E-01
         0.10771E-01
         0.10771E-01
         0.10771E-01
         0.10771E-01
         0.10771E-01
         0.10771E-01
         0.10771E-01
         0.10771E-01
         0.10771E-01
         0.10771E-01
         0.10771E-01
         0.10771E-01
         0.10771E-01
         0.10771E-01
         0.10771E-01
         0.10771E-01
         0.10771E-01
         0.10771E-01
         0.10771E-01
         0.10771E-01
         0.10771E-01
         0.10771E-01
         0.10771E-01
         0.10771E-01
         0.10771E-01
         0.10771E-01
         0.10771E-01
         0.10771E-01
         0.10771E-01
         0.10771E-01
         0.10771E-01
         0.10771E-01
         0.10771E-01
         0.10771E-01
         0.10771E-01
         0.10771E-01
         0.11750E-01
         0.11750E-01
         0.11750E-01
         0.11750E-01
         0.11750E-01
         0.11750E-01
         0.11750E-01
         0.11750E-01
         0.11750E-01
         0.11750E-01
         0.11750E-01
         0.11750E-01
         0.11750E-01
         0.11750E-01
         0.11750E-01
         0.11750E-01
         0.11750E-01
         0.11750E-01
         0.11750E-01
         0.11750E-01
         0.11750E-01
         0.11750E-01
         0.11750E-01
         0.11750E-01
         0.11750E-01
         0.11750E-01
         0.11750E-01
         0.11750E-01
         0.11750E-01
         0.11750E-01
         0.11750E-01
         0.11750E-01
         0.11750E-01
         0.11750E-01
         0.11750E-01
         0.11750E-01
         0.11750E-01
         0.11750E-01
         0.11750E-01
         0.11750E-01
         0.11750E-01
         0.11750E-01
         0.11750E-01
         0.11750E-01
         0.11750E-01
         0.11750E-01
         0.11750E-01
         0.11750E-01
         0.11750E-01
         0.11750E-01
         0.11750E-01
         0.11750E-01
         0.11750E-01
         0.11750E-01
         0.11750E-01
         0.11750E-01
         0.11750E-01
         0.11750E-01
         0.11750E-01
         0.11750E-01
         0.11750E-01
         0.11750E-01
         0.11750E-01
         0.11750E-01
         0.11750E-01
         0.11750E-01
         0.11750E-01
         0.11750E-01
         0.11750E-01
         0.11750E-01
         0.11750E-01
         0.11750E-01
         0.11750E-01
         0.11750E-01
         0.11750E-01
         0.11750E-01
         0.11750E-01
         0.11750E-01
  
SCALARS                init_velocity_x  double 1
LOOKUP_TABLE default
         0.00000E+00
         0.00000E+00
         0.00000E+00
         0.00000E+00
         0.00000E+00
         0.00000E+00
         0.00000E+00
         0.00000E+00
         0.00000E+00
         0.00000E+00
         0.00000E+00
         0.00000E+00
         0.00000E+00
         0.00000E+00
         0.00000E+00
         0.00000E+00
         0.00000E+00
         0.00000E+00
         0.00000E+00
         0.00000E+00
         0.00000E+00
         0.00000E+00
         0.00000E+00
         0.00000E+00
         0.00000E+00
         0.00000E+00
         0.00000E+00
         0.00000E+00
         0.00000E+00
         0.00000E+00
         0.00000E+00
         0.00000E+00
         0.00000E+00
         0.00000E+00
         0.00000E+00
         0.00000E+00
         0.00000E+00
         0.00000E+00
         0.00000E+00
         0.00000E+00
         0.00000E+00
         0.00000E+00
         0.00000E+00
         0.00000E+00
         0.00000E+00
         0.00000E+00
         0.00000E+00
         0.00000E+00
         0.00000E+00
         0.00000E+00
         0.00000E+00
         0.00000E+00
         0.00000E+00
         0.00000E+00
         0.00000E+00
         0.00000E+00
         0.00000E+00
         0.00000E+00
         0.00000E+00
         0.00000E+00
         0.00000E+00
         0.00000E+00
         0.00000E+00
         0.00000E+00
         0.00000E+00
         0.00000E+00
         0.00000E+00
         0.00000E+00
         0.00000E+00
         0.00000E+00
         0.00000E+00
         0.00000E+00
         0.00000E+00
         0.00000E+00
         0.00000E+00
         0.00000E+00
         0.00000E+00
         0.00000E+00
         0.00000E+00
         0.00000E+00
         0.00000E+00
         0.00000E+00
         0.00000E+00
         0.00000E+00
         0.00000E+00
         0.00000E+00
         0.00000E+00
         0.00000E+00
         0.00000E+00
         0.00000E+00
         0.00000E+00
         0.00000E+00
         0.00000E+00
         0.00000E+00
         0.00000E+00
         0.00000E+00
         0.00000E+00
         0.00000E+00
         0.00000E+00
         0.00000E+00
         0.00000E+00
         0.00000E+00
         0.00000E+00
         0.00000E+00
         0.00000E+00
         0.00000E+00
         0.00000E+00
         0.00000E+00
         0.00000E+00
         0.00000E+00
         0.00000E+00
         0.00000E+00
         0.00000E+00
         0.00000E+00
         0.00000E+00
         0.00000E+00
         0.00000E+00
         0.00000E+00
         0.00000E+00
         0.00000E+00
         0.00000E+00
         0.00000E+00
         0.00000E+00
         0.00000E+00
         0.00000E+00
         0.00000E+00
         0.00000E+00
         0.00000E+00
         0.00000E+00
         0.00000E+00
         0.00000E+00
         0.00000E+00
         0.00000E+00
         0.00000E+00
         0.00000E+00
         0.00000E+00
         0.00000E+00
         0.00000E+00
         0.00000E+00
         0.00000E+00
         0.00000E+00
         0.00000E+00
         0.00000E+00
         0.00000E+00
         0.00000E+00
         0.00000E+00
         0.00000E+00
         0.00000E+00
         0.00000E+00
         0.00000E+00
         0.00000E+00
         0.00000E+00
         0.00000E+00
         0.00000E+00
         0.00000E+00
         0.00000E+00
         0.00000E+00
         0.00000E+00
         0.00000E+00
         0.00000E+00
         0.00000E+00
         0.00000E+00
         0.00000E+00
         0.00000E+00
         0.00000E+00
         0.00000E+00
         0.00000E+00
         0.00000E+00
         0.00000E+00
         0.00000E+00
         0.00000E+00
         0.00000E+00
         0.00000E+00
         0.00000E+00
         0.00000E+00
         0.00000E+00
         0.00000E+00
         0.00000E+00
         0.00000E+00
         0.00000E+00
         0.00000E+00
         0.00000E+00
         0.00000E+00
         0.00000E+00
         0.00000E+00
         0.00000E+00
         0.00000E+00
         0.00000E+00
         0.00000E+00
         0.00000E+00
         0.00000E+00
         0.00000E+00
         0.00000E+00
         0.00000E+00
         0.00000E+00
         0.00000E+00
         0.00000E+00
         0.00000E+00
         0.00000E+00
         0.00000E+00
         0.00000E+00
         0.00000E+00
         0.00000E+00
         0.00000E+00
         0.00000E+00
         0.00000E+00
         0.00000E+00
         0.00000E+00
         0.00000E+00
         0.00000E+00
         0.00000E+00
         0.00000E+00
         0.00000E+00
         0.00000E+00
         0.00000E+00
         0.00000E+00
         0.00000E+00
         0.00000E+00
         0.00000E+00
         0.00000E+00
         0.00000E+00
         0.00000E+00
         0.00000E+00
         0.00000E+00
         0.00000E+00
         0.00000E+00
         0.00000E+00
         0.00000E+00
         0.00000E+00
         0.00000E+00
         0.00000E+00
         0.00000E+00
         0.00000E+00
         0.00000E+00
         0.00000E+00
         0.00000E+00
         0.00000E+00
         0.00000E+00
         0.00000E+00
         0.00000E+00
         0.00000E+00
         0.00000E+00
         0.00000E+00
         0.00000E+00
         0.00000E+00
         0.00000E+00
         0.00000E+00
         0.00000E+00
         0.00000E+00
         0.00000E+00
         0.00000E+00
         0.00000E+00
         0.00000E+00
         0.00000E+00
         0.00000E+00
         0.00000E+00
         0.00000E+00
         0.00000E+00
         0.00000E+00
         0.00000E+00
         0.00000E+00
         0.00000E+00
         0.00000E+00
         0.00000E+00
         0.00000E+00
         0.00000E+00
         0.00000E+00
         0.00000E+00
         0.00000E+00
         0.00000E+00
         0.00000E+00
         0.00000E+00
         0.00000E+00
         0.00000E+00
         0.00000E+00
         0.00000E+00
         0.00000E+00
         0.00000E+00
         0.00000E+00
         0.00000E+00
         0.00000E+00
         0.00000E+00
         0.00000E+00
         0.00000E+00
         0.00000E+00
         0.00000E+00
         0.00000E+00
         0.00000E+00
         0.00000E+00
         0.00000E+00
         0.00000E+00
         0.00000E+00
         0.00000E+00
         0.00000E+00
         0.00000E+00
         0.00000E+00
         0.00000E+00
         0.00000E+00
         0.00000E+00
         0.00000E+00
         0.00000E+00
         0.00000E+00
         0.00000E+00
         0.00000E+00
         0.00000E+00
         0.00000E+00
         0.00000E+00
         0.00000E+00
         0.00000E+00
         0.00000E+00
         0.00000E+00
         0.00000E+00
         0.00000E+00
         0.00000E+00
         0.00000E+00
         0.00000E+00
         0.00000E+00
         0.00000E+00
         0.00000E+00
         0.00000E+00
         0.00000E+00
         0.00000E+00
         0.00000E+00
         0.00000E+00
         0.00000E+00
         0.00000E+00
         0.00000E+00
         0.00000E+00
         0.00000E+00
         0.00000E+00
         0.00000E+00
         0.00000E+00
         0.00000E+00
         0.00000E+00
         0.00000E+00
         0.00000E+00
         0.00000E+00
         0.00000E+00
         0.00000E+00
         0.00000E+00
         0.00000E+00
         0.00000E+00
         0.00000E+00
         0.00000E+00
         0.00000E+00
         0.00000E+00
         0.00000E+00
         0.00000E+00
         0.00000E+00
         0.00000E+00
         0.00000E+00
         0.00000E+00
         0.00000E+00
         0.00000E+00
         0.00000E+00
         0.00000E+00
         0.00000E+00
         0.00000E+00
         0.00000E+00
         0.00000E+00
         0.00000E+00
         0.00000E+00
         0.00000E+00
         0.00000E+00
         0.00000E+00
         0.00000E+00
         0.00000E+00
         0.00000E+00
         0.00000E+00
         0.00000E+00
         0.00000E+00
         0.00000E+00
         0.00000E+00
         0.00000E+00
         0.00000E+00
         0.00000E+00
         0.00000E+00
         0.00000E+00
         0.00000E+00
         0.00000E+00
         0.00000E+00
         0.00000E+00
         0.00000E+00
         0.00000E+00
         0.00000E+00
         0.00000E+00
         0.00000E+00
         0.00000E+00
         0.00000E+00
         0.00000E+00
         0.00000E+00
         0.00000E+00
         0.00000E+00
         0.00000E+00
         0.00000E+00
         0.00000E+00
         0.00000E+00
         0.00000E+00
         0.00000E+00
         0.00000E+00
         0.00000E+00
         0.00000E+00
         0.00000E+00
         0.00000E+00
         0.00000E+00
         0.00000E+00
         0.00000E+00
         0.00000E+00
         0.00000E+00
         0.00000E+00
         0.00000E+00
         0.00000E+00
         0.00000E+00
         0.00000E+00
         0.00000E+00
         0.00000E+00
         0.00000E+00
         0.00000E+00
         0.00000E+00
         0.00000E+00
         0.00000E+00
         0.00000E+00
         0.00000E+00
         0.00000E+00
         0.00000E+00
         0.00000E+00
         0.00000E+00
         0.00000E+00
         0.00000E+00
         0.00000E+00
         0.00000E+00
         0.00000E+00
         0.00000E+00
         0.00000E+00
         0.00000E+00
         0.00000E+00
         0.00000E+00
         0.00000E+00
         0.00000E+00
         0.00000E+00
         0.00000E+00
         0.00000E+00
         0.00000E+00
         0.00000E+00
         0.00000E+00
         0.00000E+00
         0.00000E+00
         0.00000E+00
         0.00000E+00
         0.00000E+00
         0.00000E+00
         0.00000E+00
         0.00000E+00
         0.00000E+00
         0.00000E+00
         0.00000E+00
         0.00000E+00
         0.00000E+00
         0.00000E+00
         0.00000E+00
         0.00000E+00
         0.00000E+00
         0.00000E+00
         0.00000E+00
         0.00000E+00
         0.00000E+00
         0.00000E+00
         0.00000E+00
         0.00000E+00
         0.00000E+00
         0.00000E+00
         0.00000E+00
         0.00000E+00
         0.00000E+00
         0.00000E+00
         0.00000E+00
         0.00000E+00
         0.00000E+00
         0.00000E+00
         0.00000E+00
         0.00000E+00
         0.00000E+00
         0.00000E+00
         0.00000E+00
         0.00000E+00
         0.00000E+00
         0.00000E+00
         0.00000E+00
         0.00000E+00
         0.00000E+00
         0.00000E+00
         0.00000E+00
         0.00000E+00
         0.00000E+00
         0.00000E+00
         0.00000E+00
         0.00000E+00
         0.00000E+00
         0.00000E+00
         0.00000E+00
         0.00000E+00
         0.00000E+00
         0.00000E+00
         0.00000E+00
         0.00000E+00
         0.00000E+00
         0.00000E+00
         0.00000E+00
         0.00000E+00
         0.00000E+00
         0.00000E+00
         0.00000E+00
         0.00000E+00
         0.00000E+00
         0.00000E+00
         0.00000E+00
         0.00000E+00
         0.00000E+00
         0.00000E+00
         0.00000E+00
         0.00000E+00
         0.00000E+00
         0.00000E+00
         0.00000E+00
         0.00000E+00
         0.00000E+00
         0.00000E+00
         0.00000E+00
         0.00000E+00
         0.00000E+00
         0.00000E+00
         0.00000E+00
         0.00000E+00
         0.00000E+00
         0.00000E+00
         0.00000E+00
         0.00000E+00
         0.00000E+00
         0.00000E+00
         0.00000E+00
         0.00000E+00
         0.00000E+00
         0.00000E+00
         0.00000E+00
         0.00000E+00
         0.00000E+00
         0.00000E+00
         0.00000E+00
         0.00000E+00
         0.00000E+00
         0.00000E+00
         0.00000E+00
         0.00000E+00
         0.00000E+00
         0.00000E+00
         0.00000E+00
         0.00000E+00
         0.00000E+00
         0.00000E+00
         0.00000E+00
         0.00000E+00
         0.00000E+00
         0.00000E+00
         0.00000E+00
         0.00000E+00
         0.00000E+00
         0.00000E+00
         0.00000E+00
         0.00000E+00
         0.00000E+00
         0.00000E+00
         0.00000E+00
         0.00000E+00
         0.00000E+00
         0.00000E+00
         0.00000E+00
         0.00000E+00
         0.00000E+00
         0.00000E+00
         0.00000E+00
         0.00000E+00
         0.00000E+00
         0.00000E+00
         0.00000E+00
         0.00000E+00
         0.00000E+00
         0.00000E+00
         0.00000E+00
         0.00000E+00
         0.00000E+00
         0.00000E+00
         0.00000E+00
         0.00000E+00
         0.00000E+00
         0.00000E+00
         0.00000E+00
         0.00000E+00
         0.00000E+00
         0.00000E+00
         0.00000E+00
         0.00000E+00
         0.00000E+00
         0.00000E+00
         0.00000E+00
         0.00000E+00
         0.00000E+00
         0.00000E+00
         0.00000E+00
         0.00000E+00
         0.00000E+00
         0.00000E+00
         0.00000E+00
         0.00000E+00
         0.00000E+00
         0.00000E+00
         0.00000E+00
         0.00000E+00
         0.00000E+00
         0.00000E+00
         0.00000E+00
         0.00000E+00
         0.00000E+00
         0.00000E+00
         0.00000E+00
         0.00000E+00
         0.00000E+00
         0.00000E+00
         0.00000E+00
         0.00000E+00
         0.00000E+00
         0.00000E+00
         0.00000E+00
         0.00000E+00
         0.00000E+00
         0.00000E+00
         0.00000E+00
         0.00000E+00
         0.00000E+00
         0.00000E+00
         0.00000E+00
         0.00000E+00
         0.00000E+00
         0.00000E+00
         0.00000E+00
         0.00000E+00
         0.00000E+00
         0.00000E+00
         0.00000E+00
         0.00000E+00
         0.00000E+00
         0.00000E+00
         0.00000E+00
         0.00000E+00
         0.00000E+00
         0.00000E+00
         0.00000E+00
         0.00000E+00
         0.00000E+00
         0.00000E+00
         0.00000E+00
         0.00000E+00
         0.00000E+00
         0.00000E+00
         0.00000E+00
         0.00000E+00
         0.00000E+00
         0.00000E+00
         0.00000E+00
         0.00000E+00
         0.00000E+00
         0.00000E+00
         0.00000E+00
         0.00000E+00
         0.00000E+00
         0.00000E+00
         0.00000E+00
         0.00000E+00
         0.00000E+00
         0.00000E+00
         0.00000E+00
         0.00000E+00
         0.00000E+00
         0.00000E+00
         0.00000E+00
         0.00000E+00
         0.00000E+00
         0.00000E+00
         0.00000E+00
         0.00000E+00
         0.00000E+00
         0.00000E+00
         0.00000E+00
         0.00000E+00
         0.00000E+00
         0.00000E+00
         0.00000E+00
         0.00000E+00
         0.00000E+00
         0.00000E+00
         0.00000E+00
         0.00000E+00
         0.00000E+00
         0.00000E+00
         0.00000E+00
         0.00000E+00
         0.00000E+00
         0.00000E+00
         0.00000E+00
         0.00000E+00
         0.00000E+00
         0.00000E+00
         0.00000E+00
         0.00000E+00
         0.00000E+00
         0.00000E+00
         0.00000E+00
         0.00000E+00
         0.00000E+00
         0.00000E+00
         0.00000E+00
         0.00000E+00
         0.00000E+00
         0.00000E+00
         0.00000E+00
         0.00000E+00
         0.00000E+00
         0.00000E+00
         0.00000E+00
         0.00000E+00
         0.00000E+00
         0.00000E+00
         0.00000E+00
         0.00000E+00
         0.00000E+00
         0.00000E+00
         0.00000E+00
         0.00000E+00
         0.00000E+00
         0.00000E+00
         0.00000E+00
         0.00000E+00
         0.00000E+00
         0.00000E+00
         0.00000E+00
         0.00000E+00
         0.00000E+00
         0.00000E+00
         0.00000E+00
         0.00000E+00
         0.00000E+00
         0.00000E+00
         0.00000E+00
         0.00000E+00
         0.00000E+00
         0.00000E+00
         0.00000E+00
         0.00000E+00
         0.00000E+00
         0.00000E+00
         0.00000E+00
         0.00000E+00
         0.00000E+00
         0.00000E+00
         0.00000E+00
         0.00000E+00
         0.00000E+00
         0.00000E+00
         0.00000E+00
         0.00000E+00
         0.00000E+00
         0.00000E+00
         0.00000E+00
         0.00000E+00
         0.00000E+00
         0.00000E+00
         0.00000E+00
         0.00000E+00
         0.00000E+00
         0.00000E+00
         0.00000E+00
         0.00000E+00
         0.00000E+00
         0.00000E+00
         0.00000E+00
         0.00000E+00
         0.00000E+00
         0.00000E+00
         0.00000E+00
         0.00000E+00
         0.00000E+00
         0.00000E+00
         0.00000E+00
         0.00000E+00
         0.00000E+00
         0.00000E+00
         0.00000E+00
         0.00000E+00
         0.00000E+00
         0.00000E+00
         0.00000E+00
         0.00000E+00
         0.00000E+00
         0.00000E+00
         0.00000E+00
         0.00000E+00
         0.00000E+00
         0.00000E+00
         0.00000E+00
         0.00000E+00
         0.00000E+00
         0.00000E+00
         0.00000E+00
         0.00000E+00
         0.00000E+00
         0.00000E+00
         0.00000E+00
         0.00000E+00
         0.00000E+00
         0.00000E+00
         0.00000E+00
         0.00000E+00
         0.00000E+00
         0.00000E+00
         0.00000E+00
         0.00000E+00
         0.00000E+00
         0.00000E+00
         0.00000E+00
         0.00000E+00
         0.00000E+00
         0.00000E+00
         0.00000E+00
         0.00000E+00
         0.00000E+00
         0.00000E+00
         0.00000E+00
         0.00000E+00
         0.00000E+00
         0.00000E+00
         0.00000E+00
         0.00000E+00
         0.00000E+00
         0.00000E+00
         0.00000E+00
         0.00000E+00
         0.00000E+00
         0.00000E+00
         0.00000E+00
         0.00000E+00
         0.00000E+00
         0.00000E+00
         0.00000E+00
         0.00000E+00
         0.00000E+00
         0.00000E+00
         0.00000E+00
         0.00000E+00
         0.00000E+00
         0.00000E+00
         0.00000E+00
         0.00000E+00
         0.00000E+00
         0.00000E+00
         0.00000E+00
         0.00000E+00
         0.00000E+00
         0.00000E+00
         0.00000E+00
         0.00000E+00
         0.00000E+00
         0.00000E+00
         0.00000E+00
         0.00000E+00
         0.00000E+00
         0.00000E+00
         0.00000E+00
         0.00000E+00
         0.00000E+00
         0.00000E+00
         0.00000E+00
         0.00000E+00
         0.00000E+00
         0.00000E+00
         0.00000E+00
         0.00000E+00
         0.00000E+00
         0.00000E+00
         0.00000E+00
         0.00000E+00
         0.00000E+00
         0.00000E+00
         0.00000E+00
         0.00000E+00
         0.00000E+00
         0.00000E+00
         0.00000E+00
         0.00000E+00
         0.00000E+00
         0.00000E+00
         0.00000E+00
         0.00000E+00
         0.00000E+00
         0.00000E+00
         0.00000E+00
         0.00000E+00
         0.00000E+00
         0.00000E+00
         0.00000E+00
         0.00000E+00
         0.00000E+00
         0.00000E+00
         0.00000E+00
         0.00000E+00
         0.00000E+00
         0.00000E+00
         0.00000E+00
         0.00000E+00
         0.00000E+00
         0.00000E+00
         0.00000E+00
         0.00000E+00
         0.00000E+00
         0.00000E+00
         0.00000E+00
         0.00000E+00
         0.00000E+00
         0.00000E+00
         0.00000E+00
         0.00000E+00
         0.00000E+00
         0.00000E+00
         0.00000E+00
         0.00000E+00
         0.00000E+00
         0.00000E+00
         0.00000E+00
         0.00000E+00
         0.00000E+00
         0.00000E+00
         0.00000E+00
         0.00000E+00
         0.00000E+00
         0.00000E+00
         0.00000E+00
         0.00000E+00
         0.00000E+00
         0.00000E+00
         0.00000E+00
         0.00000E+00
         0.00000E+00
         0.00000E+00
         0.00000E+00
         0.00000E+00
         0.00000E+00
         0.00000E+00
         0.00000E+00
         0.00000E+00
         0.00000E+00
         0.00000E+00
         0.00000E+00
         0.00000E+00
         0.00000E+00
         0.00000E+00
         0.00000E+00
         0.00000E+00
         0.00000E+00
         0.00000E+00
         0.00000E+00
         0.00000E+00
         0.00000E+00
         0.00000E+00
         0.00000E+00
         0.00000E+00
         0.00000E+00
         0.00000E+00
         0.00000E+00
         0.00000E+00
         0.00000E+00
         0.00000E+00
         0.00000E+00
         0.00000E+00
         0.00000E+00
         0.00000E+00
         0.00000E+00
         0.00000E+00
         0.00000E+00
         0.00000E+00
         0.00000E+00
         0.00000E+00
         0.00000E+00
         0.00000E+00
         0.00000E+00
         0.00000E+00
         0.00000E+00
         0.00000E+00
         0.00000E+00
         0.00000E+00
         0.00000E+00
         0.00000E+00
         0.00000E+00
         0.00000E+00
         0.00000E+00
         0.00000E+00
         0.00000E+00
         0.00000E+00
         0.00000E+00
         0.00000E+00
         0.00000E+00
         0.00000E+00
         0.00000E+00
         0.00000E+00
         0.00000E+00
         0.00000E+00
         0.00000E+00
         0.00000E+00
         0.00000E+00
         0.00000E+00
         0.00000E+00
         0.00000E+00
         0.00000E+00
         0.00000E+00
         0.00000E+00
         0.00000E+00
         0.00000E+00
         0.00000E+00
         0.00000E+00
         0.00000E+00
         0.00000E+00
         0.00000E+00
         0.00000E+00
         0.00000E+00
         0.00000E+00
         0.00000E+00
         0.00000E+00
         0.00000E+00
         0.00000E+00
         0.00000E+00
         0.00000E+00
         0.00000E+00
         0.00000E+00
         0.00000E+00
         0.00000E+00
         0.00000E+00
         0.00000E+00
         0.00000E+00
         0.00000E+00
         0.00000E+00
         0.00000E+00
         0.00000E+00
         0.00000E+00
         0.00000E+00
         0.00000E+00
         0.00000E+00
         0.00000E+00
         0.00000E+00
         0.00000E+00
         0.00000E+00
         0.00000E+00
         0.00000E+00
         0.00000E+00
         0.00000E+00
         0.00000E+00
         0.00000E+00
         0.00000E+00
         0.00000E+00
         0.00000E+00
         0.00000E+00
         0.00000E+00
         0.00000E+00
         0.00000E+00
         0.00000E+00
         0.00000E+00
         0.00000E+00
         0.00000E+00
         0.00000E+00
         0.00000E+00
         0.00000E+00
         0.00000E+00
         0.00000E+00
         0.00000E+00
         0.00000E+00
         0.00000E+00
         0.00000E+00
         0.00000E+00
         0.00000E+00
         0.00000E+00
         0.00000E+00
         0.00000E+00
         0.00000E+00
         0.00000E+00
         0.00000E+00
         0.00000E+00
         0.00000E+00
         0.00000E+00
         0.00000E+00
         0.00000E+00
         0.00000E+00
         0.00000E+00
         0.00000E+00
         0.00000E+00
         0.00000E+00
         0.00000E+00
         0.00000E+00
         0.00000E+00
         0.00000E+00
         0.00000E+00
         0.00000E+00
         0.00000E+00
         0.00000E+00
         0.00000E+00
         0.00000E+00
         0.00000E+00
         0.00000E+00
         0.00000E+00
         0.00000E+00
         0.00000E+00
         0.00000E+00
         0.00000E+00
         0.00000E+00
         0.00000E+00
         0.00000E+00
         0.00000E+00
         0.00000E+00
         0.00000E+00
         0.00000E+00
         0.00000E+00
         0.00000E+00
         0.00000E+00
         0.00000E+00
         0.00000E+00
         0.00000E+00
         0.00000E+00
         0.00000E+00
         0.00000E+00
         0.00000E+00
         0.00000E+00
         0.00000E+00
         0.00000E+00
         0.00000E+00
         0.00000E+00
         0.00000E+00
         0.00000E+00
         0.00000E+00
         0.00000E+00
         0.00000E+00
         0.00000E+00
         0.00000E+00
         0.00000E+00
         0.00000E+00
         0.00000E+00
         0.00000E+00
         0.00000E+00
         0.00000E+00
         0.00000E+00
         0.00000E+00
         0.00000E+00
         0.00000E+00
         0.00000E+00
         0.00000E+00
         0.00000E+00
         0.00000E+00
         0.00000E+00
         0.00000E+00
         0.00000E+00
         0.00000E+00
         0.00000E+00
         0.00000E+00
         0.00000E+00
         0.00000E+00
         0.00000E+00
         0.00000E+00
         0.00000E+00
         0.00000E+00
         0.00000E+00
         0.00000E+00
         0.00000E+00
         0.00000E+00
         0.00000E+00
         0.00000E+00
         0.00000E+00
         0.00000E+00
         0.00000E+00
         0.00000E+00
         0.00000E+00
         0.00000E+00
         0.00000E+00
         0.00000E+00
         0.00000E+00
         0.00000E+00
         0.00000E+00
         0.00000E+00
         0.00000E+00
         0.00000E+00
         0.00000E+00
         0.00000E+00
         0.00000E+00
         0.00000E+00
         0.00000E+00
         0.00000E+00
         0.00000E+00
         0.00000E+00
         0.00000E+00
         0.00000E+00
         0.00000E+00
         0.00000E+00
         0.00000E+00
         0.00000E+00
         0.00000E+00
         0.00000E+00
         0.00000E+00
         0.00000E+00
         0.00000E+00
         0.00000E+00
         0.00000E+00
         0.00000E+00
         0.00000E+00
         0.00000E+00
         0.00000E+00
         0.00000E+00
         0.00000E+00
         0.00000E+00
         0.00000E+00
         0.00000E+00
         0.00000E+00
         0.00000E+00
         0.00000E+00
         0.00000E+00
         0.00000E+00
         0.00000E+00
         0.00000E+00
         0.00000E+00
         0.00000E+00
         0.00000E+00
         0.00000E+00
         0.00000E+00
         0.00000E+00
         0.00000E+00
         0.00000E+00
         0.00000E+00
         0.00000E+00
         0.00000E+00
         0.00000E+00
         0.00000E+00
         0.00000E+00
         0.00000E+00
         0.00000E+00
         0.00000E+00
         0.00000E+00
         0.00000E+00
         0.00000E+00
         0.00000E+00
         0.00000E+00
         0.00000E+00
         0.00000E+00
         0.00000E+00
         0.00000E+00
         0.00000E+00
         0.00000E+00
         0.00000E+00
         0.00000E+00
         0.00000E+00
         0.00000E+00
         0.00000E+00
         0.00000E+00
         0.00000E+00
         0.00000E+00
         0.00000E+00
         0.00000E+00
         0.00000E+00
         0.00000E+00
         0.00000E+00
         0.00000E+00
         0.00000E+00
         0.00000E+00
         0.00000E+00
         0.00000E+00
         0.00000E+00
         0.00000E+00
         0.00000E+00
         0.00000E+00
         0.00000E+00
         0.00000E+00
         0.00000E+00
         0.00000E+00
         0.00000E+00
         0.00000E+00
         0.00000E+00
         0.00000E+00
         0.00000E+00
         0.00000E+00
         0.00000E+00
         0.00000E+00
         0.00000E+00
         0.00000E+00
         0.00000E+00
         0.00000E+00
         0.00000E+00
         0.00000E+00
         0.00000E+00
         0.00000E+00
         0.00000E+00
         0.00000E+00
         0.00000E+00
         0.00000E+00
         0.00000E+00
         0.00000E+00
         0.00000E+00
         0.00000E+00
         0.00000E+00
         0.00000E+00
         0.00000E+00
         0.00000E+00
         0.00000E+00
         0.00000E+00
         0.00000E+00
         0.00000E+00
         0.00000E+00
         0.00000E+00
         0.00000E+00
         0.00000E+00
         0.00000E+00
         0.00000E+00
         0.00000E+00
         0.00000E+00
         0.00000E+00
         0.00000E+00
         0.00000E+00
         0.00000E+00
         0.00000E+00
         0.00000E+00
         0.00000E+00
         0.00000E+00
         0.00000E+00
         0.00000E+00
         0.00000E+00
         0.00000E+00
         0.00000E+00
         0.00000E+00
         0.00000E+00
         0.00000E+00
         0.00000E+00
         0.00000E+00
         0.00000E+00
         0.00000E+00
         0.00000E+00
         0.00000E+00
         0.00000E+00
         0.00000E+00
         0.00000E+00
         0.00000E+00
         0.00000E+00
         0.00000E+00
         0.00000E+00
         0.00000E+00
         0.00000E+00
         0.00000E+00
         0.00000E+00
         0.00000E+00
         0.00000E+00
         0.00000E+00
         0.00000E+00
         0.00000E+00
         0.00000E+00
         0.00000E+00
         0.00000E+00
         0.00000E+00
         0.00000E+00
         0.00000E+00
         0.00000E+00
         0.00000E+00
         0.00000E+00
         0.00000E+00
         0.00000E+00
         0.00000E+00
         0.00000E+00
         0.00000E+00
         0.00000E+00
         0.00000E+00
         0.00000E+00
         0.00000E+00
         0.00000E+00
         0.00000E+00
         0.00000E+00
         0.00000E+00
         0.00000E+00
         0.00000E+00
         0.00000E+00
         0.00000E+00
         0.00000E+00
         0.00000E+00
         0.00000E+00
         0.00000E+00
         0.00000E+00
         0.00000E+00
         0.00000E+00
         0.00000E+00
         0.00000E+00
         0.00000E+00
         0.00000E+00
         0.00000E+00
         0.00000E+00
         0.00000E+00
         0.00000E+00
         0.00000E+00
         0.00000E+00
         0.00000E+00
         0.00000E+00
         0.00000E+00
         0.00000E+00
         0.00000E+00
         0.00000E+00
         0.00000E+00
         0.00000E+00
         0.00000E+00
         0.00000E+00
         0.00000E+00
         0.00000E+00
         0.00000E+00
         0.00000E+00
         0.00000E+00
         0.00000E+00
         0.00000E+00
         0.00000E+00
         0.00000E+00
         0.00000E+00
         0.00000E+00
         0.00000E+00
         0.00000E+00
         0.00000E+00
         0.00000E+00
         0.00000E+00
         0.00000E+00
         0.00000E+00
         0.00000E+00
         0.00000E+00
         0.00000E+00
         0.00000E+00
         0.00000E+00
         0.00000E+00
         0.00000E+00
         0.00000E+00
         0.00000E+00
         0.00000E+00
         0.00000E+00
         0.00000E+00
         0.00000E+00
         0.00000E+00
         0.00000E+00
         0.00000E+00
         0.00000E+00
         0.00000E+00
         0.00000E+00
         0.00000E+00
         0.00000E+00
         0.00000E+00
         0.00000E+00
         0.00000E+00
         0.00000E+00
         0.00000E+00
         0.00000E+00
         0.00000E+00
         0.00000E+00
         0.00000E+00
         0.00000E+00
         0.00000E+00
         0.00000E+00
         0.00000E+00
         0.00000E+00
         0.00000E+00
         0.00000E+00
         0.00000E+00
         0.00000E+00
         0.00000E+00
         0.00000E+00
         0.00000E+00
         0.00000E+00
         0.00000E+00
         0.00000E+00
         0.00000E+00
         0.00000E+00
         0.00000E+00
         0.00000E+00
         0.00000E+00
         0.00000E+00
         0.00000E+00
         0.00000E+00
         0.00000E+00
         0.00000E+00
         0.00000E+00
         0.00000E+00
         0.00000E+00
         0.00000E+00
         0.00000E+00
         0.00000E+00
         0.00000E+00
         0.00000E+00
         0.00000E+00
         0.00000E+00
         0.00000E+00
         0.00000E+00
         0.00000E+00
         0.00000E+00
         0.00000E+00
         0.00000E+00
         0.00000E+00
         0.00000E+00
         0.00000E+00
         0.00000E+00
         0.00000E+00
         0.00000E+00
         0.00000E+00
         0.00000E+00
         0.00000E+00
         0.00000E+00
         0.00000E+00
         0.00000E+00
         0.00000E+00
         0.00000E+00
         0.00000E+00
         0.00000E+00
         0.00000E+00
         0.00000E+00
         0.00000E+00
         0.00000E+00
         0.00000E+00
         0.00000E+00
         0.00000E+00
         0.00000E+00
         0.00000E+00
         0.00000E+00
         0.00000E+00
         0.00000E+00
         0.00000E+00
         0.00000E+00
         0.00000E+00
         0.00000E+00
         0.00000E+00
         0.00000E+00
         0.00000E+00
         0.00000E+00
         0.00000E+00
         0.00000E+00
         0.00000E+00
         0.00000E+00
         0.00000E+00
         0.00000E+00
         0.00000E+00
         0.00000E+00
         0.00000E+00
         0.00000E+00
         0.00000E+00
         0.00000E+00
         0.00000E+00
         0.00000E+00
         0.00000E+00
         0.00000E+00
         0.00000E+00
         0.00000E+00
         0.00000E+00
         0.00000E+00
         0.00000E+00
         0.00000E+00
         0.00000E+00
         0.00000E+00
         0.00000E+00
         0.00000E+00
         0.00000E+00
         0.00000E+00
         0.00000E+00
         0.00000E+00
         0.00000E+00
         0.00000E+00
         0.00000E+00
         0.00000E+00
         0.00000E+00
         0.00000E+00
         0.00000E+00
         0.00000E+00
         0.00000E+00
         0.00000E+00
         0.00000E+00
         0.00000E+00
         0.00000E+00
         0.00000E+00
         0.00000E+00
         0.00000E+00
         0.00000E+00
         0.00000E+00
         0.00000E+00
         0.00000E+00
         0.00000E+00
         0.00000E+00
         0.00000E+00
         0.00000E+00
         0.00000E+00
         0.00000E+00
         0.00000E+00
         0.00000E+00
         0.00000E+00
         0.00000E+00
         0.00000E+00
         0.00000E+00
         0.00000E+00
         0.00000E+00
         0.00000E+00
         0.00000E+00
         0.00000E+00
         0.00000E+00
         0.00000E+00
         0.00000E+00
         0.00000E+00
         0.00000E+00
         0.00000E+00
         0.00000E+00
         0.00000E+00
         0.00000E+00
         0.00000E+00
         0.00000E+00
         0.00000E+00
         0.00000E+00
         0.00000E+00
         0.00000E+00
         0.00000E+00
         0.00000E+00
         0.00000E+00
         0.00000E+00
         0.00000E+00
         0.00000E+00
         0.00000E+00
         0.00000E+00
         0.00000E+00
         0.00000E+00
         0.00000E+00
         0.00000E+00
         0.00000E+00
         0.00000E+00
         0.00000E+00
         0.00000E+00
         0.00000E+00
         0.00000E+00
         0.00000E+00
         0.00000E+00
         0.00000E+00
         0.00000E+00
         0.00000E+00
         0.00000E+00
         0.00000E+00
         0.00000E+00
         0.00000E+00
         0.00000E+00
         0.00000E+00
         0.00000E+00
         0.00000E+00
         0.00000E+00
         0.00000E+00
         0.00000E+00
         0.00000E+00
         0.00000E+00
         0.00000E+00
         0.00000E+00
         0.00000E+00
         0.00000E+00
         0.00000E+00
         0.00000E+00
         0.00000E+00
         0.00000E+00
         0.00000E+00
         0.00000E+00
         0.00000E+00
         0.00000E+00
         0.00000E+00
         0.00000E+00
         0.00000E+00
         0.00000E+00
         0.00000E+00
         0.00000E+00
         0.00000E+00
         0.00000E+00
         0.00000E+00
         0.00000E+00
         0.00000E+00
         0.00000E+00
         0.00000E+00
         0.00000E+00
         0.00000E+00
         0.00000E+00
         0.00000E+00
         0.00000E+00
         0.00000E+00
         0.00000E+00
         0.00000E+00
         0.00000E+00
         0.00000E+00
         0.00000E+00
         0.00000E+00
         0.00000E+00
         0.00000E+00
         0.00000E+00
         0.00000E+00
         0.00000E+00
         0.00000E+00
         0.00000E+00
         0.00000E+00
         0.00000E+00
         0.00000E+00
         0.00000E+00
         0.00000E+00
         0.00000E+00
         0.00000E+00
         0.00000E+00
         0.00000E+00
         0.00000E+00
         0.00000E+00
         0.00000E+00
         0.00000E+00
         0.00000E+00
         0.00000E+00
         0.00000E+00
         0.00000E+00
         0.00000E+00
         0.00000E+00
         0.00000E+00
         0.00000E+00
         0.00000E+00
         0.00000E+00
         0.00000E+00
         0.00000E+00
         0.00000E+00
         0.00000E+00
         0.00000E+00
         0.00000E+00
         0.00000E+00
         0.00000E+00
         0.00000E+00
         0.00000E+00
         0.00000E+00
         0.00000E+00
         0.00000E+00
         0.00000E+00
         0.00000E+00
         0.00000E+00
         0.00000E+00
         0.00000E+00
         0.00000E+00
         0.00000E+00
         0.00000E+00
         0.00000E+00
         0.00000E+00
         0.00000E+00
         0.00000E+00
         0.00000E+00
         0.00000E+00
         0.00000E+00
         0.00000E+00
         0.00000E+00
         0.00000E+00
         0.00000E+00
         0.00000E+00
         0.00000E+00
         0.00000E+00
         0.00000E+00
         0.00000E+00
         0.00000E+00
         0.00000E+00
         0.00000E+00
         0.00000E+00
         0.00000E+00
         0.00000E+00
         0.00000E+00
         0.00000E+00
         0.00000E+00
         0.00000E+00
         0.00000E+00
         0.00000E+00
         0.00000E+00
         0.00000E+00
         0.00000E+00
         0.00000E+00
         0.00000E+00
         0.00000E+00
         0.00000E+00
         0.00000E+00
         0.00000E+00
         0.00000E+00
         0.00000E+00
         0.00000E+00
         0.00000E+00
         0.00000E+00
         0.00000E+00
         0.00000E+00
         0.00000E+00
         0.00000E+00
         0.00000E+00
         0.00000E+00
         0.00000E+00
         0.00000E+00
         0.00000E+00
         0.00000E+00
         0.00000E+00
         0.00000E+00
         0.00000E+00
         0.00000E+00
         0.00000E+00
         0.00000E+00
         0.00000E+00
         0.00000E+00
         0.00000E+00
         0.00000E+00
         0.00000E+00
         0.00000E+00
         0.00000E+00
         0.00000E+00
         0.00000E+00
         0.00000E+00
         0.00000E+00
         0.00000E+00
         0.00000E+00
         0.00000E+00
         0.00000E+00
         0.00000E+00
         0.00000E+00
         0.00000E+00
         0.00000E+00
         0.00000E+00
         0.00000E+00
         0.00000E+00
         0.00000E+00
         0.00000E+00
         0.00000E+00
         0.00000E+00
         0.00000E+00
         0.00000E+00
         0.00000E+00
         0.00000E+00
         0.00000E+00
         0.00000E+00
         0.00000E+00
         0.00000E+00
         0.00000E+00
         0.00000E+00
         0.00000E+00
         0.00000E+00
         0.00000E+00
         0.00000E+00
         0.00000E+00
         0.00000E+00
         0.00000E+00
         0.00000E+00
         0.00000E+00
         0.00000E+00
         0.00000E+00
         0.00000E+00
         0.00000E+00
         0.00000E+00
         0.00000E+00
         0.00000E+00
         0.00000E+00
         0.00000E+00
         0.00000E+00
         0.00000E+00
         0.00000E+00
         0.00000E+00
         0.00000E+00
         0.00000E+00
         0.00000E+00
         0.00000E+00
         0.00000E+00
         0.00000E+00
         0.00000E+00
         0.00000E+00
         0.00000E+00
         0.00000E+00
         0.00000E+00
         0.00000E+00
         0.00000E+00
         0.00000E+00
         0.00000E+00
         0.00000E+00
         0.00000E+00
         0.00000E+00
         0.00000E+00
         0.00000E+00
         0.00000E+00
         0.00000E+00
         0.00000E+00
         0.00000E+00
         0.00000E+00
         0.00000E+00
         0.00000E+00
         0.00000E+00
         0.00000E+00
         0.00000E+00
         0.00000E+00
         0.00000E+00
         0.00000E+00
         0.00000E+00
         0.00000E+00
         0.00000E+00
         0.00000E+00
         0.00000E+00
         0.00000E+00
         0.00000E+00
         0.00000E+00
         0.00000E+00
         0.00000E+00
         0.00000E+00
         0.00000E+00
         0.00000E+00
         0.00000E+00
         0.00000E+00
         0.00000E+00
         0.00000E+00
         0.00000E+00
         0.00000E+00
         0.00000E+00
         0.00000E+00
         0.00000E+00
         0.00000E+00
         0.00000E+00
         0.00000E+00
         0.00000E+00
         0.00000E+00
         0.00000E+00
         0.00000E+00
         0.00000E+00
         0.00000E+00
         0.00000E+00
         0.00000E+00
         0.00000E+00
         0.00000E+00
         0.00000E+00
         0.00000E+00
         0.00000E+00
         0.00000E+00
         0.00000E+00
         0.00000E+00
         0.00000E+00
         0.00000E+00
         0.00000E+00
         0.00000E+00
         0.00000E+00
         0.00000E+00
         0.00000E+00
         0.00000E+00
         0.00000E+00
         0.00000E+00
         0.00000E+00
         0.00000E+00
         0.00000E+00
         0.00000E+00
  
SCALARS                init_velocity_y  double 1
LOOKUP_TABLE default
         0.00000E+00
         0.00000E+00
         0.00000E+00
         0.00000E+00
         0.00000E+00
         0.00000E+00
         0.00000E+00
         0.00000E+00
         0.00000E+00
         0.00000E+00
         0.00000E+00
         0.00000E+00
         0.00000E+00
         0.00000E+00
         0.00000E+00
         0.00000E+00
         0.00000E+00
         0.00000E+00
         0.00000E+00
         0.00000E+00
         0.00000E+00
         0.00000E+00
         0.00000E+00
         0.00000E+00
         0.00000E+00
         0.00000E+00
         0.00000E+00
         0.00000E+00
         0.00000E+00
         0.00000E+00
         0.00000E+00
         0.00000E+00
         0.00000E+00
         0.00000E+00
         0.00000E+00
         0.00000E+00
         0.00000E+00
         0.00000E+00
         0.00000E+00
         0.00000E+00
         0.00000E+00
         0.00000E+00
         0.00000E+00
         0.00000E+00
         0.00000E+00
         0.00000E+00
         0.00000E+00
         0.00000E+00
         0.00000E+00
         0.00000E+00
         0.00000E+00
         0.00000E+00
         0.00000E+00
         0.00000E+00
         0.00000E+00
         0.00000E+00
         0.00000E+00
         0.00000E+00
         0.00000E+00
         0.00000E+00
         0.00000E+00
         0.00000E+00
         0.00000E+00
         0.00000E+00
         0.00000E+00
         0.00000E+00
         0.00000E+00
         0.00000E+00
         0.00000E+00
         0.00000E+00
         0.00000E+00
         0.00000E+00
         0.00000E+00
         0.00000E+00
         0.00000E+00
         0.00000E+00
         0.00000E+00
         0.00000E+00
         0.00000E+00
         0.00000E+00
         0.00000E+00
         0.00000E+00
         0.00000E+00
         0.00000E+00
         0.00000E+00
         0.00000E+00
         0.00000E+00
         0.00000E+00
         0.00000E+00
         0.00000E+00
         0.00000E+00
         0.00000E+00
         0.00000E+00
         0.00000E+00
         0.00000E+00
         0.00000E+00
         0.00000E+00
         0.00000E+00
         0.00000E+00
         0.00000E+00
         0.00000E+00
         0.00000E+00
         0.00000E+00
         0.00000E+00
         0.00000E+00
         0.00000E+00
         0.00000E+00
         0.00000E+00
         0.00000E+00
         0.00000E+00
         0.00000E+00
         0.00000E+00
         0.00000E+00
         0.00000E+00
         0.00000E+00
         0.00000E+00
         0.00000E+00
         0.00000E+00
         0.00000E+00
         0.00000E+00
         0.00000E+00
         0.00000E+00
         0.00000E+00
         0.00000E+00
         0.00000E+00
         0.00000E+00
         0.00000E+00
         0.00000E+00
         0.00000E+00
         0.00000E+00
         0.00000E+00
         0.00000E+00
         0.00000E+00
         0.00000E+00
         0.00000E+00
         0.00000E+00
         0.00000E+00
         0.00000E+00
         0.00000E+00
         0.00000E+00
         0.00000E+00
         0.00000E+00
         0.00000E+00
         0.00000E+00
         0.00000E+00
         0.00000E+00
         0.00000E+00
         0.00000E+00
         0.00000E+00
         0.00000E+00
         0.00000E+00
         0.00000E+00
         0.00000E+00
         0.00000E+00
         0.00000E+00
         0.00000E+00
         0.00000E+00
         0.00000E+00
         0.00000E+00
         0.00000E+00
         0.00000E+00
         0.00000E+00
         0.00000E+00
         0.00000E+00
         0.00000E+00
         0.00000E+00
         0.00000E+00
         0.00000E+00
         0.00000E+00
         0.00000E+00
         0.00000E+00
         0.00000E+00
         0.00000E+00
         0.00000E+00
         0.00000E+00
         0.00000E+00
         0.00000E+00
         0.00000E+00
         0.00000E+00
         0.00000E+00
         0.00000E+00
         0.00000E+00
         0.00000E+00
         0.00000E+00
         0.00000E+00
         0.00000E+00
         0.00000E+00
         0.00000E+00
         0.00000E+00
         0.00000E+00
         0.00000E+00
         0.00000E+00
         0.00000E+00
         0.00000E+00
         0.00000E+00
         0.00000E+00
         0.00000E+00
         0.00000E+00
         0.00000E+00
         0.00000E+00
         0.00000E+00
         0.00000E+00
         0.00000E+00
         0.00000E+00
         0.00000E+00
         0.00000E+00
         0.00000E+00
         0.00000E+00
         0.00000E+00
         0.00000E+00
         0.00000E+00
         0.00000E+00
         0.00000E+00
         0.00000E+00
         0.00000E+00
         0.00000E+00
         0.00000E+00
         0.00000E+00
         0.00000E+00
         0.00000E+00
         0.00000E+00
         0.00000E+00
         0.00000E+00
         0.00000E+00
         0.00000E+00
         0.00000E+00
         0.00000E+00
         0.00000E+00
         0.00000E+00
         0.00000E+00
         0.00000E+00
         0.00000E+00
         0.00000E+00
         0.00000E+00
         0.00000E+00
         0.00000E+00
         0.00000E+00
         0.00000E+00
         0.00000E+00
         0.00000E+00
         0.00000E+00
         0.00000E+00
         0.00000E+00
         0.00000E+00
         0.00000E+00
         0.00000E+00
         0.00000E+00
         0.00000E+00
         0.00000E+00
         0.00000E+00
         0.00000E+00
         0.00000E+00
         0.00000E+00
         0.00000E+00
         0.00000E+00
         0.00000E+00
         0.00000E+00
         0.00000E+00
         0.00000E+00
         0.00000E+00
         0.00000E+00
         0.00000E+00
         0.00000E+00
         0.00000E+00
         0.00000E+00
         0.00000E+00
         0.00000E+00
         0.00000E+00
         0.00000E+00
         0.00000E+00
         0.00000E+00
         0.00000E+00
         0.00000E+00
         0.00000E+00
         0.00000E+00
         0.00000E+00
         0.00000E+00
         0.00000E+00
         0.00000E+00
         0.00000E+00
         0.00000E+00
         0.00000E+00
         0.00000E+00
         0.00000E+00
         0.00000E+00
         0.00000E+00
         0.00000E+00
         0.00000E+00
         0.00000E+00
         0.00000E+00
         0.00000E+00
         0.00000E+00
         0.00000E+00
         0.00000E+00
         0.00000E+00
         0.00000E+00
         0.00000E+00
         0.00000E+00
         0.00000E+00
         0.00000E+00
         0.00000E+00
         0.00000E+00
         0.00000E+00
         0.00000E+00
         0.00000E+00
         0.00000E+00
         0.00000E+00
         0.00000E+00
         0.00000E+00
         0.00000E+00
         0.00000E+00
         0.00000E+00
         0.00000E+00
         0.00000E+00
         0.00000E+00
         0.00000E+00
         0.00000E+00
         0.00000E+00
         0.00000E+00
         0.00000E+00
         0.00000E+00
         0.00000E+00
         0.00000E+00
         0.00000E+00
         0.00000E+00
         0.00000E+00
         0.00000E+00
         0.00000E+00
         0.00000E+00
         0.00000E+00
         0.00000E+00
         0.00000E+00
         0.00000E+00
         0.00000E+00
         0.00000E+00
         0.00000E+00
         0.00000E+00
         0.00000E+00
         0.00000E+00
         0.00000E+00
         0.00000E+00
         0.00000E+00
         0.00000E+00
         0.00000E+00
         0.00000E+00
         0.00000E+00
         0.00000E+00
         0.00000E+00
         0.00000E+00
         0.00000E+00
         0.00000E+00
         0.00000E+00
         0.00000E+00
         0.00000E+00
         0.00000E+00
         0.00000E+00
         0.00000E+00
         0.00000E+00
         0.00000E+00
         0.00000E+00
         0.00000E+00
         0.00000E+00
         0.00000E+00
         0.00000E+00
         0.00000E+00
         0.00000E+00
         0.00000E+00
         0.00000E+00
         0.00000E+00
         0.00000E+00
         0.00000E+00
         0.00000E+00
         0.00000E+00
         0.00000E+00
         0.00000E+00
         0.00000E+00
         0.00000E+00
         0.00000E+00
         0.00000E+00
         0.00000E+00
         0.00000E+00
         0.00000E+00
         0.00000E+00
         0.00000E+00
         0.00000E+00
         0.00000E+00
         0.00000E+00
         0.00000E+00
         0.00000E+00
         0.00000E+00
         0.00000E+00
         0.00000E+00
         0.00000E+00
         0.00000E+00
         0.00000E+00
         0.00000E+00
         0.00000E+00
         0.00000E+00
         0.00000E+00
         0.00000E+00
         0.00000E+00
         0.00000E+00
         0.00000E+00
         0.00000E+00
         0.00000E+00
         0.00000E+00
         0.00000E+00
         0.00000E+00
         0.00000E+00
         0.00000E+00
         0.00000E+00
         0.00000E+00
         0.00000E+00
         0.00000E+00
         0.00000E+00
         0.00000E+00
         0.00000E+00
         0.00000E+00
         0.00000E+00
         0.00000E+00
         0.00000E+00
         0.00000E+00
         0.00000E+00
         0.00000E+00
         0.00000E+00
         0.00000E+00
         0.00000E+00
         0.00000E+00
         0.00000E+00
         0.00000E+00
         0.00000E+00
         0.00000E+00
         0.00000E+00
         0.00000E+00
         0.00000E+00
         0.00000E+00
         0.00000E+00
         0.00000E+00
         0.00000E+00
         0.00000E+00
         0.00000E+00
         0.00000E+00
         0.00000E+00
         0.00000E+00
         0.00000E+00
         0.00000E+00
         0.00000E+00
         0.00000E+00
         0.00000E+00
         0.00000E+00
         0.00000E+00
         0.00000E+00
         0.00000E+00
         0.00000E+00
         0.00000E+00
         0.00000E+00
         0.00000E+00
         0.00000E+00
         0.00000E+00
         0.00000E+00
         0.00000E+00
         0.00000E+00
         0.00000E+00
         0.00000E+00
         0.00000E+00
         0.00000E+00
         0.00000E+00
         0.00000E+00
         0.00000E+00
         0.00000E+00
         0.00000E+00
         0.00000E+00
         0.00000E+00
         0.00000E+00
         0.00000E+00
         0.00000E+00
         0.00000E+00
         0.00000E+00
         0.00000E+00
         0.00000E+00
         0.00000E+00
         0.00000E+00
         0.00000E+00
         0.00000E+00
         0.00000E+00
         0.00000E+00
         0.00000E+00
         0.00000E+00
         0.00000E+00
         0.00000E+00
         0.00000E+00
         0.00000E+00
         0.00000E+00
         0.00000E+00
         0.00000E+00
         0.00000E+00
         0.00000E+00
         0.00000E+00
         0.00000E+00
         0.00000E+00
         0.00000E+00
         0.00000E+00
         0.00000E+00
         0.00000E+00
         0.00000E+00
         0.00000E+00
         0.00000E+00
         0.00000E+00
         0.00000E+00
         0.00000E+00
         0.00000E+00
         0.00000E+00
         0.00000E+00
         0.00000E+00
         0.00000E+00
         0.00000E+00
         0.00000E+00
         0.00000E+00
         0.00000E+00
         0.00000E+00
         0.00000E+00
         0.00000E+00
         0.00000E+00
         0.00000E+00
         0.00000E+00
         0.00000E+00
         0.00000E+00
         0.00000E+00
         0.00000E+00
         0.00000E+00
         0.00000E+00
         0.00000E+00
         0.00000E+00
         0.00000E+00
         0.00000E+00
         0.00000E+00
         0.00000E+00
         0.00000E+00
         0.00000E+00
         0.00000E+00
         0.00000E+00
         0.00000E+00
         0.00000E+00
         0.00000E+00
         0.00000E+00
         0.00000E+00
         0.00000E+00
         0.00000E+00
         0.00000E+00
         0.00000E+00
         0.00000E+00
         0.00000E+00
         0.00000E+00
         0.00000E+00
         0.00000E+00
         0.00000E+00
         0.00000E+00
         0.00000E+00
         0.00000E+00
         0.00000E+00
         0.00000E+00
         0.00000E+00
         0.00000E+00
         0.00000E+00
         0.00000E+00
         0.00000E+00
         0.00000E+00
         0.00000E+00
         0.00000E+00
         0.00000E+00
         0.00000E+00
         0.00000E+00
         0.00000E+00
         0.00000E+00
         0.00000E+00
         0.00000E+00
         0.00000E+00
         0.00000E+00
         0.00000E+00
         0.00000E+00
         0.00000E+00
         0.00000E+00
         0.00000E+00
         0.00000E+00
         0.00000E+00
         0.00000E+00
         0.00000E+00
         0.00000E+00
         0.00000E+00
         0.00000E+00
         0.00000E+00
         0.00000E+00
         0.00000E+00
         0.00000E+00
         0.00000E+00
         0.00000E+00
         0.00000E+00
         0.00000E+00
         0.00000E+00
         0.00000E+00
         0.00000E+00
         0.00000E+00
         0.00000E+00
         0.00000E+00
         0.00000E+00
         0.00000E+00
         0.00000E+00
         0.00000E+00
         0.00000E+00
         0.00000E+00
         0.00000E+00
         0.00000E+00
         0.00000E+00
         0.00000E+00
         0.00000E+00
         0.00000E+00
         0.00000E+00
         0.00000E+00
         0.00000E+00
         0.00000E+00
         0.00000E+00
         0.00000E+00
         0.00000E+00
         0.00000E+00
         0.00000E+00
         0.00000E+00
         0.00000E+00
         0.00000E+00
         0.00000E+00
         0.00000E+00
         0.00000E+00
         0.00000E+00
         0.00000E+00
         0.00000E+00
         0.00000E+00
         0.00000E+00
         0.00000E+00
         0.00000E+00
         0.00000E+00
         0.00000E+00
         0.00000E+00
         0.00000E+00
         0.00000E+00
         0.00000E+00
         0.00000E+00
         0.00000E+00
         0.00000E+00
         0.00000E+00
         0.00000E+00
         0.00000E+00
         0.00000E+00
         0.00000E+00
         0.00000E+00
         0.00000E+00
         0.00000E+00
         0.00000E+00
         0.00000E+00
         0.00000E+00
         0.00000E+00
         0.00000E+00
         0.00000E+00
         0.00000E+00
         0.00000E+00
         0.00000E+00
         0.00000E+00
         0.00000E+00
         0.00000E+00
         0.00000E+00
         0.00000E+00
         0.00000E+00
         0.00000E+00
         0.00000E+00
         0.00000E+00
         0.00000E+00
         0.00000E+00
         0.00000E+00
         0.00000E+00
         0.00000E+00
         0.00000E+00
         0.00000E+00
         0.00000E+00
         0.00000E+00
         0.00000E+00
         0.00000E+00
         0.00000E+00
         0.00000E+00
         0.00000E+00
         0.00000E+00
         0.00000E+00
         0.00000E+00
         0.00000E+00
         0.00000E+00
         0.00000E+00
         0.00000E+00
         0.00000E+00
         0.00000E+00
         0.00000E+00
         0.00000E+00
         0.00000E+00
         0.00000E+00
         0.00000E+00
         0.00000E+00
         0.00000E+00
         0.00000E+00
         0.00000E+00
         0.00000E+00
         0.00000E+00
         0.00000E+00
         0.00000E+00
         0.00000E+00
         0.00000E+00
         0.00000E+00
         0.00000E+00
         0.00000E+00
         0.00000E+00
         0.00000E+00
         0.00000E+00
         0.00000E+00
         0.00000E+00
         0.00000E+00
         0.00000E+00
         0.00000E+00
         0.00000E+00
         0.00000E+00
         0.00000E+00
         0.00000E+00
         0.00000E+00
         0.00000E+00
         0.00000E+00
         0.00000E+00
         0.00000E+00
         0.00000E+00
         0.00000E+00
         0.00000E+00
         0.00000E+00
         0.00000E+00
         0.00000E+00
         0.00000E+00
         0.00000E+00
         0.00000E+00
         0.00000E+00
         0.00000E+00
         0.00000E+00
         0.00000E+00
         0.00000E+00
         0.00000E+00
         0.00000E+00
         0.00000E+00
         0.00000E+00
         0.00000E+00
         0.00000E+00
         0.00000E+00
         0.00000E+00
         0.00000E+00
         0.00000E+00
         0.00000E+00
         0.00000E+00
         0.00000E+00
         0.00000E+00
         0.00000E+00
         0.00000E+00
         0.00000E+00
         0.00000E+00
         0.00000E+00
         0.00000E+00
         0.00000E+00
         0.00000E+00
         0.00000E+00
         0.00000E+00
         0.00000E+00
         0.00000E+00
         0.00000E+00
         0.00000E+00
         0.00000E+00
         0.00000E+00
         0.00000E+00
         0.00000E+00
         0.00000E+00
         0.00000E+00
         0.00000E+00
         0.00000E+00
         0.00000E+00
         0.00000E+00
         0.00000E+00
         0.00000E+00
         0.00000E+00
         0.00000E+00
         0.00000E+00
         0.00000E+00
         0.00000E+00
         0.00000E+00
         0.00000E+00
         0.00000E+00
         0.00000E+00
         0.00000E+00
         0.00000E+00
         0.00000E+00
         0.00000E+00
         0.00000E+00
         0.00000E+00
         0.00000E+00
         0.00000E+00
         0.00000E+00
         0.00000E+00
         0.00000E+00
         0.00000E+00
         0.00000E+00
         0.00000E+00
         0.00000E+00
         0.00000E+00
         0.00000E+00
         0.00000E+00
         0.00000E+00
         0.00000E+00
         0.00000E+00
         0.00000E+00
         0.00000E+00
         0.00000E+00
         0.00000E+00
         0.00000E+00
         0.00000E+00
         0.00000E+00
         0.00000E+00
         0.00000E+00
         0.00000E+00
         0.00000E+00
         0.00000E+00
         0.00000E+00
         0.00000E+00
         0.00000E+00
         0.00000E+00
         0.00000E+00
         0.00000E+00
         0.00000E+00
         0.00000E+00
         0.00000E+00
         0.00000E+00
         0.00000E+00
         0.00000E+00
         0.00000E+00
         0.00000E+00
         0.00000E+00
         0.00000E+00
         0.00000E+00
         0.00000E+00
         0.00000E+00
         0.00000E+00
         0.00000E+00
         0.00000E+00
         0.00000E+00
         0.00000E+00
         0.00000E+00
         0.00000E+00
         0.00000E+00
         0.00000E+00
         0.00000E+00
         0.00000E+00
         0.00000E+00
         0.00000E+00
         0.00000E+00
         0.00000E+00
         0.00000E+00
         0.00000E+00
         0.00000E+00
         0.00000E+00
         0.00000E+00
         0.00000E+00
         0.00000E+00
         0.00000E+00
         0.00000E+00
         0.00000E+00
         0.00000E+00
         0.00000E+00
         0.00000E+00
         0.00000E+00
         0.00000E+00
         0.00000E+00
         0.00000E+00
         0.00000E+00
         0.00000E+00
         0.00000E+00
         0.00000E+00
         0.00000E+00
         0.00000E+00
         0.00000E+00
         0.00000E+00
         0.00000E+00
         0.00000E+00
         0.00000E+00
         0.00000E+00
         0.00000E+00
         0.00000E+00
         0.00000E+00
         0.00000E+00
         0.00000E+00
         0.00000E+00
         0.00000E+00
         0.00000E+00
         0.00000E+00
         0.00000E+00
         0.00000E+00
         0.00000E+00
         0.00000E+00
         0.00000E+00
         0.00000E+00
         0.00000E+00
         0.00000E+00
         0.00000E+00
         0.00000E+00
         0.00000E+00
         0.00000E+00
         0.00000E+00
         0.00000E+00
         0.00000E+00
         0.00000E+00
         0.00000E+00
         0.00000E+00
         0.00000E+00
         0.00000E+00
         0.00000E+00
         0.00000E+00
         0.00000E+00
         0.00000E+00
         0.00000E+00
         0.00000E+00
         0.00000E+00
         0.00000E+00
         0.00000E+00
         0.00000E+00
         0.00000E+00
         0.00000E+00
         0.00000E+00
         0.00000E+00
         0.00000E+00
         0.00000E+00
         0.00000E+00
         0.00000E+00
         0.00000E+00
         0.00000E+00
         0.00000E+00
         0.00000E+00
         0.00000E+00
         0.00000E+00
         0.00000E+00
         0.00000E+00
         0.00000E+00
         0.00000E+00
         0.00000E+00
         0.00000E+00
         0.00000E+00
         0.00000E+00
         0.00000E+00
         0.00000E+00
         0.00000E+00
         0.00000E+00
         0.00000E+00
         0.00000E+00
         0.00000E+00
         0.00000E+00
         0.00000E+00
         0.00000E+00
         0.00000E+00
         0.00000E+00
         0.00000E+00
         0.00000E+00
         0.00000E+00
         0.00000E+00
         0.00000E+00
         0.00000E+00
         0.00000E+00
         0.00000E+00
         0.00000E+00
         0.00000E+00
         0.00000E+00
         0.00000E+00
         0.00000E+00
         0.00000E+00
         0.00000E+00
         0.00000E+00
         0.00000E+00
         0.00000E+00
         0.00000E+00
         0.00000E+00
         0.00000E+00
         0.00000E+00
         0.00000E+00
         0.00000E+00
         0.00000E+00
         0.00000E+00
         0.00000E+00
         0.00000E+00
         0.00000E+00
         0.00000E+00
         0.00000E+00
         0.00000E+00
         0.00000E+00
         0.00000E+00
         0.00000E+00
         0.00000E+00
         0.00000E+00
         0.00000E+00
         0.00000E+00
         0.00000E+00
         0.00000E+00
         0.00000E+00
         0.00000E+00
         0.00000E+00
         0.00000E+00
         0.00000E+00
         0.00000E+00
         0.00000E+00
         0.00000E+00
         0.00000E+00
         0.00000E+00
         0.00000E+00
         0.00000E+00
         0.00000E+00
         0.00000E+00
         0.00000E+00
         0.00000E+00
         0.00000E+00
         0.00000E+00
         0.00000E+00
         0.00000E+00
         0.00000E+00
         0.00000E+00
         0.00000E+00
         0.00000E+00
         0.00000E+00
         0.00000E+00
         0.00000E+00
         0.00000E+00
         0.00000E+00
         0.00000E+00
         0.00000E+00
         0.00000E+00
         0.00000E+00
         0.00000E+00
         0.00000E+00
         0.00000E+00
         0.00000E+00
         0.00000E+00
         0.00000E+00
         0.00000E+00
         0.00000E+00
         0.00000E+00
         0.00000E+00
         0.00000E+00
         0.00000E+00
         0.00000E+00
         0.00000E+00
         0.00000E+00
         0.00000E+00
         0.00000E+00
         0.00000E+00
         0.00000E+00
         0.00000E+00
         0.00000E+00
         0.00000E+00
         0.00000E+00
         0.00000E+00
         0.00000E+00
         0.00000E+00
         0.00000E+00
         0.00000E+00
         0.00000E+00
         0.00000E+00
         0.00000E+00
         0.00000E+00
         0.00000E+00
         0.00000E+00
         0.00000E+00
         0.00000E+00
         0.00000E+00
         0.00000E+00
         0.00000E+00
         0.00000E+00
         0.00000E+00
         0.00000E+00
         0.00000E+00
         0.00000E+00
         0.00000E+00
         0.00000E+00
         0.00000E+00
         0.00000E+00
         0.00000E+00
         0.00000E+00
         0.00000E+00
         0.00000E+00
         0.00000E+00
         0.00000E+00
         0.00000E+00
         0.00000E+00
         0.00000E+00
         0.00000E+00
         0.00000E+00
         0.00000E+00
         0.00000E+00
         0.00000E+00
         0.00000E+00
         0.00000E+00
         0.00000E+00
         0.00000E+00
         0.00000E+00
         0.00000E+00
         0.00000E+00
         0.00000E+00
         0.00000E+00
         0.00000E+00
         0.00000E+00
         0.00000E+00
         0.00000E+00
         0.00000E+00
         0.00000E+00
         0.00000E+00
         0.00000E+00
         0.00000E+00
         0.00000E+00
         0.00000E+00
         0.00000E+00
         0.00000E+00
         0.00000E+00
         0.00000E+00
         0.00000E+00
         0.00000E+00
         0.00000E+00
         0.00000E+00
         0.00000E+00
         0.00000E+00
         0.00000E+00
         0.00000E+00
         0.00000E+00
         0.00000E+00
         0.00000E+00
         0.00000E+00
         0.00000E+00
         0.00000E+00
         0.00000E+00
         0.00000E+00
         0.00000E+00
         0.00000E+00
         0.00000E+00
         0.00000E+00
         0.00000E+00
         0.00000E+00
         0.00000E+00
         0.00000E+00
         0.00000E+00
         0.00000E+00
         0.00000E+00
         0.00000E+00
         0.00000E+00
         0.00000E+00
         0.00000E+00
         0.00000E+00
         0.00000E+00
         0.00000E+00
         0.00000E+00
         0.00000E+00
         0.00000E+00
         0.00000E+00
         0.00000E+00
         0.00000E+00
         0.00000E+00
         0.00000E+00
         0.00000E+00
         0.00000E+00
         0.00000E+00
         0.00000E+00
         0.00000E+00
         0.00000E+00
         0.00000E+00
         0.00000E+00
         0.00000E+00
         0.00000E+00
         0.00000E+00
         0.00000E+00
         0.00000E+00
         0.00000E+00
         0.00000E+00
         0.00000E+00
         0.00000E+00
         0.00000E+00
         0.00000E+00
         0.00000E+00
         0.00000E+00
         0.00000E+00
         0.00000E+00
         0.00000E+00
         0.00000E+00
         0.00000E+00
         0.00000E+00
         0.00000E+00
         0.00000E+00
         0.00000E+00
         0.00000E+00
         0.00000E+00
         0.00000E+00
         0.00000E+00
         0.00000E+00
         0.00000E+00
         0.00000E+00
         0.00000E+00
         0.00000E+00
         0.00000E+00
         0.00000E+00
         0.00000E+00
         0.00000E+00
         0.00000E+00
         0.00000E+00
         0.00000E+00
         0.00000E+00
         0.00000E+00
         0.00000E+00
         0.00000E+00
         0.00000E+00
         0.00000E+00
         0.00000E+00
         0.00000E+00
         0.00000E+00
         0.00000E+00
         0.00000E+00
         0.00000E+00
         0.00000E+00
         0.00000E+00
         0.00000E+00
         0.00000E+00
         0.00000E+00
         0.00000E+00
         0.00000E+00
         0.00000E+00
         0.00000E+00
         0.00000E+00
         0.00000E+00
         0.00000E+00
         0.00000E+00
         0.00000E+00
         0.00000E+00
         0.00000E+00
         0.00000E+00
         0.00000E+00
         0.00000E+00
         0.00000E+00
         0.00000E+00
         0.00000E+00
         0.00000E+00
         0.00000E+00
         0.00000E+00
         0.00000E+00
         0.00000E+00
         0.00000E+00
         0.00000E+00
         0.00000E+00
         0.00000E+00
         0.00000E+00
         0.00000E+00
         0.00000E+00
         0.00000E+00
         0.00000E+00
         0.00000E+00
         0.00000E+00
         0.00000E+00
         0.00000E+00
         0.00000E+00
         0.00000E+00
         0.00000E+00
         0.00000E+00
         0.00000E+00
         0.00000E+00
         0.00000E+00
         0.00000E+00
         0.00000E+00
         0.00000E+00
         0.00000E+00
         0.00000E+00
         0.00000E+00
         0.00000E+00
         0.00000E+00
         0.00000E+00
         0.00000E+00
         0.00000E+00
         0.00000E+00
         0.00000E+00
         0.00000E+00
         0.00000E+00
         0.00000E+00
         0.00000E+00
         0.00000E+00
         0.00000E+00
         0.00000E+00
         0.00000E+00
         0.00000E+00
         0.00000E+00
         0.00000E+00
         0.00000E+00
         0.00000E+00
         0.00000E+00
         0.00000E+00
         0.00000E+00
         0.00000E+00
         0.00000E+00
         0.00000E+00
         0.00000E+00
         0.00000E+00
         0.00000E+00
         0.00000E+00
         0.00000E+00
         0.00000E+00
         0.00000E+00
         0.00000E+00
         0.00000E+00
         0.00000E+00
         0.00000E+00
         0.00000E+00
         0.00000E+00
         0.00000E+00
         0.00000E+00
         0.00000E+00
         0.00000E+00
         0.00000E+00
         0.00000E+00
         0.00000E+00
         0.00000E+00
         0.00000E+00
         0.00000E+00
         0.00000E+00
         0.00000E+00
         0.00000E+00
         0.00000E+00
         0.00000E+00
         0.00000E+00
         0.00000E+00
         0.00000E+00
         0.00000E+00
         0.00000E+00
         0.00000E+00
         0.00000E+00
         0.00000E+00
         0.00000E+00
         0.00000E+00
         0.00000E+00
         0.00000E+00
         0.00000E+00
         0.00000E+00
         0.00000E+00
         0.00000E+00
         0.00000E+00
         0.00000E+00
         0.00000E+00
         0.00000E+00
         0.00000E+00
         0.00000E+00
         0.00000E+00
         0.00000E+00
         0.00000E+00
         0.00000E+00
         0.00000E+00
         0.00000E+00
         0.00000E+00
         0.00000E+00
         0.00000E+00
         0.00000E+00
         0.00000E+00
         0.00000E+00
         0.00000E+00
         0.00000E+00
         0.00000E+00
         0.00000E+00
         0.00000E+00
         0.00000E+00
         0.00000E+00
         0.00000E+00
         0.00000E+00
         0.00000E+00
         0.00000E+00
         0.00000E+00
         0.00000E+00
         0.00000E+00
         0.00000E+00
         0.00000E+00
         0.00000E+00
         0.00000E+00
         0.00000E+00
         0.00000E+00
         0.00000E+00
         0.00000E+00
         0.00000E+00
         0.00000E+00
         0.00000E+00
         0.00000E+00
         0.00000E+00
         0.00000E+00
         0.00000E+00
         0.00000E+00
         0.00000E+00
         0.00000E+00
         0.00000E+00
         0.00000E+00
         0.00000E+00
         0.00000E+00
         0.00000E+00
         0.00000E+00
         0.00000E+00
         0.00000E+00
         0.00000E+00
         0.00000E+00
         0.00000E+00
         0.00000E+00
         0.00000E+00
         0.00000E+00
         0.00000E+00
         0.00000E+00
         0.00000E+00
         0.00000E+00
         0.00000E+00
         0.00000E+00
         0.00000E+00
         0.00000E+00
         0.00000E+00
         0.00000E+00
         0.00000E+00
         0.00000E+00
         0.00000E+00
         0.00000E+00
         0.00000E+00
         0.00000E+00
         0.00000E+00
         0.00000E+00
         0.00000E+00
         0.00000E+00
         0.00000E+00
         0.00000E+00
         0.00000E+00
         0.00000E+00
         0.00000E+00
         0.00000E+00
         0.00000E+00
         0.00000E+00
         0.00000E+00
         0.00000E+00
         0.00000E+00
         0.00000E+00
         0.00000E+00
         0.00000E+00
         0.00000E+00
         0.00000E+00
         0.00000E+00
         0.00000E+00
         0.00000E+00
         0.00000E+00
         0.00000E+00
         0.00000E+00
         0.00000E+00
         0.00000E+00
         0.00000E+00
         0.00000E+00
         0.00000E+00
         0.00000E+00
         0.00000E+00
         0.00000E+00
         0.00000E+00
         0.00000E+00
         0.00000E+00
         0.00000E+00
         0.00000E+00
         0.00000E+00
         0.00000E+00
         0.00000E+00
         0.00000E+00
         0.00000E+00
         0.00000E+00
         0.00000E+00
         0.00000E+00
         0.00000E+00
         0.00000E+00
         0.00000E+00
         0.00000E+00
         0.00000E+00
         0.00000E+00
         0.00000E+00
         0.00000E+00
         0.00000E+00
         0.00000E+00
         0.00000E+00
         0.00000E+00
         0.00000E+00
         0.00000E+00
         0.00000E+00
         0.00000E+00
         0.00000E+00
         0.00000E+00
         0.00000E+00
         0.00000E+00
         0.00000E+00
         0.00000E+00
         0.00000E+00
         0.00000E+00
         0.00000E+00
         0.00000E+00
         0.00000E+00
         0.00000E+00
         0.00000E+00
         0.00000E+00
         0.00000E+00
         0.00000E+00
         0.00000E+00
         0.00000E+00
         0.00000E+00
         0.00000E+00
         0.00000E+00
         0.00000E+00
         0.00000E+00
         0.00000E+00
         0.00000E+00
         0.00000E+00
         0.00000E+00
         0.00000E+00
         0.00000E+00
         0.00000E+00
         0.00000E+00
         0.00000E+00
         0.00000E+00
         0.00000E+00
         0.00000E+00
         0.00000E+00
         0.00000E+00
         0.00000E+00
         0.00000E+00
         0.00000E+00
         0.00000E+00
         0.00000E+00
         0.00000E+00
         0.00000E+00
         0.00000E+00
         0.00000E+00
         0.00000E+00
         0.00000E+00
         0.00000E+00
         0.00000E+00
         0.00000E+00
         0.00000E+00
         0.00000E+00
         0.00000E+00
         0.00000E+00
         0.00000E+00
         0.00000E+00
         0.00000E+00
         0.00000E+00
         0.00000E+00
         0.00000E+00
         0.00000E+00
         0.00000E+00
         0.00000E+00
         0.00000E+00
         0.00000E+00
         0.00000E+00
         0.00000E+00
         0.00000E+00
         0.00000E+00
         0.00000E+00
         0.00000E+00
         0.00000E+00
         0.00000E+00
         0.00000E+00
         0.00000E+00
         0.00000E+00
         0.00000E+00
         0.00000E+00
         0.00000E+00
         0.00000E+00
         0.00000E+00
         0.00000E+00
         0.00000E+00
         0.00000E+00
         0.00000E+00
         0.00000E+00
         0.00000E+00
         0.00000E+00
         0.00000E+00
         0.00000E+00
         0.00000E+00
         0.00000E+00
         0.00000E+00
         0.00000E+00
         0.00000E+00
         0.00000E+00
         0.00000E+00
         0.00000E+00
         0.00000E+00
         0.00000E+00
         0.00000E+00
         0.00000E+00
         0.00000E+00
         0.00000E+00
         0.00000E+00
         0.00000E+00
         0.00000E+00
         0.00000E+00
         0.00000E+00
         0.00000E+00
         0.00000E+00
         0.00000E+00
         0.00000E+00
         0.00000E+00
         0.00000E+00
         0.00000E+00
         0.00000E+00
         0.00000E+00
         0.00000E+00
         0.00000E+00
         0.00000E+00
         0.00000E+00
         0.00000E+00
         0.00000E+00
         0.00000E+00
         0.00000E+00
         0.00000E+00
         0.00000E+00
         0.00000E+00
         0.00000E+00
         0.00000E+00
         0.00000E+00
         0.00000E+00
         0.00000E+00
         0.00000E+00
         0.00000E+00
         0.00000E+00
         0.00000E+00
         0.00000E+00
         0.00000E+00
         0.00000E+00
         0.00000E+00
         0.00000E+00
         0.00000E+00
         0.00000E+00
         0.00000E+00
         0.00000E+00
         0.00000E+00
         0.00000E+00
         0.00000E+00
         0.00000E+00
         0.00000E+00
         0.00000E+00
         0.00000E+00
         0.00000E+00
         0.00000E+00
         0.00000E+00
         0.00000E+00
         0.00000E+00
         0.00000E+00
         0.00000E+00
         0.00000E+00
         0.00000E+00
         0.00000E+00
         0.00000E+00
         0.00000E+00
         0.00000E+00
         0.00000E+00
         0.00000E+00
         0.00000E+00
         0.00000E+00
         0.00000E+00
         0.00000E+00
         0.00000E+00
         0.00000E+00
         0.00000E+00
         0.00000E+00
         0.00000E+00
         0.00000E+00
         0.00000E+00
         0.00000E+00
         0.00000E+00
         0.00000E+00
         0.00000E+00
         0.00000E+00
         0.00000E+00
         0.00000E+00
         0.00000E+00
         0.00000E+00
         0.00000E+00
         0.00000E+00
         0.00000E+00
         0.00000E+00
         0.00000E+00
         0.00000E+00
         0.00000E+00
         0.00000E+00
         0.00000E+00
         0.00000E+00
         0.00000E+00
         0.00000E+00
         0.00000E+00
         0.00000E+00
         0.00000E+00
         0.00000E+00
         0.00000E+00
         0.00000E+00
         0.00000E+00
         0.00000E+00
         0.00000E+00
         0.00000E+00
         0.00000E+00
         0.00000E+00
         0.00000E+00
         0.00000E+00
         0.00000E+00
         0.00000E+00
         0.00000E+00
         0.00000E+00
         0.00000E+00
         0.00000E+00
         0.00000E+00
         0.00000E+00
         0.00000E+00
         0.00000E+00
         0.00000E+00
         0.00000E+00
         0.00000E+00
         0.00000E+00
         0.00000E+00
         0.00000E+00
         0.00000E+00
         0.00000E+00
         0.00000E+00
         0.00000E+00
         0.00000E+00
         0.00000E+00
         0.00000E+00
         0.00000E+00
         0.00000E+00
         0.00000E+00
         0.00000E+00
         0.00000E+00
         0.00000E+00
         0.00000E+00
         0.00000E+00
         0.00000E+00
         0.00000E+00
         0.00000E+00
         0.00000E+00
         0.00000E+00
         0.00000E+00
         0.00000E+00
         0.00000E+00
         0.00000E+00
         0.00000E+00
         0.00000E+00
         0.00000E+00
         0.00000E+00
         0.00000E+00
         0.00000E+00
         0.00000E+00
         0.00000E+00
         0.00000E+00
         0.00000E+00
         0.00000E+00
         0.00000E+00
         0.00000E+00
         0.00000E+00
         0.00000E+00
         0.00000E+00
         0.00000E+00
         0.00000E+00
         0.00000E+00
         0.00000E+00
         0.00000E+00
         0.00000E+00
         0.00000E+00
         0.00000E+00
         0.00000E+00
         0.00000E+00
         0.00000E+00
         0.00000E+00
         0.00000E+00
         0.00000E+00
         0.00000E+00
         0.00000E+00
         0.00000E+00
         0.00000E+00
         0.00000E+00
         0.00000E+00
         0.00000E+00
         0.00000E+00
         0.00000E+00
         0.00000E+00
         0.00000E+00
         0.00000E+00
         0.00000E+00
         0.00000E+00
         0.00000E+00
         0.00000E+00
         0.00000E+00
         0.00000E+00
         0.00000E+00
         0.00000E+00
         0.00000E+00
         0.00000E+00
         0.00000E+00
         0.00000E+00
         0.00000E+00
         0.00000E+00
         0.00000E+00
         0.00000E+00
         0.00000E+00
         0.00000E+00
         0.00000E+00
         0.00000E+00
         0.00000E+00
         0.00000E+00
         0.00000E+00
         0.00000E+00
         0.00000E+00
         0.00000E+00
         0.00000E+00
         0.00000E+00
         0.00000E+00
         0.00000E+00
         0.00000E+00
         0.00000E+00
         0.00000E+00
         0.00000E+00
         0.00000E+00
         0.00000E+00
         0.00000E+00
         0.00000E+00
         0.00000E+00
         0.00000E+00
         0.00000E+00
         0.00000E+00
         0.00000E+00
         0.00000E+00
         0.00000E+00
         0.00000E+00
         0.00000E+00
         0.00000E+00
         0.00000E+00
         0.00000E+00
         0.00000E+00
         0.00000E+00
         0.00000E+00
         0.00000E+00
         0.00000E+00
         0.00000E+00
         0.00000E+00
         0.00000E+00
         0.00000E+00
         0.00000E+00
         0.00000E+00
         0.00000E+00
         0.00000E+00
         0.00000E+00
         0.00000E+00
         0.00000E+00
         0.00000E+00
         0.00000E+00
         0.00000E+00
         0.00000E+00
         0.00000E+00
         0.00000E+00
         0.00000E+00
         0.00000E+00
         0.00000E+00
         0.00000E+00
         0.00000E+00
         0.00000E+00
         0.00000E+00
         0.00000E+00
         0.00000E+00
         0.00000E+00
         0.00000E+00
         0.00000E+00
         0.00000E+00
         0.00000E+00
         0.00000E+00
         0.00000E+00
         0.00000E+00
         0.00000E+00
         0.00000E+00
         0.00000E+00
         0.00000E+00
         0.00000E+00
         0.00000E+00
         0.00000E+00
         0.00000E+00
         0.00000E+00
         0.00000E+00
         0.00000E+00
         0.00000E+00
         0.00000E+00
         0.00000E+00
         0.00000E+00
         0.00000E+00
         0.00000E+00
         0.00000E+00
         0.00000E+00
         0.00000E+00
         0.00000E+00
         0.00000E+00
         0.00000E+00
         0.00000E+00
         0.00000E+00
         0.00000E+00
         0.00000E+00
         0.00000E+00
         0.00000E+00
         0.00000E+00
         0.00000E+00
         0.00000E+00
         0.00000E+00
         0.00000E+00
         0.00000E+00
         0.00000E+00
         0.00000E+00
         0.00000E+00
         0.00000E+00
         0.00000E+00
         0.00000E+00
         0.00000E+00
         0.00000E+00
         0.00000E+00
         0.00000E+00
         0.00000E+00
         0.00000E+00
         0.00000E+00
         0.00000E+00
         0.00000E+00
         0.00000E+00
         0.00000E+00
         0.00000E+00
         0.00000E+00
         0.00000E+00
         0.00000E+00
         0.00000E+00
         0.00000E+00
         0.00000E+00
         0.00000E+00
         0.00000E+00
         0.00000E+00
         0.00000E+00
         0.00000E+00
         0.00000E+00
         0.00000E+00
         0.00000E+00
         0.00000E+00
         0.00000E+00
         0.00000E+00
         0.00000E+00
         0.00000E+00
         0.00000E+00
         0.00000E+00
  
SCALARS                init_velocity_z  double 1
LOOKUP_TABLE default
        -0.37300E+03
        -0.37300E+03
        -0.37300E+03
        -0.37300E+03
        -0.37300E+03
        -0.37300E+03
        -0.37300E+03
        -0.37300E+03
        -0.37300E+03
        -0.37300E+03
        -0.37300E+03
        -0.37300E+03
        -0.37300E+03
        -0.37300E+03
        -0.37300E+03
        -0.37300E+03
        -0.37300E+03
        -0.37300E+03
        -0.37300E+03
        -0.37300E+03
        -0.37300E+03
        -0.37300E+03
        -0.37300E+03
        -0.37300E+03
        -0.37300E+03
        -0.37300E+03
        -0.37300E+03
        -0.37300E+03
        -0.37300E+03
        -0.37300E+03
        -0.37300E+03
        -0.37300E+03
        -0.37300E+03
        -0.37300E+03
        -0.37300E+03
        -0.37300E+03
        -0.37300E+03
        -0.37300E+03
        -0.37300E+03
        -0.37300E+03
        -0.37300E+03
        -0.37300E+03
        -0.37300E+03
        -0.37300E+03
        -0.37300E+03
        -0.37300E+03
        -0.37300E+03
        -0.37300E+03
        -0.37300E+03
        -0.37300E+03
        -0.37300E+03
        -0.37300E+03
        -0.37300E+03
        -0.37300E+03
        -0.37300E+03
        -0.37300E+03
        -0.37300E+03
        -0.37300E+03
        -0.37300E+03
        -0.37300E+03
        -0.37300E+03
        -0.37300E+03
        -0.37300E+03
        -0.37300E+03
        -0.37300E+03
        -0.37300E+03
        -0.37300E+03
        -0.37300E+03
        -0.37300E+03
        -0.37300E+03
        -0.37300E+03
        -0.37300E+03
        -0.37300E+03
        -0.37300E+03
        -0.37300E+03
        -0.37300E+03
        -0.37300E+03
        -0.37300E+03
        -0.37300E+03
        -0.37300E+03
        -0.37300E+03
        -0.37300E+03
        -0.37300E+03
        -0.37300E+03
        -0.37300E+03
        -0.37300E+03
        -0.37300E+03
        -0.37300E+03
        -0.37300E+03
        -0.37300E+03
        -0.37300E+03
        -0.37300E+03
        -0.37300E+03
        -0.37300E+03
        -0.37300E+03
        -0.37300E+03
        -0.37300E+03
        -0.37300E+03
        -0.37300E+03
        -0.37300E+03
        -0.37300E+03
        -0.37300E+03
        -0.37300E+03
        -0.37300E+03
        -0.37300E+03
        -0.37300E+03
        -0.37300E+03
        -0.37300E+03
        -0.37300E+03
        -0.37300E+03
        -0.37300E+03
        -0.37300E+03
        -0.37300E+03
        -0.37300E+03
        -0.37300E+03
        -0.37300E+03
        -0.37300E+03
        -0.37300E+03
        -0.37300E+03
        -0.37300E+03
        -0.37300E+03
        -0.37300E+03
        -0.37300E+03
        -0.37300E+03
        -0.37300E+03
        -0.37300E+03
        -0.37300E+03
        -0.37300E+03
        -0.37300E+03
        -0.37300E+03
        -0.37300E+03
        -0.37300E+03
        -0.37300E+03
        -0.37300E+03
        -0.37300E+03
        -0.37300E+03
        -0.37300E+03
        -0.37300E+03
        -0.37300E+03
        -0.37300E+03
        -0.37300E+03
        -0.37300E+03
        -0.37300E+03
        -0.37300E+03
        -0.37300E+03
        -0.37300E+03
        -0.37300E+03
        -0.37300E+03
        -0.37300E+03
        -0.37300E+03
        -0.37300E+03
        -0.37300E+03
        -0.37300E+03
        -0.37300E+03
        -0.37300E+03
        -0.37300E+03
        -0.37300E+03
        -0.37300E+03
        -0.37300E+03
        -0.37300E+03
        -0.37300E+03
        -0.37300E+03
        -0.37300E+03
        -0.37300E+03
        -0.37300E+03
        -0.37300E+03
        -0.37300E+03
        -0.37300E+03
        -0.37300E+03
        -0.37300E+03
        -0.37300E+03
        -0.37300E+03
        -0.37300E+03
        -0.37300E+03
        -0.37300E+03
        -0.37300E+03
        -0.37300E+03
        -0.37300E+03
        -0.37300E+03
        -0.37300E+03
        -0.37300E+03
        -0.37300E+03
        -0.37300E+03
        -0.37300E+03
        -0.37300E+03
        -0.37300E+03
        -0.37300E+03
        -0.37300E+03
        -0.37300E+03
        -0.37300E+03
        -0.37300E+03
        -0.37300E+03
        -0.37300E+03
        -0.37300E+03
        -0.37300E+03
        -0.37300E+03
        -0.37300E+03
        -0.37300E+03
        -0.37300E+03
        -0.37300E+03
        -0.37300E+03
        -0.37300E+03
        -0.37300E+03
        -0.37300E+03
        -0.37300E+03
        -0.37300E+03
        -0.37300E+03
        -0.37300E+03
        -0.37300E+03
        -0.37300E+03
        -0.37300E+03
        -0.37300E+03
        -0.37300E+03
        -0.37300E+03
        -0.37300E+03
        -0.37300E+03
        -0.37300E+03
        -0.37300E+03
        -0.37300E+03
        -0.37300E+03
        -0.37300E+03
        -0.37300E+03
        -0.37300E+03
        -0.37300E+03
        -0.37300E+03
        -0.37300E+03
        -0.37300E+03
        -0.37300E+03
        -0.37300E+03
        -0.37300E+03
        -0.37300E+03
        -0.37300E+03
        -0.37300E+03
        -0.37300E+03
        -0.37300E+03
        -0.37300E+03
        -0.37300E+03
        -0.37300E+03
        -0.37300E+03
        -0.37300E+03
        -0.37300E+03
        -0.37300E+03
        -0.37300E+03
        -0.37300E+03
        -0.37300E+03
        -0.37300E+03
        -0.37300E+03
        -0.37300E+03
        -0.37300E+03
        -0.37300E+03
        -0.37300E+03
        -0.37300E+03
        -0.37300E+03
        -0.37300E+03
        -0.37300E+03
        -0.37300E+03
        -0.37300E+03
        -0.37300E+03
        -0.37300E+03
        -0.37300E+03
        -0.37300E+03
        -0.37300E+03
        -0.37300E+03
        -0.37300E+03
        -0.37300E+03
        -0.37300E+03
        -0.37300E+03
        -0.37300E+03
        -0.37300E+03
        -0.37300E+03
        -0.37300E+03
        -0.37300E+03
        -0.37300E+03
        -0.37300E+03
        -0.37300E+03
        -0.37300E+03
        -0.37300E+03
        -0.37300E+03
        -0.37300E+03
        -0.37300E+03
        -0.37300E+03
        -0.37300E+03
        -0.37300E+03
        -0.37300E+03
        -0.37300E+03
        -0.37300E+03
        -0.37300E+03
        -0.37300E+03
        -0.37300E+03
        -0.37300E+03
        -0.37300E+03
        -0.37300E+03
        -0.37300E+03
        -0.37300E+03
        -0.37300E+03
        -0.37300E+03
        -0.37300E+03
        -0.37300E+03
        -0.37300E+03
        -0.37300E+03
        -0.37300E+03
        -0.37300E+03
        -0.37300E+03
        -0.37300E+03
        -0.37300E+03
        -0.37300E+03
        -0.37300E+03
        -0.37300E+03
        -0.37300E+03
        -0.37300E+03
        -0.37300E+03
        -0.37300E+03
        -0.37300E+03
        -0.37300E+03
        -0.37300E+03
        -0.37300E+03
        -0.37300E+03
        -0.37300E+03
        -0.37300E+03
        -0.37300E+03
        -0.37300E+03
        -0.37300E+03
        -0.37300E+03
        -0.37300E+03
        -0.37300E+03
        -0.37300E+03
        -0.37300E+03
        -0.37300E+03
        -0.37300E+03
        -0.37300E+03
        -0.37300E+03
        -0.37300E+03
        -0.37300E+03
        -0.37300E+03
        -0.37300E+03
        -0.37300E+03
        -0.37300E+03
        -0.37300E+03
        -0.37300E+03
        -0.37300E+03
        -0.37300E+03
        -0.37300E+03
        -0.37300E+03
        -0.37300E+03
        -0.37300E+03
        -0.37300E+03
        -0.37300E+03
        -0.37300E+03
        -0.37300E+03
        -0.37300E+03
        -0.37300E+03
        -0.37300E+03
        -0.37300E+03
        -0.37300E+03
        -0.37300E+03
        -0.37300E+03
        -0.37300E+03
        -0.37300E+03
        -0.37300E+03
        -0.37300E+03
        -0.37300E+03
        -0.37300E+03
        -0.37300E+03
        -0.37300E+03
        -0.37300E+03
        -0.37300E+03
        -0.37300E+03
        -0.37300E+03
        -0.37300E+03
        -0.37300E+03
        -0.37300E+03
        -0.37300E+03
        -0.37300E+03
        -0.37300E+03
        -0.37300E+03
        -0.37300E+03
        -0.37300E+03
        -0.37300E+03
        -0.37300E+03
        -0.37300E+03
        -0.37300E+03
        -0.37300E+03
        -0.37300E+03
        -0.37300E+03
        -0.37300E+03
        -0.37300E+03
        -0.37300E+03
        -0.37300E+03
        -0.37300E+03
        -0.37300E+03
        -0.37300E+03
        -0.37300E+03
        -0.37300E+03
        -0.37300E+03
        -0.37300E+03
        -0.37300E+03
        -0.37300E+03
        -0.37300E+03
        -0.37300E+03
        -0.37300E+03
        -0.37300E+03
        -0.37300E+03
        -0.37300E+03
        -0.37300E+03
        -0.37300E+03
        -0.37300E+03
        -0.37300E+03
        -0.37300E+03
        -0.37300E+03
        -0.37300E+03
        -0.37300E+03
        -0.37300E+03
        -0.37300E+03
        -0.37300E+03
        -0.37300E+03
        -0.37300E+03
        -0.37300E+03
        -0.37300E+03
        -0.37300E+03
        -0.37300E+03
        -0.37300E+03
        -0.37300E+03
        -0.37300E+03
        -0.37300E+03
        -0.37300E+03
        -0.37300E+03
        -0.37300E+03
        -0.37300E+03
        -0.37300E+03
        -0.37300E+03
        -0.37300E+03
        -0.37300E+03
        -0.37300E+03
        -0.37300E+03
        -0.37300E+03
        -0.37300E+03
        -0.37300E+03
        -0.37300E+03
        -0.37300E+03
        -0.37300E+03
        -0.37300E+03
        -0.37300E+03
        -0.37300E+03
        -0.37300E+03
        -0.37300E+03
        -0.37300E+03
        -0.37300E+03
        -0.37300E+03
        -0.37300E+03
        -0.37300E+03
        -0.37300E+03
        -0.37300E+03
        -0.37300E+03
        -0.37300E+03
        -0.37300E+03
        -0.37300E+03
        -0.37300E+03
        -0.37300E+03
        -0.37300E+03
        -0.37300E+03
        -0.37300E+03
        -0.37300E+03
        -0.37300E+03
        -0.37300E+03
        -0.37300E+03
        -0.37300E+03
        -0.37300E+03
        -0.37300E+03
        -0.37300E+03
        -0.37300E+03
        -0.37300E+03
        -0.37300E+03
        -0.37300E+03
        -0.37300E+03
        -0.37300E+03
        -0.37300E+03
        -0.37300E+03
        -0.37300E+03
        -0.37300E+03
        -0.37300E+03
        -0.37300E+03
        -0.37300E+03
        -0.37300E+03
        -0.37300E+03
        -0.37300E+03
        -0.37300E+03
        -0.37300E+03
        -0.37300E+03
        -0.37300E+03
        -0.37300E+03
        -0.37300E+03
        -0.37300E+03
        -0.37300E+03
        -0.37300E+03
        -0.37300E+03
        -0.37300E+03
        -0.37300E+03
        -0.37300E+03
        -0.37300E+03
        -0.37300E+03
        -0.37300E+03
        -0.37300E+03
        -0.37300E+03
        -0.37300E+03
        -0.37300E+03
        -0.37300E+03
        -0.37300E+03
        -0.37300E+03
        -0.37300E+03
        -0.37300E+03
        -0.37300E+03
        -0.37300E+03
        -0.37300E+03
        -0.37300E+03
        -0.37300E+03
        -0.37300E+03
        -0.37300E+03
        -0.37300E+03
        -0.37300E+03
        -0.37300E+03
        -0.37300E+03
        -0.37300E+03
        -0.37300E+03
        -0.37300E+03
        -0.37300E+03
        -0.37300E+03
        -0.37300E+03
        -0.37300E+03
        -0.37300E+03
        -0.37300E+03
        -0.37300E+03
        -0.37300E+03
        -0.37300E+03
        -0.37300E+03
        -0.37300E+03
        -0.37300E+03
        -0.37300E+03
        -0.37300E+03
        -0.37300E+03
        -0.37300E+03
        -0.37300E+03
        -0.37300E+03
        -0.37300E+03
        -0.37300E+03
        -0.37300E+03
        -0.37300E+03
        -0.37300E+03
        -0.37300E+03
        -0.37300E+03
        -0.37300E+03
        -0.37300E+03
        -0.37300E+03
        -0.37300E+03
        -0.37300E+03
        -0.37300E+03
        -0.37300E+03
        -0.37300E+03
        -0.37300E+03
        -0.37300E+03
        -0.37300E+03
        -0.37300E+03
        -0.37300E+03
        -0.37300E+03
        -0.37300E+03
        -0.37300E+03
        -0.37300E+03
        -0.37300E+03
        -0.37300E+03
        -0.37300E+03
        -0.37300E+03
        -0.37300E+03
        -0.37300E+03
        -0.37300E+03
        -0.37300E+03
        -0.37300E+03
        -0.37300E+03
        -0.37300E+03
        -0.37300E+03
        -0.37300E+03
        -0.37300E+03
        -0.37300E+03
        -0.37300E+03
        -0.37300E+03
        -0.37300E+03
        -0.37300E+03
        -0.37300E+03
        -0.37300E+03
        -0.37300E+03
        -0.37300E+03
        -0.37300E+03
        -0.37300E+03
        -0.37300E+03
        -0.37300E+03
        -0.37300E+03
        -0.37300E+03
        -0.37300E+03
        -0.37300E+03
        -0.37300E+03
        -0.37300E+03
        -0.37300E+03
        -0.37300E+03
        -0.37300E+03
        -0.37300E+03
        -0.37300E+03
        -0.37300E+03
        -0.37300E+03
        -0.37300E+03
        -0.37300E+03
        -0.37300E+03
        -0.37300E+03
        -0.37300E+03
        -0.37300E+03
        -0.37300E+03
        -0.37300E+03
        -0.37300E+03
        -0.37300E+03
        -0.37300E+03
        -0.37300E+03
        -0.37300E+03
        -0.37300E+03
        -0.37300E+03
        -0.37300E+03
        -0.37300E+03
        -0.37300E+03
        -0.37300E+03
        -0.37300E+03
        -0.37300E+03
        -0.37300E+03
        -0.37300E+03
        -0.37300E+03
        -0.37300E+03
        -0.37300E+03
        -0.37300E+03
        -0.37300E+03
        -0.37300E+03
        -0.37300E+03
        -0.37300E+03
        -0.37300E+03
        -0.37300E+03
        -0.37300E+03
        -0.37300E+03
        -0.37300E+03
        -0.37300E+03
        -0.37300E+03
        -0.37300E+03
        -0.37300E+03
        -0.37300E+03
        -0.37300E+03
        -0.37300E+03
        -0.37300E+03
        -0.37300E+03
        -0.37300E+03
        -0.37300E+03
        -0.37300E+03
        -0.37300E+03
        -0.37300E+03
        -0.37300E+03
        -0.37300E+03
        -0.37300E+03
        -0.37300E+03
        -0.37300E+03
        -0.37300E+03
        -0.37300E+03
        -0.37300E+03
        -0.37300E+03
        -0.37300E+03
        -0.37300E+03
        -0.37300E+03
        -0.37300E+03
        -0.37300E+03
        -0.37300E+03
        -0.37300E+03
        -0.37300E+03
        -0.37300E+03
        -0.37300E+03
        -0.37300E+03
        -0.37300E+03
        -0.37300E+03
        -0.37300E+03
        -0.37300E+03
        -0.37300E+03
        -0.37300E+03
        -0.37300E+03
        -0.37300E+03
        -0.37300E+03
        -0.37300E+03
        -0.37300E+03
        -0.37300E+03
        -0.37300E+03
        -0.37300E+03
        -0.37300E+03
        -0.37300E+03
        -0.37300E+03
        -0.37300E+03
        -0.37300E+03
        -0.37300E+03
        -0.37300E+03
        -0.37300E+03
        -0.37300E+03
        -0.37300E+03
        -0.37300E+03
        -0.37300E+03
        -0.37300E+03
        -0.37300E+03
        -0.37300E+03
        -0.37300E+03
        -0.37300E+03
        -0.37300E+03
        -0.37300E+03
        -0.37300E+03
        -0.37300E+03
        -0.37300E+03
        -0.37300E+03
        -0.37300E+03
        -0.37300E+03
        -0.37300E+03
        -0.37300E+03
        -0.37300E+03
        -0.37300E+03
        -0.37300E+03
        -0.37300E+03
        -0.37300E+03
        -0.37300E+03
        -0.37300E+03
        -0.37300E+03
        -0.37300E+03
        -0.37300E+03
        -0.37300E+03
        -0.37300E+03
        -0.37300E+03
        -0.37300E+03
        -0.37300E+03
        -0.37300E+03
        -0.37300E+03
        -0.37300E+03
        -0.37300E+03
        -0.37300E+03
        -0.37300E+03
        -0.37300E+03
        -0.37300E+03
        -0.37300E+03
        -0.37300E+03
        -0.37300E+03
        -0.37300E+03
        -0.37300E+03
        -0.37300E+03
        -0.37300E+03
        -0.37300E+03
        -0.37300E+03
        -0.37300E+03
        -0.37300E+03
        -0.37300E+03
        -0.37300E+03
        -0.37300E+03
        -0.37300E+03
        -0.37300E+03
        -0.37300E+03
        -0.37300E+03
        -0.37300E+03
        -0.37300E+03
        -0.37300E+03
        -0.37300E+03
        -0.37300E+03
        -0.37300E+03
        -0.37300E+03
        -0.37300E+03
        -0.37300E+03
        -0.37300E+03
        -0.37300E+03
        -0.37300E+03
        -0.37300E+03
        -0.37300E+03
        -0.37300E+03
        -0.37300E+03
        -0.37300E+03
        -0.37300E+03
        -0.37300E+03
        -0.37300E+03
        -0.37300E+03
        -0.37300E+03
        -0.37300E+03
        -0.37300E+03
        -0.37300E+03
        -0.37300E+03
        -0.37300E+03
        -0.37300E+03
        -0.37300E+03
        -0.37300E+03
        -0.37300E+03
        -0.37300E+03
        -0.37300E+03
        -0.37300E+03
        -0.37300E+03
        -0.37300E+03
        -0.37300E+03
        -0.37300E+03
        -0.37300E+03
        -0.37300E+03
        -0.37300E+03
        -0.37300E+03
        -0.37300E+03
        -0.37300E+03
        -0.37300E+03
        -0.37300E+03
        -0.37300E+03
        -0.37300E+03
        -0.37300E+03
        -0.37300E+03
        -0.37300E+03
        -0.37300E+03
        -0.37300E+03
        -0.37300E+03
        -0.37300E+03
        -0.37300E+03
        -0.37300E+03
        -0.37300E+03
        -0.37300E+03
        -0.37300E+03
        -0.37300E+03
        -0.37300E+03
        -0.37300E+03
        -0.37300E+03
        -0.37300E+03
        -0.37300E+03
        -0.37300E+03
        -0.37300E+03
        -0.37300E+03
        -0.37300E+03
        -0.37300E+03
        -0.37300E+03
        -0.37300E+03
        -0.37300E+03
        -0.37300E+03
        -0.37300E+03
        -0.37300E+03
        -0.37300E+03
        -0.37300E+03
        -0.37300E+03
        -0.37300E+03
        -0.37300E+03
        -0.37300E+03
        -0.37300E+03
        -0.37300E+03
        -0.37300E+03
        -0.37300E+03
        -0.37300E+03
        -0.37300E+03
        -0.37300E+03
        -0.37300E+03
        -0.37300E+03
        -0.37300E+03
        -0.37300E+03
        -0.37300E+03
        -0.37300E+03
        -0.37300E+03
        -0.37300E+03
        -0.37300E+03
        -0.37300E+03
        -0.37300E+03
        -0.37300E+03
        -0.37300E+03
        -0.37300E+03
        -0.37300E+03
        -0.37300E+03
        -0.37300E+03
        -0.37300E+03
        -0.37300E+03
        -0.37300E+03
        -0.37300E+03
        -0.37300E+03
        -0.37300E+03
        -0.37300E+03
        -0.37300E+03
        -0.37300E+03
        -0.37300E+03
        -0.37300E+03
        -0.37300E+03
        -0.37300E+03
        -0.37300E+03
        -0.37300E+03
        -0.37300E+03
        -0.37300E+03
        -0.37300E+03
        -0.37300E+03
        -0.37300E+03
        -0.37300E+03
        -0.37300E+03
        -0.37300E+03
        -0.37300E+03
        -0.37300E+03
        -0.37300E+03
        -0.37300E+03
        -0.37300E+03
        -0.37300E+03
        -0.37300E+03
        -0.37300E+03
        -0.37300E+03
        -0.37300E+03
        -0.37300E+03
        -0.37300E+03
        -0.37300E+03
        -0.37300E+03
        -0.37300E+03
        -0.37300E+03
        -0.37300E+03
        -0.37300E+03
        -0.37300E+03
        -0.37300E+03
        -0.37300E+03
        -0.37300E+03
        -0.37300E+03
        -0.37300E+03
        -0.37300E+03
        -0.37300E+03
        -0.37300E+03
        -0.37300E+03
        -0.37300E+03
        -0.37300E+03
        -0.37300E+03
        -0.37300E+03
        -0.37300E+03
        -0.37300E+03
        -0.37300E+03
        -0.37300E+03
        -0.37300E+03
        -0.37300E+03
        -0.37300E+03
        -0.37300E+03
        -0.37300E+03
        -0.37300E+03
        -0.37300E+03
        -0.37300E+03
        -0.37300E+03
        -0.37300E+03
        -0.37300E+03
        -0.37300E+03
        -0.37300E+03
        -0.37300E+03
        -0.37300E+03
        -0.37300E+03
        -0.37300E+03
        -0.37300E+03
        -0.37300E+03
        -0.37300E+03
        -0.37300E+03
        -0.37300E+03
        -0.37300E+03
        -0.37300E+03
        -0.37300E+03
        -0.37300E+03
        -0.37300E+03
        -0.37300E+03
        -0.37300E+03
        -0.37300E+03
        -0.37300E+03
        -0.37300E+03
        -0.37300E+03
        -0.37300E+03
        -0.37300E+03
        -0.37300E+03
        -0.37300E+03
        -0.37300E+03
        -0.37300E+03
        -0.37300E+03
        -0.37300E+03
        -0.37300E+03
        -0.37300E+03
        -0.37300E+03
        -0.37300E+03
        -0.37300E+03
        -0.37300E+03
        -0.37300E+03
        -0.37300E+03
        -0.37300E+03
        -0.37300E+03
        -0.37300E+03
        -0.37300E+03
        -0.37300E+03
        -0.37300E+03
        -0.37300E+03
        -0.37300E+03
        -0.37300E+03
        -0.37300E+03
        -0.37300E+03
        -0.37300E+03
        -0.37300E+03
        -0.37300E+03
        -0.37300E+03
        -0.37300E+03
        -0.37300E+03
        -0.37300E+03
        -0.37300E+03
        -0.37300E+03
        -0.37300E+03
        -0.37300E+03
        -0.37300E+03
        -0.37300E+03
        -0.37300E+03
        -0.37300E+03
        -0.37300E+03
        -0.37300E+03
        -0.37300E+03
        -0.37300E+03
        -0.37300E+03
        -0.37300E+03
        -0.37300E+03
        -0.37300E+03
        -0.37300E+03
        -0.37300E+03
        -0.37300E+03
        -0.37300E+03
        -0.37300E+03
        -0.37300E+03
        -0.37300E+03
        -0.37300E+03
        -0.37300E+03
        -0.37300E+03
        -0.37300E+03
        -0.37300E+03
        -0.37300E+03
        -0.37300E+03
        -0.37300E+03
        -0.37300E+03
        -0.37300E+03
        -0.37300E+03
        -0.37300E+03
        -0.37300E+03
        -0.37300E+03
        -0.37300E+03
        -0.37300E+03
        -0.37300E+03
        -0.37300E+03
        -0.37300E+03
        -0.37300E+03
        -0.37300E+03
        -0.37300E+03
        -0.37300E+03
        -0.37300E+03
        -0.37300E+03
        -0.37300E+03
        -0.37300E+03
        -0.37300E+03
        -0.37300E+03
        -0.37300E+03
        -0.37300E+03
        -0.37300E+03
        -0.37300E+03
        -0.37300E+03
        -0.37300E+03
        -0.37300E+03
        -0.37300E+03
        -0.37300E+03
        -0.37300E+03
        -0.37300E+03
        -0.37300E+03
        -0.37300E+03
        -0.37300E+03
        -0.37300E+03
        -0.37300E+03
        -0.37300E+03
        -0.37300E+03
        -0.37300E+03
        -0.37300E+03
        -0.37300E+03
        -0.37300E+03
        -0.37300E+03
        -0.37300E+03
        -0.37300E+03
        -0.37300E+03
        -0.37300E+03
        -0.37300E+03
        -0.37300E+03
        -0.37300E+03
        -0.37300E+03
        -0.37300E+03
        -0.37300E+03
        -0.37300E+03
        -0.37300E+03
        -0.37300E+03
        -0.37300E+03
        -0.37300E+03
        -0.37300E+03
        -0.37300E+03
        -0.37300E+03
        -0.37300E+03
        -0.37300E+03
        -0.37300E+03
        -0.37300E+03
        -0.37300E+03
        -0.37300E+03
        -0.37300E+03
        -0.37300E+03
        -0.37300E+03
        -0.37300E+03
        -0.37300E+03
        -0.37300E+03
        -0.37300E+03
        -0.37300E+03
        -0.37300E+03
        -0.37300E+03
        -0.37300E+03
        -0.37300E+03
        -0.37300E+03
        -0.37300E+03
        -0.37300E+03
        -0.37300E+03
        -0.37300E+03
        -0.37300E+03
        -0.37300E+03
        -0.37300E+03
        -0.37300E+03
        -0.37300E+03
        -0.37300E+03
        -0.37300E+03
        -0.37300E+03
        -0.37300E+03
        -0.37300E+03
        -0.37300E+03
        -0.37300E+03
        -0.37300E+03
        -0.37300E+03
        -0.37300E+03
        -0.37300E+03
        -0.37300E+03
        -0.37300E+03
        -0.37300E+03
        -0.37300E+03
        -0.37300E+03
        -0.37300E+03
        -0.37300E+03
        -0.37300E+03
        -0.37300E+03
        -0.37300E+03
        -0.37300E+03
        -0.37300E+03
        -0.37300E+03
        -0.37300E+03
        -0.37300E+03
        -0.37300E+03
        -0.37300E+03
        -0.37300E+03
        -0.37300E+03
        -0.37300E+03
        -0.37300E+03
        -0.37300E+03
        -0.37300E+03
        -0.37300E+03
        -0.37300E+03
        -0.37300E+03
        -0.37300E+03
        -0.37300E+03
        -0.37300E+03
        -0.37300E+03
        -0.37300E+03
        -0.37300E+03
        -0.37300E+03
        -0.37300E+03
        -0.37300E+03
        -0.37300E+03
        -0.37300E+03
        -0.37300E+03
        -0.37300E+03
        -0.37300E+03
        -0.37300E+03
        -0.37300E+03
        -0.37300E+03
        -0.37300E+03
        -0.37300E+03
        -0.37300E+03
        -0.37300E+03
        -0.37300E+03
        -0.37300E+03
        -0.37300E+03
        -0.37300E+03
        -0.37300E+03
        -0.37300E+03
        -0.37300E+03
        -0.37300E+03
        -0.37300E+03
        -0.37300E+03
        -0.37300E+03
        -0.37300E+03
        -0.37300E+03
        -0.37300E+03
        -0.37300E+03
        -0.37300E+03
        -0.37300E+03
        -0.37300E+03
        -0.37300E+03
        -0.37300E+03
        -0.37300E+03
        -0.37300E+03
        -0.37300E+03
        -0.37300E+03
        -0.37300E+03
        -0.37300E+03
        -0.37300E+03
        -0.37300E+03
        -0.37300E+03
        -0.37300E+03
        -0.37300E+03
        -0.37300E+03
        -0.37300E+03
        -0.37300E+03
        -0.37300E+03
        -0.37300E+03
        -0.37300E+03
        -0.37300E+03
        -0.37300E+03
        -0.37300E+03
        -0.37300E+03
        -0.37300E+03
        -0.37300E+03
        -0.37300E+03
        -0.37300E+03
        -0.37300E+03
        -0.37300E+03
        -0.37300E+03
        -0.37300E+03
        -0.37300E+03
        -0.37300E+03
        -0.37300E+03
        -0.37300E+03
        -0.37300E+03
        -0.37300E+03
        -0.37300E+03
        -0.37300E+03
        -0.37300E+03
        -0.37300E+03
        -0.37300E+03
        -0.37300E+03
        -0.37300E+03
        -0.37300E+03
        -0.37300E+03
        -0.37300E+03
        -0.37300E+03
        -0.37300E+03
        -0.37300E+03
        -0.37300E+03
        -0.37300E+03
        -0.37300E+03
        -0.37300E+03
        -0.37300E+03
        -0.37300E+03
        -0.37300E+03
        -0.37300E+03
        -0.37300E+03
        -0.37300E+03
        -0.37300E+03
        -0.37300E+03
        -0.37300E+03
        -0.37300E+03
        -0.37300E+03
        -0.37300E+03
        -0.37300E+03
        -0.37300E+03
        -0.37300E+03
        -0.37300E+03
        -0.37300E+03
        -0.37300E+03
        -0.37300E+03
        -0.37300E+03
        -0.37300E+03
        -0.37300E+03
        -0.37300E+03
        -0.37300E+03
        -0.37300E+03
        -0.37300E+03
        -0.37300E+03
        -0.37300E+03
        -0.37300E+03
        -0.37300E+03
        -0.37300E+03
        -0.37300E+03
        -0.37300E+03
        -0.37300E+03
        -0.37300E+03
        -0.37300E+03
        -0.37300E+03
        -0.37300E+03
        -0.37300E+03
        -0.37300E+03
        -0.37300E+03
        -0.37300E+03
        -0.37300E+03
        -0.37300E+03
        -0.37300E+03
        -0.37300E+03
        -0.37300E+03
        -0.37300E+03
        -0.37300E+03
        -0.37300E+03
        -0.37300E+03
        -0.37300E+03
        -0.37300E+03
        -0.37300E+03
        -0.37300E+03
        -0.37300E+03
        -0.37300E+03
        -0.37300E+03
        -0.37300E+03
        -0.37300E+03
        -0.37300E+03
        -0.37300E+03
        -0.37300E+03
        -0.37300E+03
        -0.37300E+03
        -0.37300E+03
        -0.37300E+03
        -0.37300E+03
        -0.37300E+03
        -0.37300E+03
        -0.37300E+03
        -0.37300E+03
        -0.37300E+03
        -0.37300E+03
        -0.37300E+03
        -0.37300E+03
        -0.37300E+03
        -0.37300E+03
        -0.37300E+03
        -0.37300E+03
        -0.37300E+03
        -0.37300E+03
        -0.37300E+03
        -0.37300E+03
        -0.37300E+03
        -0.37300E+03
        -0.37300E+03
        -0.37300E+03
        -0.37300E+03
        -0.37300E+03
        -0.37300E+03
        -0.37300E+03
        -0.37300E+03
        -0.37300E+03
        -0.37300E+03
        -0.37300E+03
        -0.37300E+03
        -0.37300E+03
        -0.37300E+03
        -0.37300E+03
        -0.37300E+03
        -0.37300E+03
        -0.37300E+03
        -0.37300E+03
        -0.37300E+03
        -0.37300E+03
        -0.37300E+03
        -0.37300E+03
        -0.37300E+03
        -0.37300E+03
        -0.37300E+03
        -0.37300E+03
        -0.37300E+03
        -0.37300E+03
        -0.37300E+03
        -0.37300E+03
        -0.37300E+03
        -0.37300E+03
        -0.37300E+03
        -0.37300E+03
        -0.37300E+03
        -0.37300E+03
        -0.37300E+03
        -0.37300E+03
        -0.37300E+03
        -0.37300E+03
        -0.37300E+03
        -0.37300E+03
        -0.37300E+03
        -0.37300E+03
        -0.37300E+03
        -0.37300E+03
        -0.37300E+03
        -0.37300E+03
        -0.37300E+03
        -0.37300E+03
        -0.37300E+03
        -0.37300E+03
        -0.37300E+03
        -0.37300E+03
        -0.37300E+03
        -0.37300E+03
        -0.37300E+03
        -0.37300E+03
        -0.37300E+03
        -0.37300E+03
        -0.37300E+03
        -0.37300E+03
        -0.37300E+03
        -0.37300E+03
        -0.37300E+03
        -0.37300E+03
        -0.37300E+03
        -0.37300E+03
        -0.37300E+03
        -0.37300E+03
        -0.37300E+03
        -0.37300E+03
        -0.37300E+03
        -0.37300E+03
        -0.37300E+03
        -0.37300E+03
        -0.37300E+03
        -0.37300E+03
        -0.37300E+03
        -0.37300E+03
        -0.37300E+03
        -0.37300E+03
        -0.37300E+03
        -0.37300E+03
        -0.37300E+03
        -0.37300E+03
        -0.37300E+03
        -0.37300E+03
        -0.37300E+03
        -0.37300E+03
        -0.37300E+03
        -0.37300E+03
        -0.37300E+03
        -0.37300E+03
        -0.37300E+03
        -0.37300E+03
        -0.37300E+03
        -0.37300E+03
        -0.37300E+03
        -0.37300E+03
        -0.37300E+03
        -0.37300E+03
        -0.37300E+03
        -0.37300E+03
        -0.37300E+03
        -0.37300E+03
        -0.37300E+03
        -0.37300E+03
        -0.37300E+03
        -0.37300E+03
        -0.37300E+03
        -0.37300E+03
        -0.37300E+03
        -0.37300E+03
        -0.37300E+03
        -0.37300E+03
        -0.37300E+03
        -0.37300E+03
        -0.37300E+03
        -0.37300E+03
        -0.37300E+03
        -0.37300E+03
        -0.37300E+03
        -0.37300E+03
        -0.37300E+03
        -0.37300E+03
        -0.37300E+03
        -0.37300E+03
        -0.37300E+03
        -0.37300E+03
        -0.37300E+03
        -0.37300E+03
        -0.37300E+03
        -0.37300E+03
        -0.37300E+03
        -0.37300E+03
        -0.37300E+03
        -0.37300E+03
        -0.37300E+03
        -0.37300E+03
        -0.37300E+03
        -0.37300E+03
        -0.37300E+03
        -0.37300E+03
        -0.37300E+03
        -0.37300E+03
        -0.37300E+03
        -0.37300E+03
        -0.37300E+03
        -0.37300E+03
        -0.37300E+03
        -0.37300E+03
        -0.37300E+03
        -0.37300E+03
        -0.37300E+03
        -0.37300E+03
        -0.37300E+03
        -0.37300E+03
        -0.37300E+03
        -0.37300E+03
        -0.37300E+03
        -0.37300E+03
        -0.37300E+03
        -0.37300E+03
        -0.37300E+03
        -0.37300E+03
        -0.37300E+03
        -0.37300E+03
        -0.37300E+03
        -0.37300E+03
        -0.37300E+03
        -0.37300E+03
        -0.37300E+03
        -0.37300E+03
        -0.37300E+03
        -0.37300E+03
        -0.37300E+03
        -0.37300E+03
        -0.37300E+03
        -0.37300E+03
        -0.37300E+03
        -0.37300E+03
        -0.37300E+03
        -0.37300E+03
        -0.37300E+03
        -0.37300E+03
        -0.37300E+03
        -0.37300E+03
        -0.37300E+03
        -0.37300E+03
        -0.37300E+03
        -0.37300E+03
        -0.37300E+03
        -0.37300E+03
        -0.37300E+03
        -0.37300E+03
        -0.37300E+03
        -0.37300E+03
        -0.37300E+03
        -0.37300E+03
        -0.37300E+03
        -0.37300E+03
        -0.37300E+03
        -0.37300E+03
        -0.37300E+03
        -0.37300E+03
        -0.37300E+03
        -0.37300E+03
        -0.37300E+03
        -0.37300E+03
        -0.37300E+03
        -0.37300E+03
        -0.37300E+03
        -0.37300E+03
        -0.37300E+03
        -0.37300E+03
        -0.37300E+03
        -0.37300E+03
        -0.37300E+03
        -0.37300E+03
        -0.37300E+03
        -0.37300E+03
        -0.37300E+03
        -0.37300E+03
        -0.37300E+03
        -0.37300E+03
        -0.37300E+03
        -0.37300E+03
        -0.37300E+03
        -0.37300E+03
        -0.37300E+03
        -0.37300E+03
        -0.37300E+03
        -0.37300E+03
        -0.37300E+03
        -0.37300E+03
        -0.37300E+03
        -0.37300E+03
        -0.37300E+03
        -0.37300E+03
        -0.37300E+03
        -0.37300E+03
        -0.37300E+03
        -0.37300E+03
        -0.37300E+03
        -0.37300E+03
        -0.37300E+03
        -0.37300E+03
        -0.37300E+03
        -0.37300E+03
        -0.37300E+03
        -0.37300E+03
        -0.37300E+03
        -0.37300E+03
        -0.37300E+03
        -0.37300E+03
        -0.37300E+03
        -0.37300E+03
        -0.37300E+03
        -0.37300E+03
        -0.37300E+03
        -0.37300E+03
        -0.37300E+03
        -0.37300E+03
        -0.37300E+03
        -0.37300E+03
        -0.37300E+03
        -0.37300E+03
        -0.37300E+03
        -0.37300E+03
        -0.37300E+03
        -0.37300E+03
        -0.37300E+03
        -0.37300E+03
        -0.37300E+03
        -0.37300E+03
        -0.37300E+03
        -0.37300E+03
        -0.37300E+03
        -0.37300E+03
        -0.37300E+03
        -0.37300E+03
        -0.37300E+03
        -0.37300E+03
        -0.37300E+03
        -0.37300E+03
        -0.37300E+03
        -0.37300E+03
        -0.37300E+03
        -0.37300E+03
        -0.37300E+03
        -0.37300E+03
        -0.37300E+03
        -0.37300E+03
        -0.37300E+03
        -0.37300E+03
        -0.37300E+03
        -0.37300E+03
        -0.37300E+03
        -0.37300E+03
        -0.37300E+03
        -0.37300E+03
        -0.37300E+03
        -0.37300E+03
        -0.37300E+03
        -0.37300E+03
        -0.37300E+03
        -0.37300E+03
        -0.37300E+03
        -0.37300E+03
        -0.37300E+03
        -0.37300E+03
        -0.37300E+03
        -0.37300E+03
        -0.37300E+03
        -0.37300E+03
        -0.37300E+03
        -0.37300E+03
        -0.37300E+03
        -0.37300E+03
        -0.37300E+03
        -0.37300E+03
        -0.37300E+03
        -0.37300E+03
        -0.37300E+03
        -0.37300E+03
        -0.37300E+03
        -0.37300E+03
        -0.37300E+03
        -0.37300E+03
        -0.37300E+03
        -0.37300E+03
        -0.37300E+03
        -0.37300E+03
        -0.37300E+03
        -0.37300E+03
        -0.37300E+03
        -0.37300E+03
        -0.37300E+03
        -0.37300E+03
        -0.37300E+03
        -0.37300E+03
        -0.37300E+03
        -0.37300E+03
        -0.37300E+03
        -0.37300E+03
        -0.37300E+03
        -0.37300E+03
        -0.37300E+03
        -0.37300E+03
        -0.37300E+03
        -0.37300E+03
        -0.37300E+03
        -0.37300E+03
        -0.37300E+03
        -0.37300E+03
        -0.37300E+03
        -0.37300E+03
        -0.37300E+03
        -0.37300E+03
        -0.37300E+03
        -0.37300E+03
        -0.37300E+03
        -0.37300E+03
        -0.37300E+03
        -0.37300E+03
        -0.37300E+03
        -0.37300E+03
        -0.37300E+03
        -0.37300E+03
        -0.37300E+03
        -0.37300E+03
        -0.37300E+03
        -0.37300E+03
        -0.37300E+03
        -0.37300E+03
        -0.37300E+03
        -0.37300E+03
        -0.37300E+03
        -0.37300E+03
        -0.37300E+03
        -0.37300E+03
        -0.37300E+03
        -0.37300E+03
        -0.37300E+03
        -0.37300E+03
        -0.37300E+03
        -0.37300E+03
        -0.37300E+03
        -0.37300E+03
        -0.37300E+03
        -0.37300E+03
        -0.37300E+03
        -0.37300E+03
        -0.37300E+03
        -0.37300E+03
        -0.37300E+03
        -0.37300E+03
        -0.37300E+03
        -0.37300E+03
        -0.37300E+03
        -0.37300E+03
        -0.37300E+03
        -0.37300E+03
        -0.37300E+03
        -0.37300E+03
        -0.37300E+03
        -0.37300E+03
        -0.37300E+03
        -0.37300E+03
        -0.37300E+03
        -0.37300E+03
        -0.37300E+03
        -0.37300E+03
        -0.37300E+03
        -0.37300E+03
        -0.37300E+03
        -0.37300E+03
        -0.37300E+03
        -0.37300E+03
        -0.37300E+03
        -0.37300E+03
        -0.37300E+03
        -0.37300E+03
        -0.37300E+03
        -0.37300E+03
        -0.37300E+03
        -0.37300E+03
        -0.37300E+03
        -0.37300E+03
        -0.37300E+03
        -0.37300E+03
        -0.37300E+03
        -0.37300E+03
        -0.37300E+03
        -0.37300E+03
        -0.37300E+03
        -0.37300E+03
        -0.37300E+03
        -0.37300E+03
        -0.37300E+03
        -0.37300E+03
        -0.37300E+03
        -0.37300E+03
        -0.37300E+03
        -0.37300E+03
        -0.37300E+03
        -0.37300E+03
        -0.37300E+03
        -0.37300E+03
        -0.37300E+03
        -0.37300E+03
        -0.37300E+03
        -0.37300E+03
        -0.37300E+03
        -0.37300E+03
        -0.37300E+03
        -0.37300E+03
        -0.37300E+03
        -0.37300E+03
        -0.37300E+03
        -0.37300E+03
        -0.37300E+03
        -0.37300E+03
        -0.37300E+03
        -0.37300E+03
        -0.37300E+03
        -0.37300E+03
        -0.37300E+03
        -0.37300E+03
        -0.37300E+03
        -0.37300E+03
        -0.37300E+03
        -0.37300E+03
        -0.37300E+03
        -0.37300E+03
        -0.37300E+03
        -0.37300E+03
        -0.37300E+03
        -0.37300E+03
        -0.37300E+03
        -0.37300E+03
        -0.37300E+03
        -0.37300E+03
        -0.37300E+03
        -0.37300E+03
        -0.37300E+03
        -0.37300E+03
        -0.37300E+03
        -0.37300E+03
        -0.37300E+03
        -0.37300E+03
        -0.37300E+03
        -0.37300E+03
        -0.37300E+03
        -0.37300E+03
        -0.37300E+03
        -0.37300E+03
        -0.37300E+03
        -0.37300E+03
        -0.37300E+03
        -0.37300E+03
        -0.37300E+03
        -0.37300E+03
        -0.37300E+03
        -0.37300E+03
        -0.37300E+03
        -0.37300E+03
        -0.37300E+03
        -0.37300E+03
        -0.37300E+03
        -0.37300E+03
        -0.37300E+03
        -0.37300E+03
        -0.37300E+03
        -0.37300E+03
        -0.37300E+03
        -0.37300E+03
        -0.37300E+03
        -0.37300E+03
        -0.37300E+03
        -0.37300E+03
        -0.37300E+03
        -0.37300E+03
        -0.37300E+03
        -0.37300E+03
        -0.37300E+03
        -0.37300E+03
        -0.37300E+03
        -0.37300E+03
        -0.37300E+03
        -0.37300E+03
        -0.37300E+03
        -0.37300E+03
        -0.37300E+03
        -0.37300E+03
        -0.37300E+03
        -0.37300E+03
        -0.37300E+03
        -0.37300E+03
        -0.37300E+03
        -0.37300E+03
        -0.37300E+03
        -0.37300E+03
        -0.37300E+03
        -0.37300E+03
        -0.37300E+03
        -0.37300E+03
        -0.37300E+03
        -0.37300E+03
        -0.37300E+03
        -0.37300E+03
        -0.37300E+03
        -0.37300E+03
        -0.37300E+03
        -0.37300E+03
        -0.37300E+03
        -0.37300E+03
        -0.37300E+03
        -0.37300E+03
        -0.37300E+03
        -0.37300E+03
        -0.37300E+03
        -0.37300E+03
        -0.37300E+03
        -0.37300E+03
        -0.37300E+03
        -0.37300E+03
        -0.37300E+03
        -0.37300E+03
        -0.37300E+03
        -0.37300E+03
        -0.37300E+03
        -0.37300E+03
        -0.37300E+03
        -0.37300E+03
        -0.37300E+03
        -0.37300E+03
        -0.37300E+03
        -0.37300E+03
        -0.37300E+03
        -0.37300E+03
        -0.37300E+03
        -0.37300E+03
        -0.37300E+03
        -0.37300E+03
        -0.37300E+03
        -0.37300E+03
        -0.37300E+03
        -0.37300E+03
        -0.37300E+03
        -0.37300E+03
        -0.37300E+03
        -0.37300E+03
        -0.37300E+03
        -0.37300E+03
        -0.37300E+03
        -0.37300E+03
        -0.37300E+03
        -0.37300E+03
        -0.37300E+03
        -0.37300E+03
        -0.37300E+03
        -0.37300E+03
        -0.37300E+03
        -0.37300E+03
        -0.37300E+03
        -0.37300E+03
        -0.37300E+03
        -0.37300E+03
        -0.37300E+03
        -0.37300E+03
        -0.37300E+03
        -0.37300E+03
        -0.37300E+03
        -0.37300E+03
        -0.37300E+03
        -0.37300E+03
        -0.37300E+03
        -0.37300E+03
        -0.37300E+03
        -0.37300E+03
  
SCALARS              normalized_window  double 1
LOOKUP_TABLE default
         0.27500E+01
         0.27500E+01
         0.27500E+01
         0.27500E+01
         0.27500E+01
         0.27500E+01
         0.27500E+01
         0.27500E+01
         0.27500E+01
         0.27500E+01
         0.27500E+01
         0.27500E+01
         0.27500E+01
         0.27500E+01
         0.27500E+01
         0.27500E+01
         0.27500E+01
         0.27500E+01
         0.27500E+01
         0.27500E+01
         0.27500E+01
         0.27500E+01
         0.27500E+01
         0.27500E+01
         0.27500E+01
         0.27500E+01
         0.27500E+01
         0.27500E+01
         0.27500E+01
         0.27500E+01
         0.27500E+01
         0.27500E+01
         0.27500E+01
         0.27500E+01
         0.27500E+01
         0.27500E+01
         0.27500E+01
         0.27500E+01
         0.27500E+01
         0.27500E+01
         0.27500E+01
         0.27500E+01
         0.27500E+01
         0.27500E+01
         0.27500E+01
         0.27500E+01
         0.27500E+01
         0.27500E+01
         0.27500E+01
         0.27500E+01
         0.27500E+01
         0.27500E+01
         0.27500E+01
         0.27500E+01
         0.27500E+01
         0.27500E+01
         0.27500E+01
         0.27500E+01
         0.27500E+01
         0.27500E+01
         0.27500E+01
         0.27500E+01
         0.27500E+01
         0.27500E+01
         0.27500E+01
         0.27500E+01
         0.27500E+01
         0.27500E+01
         0.27500E+01
         0.27500E+01
         0.27500E+01
         0.27500E+01
         0.27500E+01
         0.27500E+01
         0.27500E+01
         0.27500E+01
         0.27500E+01
         0.27500E+01
         0.27500E+01
         0.27500E+01
         0.27500E+01
         0.27500E+01
         0.27500E+01
         0.27500E+01
         0.27500E+01
         0.27500E+01
         0.27500E+01
         0.27500E+01
         0.27500E+01
         0.27500E+01
         0.27500E+01
         0.27500E+01
         0.27500E+01
         0.27500E+01
         0.27500E+01
         0.27500E+01
         0.27500E+01
         0.27500E+01
         0.27500E+01
         0.27500E+01
         0.27500E+01
         0.27500E+01
         0.27500E+01
         0.27500E+01
         0.27500E+01
         0.27500E+01
         0.27500E+01
         0.27500E+01
         0.27500E+01
         0.27500E+01
         0.27500E+01
         0.27500E+01
         0.27500E+01
         0.27500E+01
         0.27500E+01
         0.27500E+01
         0.27500E+01
         0.27500E+01
         0.27500E+01
         0.27500E+01
         0.27500E+01
         0.27500E+01
         0.27500E+01
         0.27500E+01
         0.27500E+01
         0.27500E+01
         0.27500E+01
         0.27500E+01
         0.27500E+01
         0.27500E+01
         0.27500E+01
         0.27500E+01
         0.27500E+01
         0.27500E+01
         0.27500E+01
         0.27500E+01
         0.27500E+01
         0.27500E+01
         0.27500E+01
         0.27500E+01
         0.27500E+01
         0.27500E+01
         0.27500E+01
         0.27500E+01
         0.27500E+01
         0.27500E+01
         0.27500E+01
         0.27500E+01
         0.27500E+01
         0.27500E+01
         0.27500E+01
         0.27500E+01
         0.27500E+01
         0.27500E+01
         0.27500E+01
         0.27500E+01
         0.27500E+01
         0.27500E+01
         0.27500E+01
         0.27500E+01
         0.27500E+01
         0.27500E+01
         0.27500E+01
         0.27500E+01
         0.27500E+01
         0.27500E+01
         0.27500E+01
         0.27500E+01
         0.27500E+01
         0.27500E+01
         0.27500E+01
         0.27500E+01
         0.27500E+01
         0.27500E+01
         0.27500E+01
         0.27500E+01
         0.27500E+01
         0.27500E+01
         0.27500E+01
         0.27500E+01
         0.27500E+01
         0.27500E+01
         0.27500E+01
         0.27500E+01
         0.27500E+01
         0.27500E+01
         0.27500E+01
         0.27500E+01
         0.27500E+01
         0.27500E+01
         0.27500E+01
         0.27500E+01
         0.27500E+01
         0.27500E+01
         0.27500E+01
         0.27500E+01
         0.27500E+01
         0.27500E+01
         0.27500E+01
         0.27500E+01
         0.27500E+01
         0.27500E+01
         0.27500E+01
         0.27500E+01
         0.27500E+01
         0.27500E+01
         0.27500E+01
         0.27500E+01
         0.27500E+01
         0.27500E+01
         0.27500E+01
         0.27500E+01
         0.27500E+01
         0.27500E+01
         0.27500E+01
         0.27500E+01
         0.27500E+01
         0.27500E+01
         0.27500E+01
         0.27500E+01
         0.27500E+01
         0.27500E+01
         0.27500E+01
         0.27500E+01
         0.27500E+01
         0.27500E+01
         0.27500E+01
         0.27500E+01
         0.27500E+01
         0.27500E+01
         0.27500E+01
         0.27500E+01
         0.27500E+01
         0.27500E+01
         0.27500E+01
         0.27500E+01
         0.27500E+01
         0.27500E+01
         0.27500E+01
         0.27500E+01
         0.27500E+01
         0.27500E+01
         0.27500E+01
         0.27500E+01
         0.27500E+01
         0.27500E+01
         0.27500E+01
         0.27500E+01
         0.27500E+01
         0.27500E+01
         0.27500E+01
         0.27500E+01
         0.27500E+01
         0.27500E+01
         0.27500E+01
         0.27500E+01
         0.27500E+01
         0.27500E+01
         0.27500E+01
         0.27500E+01
         0.27500E+01
         0.27500E+01
         0.27500E+01
         0.27500E+01
         0.27500E+01
         0.27500E+01
         0.27500E+01
         0.27500E+01
         0.27500E+01
         0.27500E+01
         0.27500E+01
         0.27500E+01
         0.27500E+01
         0.27500E+01
         0.27500E+01
         0.27500E+01
         0.27500E+01
         0.27500E+01
         0.27500E+01
         0.27500E+01
         0.27500E+01
         0.27500E+01
         0.27500E+01
         0.27500E+01
         0.27500E+01
         0.27500E+01
         0.27500E+01
         0.27500E+01
         0.27500E+01
         0.27500E+01
         0.27500E+01
         0.27500E+01
         0.27500E+01
         0.27500E+01
         0.27500E+01
         0.27500E+01
         0.27500E+01
         0.27500E+01
         0.27500E+01
         0.27500E+01
         0.27500E+01
         0.27500E+01
         0.27500E+01
         0.27500E+01
         0.27500E+01
         0.27500E+01
         0.27500E+01
         0.27500E+01
         0.27500E+01
         0.27500E+01
         0.27500E+01
         0.27500E+01
         0.27500E+01
         0.27500E+01
         0.27500E+01
         0.27500E+01
         0.27500E+01
         0.27500E+01
         0.27500E+01
         0.27500E+01
         0.27500E+01
         0.27500E+01
         0.27500E+01
         0.27500E+01
         0.27500E+01
         0.27500E+01
         0.27500E+01
         0.27500E+01
         0.27500E+01
         0.27500E+01
         0.27500E+01
         0.27500E+01
         0.27500E+01
         0.27500E+01
         0.27500E+01
         0.27500E+01
         0.27500E+01
         0.27500E+01
         0.27500E+01
         0.27500E+01
         0.27500E+01
         0.27500E+01
         0.27500E+01
         0.27500E+01
         0.27500E+01
         0.27500E+01
         0.27500E+01
         0.27500E+01
         0.27500E+01
         0.27500E+01
         0.27500E+01
         0.27500E+01
         0.27500E+01
         0.27500E+01
         0.27500E+01
         0.27500E+01
         0.27500E+01
         0.27500E+01
         0.27500E+01
         0.27500E+01
         0.27500E+01
         0.27500E+01
         0.27500E+01
         0.27500E+01
         0.27500E+01
         0.27500E+01
         0.27500E+01
         0.27500E+01
         0.27500E+01
         0.27500E+01
         0.27500E+01
         0.27500E+01
         0.27500E+01
         0.27500E+01
         0.27500E+01
         0.27500E+01
         0.27500E+01
         0.27500E+01
         0.27500E+01
         0.27500E+01
         0.27500E+01
         0.27500E+01
         0.27500E+01
         0.27500E+01
         0.27500E+01
         0.27500E+01
         0.27500E+01
         0.27500E+01
         0.27500E+01
         0.27500E+01
         0.27500E+01
         0.27500E+01
         0.27500E+01
         0.27500E+01
         0.27500E+01
         0.27500E+01
         0.27500E+01
         0.27500E+01
         0.27500E+01
         0.27500E+01
         0.27500E+01
         0.27500E+01
         0.27500E+01
         0.27500E+01
         0.27500E+01
         0.27500E+01
         0.27500E+01
         0.27500E+01
         0.27500E+01
         0.27500E+01
         0.27500E+01
         0.27500E+01
         0.27500E+01
         0.27500E+01
         0.27500E+01
         0.27500E+01
         0.27500E+01
         0.27500E+01
         0.27500E+01
         0.27500E+01
         0.27500E+01
         0.27500E+01
         0.27500E+01
         0.27500E+01
         0.27500E+01
         0.27500E+01
         0.27500E+01
         0.27500E+01
         0.27500E+01
         0.27500E+01
         0.27500E+01
         0.27500E+01
         0.27500E+01
         0.27500E+01
         0.27500E+01
         0.27500E+01
         0.27500E+01
         0.27500E+01
         0.27500E+01
         0.27500E+01
         0.27500E+01
         0.27500E+01
         0.27500E+01
         0.27500E+01
         0.27500E+01
         0.27500E+01
         0.27500E+01
         0.27500E+01
         0.27500E+01
         0.27500E+01
         0.27500E+01
         0.27500E+01
         0.27500E+01
         0.27500E+01
         0.27500E+01
         0.27500E+01
         0.27500E+01
         0.27500E+01
         0.27500E+01
         0.27500E+01
         0.27500E+01
         0.27500E+01
         0.27500E+01
         0.27500E+01
         0.27500E+01
         0.27500E+01
         0.27500E+01
         0.27500E+01
         0.27500E+01
         0.27500E+01
         0.27500E+01
         0.27500E+01
         0.27500E+01
         0.27500E+01
         0.27500E+01
         0.27500E+01
         0.27500E+01
         0.27500E+01
         0.27500E+01
         0.27500E+01
         0.27500E+01
         0.27500E+01
         0.27500E+01
         0.27500E+01
         0.27500E+01
         0.27500E+01
         0.27500E+01
         0.27500E+01
         0.27500E+01
         0.27500E+01
         0.27500E+01
         0.27500E+01
         0.27500E+01
         0.27500E+01
         0.27500E+01
         0.27500E+01
         0.27500E+01
         0.27500E+01
         0.27500E+01
         0.27500E+01
         0.27500E+01
         0.27500E+01
         0.27500E+01
         0.27500E+01
         0.27500E+01
         0.27500E+01
         0.27500E+01
         0.27500E+01
         0.27500E+01
         0.27500E+01
         0.27500E+01
         0.27500E+01
         0.27500E+01
         0.27500E+01
         0.27500E+01
         0.27500E+01
         0.27500E+01
         0.27500E+01
         0.27500E+01
         0.27500E+01
         0.27500E+01
         0.27500E+01
         0.27500E+01
         0.27500E+01
         0.27500E+01
         0.27500E+01
         0.27500E+01
         0.27500E+01
         0.27500E+01
         0.27500E+01
         0.27500E+01
         0.27500E+01
         0.27500E+01
         0.27500E+01
         0.27500E+01
         0.27500E+01
         0.27500E+01
         0.27500E+01
         0.27500E+01
         0.27500E+01
         0.27500E+01
         0.27500E+01
         0.27500E+01
         0.27500E+01
         0.27500E+01
         0.27500E+01
         0.27500E+01
         0.27500E+01
         0.27500E+01
         0.27500E+01
         0.27500E+01
         0.27500E+01
         0.27500E+01
         0.27500E+01
         0.27500E+01
         0.27500E+01
         0.27500E+01
         0.27500E+01
         0.27500E+01
         0.27500E+01
         0.27500E+01
         0.27500E+01
         0.27500E+01
         0.27500E+01
         0.27500E+01
         0.27500E+01
         0.27500E+01
         0.27500E+01
         0.27500E+01
         0.27500E+01
         0.27500E+01
         0.27500E+01
         0.27500E+01
         0.27500E+01
         0.27500E+01
         0.27500E+01
         0.27500E+01
         0.27500E+01
         0.27500E+01
         0.27500E+01
         0.27500E+01
         0.27500E+01
         0.27500E+01
         0.27500E+01
         0.27500E+01
         0.27500E+01
         0.27500E+01
         0.27500E+01
         0.27500E+01
         0.27500E+01
         0.27500E+01
         0.27500E+01
         0.27500E+01
         0.27500E+01
         0.27500E+01
         0.27500E+01
         0.27500E+01
         0.27500E+01
         0.27500E+01
         0.27500E+01
         0.27500E+01
         0.27500E+01
         0.27500E+01
         0.27500E+01
         0.27500E+01
         0.27500E+01
         0.27500E+01
         0.27500E+01
         0.27500E+01
         0.27500E+01
         0.27500E+01
         0.27500E+01
         0.27500E+01
         0.27500E+01
         0.27500E+01
         0.27500E+01
         0.27500E+01
         0.27500E+01
         0.27500E+01
         0.27500E+01
         0.27500E+01
         0.27500E+01
         0.27500E+01
         0.27500E+01
         0.27500E+01
         0.27500E+01
         0.27500E+01
         0.27500E+01
         0.27500E+01
         0.27500E+01
         0.27500E+01
         0.27500E+01
         0.27500E+01
         0.27500E+01
         0.27500E+01
         0.27500E+01
         0.27500E+01
         0.27500E+01
         0.27500E+01
         0.27500E+01
         0.27500E+01
         0.27500E+01
         0.27500E+01
         0.27500E+01
         0.27500E+01
         0.27500E+01
         0.27500E+01
         0.27500E+01
         0.27500E+01
         0.27500E+01
         0.27500E+01
         0.27500E+01
         0.27500E+01
         0.27500E+01
         0.27500E+01
         0.27500E+01
         0.27500E+01
         0.27500E+01
         0.27500E+01
         0.27500E+01
         0.27500E+01
         0.27500E+01
         0.27500E+01
         0.27500E+01
         0.27500E+01
         0.27500E+01
         0.27500E+01
         0.27500E+01
         0.27500E+01
         0.27500E+01
         0.27500E+01
         0.27500E+01
         0.27500E+01
         0.27500E+01
         0.27500E+01
         0.27500E+01
         0.27500E+01
         0.27500E+01
         0.27500E+01
         0.27500E+01
         0.27500E+01
         0.27500E+01
         0.27500E+01
         0.27500E+01
         0.27500E+01
         0.27500E+01
         0.27500E+01
         0.27500E+01
         0.27500E+01
         0.27500E+01
         0.27500E+01
         0.27500E+01
         0.27500E+01
         0.27500E+01
         0.27500E+01
         0.27500E+01
         0.27500E+01
         0.27500E+01
         0.27500E+01
         0.27500E+01
         0.27500E+01
         0.27500E+01
         0.27500E+01
         0.27500E+01
         0.27500E+01
         0.27500E+01
         0.27500E+01
         0.27500E+01
         0.27500E+01
         0.27500E+01
         0.27500E+01
         0.27500E+01
         0.27500E+01
         0.27500E+01
         0.27500E+01
         0.27500E+01
         0.27500E+01
         0.27500E+01
         0.27500E+01
         0.27500E+01
         0.27500E+01
         0.27500E+01
         0.27500E+01
         0.27500E+01
         0.27500E+01
         0.27500E+01
         0.27500E+01
         0.27500E+01
         0.27500E+01
         0.27500E+01
         0.27500E+01
         0.27500E+01
         0.27500E+01
         0.27500E+01
         0.27500E+01
         0.27500E+01
         0.27500E+01
         0.27500E+01
         0.27500E+01
         0.27500E+01
         0.27500E+01
         0.27500E+01
         0.27500E+01
         0.27500E+01
         0.27500E+01
         0.27500E+01
         0.27500E+01
         0.27500E+01
         0.27500E+01
         0.27500E+01
         0.27500E+01
         0.27500E+01
         0.27500E+01
         0.27500E+01
         0.27500E+01
         0.27500E+01
         0.27500E+01
         0.27500E+01
         0.27500E+01
         0.27500E+01
         0.27500E+01
         0.27500E+01
         0.27500E+01
         0.27500E+01
         0.27500E+01
         0.27500E+01
         0.27500E+01
         0.27500E+01
         0.27500E+01
         0.27500E+01
         0.27500E+01
         0.27500E+01
         0.27500E+01
         0.27500E+01
         0.27500E+01
         0.27500E+01
         0.27500E+01
         0.27500E+01
         0.27500E+01
         0.27500E+01
         0.27500E+01
         0.27500E+01
         0.27500E+01
         0.27500E+01
         0.27500E+01
         0.27500E+01
         0.27500E+01
         0.27500E+01
         0.27500E+01
         0.27500E+01
         0.27500E+01
         0.27500E+01
         0.27500E+01
         0.27500E+01
         0.27500E+01
         0.27500E+01
         0.27500E+01
         0.27500E+01
         0.27500E+01
         0.27500E+01
         0.27500E+01
         0.27500E+01
         0.27500E+01
         0.27500E+01
         0.27500E+01
         0.27500E+01
         0.27500E+01
         0.27500E+01
         0.27500E+01
         0.27500E+01
         0.27500E+01
         0.27500E+01
         0.27500E+01
         0.27500E+01
         0.27500E+01
         0.27500E+01
         0.27500E+01
         0.27500E+01
         0.27500E+01
         0.27500E+01
         0.27500E+01
         0.27500E+01
         0.27500E+01
         0.27500E+01
         0.27500E+01
         0.27500E+01
         0.27500E+01
         0.27500E+01
         0.27500E+01
         0.27500E+01
         0.27500E+01
         0.27500E+01
         0.27500E+01
         0.27500E+01
         0.27500E+01
         0.27500E+01
         0.27500E+01
         0.27500E+01
         0.27500E+01
         0.27500E+01
         0.27500E+01
         0.27500E+01
         0.27500E+01
         0.27500E+01
         0.27500E+01
         0.27500E+01
         0.27500E+01
         0.27500E+01
         0.27500E+01
         0.27500E+01
         0.27500E+01
         0.27500E+01
         0.27500E+01
         0.27500E+01
         0.27500E+01
         0.27500E+01
         0.27500E+01
         0.27500E+01
         0.27500E+01
         0.27500E+01
         0.27500E+01
         0.27500E+01
         0.27500E+01
         0.27500E+01
         0.27500E+01
         0.27500E+01
         0.27500E+01
         0.27500E+01
         0.27500E+01
         0.27500E+01
         0.27500E+01
         0.27500E+01
         0.27500E+01
         0.27500E+01
         0.27500E+01
         0.27500E+01
         0.27500E+01
         0.27500E+01
         0.27500E+01
         0.27500E+01
         0.27500E+01
         0.27500E+01
         0.27500E+01
         0.27500E+01
         0.27500E+01
         0.27500E+01
         0.27500E+01
         0.27500E+01
         0.27500E+01
         0.27500E+01
         0.27500E+01
         0.27500E+01
         0.27500E+01
         0.27500E+01
         0.27500E+01
         0.27500E+01
         0.27500E+01
         0.27500E+01
         0.27500E+01
         0.27500E+01
         0.27500E+01
         0.27500E+01
         0.27500E+01
         0.27500E+01
         0.27500E+01
         0.27500E+01
         0.27500E+01
         0.27500E+01
         0.27500E+01
         0.27500E+01
         0.27500E+01
         0.27500E+01
         0.27500E+01
         0.27500E+01
         0.27500E+01
         0.27500E+01
         0.27500E+01
         0.27500E+01
         0.27500E+01
         0.27500E+01
         0.27500E+01
         0.27500E+01
         0.27500E+01
         0.27500E+01
         0.27500E+01
         0.27500E+01
         0.27500E+01
         0.27500E+01
         0.27500E+01
         0.27500E+01
         0.27500E+01
         0.27500E+01
         0.27500E+01
         0.27500E+01
         0.27500E+01
         0.27500E+01
         0.27500E+01
         0.27500E+01
         0.27500E+01
         0.27500E+01
         0.27500E+01
         0.27500E+01
         0.27500E+01
         0.27500E+01
         0.27500E+01
         0.27500E+01
         0.27500E+01
         0.27500E+01
         0.27500E+01
         0.27500E+01
         0.27500E+01
         0.27500E+01
         0.27500E+01
         0.27500E+01
         0.27500E+01
         0.27500E+01
         0.27500E+01
         0.27500E+01
         0.27500E+01
         0.27500E+01
         0.27500E+01
         0.27500E+01
         0.27500E+01
         0.27500E+01
         0.27500E+01
         0.27500E+01
         0.27500E+01
         0.27500E+01
         0.27500E+01
         0.27500E+01
         0.27500E+01
         0.27500E+01
         0.27500E+01
         0.27500E+01
         0.27500E+01
         0.27500E+01
         0.27500E+01
         0.27500E+01
         0.27500E+01
         0.27500E+01
         0.27500E+01
         0.27500E+01
         0.27500E+01
         0.27500E+01
         0.27500E+01
         0.27500E+01
         0.27500E+01
         0.27500E+01
         0.27500E+01
         0.27500E+01
         0.27500E+01
         0.27500E+01
         0.27500E+01
         0.27500E+01
         0.27500E+01
         0.27500E+01
         0.27500E+01
         0.27500E+01
         0.27500E+01
         0.27500E+01
         0.27500E+01
         0.27500E+01
         0.27500E+01
         0.27500E+01
         0.27500E+01
         0.27500E+01
         0.27500E+01
         0.27500E+01
         0.27500E+01
         0.27500E+01
         0.27500E+01
         0.27500E+01
         0.27500E+01
         0.27500E+01
         0.27500E+01
         0.27500E+01
         0.27500E+01
         0.27500E+01
         0.27500E+01
         0.27500E+01
         0.27500E+01
         0.27500E+01
         0.27500E+01
         0.27500E+01
         0.27500E+01
         0.27500E+01
         0.27500E+01
         0.27500E+01
         0.27500E+01
         0.27500E+01
         0.27500E+01
         0.27500E+01
         0.27500E+01
         0.27500E+01
         0.27500E+01
         0.27500E+01
         0.27500E+01
         0.27500E+01
         0.27500E+01
         0.27500E+01
         0.27500E+01
         0.27500E+01
         0.27500E+01
         0.27500E+01
         0.27500E+01
         0.27500E+01
         0.27500E+01
         0.27500E+01
         0.27500E+01
         0.27500E+01
         0.27500E+01
         0.27500E+01
         0.27500E+01
         0.27500E+01
         0.27500E+01
         0.27500E+01
         0.27500E+01
         0.27500E+01
         0.27500E+01
         0.27500E+01
         0.27500E+01
         0.27500E+01
         0.27500E+01
         0.27500E+01
         0.27500E+01
         0.27500E+01
         0.27500E+01
         0.27500E+01
         0.27500E+01
         0.27500E+01
         0.27500E+01
         0.27500E+01
         0.27500E+01
         0.27500E+01
         0.27500E+01
         0.27500E+01
         0.27500E+01
         0.27500E+01
         0.27500E+01
         0.27500E+01
         0.27500E+01
         0.27500E+01
         0.27500E+01
         0.27500E+01
         0.27500E+01
         0.27500E+01
         0.27500E+01
         0.27500E+01
         0.27500E+01
         0.27500E+01
         0.27500E+01
         0.27500E+01
         0.27500E+01
         0.27500E+01
         0.27500E+01
         0.27500E+01
         0.27500E+01
         0.27500E+01
         0.27500E+01
         0.27500E+01
         0.27500E+01
         0.27500E+01
         0.27500E+01
         0.27500E+01
         0.27500E+01
         0.27500E+01
         0.27500E+01
         0.27500E+01
         0.27500E+01
         0.27500E+01
         0.27500E+01
         0.27500E+01
         0.27500E+01
         0.27500E+01
         0.27500E+01
         0.27500E+01
         0.27500E+01
         0.27500E+01
         0.27500E+01
         0.27500E+01
         0.27500E+01
         0.27500E+01
         0.27500E+01
         0.27500E+01
         0.27500E+01
         0.27500E+01
         0.27500E+01
         0.27500E+01
         0.27500E+01
         0.27500E+01
         0.27500E+01
         0.27500E+01
         0.27500E+01
         0.27500E+01
         0.27500E+01
         0.27500E+01
         0.27500E+01
         0.27500E+01
         0.27500E+01
         0.27500E+01
         0.27500E+01
         0.27500E+01
         0.27500E+01
         0.27500E+01
         0.27500E+01
         0.27500E+01
         0.27500E+01
         0.27500E+01
         0.27500E+01
         0.27500E+01
         0.27500E+01
         0.27500E+01
         0.27500E+01
         0.27500E+01
         0.27500E+01
         0.27500E+01
         0.27500E+01
         0.27500E+01
         0.27500E+01
         0.27500E+01
         0.27500E+01
         0.27500E+01
         0.27500E+01
         0.27500E+01
         0.27500E+01
         0.27500E+01
         0.27500E+01
         0.27500E+01
         0.27500E+01
         0.27500E+01
         0.27500E+01
         0.27500E+01
         0.27500E+01
         0.27500E+01
         0.27500E+01
         0.27500E+01
         0.27500E+01
         0.27500E+01
         0.27500E+01
         0.27500E+01
         0.27500E+01
         0.27500E+01
         0.27500E+01
         0.27500E+01
         0.27500E+01
         0.27500E+01
         0.27500E+01
         0.27500E+01
         0.27500E+01
         0.27500E+01
         0.27500E+01
         0.27500E+01
         0.27500E+01
         0.27500E+01
         0.27500E+01
         0.27500E+01
         0.27500E+01
         0.27500E+01
         0.27500E+01
         0.27500E+01
         0.27500E+01
         0.27500E+01
         0.27500E+01
         0.27500E+01
         0.27500E+01
         0.27500E+01
         0.27500E+01
         0.27500E+01
         0.27500E+01
         0.27500E+01
         0.27500E+01
         0.27500E+01
         0.27500E+01
         0.27500E+01
         0.27500E+01
         0.27500E+01
         0.27500E+01
         0.27500E+01
         0.27500E+01
         0.27500E+01
         0.27500E+01
         0.27500E+01
         0.27500E+01
         0.27500E+01
         0.27500E+01
         0.27500E+01
         0.27500E+01
         0.27500E+01
         0.27500E+01
         0.27500E+01
         0.27500E+01
         0.27500E+01
         0.27500E+01
         0.27500E+01
         0.27500E+01
         0.27500E+01
         0.27500E+01
         0.27500E+01
         0.27500E+01
         0.27500E+01
         0.27500E+01
         0.27500E+01
         0.27500E+01
         0.27500E+01
         0.27500E+01
         0.27500E+01
         0.27500E+01
         0.27500E+01
         0.27500E+01
         0.27500E+01
         0.27500E+01
         0.27500E+01
         0.27500E+01
         0.27500E+01
         0.27500E+01
         0.27500E+01
         0.27500E+01
         0.27500E+01
         0.27500E+01
         0.27500E+01
         0.27500E+01
         0.27500E+01
         0.27500E+01
         0.27500E+01
         0.27500E+01
         0.27500E+01
         0.27500E+01
         0.27500E+01
         0.27500E+01
         0.27500E+01
         0.27500E+01
         0.27500E+01
         0.27500E+01
         0.27500E+01
         0.27500E+01
         0.27500E+01
         0.27500E+01
         0.27500E+01
         0.27500E+01
         0.27500E+01
         0.27500E+01
         0.27500E+01
         0.27500E+01
         0.27500E+01
         0.27500E+01
         0.27500E+01
         0.27500E+01
         0.27500E+01
         0.27500E+01
         0.27500E+01
         0.27500E+01
         0.27500E+01
         0.27500E+01
         0.27500E+01
         0.27500E+01
         0.27500E+01
         0.27500E+01
         0.27500E+01
         0.27500E+01
         0.27500E+01
         0.27500E+01
         0.27500E+01
         0.27500E+01
         0.27500E+01
         0.27500E+01
         0.27500E+01
         0.27500E+01
         0.27500E+01
         0.27500E+01
         0.27500E+01
         0.27500E+01
         0.27500E+01
         0.27500E+01
         0.27500E+01
         0.27500E+01
         0.27500E+01
         0.27500E+01
         0.27500E+01
         0.27500E+01
         0.27500E+01
         0.27500E+01
         0.27500E+01
         0.27500E+01
         0.27500E+01
         0.27500E+01
         0.27500E+01
         0.27500E+01
         0.27500E+01
         0.27500E+01
         0.27500E+01
         0.27500E+01
         0.27500E+01
         0.27500E+01
         0.27500E+01
         0.27500E+01
         0.27500E+01
         0.27500E+01
         0.27500E+01
         0.27500E+01
         0.27500E+01
         0.27500E+01
         0.27500E+01
         0.27500E+01
         0.27500E+01
         0.27500E+01
         0.27500E+01
         0.27500E+01
         0.27500E+01
         0.27500E+01
         0.27500E+01
         0.27500E+01
         0.27500E+01
         0.27500E+01
         0.27500E+01
         0.27500E+01
         0.27500E+01
         0.27500E+01
         0.27500E+01
         0.27500E+01
         0.27500E+01
         0.27500E+01
         0.27500E+01
         0.27500E+01
         0.27500E+01
         0.27500E+01
         0.27500E+01
         0.27500E+01
         0.27500E+01
         0.27500E+01
         0.27500E+01
         0.27500E+01
         0.27500E+01
         0.27500E+01
         0.27500E+01
         0.27500E+01
         0.27500E+01
         0.27500E+01
         0.27500E+01
         0.27500E+01
         0.27500E+01
         0.27500E+01
         0.27500E+01
         0.27500E+01
         0.27500E+01
         0.27500E+01
         0.27500E+01
         0.27500E+01
         0.27500E+01
         0.27500E+01
         0.27500E+01
         0.27500E+01
         0.27500E+01
         0.27500E+01
         0.27500E+01
         0.27500E+01
         0.27500E+01
         0.27500E+01
         0.27500E+01
         0.27500E+01
         0.27500E+01
         0.27500E+01
         0.27500E+01
         0.27500E+01
         0.27500E+01
         0.27500E+01
         0.27500E+01
         0.27500E+01
         0.27500E+01
         0.27500E+01
         0.27500E+01
         0.27500E+01
         0.27500E+01
         0.27500E+01
         0.27500E+01
         0.27500E+01
         0.27500E+01
         0.27500E+01
         0.27500E+01
         0.27500E+01
         0.27500E+01
         0.27500E+01
         0.27500E+01
         0.27500E+01
         0.27500E+01
         0.27500E+01
         0.27500E+01
         0.27500E+01
         0.27500E+01
         0.27500E+01
         0.27500E+01
         0.27500E+01
         0.27500E+01
         0.27500E+01
         0.27500E+01
         0.27500E+01
         0.27500E+01
         0.27500E+01
         0.27500E+01
         0.27500E+01
         0.27500E+01
         0.27500E+01
         0.27500E+01
         0.27500E+01
         0.27500E+01
         0.27500E+01
         0.27500E+01
         0.27500E+01
         0.27500E+01
         0.27500E+01
         0.27500E+01
         0.27500E+01
         0.27500E+01
         0.27500E+01
         0.27500E+01
         0.27500E+01
         0.27500E+01
         0.27500E+01
         0.27500E+01
         0.27500E+01
         0.27500E+01
         0.27500E+01
         0.27500E+01
         0.27500E+01
         0.27500E+01
         0.27500E+01
         0.27500E+01
         0.27500E+01
         0.27500E+01
         0.27500E+01
         0.27500E+01
         0.27500E+01
         0.27500E+01
         0.27500E+01
         0.27500E+01
         0.27500E+01
         0.27500E+01
         0.27500E+01
         0.27500E+01
         0.27500E+01
         0.27500E+01
         0.27500E+01
         0.27500E+01
         0.27500E+01
         0.27500E+01
         0.27500E+01
         0.27500E+01
         0.27500E+01
         0.27500E+01
         0.27500E+01
         0.27500E+01
         0.27500E+01
         0.27500E+01
         0.27500E+01
         0.27500E+01
         0.27500E+01
         0.27500E+01
         0.27500E+01
         0.27500E+01
         0.27500E+01
         0.27500E+01
         0.27500E+01
         0.27500E+01
         0.27500E+01
         0.27500E+01
         0.27500E+01
         0.27500E+01
         0.27500E+01
         0.27500E+01
         0.27500E+01
         0.27500E+01
         0.27500E+01
         0.27500E+01
         0.27500E+01
         0.27500E+01
         0.27500E+01
         0.27500E+01
         0.27500E+01
         0.27500E+01
         0.27500E+01
         0.27500E+01
         0.27500E+01
         0.27500E+01
         0.27500E+01
         0.27500E+01
         0.27500E+01
         0.27500E+01
         0.27500E+01
         0.27500E+01
         0.27500E+01
         0.27500E+01
         0.27500E+01
         0.27500E+01
         0.27500E+01
         0.27500E+01
         0.27500E+01
         0.27500E+01
         0.27500E+01
         0.27500E+01
         0.27500E+01
         0.27500E+01
         0.27500E+01
         0.27500E+01
         0.27500E+01
         0.27500E+01
         0.27500E+01
         0.27500E+01
         0.27500E+01
         0.27500E+01
         0.27500E+01
         0.27500E+01
         0.27500E+01
         0.27500E+01
         0.27500E+01
         0.27500E+01
         0.27500E+01
         0.27500E+01
         0.27500E+01
         0.27500E+01
         0.27500E+01
         0.27500E+01
         0.27500E+01
         0.27500E+01
         0.27500E+01
         0.27500E+01
         0.27500E+01
         0.27500E+01
         0.27500E+01
         0.27500E+01
         0.27500E+01
         0.27500E+01
         0.27500E+01
         0.27500E+01
         0.27500E+01
         0.27500E+01
         0.27500E+01
         0.27500E+01
         0.27500E+01
         0.27500E+01
         0.27500E+01
         0.27500E+01
         0.27500E+01
         0.27500E+01
         0.27500E+01
         0.27500E+01
         0.27500E+01
         0.27500E+01
         0.27500E+01
         0.27500E+01
         0.27500E+01
         0.27500E+01
         0.27500E+01
         0.27500E+01
         0.27500E+01
         0.27500E+01
         0.27500E+01
         0.27500E+01
         0.27500E+01
         0.27500E+01
         0.27500E+01
         0.27500E+01
         0.27500E+01
         0.27500E+01
         0.27500E+01
         0.27500E+01
         0.27500E+01
         0.27500E+01
         0.27500E+01
         0.27500E+01
         0.27500E+01
         0.27500E+01
         0.27500E+01
         0.27500E+01
         0.27500E+01
         0.27500E+01
         0.27500E+01
         0.27500E+01
         0.27500E+01
         0.27500E+01
         0.27500E+01
         0.27500E+01
         0.27500E+01
         0.27500E+01
         0.27500E+01
         0.27500E+01
         0.27500E+01
         0.27500E+01
         0.27500E+01
         0.27500E+01
         0.27500E+01
         0.27500E+01
         0.27500E+01
         0.27500E+01
         0.27500E+01
         0.27500E+01
         0.27500E+01
         0.27500E+01
         0.27500E+01
         0.27500E+01
         0.27500E+01
         0.27500E+01
         0.27500E+01
         0.27500E+01
         0.27500E+01
         0.27500E+01
         0.27500E+01
         0.27500E+01
         0.27500E+01
         0.27500E+01
         0.27500E+01
         0.27500E+01
         0.27500E+01
         0.27500E+01
         0.27500E+01
         0.27500E+01
         0.27500E+01
         0.27500E+01
         0.27500E+01
         0.27500E+01
         0.27500E+01
         0.27500E+01
         0.27500E+01
         0.27500E+01
         0.27500E+01
         0.27500E+01
         0.27500E+01
         0.27500E+01
         0.27500E+01
         0.27500E+01
         0.27500E+01
         0.27500E+01
         0.27500E+01
         0.27500E+01
         0.27500E+01
         0.27500E+01
         0.27500E+01
         0.27500E+01
         0.27500E+01
         0.27500E+01
         0.27500E+01
         0.27500E+01
         0.27500E+01
         0.27500E+01
         0.27500E+01
         0.27500E+01
         0.27500E+01
         0.27500E+01
         0.27500E+01
         0.27500E+01
         0.27500E+01
         0.27500E+01
         0.27500E+01
         0.27500E+01
         0.27500E+01
         0.27500E+01
         0.27500E+01
         0.27500E+01
         0.27500E+01
         0.27500E+01
         0.27500E+01
         0.27500E+01
         0.27500E+01
         0.27500E+01
         0.27500E+01
         0.27500E+01
         0.27500E+01
         0.27500E+01
         0.27500E+01
         0.27500E+01
         0.27500E+01
         0.27500E+01
         0.27500E+01
         0.27500E+01
         0.27500E+01
         0.27500E+01
         0.27500E+01
         0.27500E+01
         0.27500E+01
         0.27500E+01
         0.27500E+01
         0.27500E+01
         0.27500E+01
         0.27500E+01
         0.27500E+01
         0.27500E+01
         0.27500E+01
         0.27500E+01
         0.27500E+01
         0.27500E+01
         0.27500E+01
         0.27500E+01
         0.27500E+01
         0.27500E+01
         0.27500E+01
         0.27500E+01
         0.27500E+01
         0.27500E+01
         0.27500E+01
         0.27500E+01
         0.27500E+01
         0.27500E+01
         0.27500E+01
         0.27500E+01
         0.27500E+01
         0.27500E+01
         0.27500E+01
         0.27500E+01
         0.27500E+01
         0.27500E+01
         0.27500E+01
         0.27500E+01
         0.27500E+01
         0.27500E+01
         0.27500E+01
         0.27500E+01
         0.27500E+01
         0.27500E+01
         0.27500E+01
         0.27500E+01
         0.27500E+01
         0.27500E+01
         0.27500E+01
         0.27500E+01
         0.27500E+01
         0.27500E+01
         0.27500E+01
         0.27500E+01
         0.27500E+01
         0.27500E+01
         0.27500E+01
         0.27500E+01
         0.27500E+01
         0.27500E+01
         0.27500E+01
         0.27500E+01
         0.27500E+01
         0.27500E+01
         0.27500E+01
         0.27500E+01
         0.27500E+01
         0.27500E+01
         0.27500E+01
         0.27500E+01
         0.27500E+01
         0.27500E+01
         0.27500E+01
         0.27500E+01
         0.27500E+01
         0.27500E+01
         0.27500E+01
         0.27500E+01
         0.27500E+01
         0.27500E+01
         0.27500E+01
         0.27500E+01
         0.27500E+01
         0.27500E+01
         0.27500E+01
         0.27500E+01
         0.27500E+01
         0.27500E+01
         0.27500E+01
         0.27500E+01
         0.27500E+01
         0.27500E+01
         0.27500E+01
         0.27500E+01
         0.27500E+01
         0.27500E+01
         0.27500E+01
         0.27500E+01
         0.27500E+01
         0.27500E+01
         0.27500E+01
         0.27500E+01
         0.27500E+01
         0.27500E+01
         0.27500E+01
         0.27500E+01
         0.27500E+01
         0.27500E+01
         0.27500E+01
         0.27500E+01
         0.27500E+01
         0.27500E+01
         0.27500E+01
         0.27500E+01
         0.27500E+01
         0.27500E+01
         0.27500E+01
         0.27500E+01
         0.27500E+01
         0.27500E+01
         0.27500E+01
         0.27500E+01
         0.27500E+01
         0.27500E+01
         0.27500E+01
         0.27500E+01
         0.27500E+01
         0.27500E+01
         0.27500E+01
         0.27500E+01
         0.27500E+01
         0.27500E+01
         0.27500E+01
         0.27500E+01
         0.27500E+01
         0.27500E+01
         0.27500E+01
         0.27500E+01
         0.27500E+01
         0.27500E+01
         0.27500E+01
         0.27500E+01
         0.27500E+01
         0.27500E+01
         0.27500E+01
         0.27500E+01
         0.27500E+01
         0.27500E+01
         0.27500E+01
         0.27500E+01
         0.27500E+01
         0.27500E+01
         0.27500E+01
         0.27500E+01
         0.27500E+01
         0.27500E+01
         0.27500E+01
         0.27500E+01
         0.27500E+01
         0.27500E+01
         0.27500E+01
         0.27500E+01
         0.27500E+01
         0.27500E+01
         0.27500E+01
         0.27500E+01
         0.27500E+01
         0.27500E+01
         0.27500E+01
         0.27500E+01
         0.27500E+01
         0.27500E+01
         0.27500E+01
         0.27500E+01
         0.27500E+01
         0.27500E+01
         0.27500E+01
         0.27500E+01
         0.27500E+01
         0.27500E+01
         0.27500E+01
         0.27500E+01
         0.27500E+01
         0.27500E+01
         0.27500E+01
         0.27500E+01
         0.27500E+01
         0.27500E+01
         0.27500E+01
         0.27500E+01
         0.27500E+01
         0.27500E+01
         0.27500E+01
         0.27500E+01
         0.27500E+01
         0.27500E+01
         0.27500E+01
         0.27500E+01
         0.27500E+01
         0.27500E+01
         0.27500E+01
         0.27500E+01
         0.27500E+01
         0.27500E+01
         0.27500E+01
         0.27500E+01
         0.27500E+01
         0.27500E+01
         0.27500E+01
         0.27500E+01
         0.27500E+01
         0.27500E+01
         0.27500E+01
         0.27500E+01
         0.27500E+01
         0.27500E+01
         0.27500E+01
         0.27500E+01
         0.27500E+01
         0.27500E+01
         0.27500E+01
         0.27500E+01
         0.27500E+01
         0.27500E+01
         0.27500E+01
         0.27500E+01
         0.27500E+01
         0.27500E+01
         0.27500E+01
         0.27500E+01
         0.27500E+01
         0.27500E+01
         0.27500E+01
         0.27500E+01
         0.27500E+01
         0.27500E+01
         0.27500E+01
         0.27500E+01
  
SCALARS              physical_window_x  double 1
LOOKUP_TABLE default
         0.42419E-02
         0.35201E-02
         0.37624E-02
         0.42419E-02
         0.42417E-02
         0.35201E-02
         0.37618E-02
         0.42417E-02
         0.37624E-02
         0.37624E-02
         0.37618E-02
         0.37618E-02
         0.30086E-02
         0.32069E-02
         0.30084E-02
         0.32067E-02
         0.42419E-02
         0.32069E-02
         0.42417E-02
         0.32067E-02
         0.24180E-02
         0.29942E-02
         0.32396E-02
         0.24180E-02
         0.29933E-02
         0.32385E-02
         0.26608E-02
         0.27190E-02
         0.26608E-02
         0.27190E-02
         0.42687E-02
         0.36511E-02
         0.42687E-02
         0.42687E-02
         0.36511E-02
         0.42687E-02
         0.32069E-02
         0.29739E-02
         0.32066E-02
         0.29739E-02
         0.34652E-02
         0.32621E-02
         0.34652E-02
         0.32621E-02
         0.37123E-02
         0.32069E-02
         0.37123E-02
         0.32066E-02
         0.30844E-02
         0.30844E-02
         0.35191E-02
         0.35189E-02
         0.26925E-02
         0.26925E-02
         0.26925E-02
         0.26925E-02
         0.24643E-02
         0.27651E-02
         0.24643E-02
         0.27651E-02
         0.42687E-02
         0.35191E-02
         0.42687E-02
         0.35189E-02
         0.42687E-02
         0.42687E-02
         0.34658E-02
         0.34648E-02
         0.27274E-02
         0.31799E-02
         0.27273E-02
         0.31796E-02
         0.32396E-02
         0.32385E-02
         0.26964E-02
         0.26960E-02
         0.27828E-02
         0.27828E-02
         0.27828E-02
         0.27828E-02
         0.27004E-02
         0.31883E-02
         0.27003E-02
         0.31880E-02
         0.31883E-02
         0.31880E-02
         0.37123E-02
         0.37123E-02
         0.36245E-02
         0.36245E-02
         0.28253E-02
         0.31642E-02
         0.28253E-02
         0.31636E-02
         0.33485E-02
         0.33485E-02
         0.33485E-02
         0.33485E-02
         0.31978E-02
         0.31969E-02
         0.29849E-02
         0.32843E-02
         0.29849E-02
         0.32843E-02
         0.27274E-02
         0.31109E-02
         0.27273E-02
         0.31109E-02
         0.31799E-02
         0.31796E-02
         0.32396E-02
         0.32385E-02
         0.32396E-02
         0.32385E-02
         0.29942E-02
         0.29933E-02
         0.27190E-02
         0.27190E-02
         0.26964E-02
         0.26960E-02
         0.27828E-02
         0.27828E-02
         0.27828E-02
         0.27828E-02
         0.27004E-02
         0.27003E-02
         0.31883E-02
         0.31880E-02
         0.31883E-02
         0.31880E-02
         0.32621E-02
         0.32621E-02
         0.34652E-02
         0.34652E-02
         0.37123E-02
         0.37123E-02
         0.37123E-02
         0.37123E-02
         0.36245E-02
         0.36245E-02
         0.28253E-02
         0.28253E-02
         0.29097E-02
         0.29087E-02
         0.32389E-02
         0.32378E-02
         0.32389E-02
         0.32378E-02
         0.31978E-02
         0.31969E-02
         0.29849E-02
         0.29849E-02
         0.32843E-02
         0.32843E-02
         0.32843E-02
         0.32843E-02
         0.42420E-02
         0.35201E-02
         0.37629E-02
         0.42420E-02
         0.37629E-02
         0.37629E-02
         0.30087E-02
         0.32071E-02
         0.42420E-02
         0.32071E-02
         0.24178E-02
         0.29952E-02
         0.32407E-02
         0.26596E-02
         0.27191E-02
         0.42679E-02
         0.36502E-02
         0.42679E-02
         0.32071E-02
         0.29727E-02
         0.34648E-02
         0.32622E-02
         0.37119E-02
         0.32071E-02
         0.30833E-02
         0.35193E-02
         0.26910E-02
         0.26910E-02
         0.24638E-02
         0.27644E-02
         0.42679E-02
         0.35193E-02
         0.42679E-02
         0.34670E-02
         0.27274E-02
         0.31802E-02
         0.32407E-02
         0.26968E-02
         0.27828E-02
         0.27828E-02
         0.27005E-02
         0.31885E-02
         0.31885E-02
         0.37119E-02
         0.36244E-02
         0.28250E-02
         0.31647E-02
         0.33484E-02
         0.33484E-02
         0.31986E-02
         0.29848E-02
         0.32841E-02
         0.27274E-02
         0.31099E-02
         0.31802E-02
         0.32407E-02
         0.32407E-02
         0.29952E-02
         0.27191E-02
         0.26968E-02
         0.27828E-02
         0.27828E-02
         0.27005E-02
         0.31885E-02
         0.31885E-02
         0.32622E-02
         0.34648E-02
         0.37119E-02
         0.37119E-02
         0.36244E-02
         0.28250E-02
         0.29106E-02
         0.32401E-02
         0.32401E-02
         0.31986E-02
         0.29848E-02
         0.32841E-02
         0.32841E-02
         0.42421E-02
         0.35201E-02
         0.37634E-02
         0.42421E-02
         0.37634E-02
         0.37634E-02
         0.30089E-02
         0.32073E-02
         0.42421E-02
         0.32073E-02
         0.24177E-02
         0.29961E-02
         0.32418E-02
         0.26584E-02
         0.27191E-02
         0.42670E-02
         0.36493E-02
         0.42670E-02
         0.32073E-02
         0.29714E-02
         0.34644E-02
         0.32623E-02
         0.37115E-02
         0.32073E-02
         0.30822E-02
         0.35195E-02
         0.26896E-02
         0.26896E-02
         0.24633E-02
         0.27638E-02
         0.42670E-02
         0.35195E-02
         0.42670E-02
         0.34681E-02
         0.27275E-02
         0.31805E-02
         0.32418E-02
         0.26972E-02
         0.27828E-02
         0.27828E-02
         0.27006E-02
         0.31888E-02
         0.31888E-02
         0.37115E-02
         0.36243E-02
         0.28247E-02
         0.31652E-02
         0.33483E-02
         0.33483E-02
         0.31995E-02
         0.29847E-02
         0.32839E-02
         0.27275E-02
         0.31090E-02
         0.31805E-02
         0.32418E-02
         0.32418E-02
         0.29961E-02
         0.27191E-02
         0.26972E-02
         0.27828E-02
         0.27828E-02
         0.27006E-02
         0.31888E-02
         0.31888E-02
         0.32623E-02
         0.34644E-02
         0.37115E-02
         0.37115E-02
         0.36243E-02
         0.28247E-02
         0.29116E-02
         0.32412E-02
         0.32412E-02
         0.31995E-02
         0.29847E-02
         0.32839E-02
         0.32839E-02
         0.42423E-02
         0.35200E-02
         0.37639E-02
         0.42423E-02
         0.37639E-02
         0.37639E-02
         0.30091E-02
         0.32075E-02
         0.42423E-02
         0.32075E-02
         0.24176E-02
         0.29970E-02
         0.32428E-02
         0.26572E-02
         0.27192E-02
         0.42662E-02
         0.36483E-02
         0.42662E-02
         0.32075E-02
         0.29702E-02
         0.34639E-02
         0.32624E-02
         0.37111E-02
         0.32075E-02
         0.30811E-02
         0.35197E-02
         0.26881E-02
         0.26881E-02
         0.24628E-02
         0.27631E-02
         0.42662E-02
         0.35197E-02
         0.42662E-02
         0.34692E-02
         0.27276E-02
         0.31808E-02
         0.32428E-02
         0.26975E-02
         0.27828E-02
         0.27828E-02
         0.27007E-02
         0.31890E-02
         0.31890E-02
         0.37111E-02
         0.36242E-02
         0.28243E-02
         0.31658E-02
         0.33482E-02
         0.33482E-02
         0.32003E-02
         0.29846E-02
         0.32837E-02
         0.27276E-02
         0.31081E-02
         0.31808E-02
         0.32428E-02
         0.32428E-02
         0.29970E-02
         0.27192E-02
         0.26975E-02
         0.27828E-02
         0.27828E-02
         0.27007E-02
         0.31890E-02
         0.31890E-02
         0.32624E-02
         0.34639E-02
         0.37111E-02
         0.37111E-02
         0.36242E-02
         0.28243E-02
         0.29125E-02
         0.32423E-02
         0.32423E-02
         0.32003E-02
         0.29846E-02
         0.32837E-02
         0.32837E-02
         0.42424E-02
         0.35200E-02
         0.37644E-02
         0.42424E-02
         0.37644E-02
         0.37644E-02
         0.30093E-02
         0.32077E-02
         0.42424E-02
         0.32077E-02
         0.24174E-02
         0.29979E-02
         0.32439E-02
         0.26559E-02
         0.27192E-02
         0.42653E-02
         0.36474E-02
         0.42653E-02
         0.32077E-02
         0.29690E-02
         0.34635E-02
         0.32624E-02
         0.37108E-02
         0.32077E-02
         0.30799E-02
         0.35199E-02
         0.26867E-02
         0.26867E-02
         0.24623E-02
         0.27625E-02
         0.42653E-02
         0.35199E-02
         0.42653E-02
         0.34703E-02
         0.27276E-02
         0.31812E-02
         0.32439E-02
         0.26979E-02
         0.27828E-02
         0.27828E-02
         0.27008E-02
         0.31893E-02
         0.31893E-02
         0.37108E-02
         0.36241E-02
         0.28240E-02
         0.31663E-02
         0.33481E-02
         0.33481E-02
         0.32012E-02
         0.29844E-02
         0.32835E-02
         0.27276E-02
         0.31071E-02
         0.31812E-02
         0.32439E-02
         0.32439E-02
         0.29979E-02
         0.27192E-02
         0.26979E-02
         0.27828E-02
         0.27828E-02
         0.27008E-02
         0.31893E-02
         0.31893E-02
         0.32624E-02
         0.34635E-02
         0.37108E-02
         0.37108E-02
         0.36241E-02
         0.28240E-02
         0.29135E-02
         0.32434E-02
         0.32434E-02
         0.32012E-02
         0.29844E-02
         0.32835E-02
         0.32835E-02
         0.42425E-02
         0.35200E-02
         0.37649E-02
         0.42425E-02
         0.37649E-02
         0.37649E-02
         0.30095E-02
         0.32079E-02
         0.42425E-02
         0.32079E-02
         0.24173E-02
         0.29989E-02
         0.32450E-02
         0.26547E-02
         0.27193E-02
         0.42645E-02
         0.36465E-02
         0.42645E-02
         0.32079E-02
         0.29677E-02
         0.34631E-02
         0.32625E-02
         0.37104E-02
         0.32079E-02
         0.30788E-02
         0.35201E-02
         0.26852E-02
         0.26852E-02
         0.24618E-02
         0.27618E-02
         0.42645E-02
         0.35201E-02
         0.42645E-02
         0.34715E-02
         0.27277E-02
         0.31815E-02
         0.32450E-02
         0.26983E-02
         0.27828E-02
         0.27828E-02
         0.27009E-02
         0.31895E-02
         0.31895E-02
         0.37104E-02
         0.36239E-02
         0.28237E-02
         0.31668E-02
         0.33480E-02
         0.33480E-02
         0.32020E-02
         0.29843E-02
         0.32833E-02
         0.27277E-02
         0.31062E-02
         0.31815E-02
         0.32450E-02
         0.32450E-02
         0.29989E-02
         0.27193E-02
         0.26983E-02
         0.27828E-02
         0.27828E-02
         0.27009E-02
         0.31895E-02
         0.31895E-02
         0.32625E-02
         0.34631E-02
         0.37104E-02
         0.37104E-02
         0.36239E-02
         0.28237E-02
         0.29145E-02
         0.32445E-02
         0.32445E-02
         0.32020E-02
         0.29843E-02
         0.32833E-02
         0.32833E-02
         0.42427E-02
         0.35200E-02
         0.37654E-02
         0.42427E-02
         0.37654E-02
         0.37654E-02
         0.30097E-02
         0.32081E-02
         0.42427E-02
         0.32081E-02
         0.24171E-02
         0.29998E-02
         0.32461E-02
         0.26535E-02
         0.27193E-02
         0.42636E-02
         0.36455E-02
         0.42636E-02
         0.32081E-02
         0.29665E-02
         0.34626E-02
         0.32626E-02
         0.37100E-02
         0.32081E-02
         0.30777E-02
         0.35203E-02
         0.26838E-02
         0.26838E-02
         0.24613E-02
         0.27611E-02
         0.42636E-02
         0.35203E-02
         0.42636E-02
         0.34726E-02
         0.27278E-02
         0.31818E-02
         0.32461E-02
         0.26987E-02
         0.27827E-02
         0.27827E-02
         0.27010E-02
         0.31898E-02
         0.31898E-02
         0.37100E-02
         0.36238E-02
         0.28234E-02
         0.31673E-02
         0.33479E-02
         0.33479E-02
         0.32029E-02
         0.29842E-02
         0.32831E-02
         0.27278E-02
         0.31052E-02
         0.31818E-02
         0.32461E-02
         0.32461E-02
         0.29998E-02
         0.27193E-02
         0.26987E-02
         0.27827E-02
         0.27827E-02
         0.27010E-02
         0.31898E-02
         0.31898E-02
         0.32626E-02
         0.34626E-02
         0.37100E-02
         0.37100E-02
         0.36238E-02
         0.28234E-02
         0.29154E-02
         0.32457E-02
         0.32457E-02
         0.32029E-02
         0.29842E-02
         0.32831E-02
         0.32831E-02
         0.42428E-02
         0.35199E-02
         0.37660E-02
         0.42428E-02
         0.37660E-02
         0.37660E-02
         0.30099E-02
         0.32083E-02
         0.42428E-02
         0.32083E-02
         0.24170E-02
         0.30007E-02
         0.32471E-02
         0.26523E-02
         0.27194E-02
         0.42628E-02
         0.36446E-02
         0.42628E-02
         0.32083E-02
         0.29652E-02
         0.34622E-02
         0.32627E-02
         0.37096E-02
         0.32083E-02
         0.30766E-02
         0.35205E-02
         0.26823E-02
         0.26823E-02
         0.24608E-02
         0.27605E-02
         0.42628E-02
         0.35205E-02
         0.42628E-02
         0.34737E-02
         0.27279E-02
         0.31821E-02
         0.32471E-02
         0.26991E-02
         0.27827E-02
         0.27827E-02
         0.27011E-02
         0.31900E-02
         0.31900E-02
         0.37096E-02
         0.36237E-02
         0.28231E-02
         0.31679E-02
         0.33478E-02
         0.33478E-02
         0.32038E-02
         0.29841E-02
         0.32829E-02
         0.27279E-02
         0.31043E-02
         0.31821E-02
         0.32471E-02
         0.32471E-02
         0.30007E-02
         0.27194E-02
         0.26991E-02
         0.27827E-02
         0.27827E-02
         0.27011E-02
         0.31900E-02
         0.31900E-02
         0.32627E-02
         0.34622E-02
         0.37096E-02
         0.37096E-02
         0.36237E-02
         0.28231E-02
         0.29164E-02
         0.32468E-02
         0.32468E-02
         0.32038E-02
         0.29841E-02
         0.32829E-02
         0.32829E-02
         0.42429E-02
         0.35199E-02
         0.37665E-02
         0.42429E-02
         0.37665E-02
         0.37665E-02
         0.30101E-02
         0.32085E-02
         0.42429E-02
         0.32085E-02
         0.24168E-02
         0.30017E-02
         0.32482E-02
         0.26510E-02
         0.27194E-02
         0.42619E-02
         0.36437E-02
         0.42619E-02
         0.32085E-02
         0.29640E-02
         0.34618E-02
         0.32627E-02
         0.37092E-02
         0.32085E-02
         0.30755E-02
         0.35207E-02
         0.26808E-02
         0.26808E-02
         0.24603E-02
         0.27599E-02
         0.42619E-02
         0.35207E-02
         0.42619E-02
         0.34748E-02
         0.27279E-02
         0.31824E-02
         0.32482E-02
         0.26994E-02
         0.27827E-02
         0.27827E-02
         0.27012E-02
         0.31902E-02
         0.31902E-02
         0.37092E-02
         0.36236E-02
         0.28227E-02
         0.31684E-02
         0.33477E-02
         0.33477E-02
         0.32046E-02
         0.29840E-02
         0.32827E-02
         0.27279E-02
         0.31034E-02
         0.31824E-02
         0.32482E-02
         0.32482E-02
         0.30017E-02
         0.27194E-02
         0.26994E-02
         0.27827E-02
         0.27827E-02
         0.27012E-02
         0.31902E-02
         0.31902E-02
         0.32627E-02
         0.34618E-02
         0.37092E-02
         0.37092E-02
         0.36236E-02
         0.28227E-02
         0.29173E-02
         0.32479E-02
         0.32479E-02
         0.32046E-02
         0.29840E-02
         0.32827E-02
         0.32827E-02
         0.42431E-02
         0.35199E-02
         0.37670E-02
         0.42431E-02
         0.37670E-02
         0.37670E-02
         0.30102E-02
         0.32087E-02
         0.42431E-02
         0.32087E-02
         0.24167E-02
         0.30026E-02
         0.32493E-02
         0.26498E-02
         0.27194E-02
         0.42611E-02
         0.36427E-02
         0.42611E-02
         0.32087E-02
         0.29628E-02
         0.34613E-02
         0.32628E-02
         0.37089E-02
         0.32087E-02
         0.30744E-02
         0.35209E-02
         0.26794E-02
         0.26794E-02
         0.24598E-02
         0.27592E-02
         0.42611E-02
         0.35209E-02
         0.42611E-02
         0.34759E-02
         0.27280E-02
         0.31827E-02
         0.32493E-02
         0.26998E-02
         0.27827E-02
         0.27827E-02
         0.27013E-02
         0.31905E-02
         0.31905E-02
         0.37089E-02
         0.36235E-02
         0.28224E-02
         0.31689E-02
         0.33476E-02
         0.33476E-02
         0.32055E-02
         0.29839E-02
         0.32825E-02
         0.27280E-02
         0.31024E-02
         0.31827E-02
         0.32493E-02
         0.32493E-02
         0.30026E-02
         0.27194E-02
         0.26998E-02
         0.27827E-02
         0.27827E-02
         0.27013E-02
         0.31905E-02
         0.31905E-02
         0.32628E-02
         0.34613E-02
         0.37089E-02
         0.37089E-02
         0.36235E-02
         0.28224E-02
         0.29183E-02
         0.32490E-02
         0.32490E-02
         0.32055E-02
         0.29839E-02
         0.32825E-02
         0.32825E-02
         0.42432E-02
         0.35199E-02
         0.37675E-02
         0.42432E-02
         0.37675E-02
         0.37675E-02
         0.30104E-02
         0.32089E-02
         0.42432E-02
         0.32089E-02
         0.24166E-02
         0.30035E-02
         0.32504E-02
         0.26486E-02
         0.27195E-02
         0.42603E-02
         0.36418E-02
         0.42603E-02
         0.32089E-02
         0.29615E-02
         0.34609E-02
         0.32629E-02
         0.37085E-02
         0.32089E-02
         0.30732E-02
         0.35211E-02
         0.26779E-02
         0.26779E-02
         0.24593E-02
         0.27585E-02
         0.42603E-02
         0.35211E-02
         0.42603E-02
         0.34771E-02
         0.27281E-02
         0.31830E-02
         0.32504E-02
         0.27002E-02
         0.27827E-02
         0.27827E-02
         0.27014E-02
         0.31907E-02
         0.31907E-02
         0.37085E-02
         0.36233E-02
         0.28221E-02
         0.31694E-02
         0.33475E-02
         0.33475E-02
         0.32063E-02
         0.29838E-02
         0.32823E-02
         0.27281E-02
         0.31015E-02
         0.31830E-02
         0.32504E-02
         0.32504E-02
         0.30035E-02
         0.27195E-02
         0.27002E-02
         0.27827E-02
         0.27827E-02
         0.27014E-02
         0.31907E-02
         0.31907E-02
         0.32629E-02
         0.34609E-02
         0.37085E-02
         0.37085E-02
         0.36233E-02
         0.28221E-02
         0.29193E-02
         0.32501E-02
         0.32501E-02
         0.32063E-02
         0.29838E-02
         0.32823E-02
         0.32823E-02
         0.42433E-02
         0.35199E-02
         0.37680E-02
         0.42433E-02
         0.37680E-02
         0.37680E-02
         0.30106E-02
         0.32091E-02
         0.42433E-02
         0.32091E-02
         0.24164E-02
         0.30045E-02
         0.32514E-02
         0.26474E-02
         0.27195E-02
         0.42594E-02
         0.36409E-02
         0.42594E-02
         0.32091E-02
         0.29603E-02
         0.34605E-02
         0.32630E-02
         0.37081E-02
         0.32091E-02
         0.30721E-02
         0.35213E-02
         0.26765E-02
         0.26765E-02
         0.24588E-02
         0.27579E-02
         0.42594E-02
         0.35213E-02
         0.42594E-02
         0.34782E-02
         0.27281E-02
         0.31833E-02
         0.32514E-02
         0.27006E-02
         0.27826E-02
         0.27826E-02
         0.27015E-02
         0.31910E-02
         0.31910E-02
         0.37081E-02
         0.36232E-02
         0.28218E-02
         0.31700E-02
         0.33474E-02
         0.33474E-02
         0.32072E-02
         0.29836E-02
         0.32821E-02
         0.27281E-02
         0.31005E-02
         0.31833E-02
         0.32514E-02
         0.32514E-02
         0.30045E-02
         0.27195E-02
         0.27006E-02
         0.27826E-02
         0.27826E-02
         0.27015E-02
         0.31910E-02
         0.31910E-02
         0.32630E-02
         0.34605E-02
         0.37081E-02
         0.37081E-02
         0.36232E-02
         0.28218E-02
         0.29202E-02
         0.32512E-02
         0.32512E-02
         0.32072E-02
         0.29836E-02
         0.32821E-02
         0.32821E-02
         0.42435E-02
         0.35199E-02
         0.37685E-02
         0.42435E-02
         0.37685E-02
         0.37685E-02
         0.30108E-02
         0.32093E-02
         0.42435E-02
         0.32093E-02
         0.24163E-02
         0.30054E-02
         0.32525E-02
         0.26461E-02
         0.27196E-02
         0.42586E-02
         0.36399E-02
         0.42586E-02
         0.32093E-02
         0.29591E-02
         0.34601E-02
         0.32630E-02
         0.37077E-02
         0.32093E-02
         0.30710E-02
         0.35215E-02
         0.26750E-02
         0.26750E-02
         0.24583E-02
         0.27572E-02
         0.42586E-02
         0.35215E-02
         0.42586E-02
         0.34793E-02
         0.27282E-02
         0.31836E-02
         0.32525E-02
         0.27010E-02
         0.27826E-02
         0.27826E-02
         0.27016E-02
         0.31912E-02
         0.31912E-02
         0.37077E-02
         0.36231E-02
         0.28215E-02
         0.31705E-02
         0.33473E-02
         0.33473E-02
         0.32080E-02
         0.29835E-02
         0.32819E-02
         0.27282E-02
         0.30996E-02
         0.31836E-02
         0.32525E-02
         0.32525E-02
         0.30054E-02
         0.27196E-02
         0.27010E-02
         0.27826E-02
         0.27826E-02
         0.27016E-02
         0.31912E-02
         0.31912E-02
         0.32630E-02
         0.34601E-02
         0.37077E-02
         0.37077E-02
         0.36231E-02
         0.28215E-02
         0.29212E-02
         0.32524E-02
         0.32524E-02
         0.32080E-02
         0.29835E-02
         0.32819E-02
         0.32819E-02
         0.42436E-02
         0.35198E-02
         0.37690E-02
         0.42436E-02
         0.37690E-02
         0.37690E-02
         0.30110E-02
         0.32095E-02
         0.42436E-02
         0.32095E-02
         0.24162E-02
         0.30064E-02
         0.32536E-02
         0.26449E-02
         0.27196E-02
         0.42577E-02
         0.36390E-02
         0.42577E-02
         0.32096E-02
         0.29578E-02
         0.34596E-02
         0.32631E-02
         0.37074E-02
         0.32096E-02
         0.30699E-02
         0.35217E-02
         0.26735E-02
         0.26735E-02
         0.24578E-02
         0.27566E-02
         0.42577E-02
         0.35217E-02
         0.42577E-02
         0.34804E-02
         0.27283E-02
         0.31839E-02
         0.32536E-02
         0.27013E-02
         0.27826E-02
         0.27826E-02
         0.27017E-02
         0.31915E-02
         0.31915E-02
         0.37074E-02
         0.36230E-02
         0.28211E-02
         0.31710E-02
         0.33472E-02
         0.33472E-02
         0.32089E-02
         0.29834E-02
         0.32817E-02
         0.27283E-02
         0.30986E-02
         0.31839E-02
         0.32536E-02
         0.32536E-02
         0.30064E-02
         0.27196E-02
         0.27013E-02
         0.27826E-02
         0.27826E-02
         0.27017E-02
         0.31915E-02
         0.31915E-02
         0.32631E-02
         0.34596E-02
         0.37074E-02
         0.37074E-02
         0.36230E-02
         0.28211E-02
         0.29221E-02
         0.32535E-02
         0.32535E-02
         0.32089E-02
         0.29834E-02
         0.32817E-02
         0.32817E-02
         0.42437E-02
         0.35198E-02
         0.37695E-02
         0.42437E-02
         0.37695E-02
         0.37695E-02
         0.30112E-02
         0.32097E-02
         0.42437E-02
         0.32097E-02
         0.24160E-02
         0.30073E-02
         0.32547E-02
         0.26437E-02
         0.27197E-02
         0.42569E-02
         0.36381E-02
         0.42569E-02
         0.32098E-02
         0.29566E-02
         0.34592E-02
         0.32632E-02
         0.37070E-02
         0.32098E-02
         0.30688E-02
         0.35219E-02
         0.26721E-02
         0.26721E-02
         0.24573E-02
         0.27560E-02
         0.42569E-02
         0.35219E-02
         0.42569E-02
         0.34815E-02
         0.27284E-02
         0.31843E-02
         0.32547E-02
         0.27017E-02
         0.27826E-02
         0.27826E-02
         0.27018E-02
         0.31917E-02
         0.31917E-02
         0.37070E-02
         0.36229E-02
         0.28208E-02
         0.31716E-02
         0.33471E-02
         0.33471E-02
         0.32097E-02
         0.29833E-02
         0.32815E-02
         0.27284E-02
         0.30977E-02
         0.31843E-02
         0.32547E-02
         0.32547E-02
         0.30073E-02
         0.27197E-02
         0.27017E-02
         0.27826E-02
         0.27826E-02
         0.27018E-02
         0.31917E-02
         0.31917E-02
         0.32632E-02
         0.34592E-02
         0.37070E-02
         0.37070E-02
         0.36229E-02
         0.28208E-02
         0.29231E-02
         0.32546E-02
         0.32546E-02
         0.32097E-02
         0.29833E-02
         0.32815E-02
         0.32815E-02
         0.42439E-02
         0.35198E-02
         0.37701E-02
         0.42439E-02
         0.37701E-02
         0.37701E-02
         0.30113E-02
         0.32099E-02
         0.42439E-02
         0.32099E-02
         0.24159E-02
         0.30082E-02
         0.32558E-02
         0.26425E-02
         0.27197E-02
         0.42560E-02
         0.36371E-02
         0.42560E-02
         0.32100E-02
         0.29554E-02
         0.34588E-02
         0.32633E-02
         0.37066E-02
         0.32100E-02
         0.30677E-02
         0.35221E-02
         0.26706E-02
         0.26706E-02
         0.24568E-02
         0.27553E-02
         0.42560E-02
         0.35221E-02
         0.42560E-02
         0.34827E-02
         0.27284E-02
         0.31846E-02
         0.32558E-02
         0.27021E-02
         0.27826E-02
         0.27826E-02
         0.27019E-02
         0.31920E-02
         0.31920E-02
         0.37066E-02
         0.36227E-02
         0.28205E-02
         0.31721E-02
         0.33470E-02
         0.33470E-02
         0.32106E-02
         0.29831E-02
         0.32813E-02
         0.27284E-02
         0.30968E-02
         0.31846E-02
         0.32558E-02
         0.32558E-02
         0.30082E-02
         0.27197E-02
         0.27021E-02
         0.27826E-02
         0.27826E-02
         0.27019E-02
         0.31920E-02
         0.31920E-02
         0.32633E-02
         0.34588E-02
         0.37066E-02
         0.37066E-02
         0.36227E-02
         0.28205E-02
         0.29241E-02
         0.32557E-02
         0.32557E-02
         0.32106E-02
         0.29831E-02
         0.32813E-02
         0.32813E-02
         0.42440E-02
         0.35198E-02
         0.37706E-02
         0.42440E-02
         0.37706E-02
         0.37706E-02
         0.30115E-02
         0.32101E-02
         0.42440E-02
         0.32101E-02
         0.24158E-02
         0.30091E-02
         0.32568E-02
         0.26412E-02
         0.27198E-02
         0.42552E-02
         0.36362E-02
         0.42552E-02
         0.32102E-02
         0.29541E-02
         0.34583E-02
         0.32633E-02
         0.37062E-02
         0.32102E-02
         0.30665E-02
         0.35223E-02
         0.26692E-02
         0.26692E-02
         0.24563E-02
         0.27546E-02
         0.42552E-02
         0.35223E-02
         0.42552E-02
         0.34838E-02
         0.27285E-02
         0.31849E-02
         0.32568E-02
         0.27025E-02
         0.27826E-02
         0.27826E-02
         0.27020E-02
         0.31922E-02
         0.31922E-02
         0.37062E-02
         0.36226E-02
         0.28202E-02
         0.31726E-02
         0.33469E-02
         0.33469E-02
         0.32114E-02
         0.29830E-02
         0.32811E-02
         0.27285E-02
         0.30958E-02
         0.31849E-02
         0.32568E-02
         0.32568E-02
         0.30091E-02
         0.27198E-02
         0.27025E-02
         0.27826E-02
         0.27826E-02
         0.27020E-02
         0.31922E-02
         0.31922E-02
         0.32633E-02
         0.34583E-02
         0.37062E-02
         0.37062E-02
         0.36226E-02
         0.28202E-02
         0.29250E-02
         0.32568E-02
         0.32568E-02
         0.32114E-02
         0.29830E-02
         0.32811E-02
         0.32811E-02
         0.42441E-02
         0.35198E-02
         0.37711E-02
         0.42441E-02
         0.37711E-02
         0.37711E-02
         0.30117E-02
         0.32103E-02
         0.42441E-02
         0.32103E-02
         0.24156E-02
         0.30101E-02
         0.32579E-02
         0.26400E-02
         0.27198E-02
         0.42543E-02
         0.36353E-02
         0.42543E-02
         0.32104E-02
         0.29529E-02
         0.34579E-02
         0.32634E-02
         0.37058E-02
         0.32104E-02
         0.30654E-02
         0.35225E-02
         0.26677E-02
         0.26677E-02
         0.24558E-02
         0.27540E-02
         0.42543E-02
         0.35225E-02
         0.42543E-02
         0.34849E-02
         0.27286E-02
         0.31852E-02
         0.32579E-02
         0.27029E-02
         0.27826E-02
         0.27826E-02
         0.27021E-02
         0.31924E-02
         0.31924E-02
         0.37058E-02
         0.36225E-02
         0.28198E-02
         0.31731E-02
         0.33468E-02
         0.33468E-02
         0.32123E-02
         0.29829E-02
         0.32809E-02
         0.27286E-02
         0.30949E-02
         0.31852E-02
         0.32579E-02
         0.32579E-02
         0.30101E-02
         0.27198E-02
         0.27029E-02
         0.27826E-02
         0.27826E-02
         0.27021E-02
         0.31924E-02
         0.31924E-02
         0.32634E-02
         0.34579E-02
         0.37058E-02
         0.37058E-02
         0.36225E-02
         0.28198E-02
         0.29260E-02
         0.32579E-02
         0.32579E-02
         0.32123E-02
         0.29829E-02
         0.32809E-02
         0.32809E-02
         0.42443E-02
         0.35197E-02
         0.37716E-02
         0.42443E-02
         0.37716E-02
         0.37716E-02
         0.30119E-02
         0.32105E-02
         0.42443E-02
         0.32105E-02
         0.24155E-02
         0.30110E-02
         0.32590E-02
         0.26388E-02
         0.27199E-02
         0.42535E-02
         0.36343E-02
         0.42535E-02
         0.32106E-02
         0.29517E-02
         0.34575E-02
         0.32635E-02
         0.37055E-02
         0.32106E-02
         0.30643E-02
         0.35227E-02
         0.26663E-02
         0.26663E-02
         0.24553E-02
         0.27533E-02
         0.42535E-02
         0.35227E-02
         0.42535E-02
         0.34860E-02
         0.27286E-02
         0.31855E-02
         0.32590E-02
         0.27032E-02
         0.27826E-02
         0.27826E-02
         0.27022E-02
         0.31927E-02
         0.31927E-02
         0.37055E-02
         0.36224E-02
         0.28195E-02
         0.31737E-02
         0.33467E-02
         0.33467E-02
         0.32132E-02
         0.29828E-02
         0.32807E-02
         0.27286E-02
         0.30939E-02
         0.31855E-02
         0.32590E-02
         0.32590E-02
         0.30110E-02
         0.27199E-02
         0.27032E-02
         0.27826E-02
         0.27826E-02
         0.27022E-02
         0.31927E-02
         0.31927E-02
         0.32635E-02
         0.34575E-02
         0.37055E-02
         0.37055E-02
         0.36224E-02
         0.28195E-02
         0.29269E-02
         0.32591E-02
         0.32591E-02
         0.32132E-02
         0.29828E-02
         0.32807E-02
         0.32807E-02
         0.42444E-02
         0.35197E-02
         0.37721E-02
         0.42444E-02
         0.37721E-02
         0.37721E-02
         0.30121E-02
         0.32107E-02
         0.42444E-02
         0.32107E-02
         0.24154E-02
         0.30119E-02
         0.32601E-02
         0.26376E-02
         0.27199E-02
         0.42527E-02
         0.36334E-02
         0.42527E-02
         0.32108E-02
         0.29504E-02
         0.34571E-02
         0.32636E-02
         0.37051E-02
         0.32108E-02
         0.30632E-02
         0.35229E-02
         0.26648E-02
         0.26648E-02
         0.24552E-02
         0.27527E-02
         0.42527E-02
         0.35229E-02
         0.42527E-02
         0.34871E-02
         0.27287E-02
         0.31858E-02
         0.32601E-02
         0.27036E-02
         0.27825E-02
         0.27825E-02
         0.27023E-02
         0.31929E-02
         0.31929E-02
         0.37051E-02
         0.36223E-02
         0.28192E-02
         0.31742E-02
         0.33466E-02
         0.33466E-02
         0.32140E-02
         0.29827E-02
         0.32805E-02
         0.27287E-02
         0.30930E-02
         0.31858E-02
         0.32601E-02
         0.32601E-02
         0.30119E-02
         0.27199E-02
         0.27036E-02
         0.27825E-02
         0.27825E-02
         0.27023E-02
         0.31929E-02
         0.31929E-02
         0.32636E-02
         0.34571E-02
         0.37051E-02
         0.37051E-02
         0.36223E-02
         0.28192E-02
         0.29279E-02
         0.32602E-02
         0.32602E-02
         0.32140E-02
         0.29827E-02
         0.32805E-02
         0.32805E-02
         0.42445E-02
         0.35197E-02
         0.37726E-02
         0.42445E-02
         0.37726E-02
         0.37726E-02
         0.30123E-02
         0.32108E-02
         0.42445E-02
         0.32108E-02
         0.24152E-02
         0.30129E-02
         0.32611E-02
         0.26363E-02
         0.27200E-02
         0.42518E-02
         0.36325E-02
         0.42518E-02
         0.32110E-02
         0.29492E-02
         0.34566E-02
         0.32636E-02
         0.37047E-02
         0.32110E-02
         0.30621E-02
         0.35231E-02
         0.26633E-02
         0.26633E-02
         0.24554E-02
         0.27520E-02
         0.42518E-02
         0.35231E-02
         0.42518E-02
         0.34882E-02
         0.27288E-02
         0.31861E-02
         0.32611E-02
         0.27040E-02
         0.27825E-02
         0.27825E-02
         0.27024E-02
         0.31932E-02
         0.31932E-02
         0.37047E-02
         0.36222E-02
         0.28189E-02
         0.31747E-02
         0.33465E-02
         0.33465E-02
         0.32149E-02
         0.29826E-02
         0.32803E-02
         0.27288E-02
         0.30921E-02
         0.31861E-02
         0.32611E-02
         0.32611E-02
         0.30129E-02
         0.27200E-02
         0.27040E-02
         0.27825E-02
         0.27825E-02
         0.27024E-02
         0.31932E-02
         0.31932E-02
         0.32636E-02
         0.34566E-02
         0.37047E-02
         0.37047E-02
         0.36222E-02
         0.28189E-02
         0.29289E-02
         0.32613E-02
         0.32613E-02
         0.32149E-02
         0.29826E-02
         0.32803E-02
         0.32803E-02
         0.42447E-02
         0.35196E-02
         0.37732E-02
         0.42447E-02
         0.37732E-02
         0.37732E-02
         0.30125E-02
         0.32111E-02
         0.42447E-02
         0.32111E-02
         0.24151E-02
         0.30138E-02
         0.32622E-02
         0.26351E-02
         0.27200E-02
         0.42510E-02
         0.36315E-02
         0.42510E-02
         0.32112E-02
         0.29480E-02
         0.34562E-02
         0.32637E-02
         0.37043E-02
         0.32112E-02
         0.30610E-02
         0.35233E-02
         0.26619E-02
         0.26619E-02
         0.24557E-02
         0.27514E-02
         0.42510E-02
         0.35233E-02
         0.42510E-02
         0.34894E-02
         0.27289E-02
         0.31864E-02
         0.32622E-02
         0.27044E-02
         0.27825E-02
         0.27825E-02
         0.27025E-02
         0.31934E-02
         0.31934E-02
         0.37043E-02
         0.36220E-02
         0.28186E-02
         0.31753E-02
         0.33464E-02
         0.33464E-02
         0.32157E-02
         0.29824E-02
         0.32801E-02
         0.27289E-02
         0.30911E-02
         0.31864E-02
         0.32622E-02
         0.32622E-02
         0.30138E-02
         0.27200E-02
         0.27044E-02
         0.27825E-02
         0.27825E-02
         0.27025E-02
         0.31934E-02
         0.31934E-02
         0.32637E-02
         0.34562E-02
         0.37043E-02
         0.37043E-02
         0.36220E-02
         0.28186E-02
         0.29298E-02
         0.32624E-02
         0.32624E-02
         0.32157E-02
         0.29824E-02
         0.32801E-02
         0.32801E-02
         0.42448E-02
         0.35196E-02
         0.37737E-02
         0.42448E-02
         0.37737E-02
         0.37737E-02
         0.30126E-02
         0.32112E-02
         0.42448E-02
         0.32112E-02
         0.24150E-02
         0.30147E-02
         0.32633E-02
         0.26339E-02
         0.27200E-02
         0.42501E-02
         0.36306E-02
         0.42501E-02
         0.32114E-02
         0.29467E-02
         0.34558E-02
         0.32638E-02
         0.37039E-02
         0.32114E-02
         0.30598E-02
         0.35235E-02
         0.26604E-02
         0.26604E-02
         0.24559E-02
         0.27507E-02
         0.42501E-02
         0.35235E-02
         0.42501E-02
         0.34905E-02
         0.27289E-02
         0.31867E-02
         0.32633E-02
         0.27048E-02
         0.27825E-02
         0.27825E-02
         0.27026E-02
         0.31937E-02
         0.31937E-02
         0.37039E-02
         0.36219E-02
         0.28183E-02
         0.31758E-02
         0.33463E-02
         0.33463E-02
         0.32166E-02
         0.29823E-02
         0.32799E-02
         0.27289E-02
         0.30902E-02
         0.31867E-02
         0.32633E-02
         0.32633E-02
         0.30147E-02
         0.27200E-02
         0.27048E-02
         0.27825E-02
         0.27825E-02
         0.27026E-02
         0.31937E-02
         0.31937E-02
         0.32638E-02
         0.34558E-02
         0.37039E-02
         0.37039E-02
         0.36219E-02
         0.28183E-02
         0.29308E-02
         0.32635E-02
         0.32635E-02
         0.32166E-02
         0.29823E-02
         0.32799E-02
         0.32799E-02
         0.42448E-02
         0.35196E-02
         0.37737E-02
         0.42448E-02
         0.37737E-02
         0.37737E-02
         0.30126E-02
         0.32112E-02
         0.42448E-02
         0.32112E-02
         0.24148E-02
         0.30147E-02
         0.32633E-02
         0.26327E-02
         0.27200E-02
         0.42493E-02
         0.36297E-02
         0.42493E-02
         0.32114E-02
         0.29455E-02
         0.34553E-02
         0.32638E-02
         0.37036E-02
         0.32114E-02
         0.30587E-02
         0.35235E-02
         0.26590E-02
         0.26590E-02
         0.24559E-02
         0.27501E-02
         0.42493E-02
         0.35235E-02
         0.42493E-02
         0.34905E-02
         0.27289E-02
         0.31867E-02
         0.32633E-02
         0.27048E-02
         0.27825E-02
         0.27825E-02
         0.27026E-02
         0.31937E-02
         0.31937E-02
         0.37036E-02
         0.36218E-02
         0.28180E-02
         0.31758E-02
         0.33462E-02
         0.33462E-02
         0.32166E-02
         0.29822E-02
         0.32797E-02
         0.27289E-02
         0.30892E-02
         0.31867E-02
         0.32633E-02
         0.32633E-02
         0.30147E-02
         0.27200E-02
         0.27048E-02
         0.27825E-02
         0.27825E-02
         0.27026E-02
         0.31937E-02
         0.31937E-02
         0.32638E-02
         0.34553E-02
         0.37036E-02
         0.37036E-02
         0.36218E-02
         0.28180E-02
         0.29308E-02
         0.32635E-02
         0.32635E-02
         0.32166E-02
         0.29822E-02
         0.32797E-02
         0.32797E-02
  
SCALARS              physical_window_y  double 1
LOOKUP_TABLE default
         0.43155E-02
         0.43155E-02
         0.43155E-02
         0.43155E-02
         0.43155E-02
         0.43155E-02
         0.43155E-02
         0.43155E-02
         0.34883E-02
         0.34883E-02
         0.34882E-02
         0.34882E-02
         0.32826E-02
         0.32142E-02
         0.32826E-02
         0.32142E-02
         0.37863E-02
         0.31884E-02
         0.37863E-02
         0.31884E-02
         0.27172E-02
         0.33887E-02
         0.37164E-02
         0.27172E-02
         0.33887E-02
         0.37164E-02
         0.27582E-02
         0.28966E-02
         0.27582E-02
         0.28954E-02
         0.37007E-02
         0.35859E-02
         0.37863E-02
         0.37007E-02
         0.35824E-02
         0.37863E-02
         0.29875E-02
         0.29875E-02
         0.29867E-02
         0.29867E-02
         0.28561E-02
         0.26860E-02
         0.28556E-02
         0.26852E-02
         0.29518E-02
         0.28068E-02
         0.29517E-02
         0.28066E-02
         0.29975E-02
         0.29949E-02
         0.37007E-02
         0.37007E-02
         0.28693E-02
         0.28693E-02
         0.28693E-02
         0.28693E-02
         0.27602E-02
         0.26193E-02
         0.27602E-02
         0.26193E-02
         0.37007E-02
         0.37007E-02
         0.37007E-02
         0.37007E-02
         0.37685E-02
         0.37665E-02
         0.37685E-02
         0.37665E-02
         0.30230E-02
         0.37003E-02
         0.30229E-02
         0.37003E-02
         0.37164E-02
         0.37164E-02
         0.31934E-02
         0.31921E-02
         0.32777E-02
         0.32771E-02
         0.32777E-02
         0.32771E-02
         0.27006E-02
         0.25920E-02
         0.27006E-02
         0.25920E-02
         0.25916E-02
         0.25916E-02
         0.29715E-02
         0.29715E-02
         0.29715E-02
         0.29715E-02
         0.26477E-02
         0.29102E-02
         0.26477E-02
         0.29102E-02
         0.34085E-02
         0.34085E-02
         0.35350E-02
         0.35350E-02
         0.35350E-02
         0.35350E-02
         0.29766E-02
         0.32272E-02
         0.29763E-02
         0.32254E-02
         0.29087E-02
         0.29835E-02
         0.29087E-02
         0.29825E-02
         0.37003E-02
         0.37003E-02
         0.37164E-02
         0.37164E-02
         0.37164E-02
         0.37164E-02
         0.33887E-02
         0.33887E-02
         0.28966E-02
         0.28954E-02
         0.31934E-02
         0.31921E-02
         0.32777E-02
         0.32771E-02
         0.32777E-02
         0.32771E-02
         0.27006E-02
         0.27006E-02
         0.25920E-02
         0.25920E-02
         0.25916E-02
         0.25916E-02
         0.26860E-02
         0.26852E-02
         0.28561E-02
         0.28556E-02
         0.29518E-02
         0.29517E-02
         0.29715E-02
         0.29715E-02
         0.29715E-02
         0.29715E-02
         0.26477E-02
         0.26477E-02
         0.27685E-02
         0.27685E-02
         0.34085E-02
         0.34085E-02
         0.35350E-02
         0.35350E-02
         0.35350E-02
         0.35350E-02
         0.29766E-02
         0.29763E-02
         0.31381E-02
         0.31368E-02
         0.31381E-02
         0.31368E-02
         0.43153E-02
         0.43153E-02
         0.43153E-02
         0.43153E-02
         0.34883E-02
         0.34883E-02
         0.32812E-02
         0.32132E-02
         0.37858E-02
         0.31880E-02
         0.27155E-02
         0.33883E-02
         0.37163E-02
         0.27535E-02
         0.28978E-02
         0.37004E-02
         0.35894E-02
         0.37858E-02
         0.29882E-02
         0.29882E-02
         0.28566E-02
         0.26867E-02
         0.29519E-02
         0.28071E-02
         0.30001E-02
         0.37004E-02
         0.28667E-02
         0.28667E-02
         0.27589E-02
         0.26183E-02
         0.37004E-02
         0.37004E-02
         0.37706E-02
         0.37706E-02
         0.30232E-02
         0.36991E-02
         0.37163E-02
         0.31947E-02
         0.32784E-02
         0.32784E-02
         0.27006E-02
         0.25920E-02
         0.25909E-02
         0.29715E-02
         0.29715E-02
         0.26476E-02
         0.29101E-02
         0.34078E-02
         0.35344E-02
         0.35344E-02
         0.29769E-02
         0.32290E-02
         0.29059E-02
         0.29845E-02
         0.36991E-02
         0.37163E-02
         0.37163E-02
         0.33883E-02
         0.28978E-02
         0.31947E-02
         0.32784E-02
         0.32784E-02
         0.27006E-02
         0.25920E-02
         0.25909E-02
         0.26867E-02
         0.28566E-02
         0.29519E-02
         0.29715E-02
         0.29715E-02
         0.26476E-02
         0.27685E-02
         0.34078E-02
         0.35344E-02
         0.35344E-02
         0.29769E-02
         0.31395E-02
         0.31395E-02
         0.43150E-02
         0.43150E-02
         0.43150E-02
         0.43150E-02
         0.34884E-02
         0.34884E-02
         0.32798E-02
         0.32122E-02
         0.37853E-02
         0.31876E-02
         0.27137E-02
         0.33879E-02
         0.37162E-02
         0.27488E-02
         0.28990E-02
         0.37001E-02
         0.35930E-02
         0.37853E-02
         0.29889E-02
         0.29889E-02
         0.28571E-02
         0.26875E-02
         0.29521E-02
         0.28074E-02
         0.30027E-02
         0.37001E-02
         0.28641E-02
         0.28641E-02
         0.27576E-02
         0.26173E-02
         0.37001E-02
         0.37001E-02
         0.37727E-02
         0.37727E-02
         0.30234E-02
         0.36979E-02
         0.37162E-02
         0.31960E-02
         0.32790E-02
         0.32790E-02
         0.27006E-02
         0.25920E-02
         0.25902E-02
         0.29715E-02
         0.29715E-02
         0.26476E-02
         0.29100E-02
         0.34071E-02
         0.35339E-02
         0.35339E-02
         0.29772E-02
         0.32307E-02
         0.29032E-02
         0.29855E-02
         0.36979E-02
         0.37162E-02
         0.37162E-02
         0.33879E-02
         0.28990E-02
         0.31960E-02
         0.32790E-02
         0.32790E-02
         0.27006E-02
         0.25920E-02
         0.25902E-02
         0.26875E-02
         0.28571E-02
         0.29521E-02
         0.29715E-02
         0.29715E-02
         0.26476E-02
         0.27684E-02
         0.34071E-02
         0.35339E-02
         0.35339E-02
         0.29772E-02
         0.31408E-02
         0.31408E-02
         0.43148E-02
         0.43148E-02
         0.43148E-02
         0.43148E-02
         0.34885E-02
         0.34885E-02
         0.32783E-02
         0.32112E-02
         0.37849E-02
         0.31872E-02
         0.27120E-02
         0.33875E-02
         0.37161E-02
         0.27441E-02
         0.29003E-02
         0.36998E-02
         0.35965E-02
         0.37849E-02
         0.29896E-02
         0.29896E-02
         0.28575E-02
         0.26882E-02
         0.29522E-02
         0.28077E-02
         0.30053E-02
         0.36998E-02
         0.28615E-02
         0.28615E-02
         0.27563E-02
         0.26163E-02
         0.36998E-02
         0.36998E-02
         0.37747E-02
         0.37747E-02
         0.30236E-02
         0.36967E-02
         0.37161E-02
         0.31973E-02
         0.32796E-02
         0.32796E-02
         0.27006E-02
         0.25920E-02
         0.25895E-02
         0.29714E-02
         0.29714E-02
         0.26475E-02
         0.29099E-02
         0.34063E-02
         0.35333E-02
         0.35333E-02
         0.29775E-02
         0.32325E-02
         0.29004E-02
         0.29865E-02
         0.36967E-02
         0.37161E-02
         0.37161E-02
         0.33875E-02
         0.29003E-02
         0.31973E-02
         0.32796E-02
         0.32796E-02
         0.27006E-02
         0.25920E-02
         0.25895E-02
         0.26882E-02
         0.28575E-02
         0.29522E-02
         0.29714E-02
         0.29714E-02
         0.26475E-02
         0.27684E-02
         0.34063E-02
         0.35333E-02
         0.35333E-02
         0.29775E-02
         0.31422E-02
         0.31422E-02
         0.43145E-02
         0.43145E-02
         0.43145E-02
         0.43145E-02
         0.34886E-02
         0.34886E-02
         0.32769E-02
         0.32102E-02
         0.37844E-02
         0.31868E-02
         0.27103E-02
         0.33871E-02
         0.37160E-02
         0.27394E-02
         0.29015E-02
         0.36995E-02
         0.36000E-02
         0.37844E-02
         0.29903E-02
         0.29903E-02
         0.28580E-02
         0.26890E-02
         0.29523E-02
         0.28079E-02
         0.30079E-02
         0.36995E-02
         0.28589E-02
         0.28589E-02
         0.27550E-02
         0.26152E-02
         0.36995E-02
         0.36995E-02
         0.37768E-02
         0.37768E-02
         0.30238E-02
         0.36956E-02
         0.37160E-02
         0.31986E-02
         0.32802E-02
         0.32802E-02
         0.27006E-02
         0.25920E-02
         0.25887E-02
         0.29714E-02
         0.29714E-02
         0.26475E-02
         0.29098E-02
         0.34056E-02
         0.35327E-02
         0.35327E-02
         0.29778E-02
         0.32342E-02
         0.28977E-02
         0.29875E-02
         0.36956E-02
         0.37160E-02
         0.37160E-02
         0.33871E-02
         0.29015E-02
         0.31986E-02
         0.32802E-02
         0.32802E-02
         0.27006E-02
         0.25920E-02
         0.25887E-02
         0.26890E-02
         0.28580E-02
         0.29523E-02
         0.29714E-02
         0.29714E-02
         0.26475E-02
         0.27683E-02
         0.34056E-02
         0.35327E-02
         0.35327E-02
         0.29778E-02
         0.31435E-02
         0.31435E-02
         0.43143E-02
         0.43143E-02
         0.43143E-02
         0.43143E-02
         0.34887E-02
         0.34887E-02
         0.32755E-02
         0.32091E-02
         0.37839E-02
         0.31864E-02
         0.27086E-02
         0.33867E-02
         0.37159E-02
         0.27347E-02
         0.29027E-02
         0.36991E-02
         0.36036E-02
         0.37839E-02
         0.29920E-02
         0.29920E-02
         0.28585E-02
         0.26897E-02
         0.29525E-02
         0.28082E-02
         0.30105E-02
         0.36991E-02
         0.28563E-02
         0.28563E-02
         0.27537E-02
         0.26142E-02
         0.36991E-02
         0.36991E-02
         0.37789E-02
         0.37789E-02
         0.30240E-02
         0.36944E-02
         0.37159E-02
         0.31999E-02
         0.32808E-02
         0.32808E-02
         0.27006E-02
         0.25920E-02
         0.25880E-02
         0.29714E-02
         0.29714E-02
         0.26474E-02
         0.29097E-02
         0.34049E-02
         0.35322E-02
         0.35322E-02
         0.29781E-02
         0.32360E-02
         0.28949E-02
         0.29885E-02
         0.36944E-02
         0.37159E-02
         0.37159E-02
         0.33867E-02
         0.29027E-02
         0.31999E-02
         0.32808E-02
         0.32808E-02
         0.27006E-02
         0.25920E-02
         0.25880E-02
         0.26897E-02
         0.28585E-02
         0.29525E-02
         0.29714E-02
         0.29714E-02
         0.26474E-02
         0.27683E-02
         0.34049E-02
         0.35322E-02
         0.35322E-02
         0.29781E-02
         0.31449E-02
         0.31449E-02
         0.43140E-02
         0.43140E-02
         0.43140E-02
         0.43140E-02
         0.34888E-02
         0.34888E-02
         0.32740E-02
         0.32081E-02
         0.37834E-02
         0.31860E-02
         0.27069E-02
         0.33863E-02
         0.37158E-02
         0.27299E-02
         0.29039E-02
         0.36988E-02
         0.36071E-02
         0.37834E-02
         0.29946E-02
         0.29946E-02
         0.28589E-02
         0.26905E-02
         0.29526E-02
         0.28085E-02
         0.30131E-02
         0.36988E-02
         0.28538E-02
         0.28538E-02
         0.27524E-02
         0.26132E-02
         0.36988E-02
         0.36988E-02
         0.37809E-02
         0.37809E-02
         0.30241E-02
         0.36932E-02
         0.37158E-02
         0.32012E-02
         0.32814E-02
         0.32814E-02
         0.27006E-02
         0.25920E-02
         0.25873E-02
         0.29714E-02
         0.29714E-02
         0.26473E-02
         0.29097E-02
         0.34041E-02
         0.35316E-02
         0.35316E-02
         0.29784E-02
         0.32378E-02
         0.28921E-02
         0.29895E-02
         0.36932E-02
         0.37158E-02
         0.37158E-02
         0.33863E-02
         0.29039E-02
         0.32012E-02
         0.32814E-02
         0.32814E-02
         0.27006E-02
         0.25920E-02
         0.25873E-02
         0.26905E-02
         0.28589E-02
         0.29526E-02
         0.29714E-02
         0.29714E-02
         0.26473E-02
         0.27683E-02
         0.34041E-02
         0.35316E-02
         0.35316E-02
         0.29784E-02
         0.31463E-02
         0.31463E-02
         0.43138E-02
         0.43138E-02
         0.43138E-02
         0.43138E-02
         0.34888E-02
         0.34888E-02
         0.32726E-02
         0.32071E-02
         0.37830E-02
         0.31856E-02
         0.27051E-02
         0.33859E-02
         0.37157E-02
         0.27252E-02
         0.29051E-02
         0.36985E-02
         0.36106E-02
         0.37830E-02
         0.29972E-02
         0.29972E-02
         0.28594E-02
         0.26912E-02
         0.29528E-02
         0.28087E-02
         0.30156E-02
         0.36985E-02
         0.28512E-02
         0.28512E-02
         0.27512E-02
         0.26122E-02
         0.36985E-02
         0.36985E-02
         0.37830E-02
         0.37830E-02
         0.30243E-02
         0.36920E-02
         0.37157E-02
         0.32025E-02
         0.32821E-02
         0.32821E-02
         0.27006E-02
         0.25920E-02
         0.25866E-02
         0.29714E-02
         0.29714E-02
         0.26473E-02
         0.29096E-02
         0.34034E-02
         0.35310E-02
         0.35310E-02
         0.29787E-02
         0.32396E-02
         0.28894E-02
         0.29905E-02
         0.36920E-02
         0.37157E-02
         0.37157E-02
         0.33859E-02
         0.29051E-02
         0.32025E-02
         0.32821E-02
         0.32821E-02
         0.27006E-02
         0.25920E-02
         0.25866E-02
         0.26912E-02
         0.28594E-02
         0.29528E-02
         0.29714E-02
         0.29714E-02
         0.26473E-02
         0.27682E-02
         0.34034E-02
         0.35310E-02
         0.35310E-02
         0.29787E-02
         0.31476E-02
         0.31476E-02
         0.43135E-02
         0.43135E-02
         0.43135E-02
         0.43135E-02
         0.34889E-02
         0.34889E-02
         0.32712E-02
         0.32061E-02
         0.37825E-02
         0.31852E-02
         0.27034E-02
         0.33856E-02
         0.37156E-02
         0.27205E-02
         0.29063E-02
         0.36982E-02
         0.36142E-02
         0.37851E-02
         0.29998E-02
         0.29998E-02
         0.28599E-02
         0.26920E-02
         0.29529E-02
         0.28090E-02
         0.30182E-02
         0.36982E-02
         0.28486E-02
         0.28486E-02
         0.27499E-02
         0.26112E-02
         0.36982E-02
         0.36982E-02
         0.37851E-02
         0.37851E-02
         0.30245E-02
         0.36908E-02
         0.37156E-02
         0.32038E-02
         0.32827E-02
         0.32827E-02
         0.27006E-02
         0.25920E-02
         0.25859E-02
         0.29714E-02
         0.29714E-02
         0.26472E-02
         0.29095E-02
         0.34027E-02
         0.35304E-02
         0.35304E-02
         0.29790E-02
         0.32413E-02
         0.28866E-02
         0.29915E-02
         0.36908E-02
         0.37156E-02
         0.37156E-02
         0.33856E-02
         0.29063E-02
         0.32038E-02
         0.32827E-02
         0.32827E-02
         0.27006E-02
         0.25920E-02
         0.25859E-02
         0.26920E-02
         0.28599E-02
         0.29529E-02
         0.29714E-02
         0.29714E-02
         0.26472E-02
         0.27682E-02
         0.34027E-02
         0.35304E-02
         0.35304E-02
         0.29790E-02
         0.31490E-02
         0.31490E-02
         0.43133E-02
         0.43133E-02
         0.43133E-02
         0.43133E-02
         0.34890E-02
         0.34890E-02
         0.32698E-02
         0.32051E-02
         0.37820E-02
         0.31848E-02
         0.27017E-02
         0.33851E-02
         0.37155E-02
         0.27158E-02
         0.29075E-02
         0.36979E-02
         0.36177E-02
         0.37871E-02
         0.30024E-02
         0.30024E-02
         0.28603E-02
         0.26927E-02
         0.29530E-02
         0.28093E-02
         0.30208E-02
         0.36979E-02
         0.28460E-02
         0.28460E-02
         0.27486E-02
         0.26101E-02
         0.36979E-02
         0.36979E-02
         0.37871E-02
         0.37871E-02
         0.30247E-02
         0.36896E-02
         0.37155E-02
         0.32051E-02
         0.32833E-02
         0.32833E-02
         0.27006E-02
         0.25920E-02
         0.25851E-02
         0.29714E-02
         0.29714E-02
         0.26472E-02
         0.29094E-02
         0.34019E-02
         0.35299E-02
         0.35299E-02
         0.29793E-02
         0.32431E-02
         0.28838E-02
         0.29925E-02
         0.36896E-02
         0.37155E-02
         0.37155E-02
         0.33851E-02
         0.29075E-02
         0.32051E-02
         0.32833E-02
         0.32833E-02
         0.27006E-02
         0.25920E-02
         0.25851E-02
         0.26927E-02
         0.28603E-02
         0.29530E-02
         0.29714E-02
         0.29714E-02
         0.26472E-02
         0.27681E-02
         0.34019E-02
         0.35299E-02
         0.35299E-02
         0.29793E-02
         0.31503E-02
         0.31503E-02
         0.43130E-02
         0.43130E-02
         0.43130E-02
         0.43130E-02
         0.34891E-02
         0.34891E-02
         0.32683E-02
         0.32041E-02
         0.37816E-02
         0.31844E-02
         0.27000E-02
         0.33848E-02
         0.37154E-02
         0.27111E-02
         0.29087E-02
         0.36976E-02
         0.36213E-02
         0.37892E-02
         0.30050E-02
         0.30050E-02
         0.28608E-02
         0.26935E-02
         0.29532E-02
         0.28096E-02
         0.30234E-02
         0.36976E-02
         0.28434E-02
         0.28434E-02
         0.27472E-02
         0.26091E-02
         0.36976E-02
         0.36976E-02
         0.37892E-02
         0.37892E-02
         0.30249E-02
         0.36885E-02
         0.37154E-02
         0.32064E-02
         0.32839E-02
         0.32839E-02
         0.27006E-02
         0.25920E-02
         0.25844E-02
         0.29714E-02
         0.29714E-02
         0.26471E-02
         0.29094E-02
         0.34012E-02
         0.35293E-02
         0.35293E-02
         0.29797E-02
         0.32449E-02
         0.28811E-02
         0.29935E-02
         0.36885E-02
         0.37154E-02
         0.37154E-02
         0.33848E-02
         0.29087E-02
         0.32064E-02
         0.32839E-02
         0.32839E-02
         0.27006E-02
         0.25920E-02
         0.25844E-02
         0.26935E-02
         0.28608E-02
         0.29532E-02
         0.29714E-02
         0.29714E-02
         0.26471E-02
         0.27681E-02
         0.34012E-02
         0.35293E-02
         0.35293E-02
         0.29797E-02
         0.31517E-02
         0.31517E-02
         0.43128E-02
         0.43128E-02
         0.43128E-02
         0.43128E-02
         0.34892E-02
         0.34892E-02
         0.32669E-02
         0.32031E-02
         0.37811E-02
         0.31840E-02
         0.26982E-02
         0.33844E-02
         0.37152E-02
         0.27063E-02
         0.29099E-02
         0.36973E-02
         0.36248E-02
         0.37913E-02
         0.30076E-02
         0.30076E-02
         0.28613E-02
         0.26942E-02
         0.29533E-02
         0.28099E-02
         0.30260E-02
         0.36973E-02
         0.28408E-02
         0.28408E-02
         0.27460E-02
         0.26081E-02
         0.36973E-02
         0.36973E-02
         0.37913E-02
         0.37913E-02
         0.30250E-02
         0.36873E-02
         0.37152E-02
         0.32077E-02
         0.32845E-02
         0.32845E-02
         0.27006E-02
         0.25920E-02
         0.25837E-02
         0.29714E-02
         0.29714E-02
         0.26471E-02
         0.29093E-02
         0.34005E-02
         0.35287E-02
         0.35287E-02
         0.29800E-02
         0.32467E-02
         0.28783E-02
         0.29945E-02
         0.36873E-02
         0.37152E-02
         0.37152E-02
         0.33844E-02
         0.29099E-02
         0.32077E-02
         0.32845E-02
         0.32845E-02
         0.27006E-02
         0.25920E-02
         0.25837E-02
         0.26942E-02
         0.28613E-02
         0.29533E-02
         0.29714E-02
         0.29714E-02
         0.26471E-02
         0.27681E-02
         0.34005E-02
         0.35287E-02
         0.35287E-02
         0.29800E-02
         0.31530E-02
         0.31530E-02
         0.43125E-02
         0.43125E-02
         0.43125E-02
         0.43125E-02
         0.34893E-02
         0.34893E-02
         0.32655E-02
         0.32021E-02
         0.37806E-02
         0.31836E-02
         0.26965E-02
         0.33840E-02
         0.37151E-02
         0.27016E-02
         0.29111E-02
         0.36969E-02
         0.36283E-02
         0.37933E-02
         0.30102E-02
         0.30102E-02
         0.28617E-02
         0.26950E-02
         0.29535E-02
         0.28101E-02
         0.30286E-02
         0.36969E-02
         0.28382E-02
         0.28382E-02
         0.27447E-02
         0.26071E-02
         0.36969E-02
         0.36969E-02
         0.37933E-02
         0.37933E-02
         0.30252E-02
         0.36861E-02
         0.37151E-02
         0.32090E-02
         0.32852E-02
         0.32852E-02
         0.27006E-02
         0.25920E-02
         0.25830E-02
         0.29714E-02
         0.29714E-02
         0.26470E-02
         0.29092E-02
         0.33997E-02
         0.35282E-02
         0.35282E-02
         0.29803E-02
         0.32484E-02
         0.28755E-02
         0.29955E-02
         0.36861E-02
         0.37151E-02
         0.37151E-02
         0.33840E-02
         0.29111E-02
         0.32090E-02
         0.32852E-02
         0.32852E-02
         0.27006E-02
         0.25920E-02
         0.25830E-02
         0.26950E-02
         0.28617E-02
         0.29535E-02
         0.29714E-02
         0.29714E-02
         0.26470E-02
         0.27680E-02
         0.33997E-02
         0.35282E-02
         0.35282E-02
         0.29803E-02
         0.31544E-02
         0.31544E-02
         0.43123E-02
         0.43123E-02
         0.43123E-02
         0.43123E-02
         0.34893E-02
         0.34893E-02
         0.32640E-02
         0.32011E-02
         0.37801E-02
         0.31832E-02
         0.26948E-02
         0.33836E-02
         0.37150E-02
         0.26969E-02
         0.29123E-02
         0.36966E-02
         0.36319E-02
         0.37954E-02
         0.30128E-02
         0.30128E-02
         0.28622E-02
         0.26957E-02
         0.29536E-02
         0.28104E-02
         0.30312E-02
         0.36966E-02
         0.28357E-02
         0.28357E-02
         0.27434E-02
         0.26061E-02
         0.36966E-02
         0.36966E-02
         0.37954E-02
         0.37954E-02
         0.30254E-02
         0.36849E-02
         0.37150E-02
         0.32103E-02
         0.32858E-02
         0.32858E-02
         0.27006E-02
         0.25920E-02
         0.25823E-02
         0.29714E-02
         0.29714E-02
         0.26470E-02
         0.29091E-02
         0.33990E-02
         0.35276E-02
         0.35276E-02
         0.29806E-02
         0.32502E-02
         0.28728E-02
         0.29965E-02
         0.36849E-02
         0.37150E-02
         0.37150E-02
         0.33836E-02
         0.29123E-02
         0.32103E-02
         0.32858E-02
         0.32858E-02
         0.27006E-02
         0.25920E-02
         0.25823E-02
         0.26957E-02
         0.28622E-02
         0.29536E-02
         0.29714E-02
         0.29714E-02
         0.26470E-02
         0.27680E-02
         0.33990E-02
         0.35276E-02
         0.35276E-02
         0.29806E-02
         0.31557E-02
         0.31557E-02
         0.43120E-02
         0.43120E-02
         0.43120E-02
         0.43120E-02
         0.34894E-02
         0.34894E-02
         0.32626E-02
         0.32001E-02
         0.37797E-02
         0.31828E-02
         0.26931E-02
         0.33832E-02
         0.37149E-02
         0.26922E-02
         0.29135E-02
         0.36963E-02
         0.36354E-02
         0.37975E-02
         0.30154E-02
         0.30154E-02
         0.28627E-02
         0.26965E-02
         0.29537E-02
         0.28107E-02
         0.30338E-02
         0.36963E-02
         0.28331E-02
         0.28331E-02
         0.27421E-02
         0.26051E-02
         0.36963E-02
         0.36963E-02
         0.37975E-02
         0.37975E-02
         0.30256E-02
         0.36838E-02
         0.37149E-02
         0.32116E-02
         0.32864E-02
         0.32864E-02
         0.27006E-02
         0.25920E-02
         0.25815E-02
         0.29714E-02
         0.29714E-02
         0.26469E-02
         0.29090E-02
         0.33983E-02
         0.35270E-02
         0.35270E-02
         0.29809E-02
         0.32519E-02
         0.28700E-02
         0.29975E-02
         0.36838E-02
         0.37149E-02
         0.37149E-02
         0.33832E-02
         0.29135E-02
         0.32116E-02
         0.32864E-02
         0.32864E-02
         0.27006E-02
         0.25920E-02
         0.25815E-02
         0.26965E-02
         0.28627E-02
         0.29537E-02
         0.29714E-02
         0.29714E-02
         0.26469E-02
         0.27680E-02
         0.33983E-02
         0.35270E-02
         0.35270E-02
         0.29809E-02
         0.31571E-02
         0.31571E-02
         0.43118E-02
         0.43118E-02
         0.43118E-02
         0.43118E-02
         0.34895E-02
         0.34895E-02
         0.32612E-02
         0.31990E-02
         0.37792E-02
         0.31824E-02
         0.26913E-02
         0.33828E-02
         0.37148E-02
         0.26875E-02
         0.29148E-02
         0.36960E-02
         0.36390E-02
         0.37995E-02
         0.30180E-02
         0.30180E-02
         0.28631E-02
         0.26972E-02
         0.29539E-02
         0.28110E-02
         0.30364E-02
         0.36960E-02
         0.28305E-02
         0.28305E-02
         0.27408E-02
         0.26040E-02
         0.36960E-02
         0.36960E-02
         0.37995E-02
         0.37995E-02
         0.30258E-02
         0.36826E-02
         0.37148E-02
         0.32129E-02
         0.32870E-02
         0.32870E-02
         0.27006E-02
         0.25920E-02
         0.25808E-02
         0.29713E-02
         0.29713E-02
         0.26468E-02
         0.29089E-02
         0.33975E-02
         0.35264E-02
         0.35264E-02
         0.29812E-02
         0.32537E-02
         0.28672E-02
         0.29985E-02
         0.36826E-02
         0.37148E-02
         0.37148E-02
         0.33828E-02
         0.29148E-02
         0.32129E-02
         0.32870E-02
         0.32870E-02
         0.27006E-02
         0.25920E-02
         0.25808E-02
         0.26972E-02
         0.28631E-02
         0.29539E-02
         0.29713E-02
         0.29713E-02
         0.26468E-02
         0.27679E-02
         0.33975E-02
         0.35264E-02
         0.35264E-02
         0.29812E-02
         0.31585E-02
         0.31585E-02
         0.43115E-02
         0.43115E-02
         0.43115E-02
         0.43115E-02
         0.34896E-02
         0.34896E-02
         0.32597E-02
         0.31980E-02
         0.37787E-02
         0.31820E-02
         0.26896E-02
         0.33824E-02
         0.37147E-02
         0.26827E-02
         0.29160E-02
         0.36957E-02
         0.36425E-02
         0.38016E-02
         0.30206E-02
         0.30206E-02
         0.28636E-02
         0.26980E-02
         0.29540E-02
         0.28112E-02
         0.30390E-02
         0.36957E-02
         0.28279E-02
         0.28279E-02
         0.27395E-02
         0.26030E-02
         0.36957E-02
         0.36957E-02
         0.38016E-02
         0.38016E-02
         0.30260E-02
         0.36814E-02
         0.37147E-02
         0.32141E-02
         0.32876E-02
         0.32876E-02
         0.27006E-02
         0.25920E-02
         0.25801E-02
         0.29713E-02
         0.29713E-02
         0.26468E-02
         0.29089E-02
         0.33968E-02
         0.35259E-02
         0.35259E-02
         0.29815E-02
         0.32555E-02
         0.28645E-02
         0.29995E-02
         0.36814E-02
         0.37147E-02
         0.37147E-02
         0.33824E-02
         0.29160E-02
         0.32141E-02
         0.32876E-02
         0.32876E-02
         0.27006E-02
         0.25920E-02
         0.25801E-02
         0.26980E-02
         0.28636E-02
         0.29540E-02
         0.29713E-02
         0.29713E-02
         0.26468E-02
         0.27679E-02
         0.33968E-02
         0.35259E-02
         0.35259E-02
         0.29815E-02
         0.31598E-02
         0.31598E-02
         0.43113E-02
         0.43113E-02
         0.43113E-02
         0.43113E-02
         0.34897E-02
         0.34897E-02
         0.32583E-02
         0.31970E-02
         0.37783E-02
         0.31816E-02
         0.26879E-02
         0.33820E-02
         0.37146E-02
         0.26780E-02
         0.29172E-02
         0.36954E-02
         0.36460E-02
         0.38037E-02
         0.30232E-02
         0.30232E-02
         0.28641E-02
         0.26987E-02
         0.29542E-02
         0.28115E-02
         0.30416E-02
         0.36954E-02
         0.28253E-02
         0.28253E-02
         0.27382E-02
         0.26020E-02
         0.36954E-02
         0.36954E-02
         0.38037E-02
         0.38037E-02
         0.30261E-02
         0.36802E-02
         0.37146E-02
         0.32154E-02
         0.32882E-02
         0.32882E-02
         0.27006E-02
         0.25921E-02
         0.25794E-02
         0.29713E-02
         0.29713E-02
         0.26467E-02
         0.29088E-02
         0.33961E-02
         0.35253E-02
         0.35253E-02
         0.29818E-02
         0.32573E-02
         0.28617E-02
         0.30005E-02
         0.36802E-02
         0.37146E-02
         0.37146E-02
         0.33820E-02
         0.29172E-02
         0.32154E-02
         0.32882E-02
         0.32882E-02
         0.27006E-02
         0.25921E-02
         0.25794E-02
         0.26987E-02
         0.28641E-02
         0.29542E-02
         0.29713E-02
         0.29713E-02
         0.26467E-02
         0.27678E-02
         0.33961E-02
         0.35253E-02
         0.35253E-02
         0.29818E-02
         0.31612E-02
         0.31612E-02
         0.43110E-02
         0.43110E-02
         0.43110E-02
         0.43110E-02
         0.34898E-02
         0.34898E-02
         0.32569E-02
         0.31960E-02
         0.37778E-02
         0.31812E-02
         0.26862E-02
         0.33816E-02
         0.37145E-02
         0.26733E-02
         0.29184E-02
         0.36950E-02
         0.36495E-02
         0.38057E-02
         0.30258E-02
         0.30258E-02
         0.28645E-02
         0.26995E-02
         0.29543E-02
         0.28118E-02
         0.30442E-02
         0.36950E-02
         0.28227E-02
         0.28227E-02
         0.27369E-02
         0.26010E-02
         0.36950E-02
         0.36950E-02
         0.38057E-02
         0.38057E-02
         0.30263E-02
         0.36790E-02
         0.37145E-02
         0.32167E-02
         0.32889E-02
         0.32889E-02
         0.27006E-02
         0.25921E-02
         0.25787E-02
         0.29713E-02
         0.29713E-02
         0.26467E-02
         0.29087E-02
         0.33953E-02
         0.35247E-02
         0.35247E-02
         0.29821E-02
         0.32590E-02
         0.28589E-02
         0.30015E-02
         0.36790E-02
         0.37145E-02
         0.37145E-02
         0.33816E-02
         0.29184E-02
         0.32167E-02
         0.32889E-02
         0.32889E-02
         0.27006E-02
         0.25921E-02
         0.25787E-02
         0.26995E-02
         0.28645E-02
         0.29543E-02
         0.29713E-02
         0.29713E-02
         0.26467E-02
         0.27678E-02
         0.33953E-02
         0.35247E-02
         0.35247E-02
         0.29821E-02
         0.31625E-02
         0.31625E-02
         0.43108E-02
         0.43108E-02
         0.43108E-02
         0.43108E-02
         0.34898E-02
         0.34898E-02
         0.32555E-02
         0.31950E-02
         0.37773E-02
         0.31808E-02
         0.26845E-02
         0.33812E-02
         0.37144E-02
         0.26686E-02
         0.29196E-02
         0.36948E-02
         0.36531E-02
         0.38078E-02
         0.30285E-02
         0.30285E-02
         0.28650E-02
         0.27002E-02
         0.29544E-02
         0.28120E-02
         0.30467E-02
         0.36948E-02
         0.28201E-02
         0.28201E-02
         0.27356E-02
         0.26000E-02
         0.36948E-02
         0.36948E-02
         0.38078E-02
         0.38078E-02
         0.30265E-02
         0.36779E-02
         0.37144E-02
         0.32181E-02
         0.32895E-02
         0.32895E-02
         0.27006E-02
         0.25921E-02
         0.25779E-02
         0.29713E-02
         0.29713E-02
         0.26466E-02
         0.29086E-02
         0.33946E-02
         0.35242E-02
         0.35242E-02
         0.29824E-02
         0.32608E-02
         0.28562E-02
         0.30025E-02
         0.36779E-02
         0.37144E-02
         0.37144E-02
         0.33812E-02
         0.29196E-02
         0.32181E-02
         0.32895E-02
         0.32895E-02
         0.27006E-02
         0.25921E-02
         0.25779E-02
         0.27002E-02
         0.28650E-02
         0.29544E-02
         0.29713E-02
         0.29713E-02
         0.26466E-02
         0.27678E-02
         0.33946E-02
         0.35242E-02
         0.35242E-02
         0.29824E-02
         0.31639E-02
         0.31639E-02
         0.43105E-02
         0.43105E-02
         0.43105E-02
         0.43105E-02
         0.34899E-02
         0.34899E-02
         0.32540E-02
         0.31940E-02
         0.37768E-02
         0.31804E-02
         0.26827E-02
         0.33808E-02
         0.37143E-02
         0.26639E-02
         0.29208E-02
         0.36944E-02
         0.36566E-02
         0.38099E-02
         0.30311E-02
         0.30311E-02
         0.28655E-02
         0.27010E-02
         0.29546E-02
         0.28123E-02
         0.30493E-02
         0.36944E-02
         0.28175E-02
         0.28175E-02
         0.27343E-02
         0.25990E-02
         0.36944E-02
         0.36944E-02
         0.38099E-02
         0.38099E-02
         0.30267E-02
         0.36767E-02
         0.37143E-02
         0.32193E-02
         0.32901E-02
         0.32901E-02
         0.27006E-02
         0.25921E-02
         0.25772E-02
         0.29713E-02
         0.29713E-02
         0.26466E-02
         0.29085E-02
         0.33939E-02
         0.35236E-02
         0.35236E-02
         0.29827E-02
         0.32626E-02
         0.28534E-02
         0.30035E-02
         0.36767E-02
         0.37143E-02
         0.37143E-02
         0.33808E-02
         0.29208E-02
         0.32193E-02
         0.32901E-02
         0.32901E-02
         0.27006E-02
         0.25921E-02
         0.25772E-02
         0.27010E-02
         0.28655E-02
         0.29546E-02
         0.29713E-02
         0.29713E-02
         0.26466E-02
         0.27677E-02
         0.33939E-02
         0.35236E-02
         0.35236E-02
         0.29827E-02
         0.31652E-02
         0.31652E-02
         0.43103E-02
         0.43103E-02
         0.43103E-02
         0.43103E-02
         0.34900E-02
         0.34900E-02
         0.32526E-02
         0.31930E-02
         0.37764E-02
         0.31800E-02
         0.26810E-02
         0.33804E-02
         0.37142E-02
         0.26591E-02
         0.29220E-02
         0.36941E-02
         0.36602E-02
         0.38119E-02
         0.30337E-02
         0.30337E-02
         0.28660E-02
         0.27017E-02
         0.29547E-02
         0.28126E-02
         0.30519E-02
         0.36941E-02
         0.28150E-02
         0.28150E-02
         0.27330E-02
         0.25979E-02
         0.36941E-02
         0.36941E-02
         0.38119E-02
         0.38119E-02
         0.30269E-02
         0.36755E-02
         0.37142E-02
         0.32206E-02
         0.32907E-02
         0.32907E-02
         0.27006E-02
         0.25921E-02
         0.25765E-02
         0.29713E-02
         0.29713E-02
         0.26465E-02
         0.29085E-02
         0.33931E-02
         0.35230E-02
         0.35230E-02
         0.29830E-02
         0.32643E-02
         0.28507E-02
         0.30045E-02
         0.36755E-02
         0.37142E-02
         0.37142E-02
         0.33804E-02
         0.29220E-02
         0.32206E-02
         0.32907E-02
         0.32907E-02
         0.27006E-02
         0.25921E-02
         0.25765E-02
         0.27017E-02
         0.28660E-02
         0.29547E-02
         0.29713E-02
         0.29713E-02
         0.26465E-02
         0.27677E-02
         0.33931E-02
         0.35230E-02
         0.35230E-02
         0.29830E-02
         0.31666E-02
         0.31666E-02
         0.43100E-02
         0.43100E-02
         0.43100E-02
         0.43100E-02
         0.34901E-02
         0.34901E-02
         0.32512E-02
         0.31920E-02
         0.37759E-02
         0.31796E-02
         0.26793E-02
         0.33800E-02
         0.37141E-02
         0.26544E-02
         0.29232E-02
         0.36938E-02
         0.36637E-02
         0.38140E-02
         0.30363E-02
         0.30363E-02
         0.28664E-02
         0.27025E-02
         0.29548E-02
         0.28129E-02
         0.30545E-02
         0.36938E-02
         0.28124E-02
         0.28124E-02
         0.27317E-02
         0.25969E-02
         0.36938E-02
         0.36938E-02
         0.38140E-02
         0.38140E-02
         0.30271E-02
         0.36743E-02
         0.37141E-02
         0.32219E-02
         0.32913E-02
         0.32913E-02
         0.27006E-02
         0.25921E-02
         0.25758E-02
         0.29713E-02
         0.29713E-02
         0.26465E-02
         0.29084E-02
         0.33924E-02
         0.35224E-02
         0.35224E-02
         0.29833E-02
         0.32661E-02
         0.28479E-02
         0.30055E-02
         0.36743E-02
         0.37141E-02
         0.37141E-02
         0.33800E-02
         0.29232E-02
         0.32219E-02
         0.32913E-02
         0.32913E-02
         0.27006E-02
         0.25921E-02
         0.25758E-02
         0.27025E-02
         0.28664E-02
         0.29548E-02
         0.29713E-02
         0.29713E-02
         0.26465E-02
         0.27677E-02
         0.33924E-02
         0.35224E-02
         0.35224E-02
         0.29833E-02
         0.31680E-02
         0.31680E-02
         0.43098E-02
         0.43098E-02
         0.43098E-02
         0.43098E-02
         0.34901E-02
         0.34901E-02
         0.32498E-02
         0.31910E-02
         0.37754E-02
         0.31792E-02
         0.26776E-02
         0.33796E-02
         0.37140E-02
         0.26497E-02
         0.29232E-02
         0.36935E-02
         0.36637E-02
         0.38140E-02
         0.30363E-02
         0.30363E-02
         0.28664E-02
         0.27025E-02
         0.29548E-02
         0.28129E-02
         0.30545E-02
         0.36935E-02
         0.28098E-02
         0.28098E-02
         0.27304E-02
         0.25959E-02
         0.36935E-02
         0.36935E-02
         0.38140E-02
         0.38140E-02
         0.30271E-02
         0.36731E-02
         0.37140E-02
         0.32219E-02
         0.32913E-02
         0.32913E-02
         0.27006E-02
         0.25921E-02
         0.25751E-02
         0.29713E-02
         0.29713E-02
         0.26464E-02
         0.29083E-02
         0.33916E-02
         0.35219E-02
         0.35219E-02
         0.29833E-02
         0.32661E-02
         0.28451E-02
         0.30055E-02
         0.36731E-02
         0.37140E-02
         0.37140E-02
         0.33796E-02
         0.29232E-02
         0.32219E-02
         0.32913E-02
         0.32913E-02
         0.27006E-02
         0.25921E-02
         0.25751E-02
         0.27025E-02
         0.28664E-02
         0.29548E-02
         0.29713E-02
         0.29713E-02
         0.26464E-02
         0.27676E-02
         0.33916E-02
         0.35219E-02
         0.35219E-02
         0.29833E-02
         0.31680E-02
         0.31680E-02
  
SCALARS              physical_window_z  double 1
LOOKUP_TABLE default
         0.26928E-02
         0.26928E-02
         0.26928E-02
         0.26928E-02
         0.26928E-02
         0.26928E-02
         0.26928E-02
         0.26928E-02
         0.26928E-02
         0.26928E-02
         0.26928E-02
         0.26928E-02
         0.26928E-02
         0.26928E-02
         0.26928E-02
         0.26928E-02
         0.26928E-02
         0.26928E-02
         0.26928E-02
         0.26928E-02
         0.26928E-02
         0.26928E-02
         0.26928E-02
         0.26928E-02
         0.26928E-02
         0.26928E-02
         0.26928E-02
         0.26928E-02
         0.26928E-02
         0.26928E-02
         0.26928E-02
         0.26928E-02
         0.26928E-02
         0.26928E-02
         0.26928E-02
         0.26928E-02
         0.26928E-02
         0.26928E-02
         0.26928E-02
         0.26928E-02
         0.26928E-02
         0.26928E-02
         0.26928E-02
         0.26928E-02
         0.26928E-02
         0.26928E-02
         0.26928E-02
         0.26928E-02
         0.26928E-02
         0.26928E-02
         0.26928E-02
         0.26928E-02
         0.26928E-02
         0.26928E-02
         0.26928E-02
         0.26928E-02
         0.26928E-02
         0.26928E-02
         0.26928E-02
         0.26928E-02
         0.26928E-02
         0.26928E-02
         0.26928E-02
         0.26928E-02
         0.26928E-02
         0.26928E-02
         0.26928E-02
         0.26928E-02
         0.26928E-02
         0.26928E-02
         0.26928E-02
         0.26928E-02
         0.26928E-02
         0.26928E-02
         0.26928E-02
         0.26928E-02
         0.26928E-02
         0.26928E-02
         0.26928E-02
         0.26928E-02
         0.26928E-02
         0.26928E-02
         0.26928E-02
         0.26928E-02
         0.26928E-02
         0.26928E-02
         0.26928E-02
         0.26928E-02
         0.26928E-02
         0.26928E-02
         0.26928E-02
         0.26928E-02
         0.26928E-02
         0.26928E-02
         0.26928E-02
         0.26928E-02
         0.26928E-02
         0.26928E-02
         0.26928E-02
         0.26928E-02
         0.26928E-02
         0.26928E-02
         0.26928E-02
         0.26928E-02
         0.26928E-02
         0.26928E-02
         0.26928E-02
         0.26928E-02
         0.26928E-02
         0.26928E-02
         0.26928E-02
         0.26928E-02
         0.26928E-02
         0.26928E-02
         0.26928E-02
         0.26928E-02
         0.26928E-02
         0.26928E-02
         0.26928E-02
         0.26928E-02
         0.26928E-02
         0.26928E-02
         0.26928E-02
         0.26928E-02
         0.26928E-02
         0.26928E-02
         0.26928E-02
         0.26928E-02
         0.26928E-02
         0.26928E-02
         0.26928E-02
         0.26928E-02
         0.26928E-02
         0.26928E-02
         0.26928E-02
         0.26928E-02
         0.26928E-02
         0.26928E-02
         0.26928E-02
         0.26928E-02
         0.26928E-02
         0.26928E-02
         0.26928E-02
         0.26928E-02
         0.26928E-02
         0.26928E-02
         0.26928E-02
         0.26928E-02
         0.26928E-02
         0.26928E-02
         0.26928E-02
         0.26928E-02
         0.26928E-02
         0.26928E-02
         0.26928E-02
         0.26928E-02
         0.26927E-02
         0.26927E-02
         0.26927E-02
         0.26927E-02
         0.26927E-02
         0.26927E-02
         0.26927E-02
         0.26927E-02
         0.26927E-02
         0.26927E-02
         0.26927E-02
         0.26927E-02
         0.26927E-02
         0.26927E-02
         0.26927E-02
         0.26927E-02
         0.26927E-02
         0.26927E-02
         0.26927E-02
         0.26927E-02
         0.26927E-02
         0.26927E-02
         0.26927E-02
         0.26927E-02
         0.26927E-02
         0.26927E-02
         0.26927E-02
         0.26927E-02
         0.26927E-02
         0.26927E-02
         0.26927E-02
         0.26927E-02
         0.26927E-02
         0.26927E-02
         0.26927E-02
         0.26927E-02
         0.26927E-02
         0.26927E-02
         0.26927E-02
         0.26927E-02
         0.26927E-02
         0.26927E-02
         0.26927E-02
         0.26927E-02
         0.26927E-02
         0.26927E-02
         0.26927E-02
         0.26927E-02
         0.26927E-02
         0.26927E-02
         0.26927E-02
         0.26927E-02
         0.26927E-02
         0.26927E-02
         0.26927E-02
         0.26927E-02
         0.26927E-02
         0.26927E-02
         0.26927E-02
         0.26927E-02
         0.26927E-02
         0.26927E-02
         0.26927E-02
         0.26927E-02
         0.26927E-02
         0.26927E-02
         0.26927E-02
         0.26927E-02
         0.26927E-02
         0.26927E-02
         0.26927E-02
         0.26927E-02
         0.26927E-02
         0.26927E-02
         0.26927E-02
         0.26927E-02
         0.26927E-02
         0.26927E-02
         0.26927E-02
         0.26927E-02
         0.26927E-02
         0.26927E-02
         0.26927E-02
         0.26927E-02
         0.26927E-02
         0.26927E-02
         0.26927E-02
         0.26927E-02
         0.26927E-02
         0.26927E-02
         0.26927E-02
         0.26927E-02
         0.26927E-02
         0.26927E-02
         0.26927E-02
         0.26927E-02
         0.26927E-02
         0.26927E-02
         0.26927E-02
         0.26927E-02
         0.26927E-02
         0.26927E-02
         0.26927E-02
         0.26927E-02
         0.26927E-02
         0.26927E-02
         0.26927E-02
         0.26927E-02
         0.26927E-02
         0.26927E-02
         0.26927E-02
         0.26927E-02
         0.26927E-02
         0.26927E-02
         0.26927E-02
         0.26927E-02
         0.26927E-02
         0.26927E-02
         0.26927E-02
         0.26927E-02
         0.26927E-02
         0.26927E-02
         0.26927E-02
         0.26927E-02
         0.26927E-02
         0.26927E-02
         0.26927E-02
         0.26927E-02
         0.26927E-02
         0.26927E-02
         0.26927E-02
         0.26927E-02
         0.26927E-02
         0.26927E-02
         0.26927E-02
         0.26927E-02
         0.26927E-02
         0.26927E-02
         0.26927E-02
         0.26927E-02
         0.26927E-02
         0.26927E-02
         0.26927E-02
         0.26927E-02
         0.26927E-02
         0.26927E-02
         0.26927E-02
         0.26927E-02
         0.26927E-02
         0.26927E-02
         0.26927E-02
         0.26927E-02
         0.26927E-02
         0.26927E-02
         0.26927E-02
         0.26927E-02
         0.26927E-02
         0.26927E-02
         0.26927E-02
         0.26927E-02
         0.26927E-02
         0.26927E-02
         0.26927E-02
         0.26927E-02
         0.26927E-02
         0.26927E-02
         0.26927E-02
         0.26927E-02
         0.26927E-02
         0.26927E-02
         0.26927E-02
         0.26927E-02
         0.26927E-02
         0.26927E-02
         0.26927E-02
         0.26927E-02
         0.26927E-02
         0.26927E-02
         0.26927E-02
         0.26927E-02
         0.26927E-02
         0.26927E-02
         0.26927E-02
         0.26927E-02
         0.26927E-02
         0.26927E-02
         0.26927E-02
         0.26927E-02
         0.26927E-02
         0.26927E-02
         0.26927E-02
         0.26927E-02
         0.26927E-02
         0.26927E-02
         0.26927E-02
         0.26927E-02
         0.26927E-02
         0.26927E-02
         0.26927E-02
         0.26927E-02
         0.26927E-02
         0.26927E-02
         0.26927E-02
         0.26927E-02
         0.26927E-02
         0.26927E-02
         0.26927E-02
         0.26927E-02
         0.26927E-02
         0.26927E-02
         0.26927E-02
         0.26927E-02
         0.26927E-02
         0.26927E-02
         0.26927E-02
         0.26927E-02
         0.26927E-02
         0.26927E-02
         0.26927E-02
         0.26927E-02
         0.26927E-02
         0.26927E-02
         0.26927E-02
         0.26927E-02
         0.26927E-02
         0.26927E-02
         0.26927E-02
         0.26927E-02
         0.26927E-02
         0.26927E-02
         0.26927E-02
         0.26927E-02
         0.26927E-02
         0.26927E-02
         0.26927E-02
         0.26927E-02
         0.26927E-02
         0.26927E-02
         0.26927E-02
         0.26927E-02
         0.26927E-02
         0.26927E-02
         0.26927E-02
         0.26927E-02
         0.26927E-02
         0.26927E-02
         0.26927E-02
         0.26927E-02
         0.26927E-02
         0.26927E-02
         0.26927E-02
         0.26927E-02
         0.26927E-02
         0.26927E-02
         0.26927E-02
         0.26927E-02
         0.26927E-02
         0.26927E-02
         0.26927E-02
         0.26927E-02
         0.26927E-02
         0.26927E-02
         0.26927E-02
         0.26927E-02
         0.26927E-02
         0.26927E-02
         0.26927E-02
         0.26927E-02
         0.26927E-02
         0.26927E-02
         0.26927E-02
         0.26927E-02
         0.26927E-02
         0.26927E-02
         0.26927E-02
         0.26927E-02
         0.26927E-02
         0.26927E-02
         0.26927E-02
         0.26927E-02
         0.26927E-02
         0.26927E-02
         0.26927E-02
         0.26927E-02
         0.26927E-02
         0.26927E-02
         0.26927E-02
         0.26927E-02
         0.26927E-02
         0.26927E-02
         0.26927E-02
         0.26927E-02
         0.26927E-02
         0.26927E-02
         0.26927E-02
         0.26927E-02
         0.26927E-02
         0.26927E-02
         0.26927E-02
         0.26927E-02
         0.26927E-02
         0.26927E-02
         0.26927E-02
         0.26927E-02
         0.26927E-02
         0.26927E-02
         0.26927E-02
         0.26927E-02
         0.26927E-02
         0.26927E-02
         0.26927E-02
         0.26927E-02
         0.26927E-02
         0.26927E-02
         0.26927E-02
         0.26927E-02
         0.26927E-02
         0.26927E-02
         0.26927E-02
         0.26927E-02
         0.26927E-02
         0.26927E-02
         0.26927E-02
         0.26927E-02
         0.26927E-02
         0.26927E-02
         0.26927E-02
         0.26927E-02
         0.26927E-02
         0.26927E-02
         0.26927E-02
         0.26927E-02
         0.26927E-02
         0.26927E-02
         0.26927E-02
         0.26927E-02
         0.26927E-02
         0.26927E-02
         0.26927E-02
         0.26927E-02
         0.26927E-02
         0.26927E-02
         0.26927E-02
         0.26927E-02
         0.26927E-02
         0.26927E-02
         0.26927E-02
         0.26927E-02
         0.26927E-02
         0.26927E-02
         0.26927E-02
         0.26927E-02
         0.26927E-02
         0.26927E-02
         0.26927E-02
         0.26927E-02
         0.26927E-02
         0.26927E-02
         0.26927E-02
         0.26927E-02
         0.26927E-02
         0.26927E-02
         0.26927E-02
         0.26927E-02
         0.26927E-02
         0.26927E-02
         0.26927E-02
         0.26927E-02
         0.26927E-02
         0.26927E-02
         0.26927E-02
         0.26927E-02
         0.26927E-02
         0.26927E-02
         0.26927E-02
         0.26927E-02
         0.26927E-02
         0.26927E-02
         0.26927E-02
         0.26927E-02
         0.26927E-02
         0.26927E-02
         0.26927E-02
         0.26927E-02
         0.26927E-02
         0.26927E-02
         0.26927E-02
         0.26927E-02
         0.26927E-02
         0.26927E-02
         0.26927E-02
         0.26927E-02
         0.26927E-02
         0.26927E-02
         0.26927E-02
         0.26927E-02
         0.26927E-02
         0.26927E-02
         0.26927E-02
         0.26927E-02
         0.26927E-02
         0.26927E-02
         0.26927E-02
         0.26927E-02
         0.26927E-02
         0.26927E-02
         0.26927E-02
         0.26927E-02
         0.26927E-02
         0.26927E-02
         0.26927E-02
         0.26927E-02
         0.26927E-02
         0.26927E-02
         0.26927E-02
         0.26927E-02
         0.26927E-02
         0.26927E-02
         0.26927E-02
         0.26927E-02
         0.26927E-02
         0.26927E-02
         0.26927E-02
         0.26927E-02
         0.26927E-02
         0.26927E-02
         0.26927E-02
         0.26927E-02
         0.26927E-02
         0.26927E-02
         0.26927E-02
         0.26927E-02
         0.26927E-02
         0.26927E-02
         0.26927E-02
         0.26927E-02
         0.26927E-02
         0.26927E-02
         0.26927E-02
         0.26927E-02
         0.26927E-02
         0.26927E-02
         0.26927E-02
         0.26927E-02
         0.26927E-02
         0.26927E-02
         0.26927E-02
         0.26927E-02
         0.26927E-02
         0.26927E-02
         0.26927E-02
         0.26927E-02
         0.26927E-02
         0.26927E-02
         0.26927E-02
         0.26927E-02
         0.26927E-02
         0.26927E-02
         0.26927E-02
         0.26927E-02
         0.26927E-02
         0.26927E-02
         0.26927E-02
         0.26927E-02
         0.26927E-02
         0.26927E-02
         0.26927E-02
         0.26927E-02
         0.26927E-02
         0.26927E-02
         0.26927E-02
         0.26927E-02
         0.26927E-02
         0.26927E-02
         0.26927E-02
         0.26927E-02
         0.26927E-02
         0.26927E-02
         0.26927E-02
         0.26927E-02
         0.26927E-02
         0.26927E-02
         0.26927E-02
         0.26927E-02
         0.26927E-02
         0.26927E-02
         0.26927E-02
         0.26927E-02
         0.26927E-02
         0.26927E-02
         0.26927E-02
         0.26927E-02
         0.26927E-02
         0.26927E-02
         0.26927E-02
         0.26927E-02
         0.26927E-02
         0.26927E-02
         0.26927E-02
         0.26927E-02
         0.26927E-02
         0.26927E-02
         0.26927E-02
         0.26927E-02
         0.26927E-02
         0.26927E-02
         0.26927E-02
         0.26927E-02
         0.26927E-02
         0.26927E-02
         0.26927E-02
         0.26927E-02
         0.26927E-02
         0.26927E-02
         0.26927E-02
         0.26927E-02
         0.26927E-02
         0.26927E-02
         0.26927E-02
         0.26927E-02
         0.26927E-02
         0.26927E-02
         0.26927E-02
         0.26927E-02
         0.26927E-02
         0.26927E-02
         0.26927E-02
         0.26927E-02
         0.26927E-02
         0.26927E-02
         0.26927E-02
         0.26927E-02
         0.26927E-02
         0.26927E-02
         0.26927E-02
         0.26927E-02
         0.26927E-02
         0.26927E-02
         0.26927E-02
         0.26927E-02
         0.26927E-02
         0.26927E-02
         0.26927E-02
         0.26927E-02
         0.26927E-02
         0.26927E-02
         0.26927E-02
         0.26927E-02
         0.26927E-02
         0.26927E-02
         0.26927E-02
         0.26927E-02
         0.26927E-02
         0.26927E-02
         0.26927E-02
         0.26927E-02
         0.26927E-02
         0.26927E-02
         0.26927E-02
         0.26927E-02
         0.26927E-02
         0.26927E-02
         0.26927E-02
         0.26927E-02
         0.26927E-02
         0.26927E-02
         0.26927E-02
         0.26927E-02
         0.26927E-02
         0.26927E-02
         0.26927E-02
         0.26927E-02
         0.26927E-02
         0.26927E-02
         0.26927E-02
         0.26927E-02
         0.26927E-02
         0.26927E-02
         0.26927E-02
         0.26927E-02
         0.26927E-02
         0.26927E-02
         0.26927E-02
         0.26927E-02
         0.26927E-02
         0.26927E-02
         0.26927E-02
         0.26927E-02
         0.26927E-02
         0.26927E-02
         0.26927E-02
         0.26927E-02
         0.26927E-02
         0.26927E-02
         0.26927E-02
         0.26927E-02
         0.26927E-02
         0.26927E-02
         0.26927E-02
         0.26927E-02
         0.26927E-02
         0.26927E-02
         0.26927E-02
         0.26927E-02
         0.26927E-02
         0.26927E-02
         0.26927E-02
         0.26927E-02
         0.26927E-02
         0.26927E-02
         0.26927E-02
         0.26927E-02
         0.26927E-02
         0.26927E-02
         0.26927E-02
         0.26927E-02
         0.26927E-02
         0.26927E-02
         0.26927E-02
         0.26927E-02
         0.26927E-02
         0.26927E-02
         0.26927E-02
         0.26927E-02
         0.26927E-02
         0.26927E-02
         0.26927E-02
         0.26927E-02
         0.26927E-02
         0.26927E-02
         0.26927E-02
         0.26927E-02
         0.26927E-02
         0.26927E-02
         0.26927E-02
         0.26927E-02
         0.26927E-02
         0.26927E-02
         0.26927E-02
         0.26927E-02
         0.26927E-02
         0.26927E-02
         0.26927E-02
         0.26927E-02
         0.26927E-02
         0.26927E-02
         0.26927E-02
         0.26927E-02
         0.26927E-02
         0.26927E-02
         0.26927E-02
         0.26927E-02
         0.26927E-02
         0.26927E-02
         0.26927E-02
         0.26927E-02
         0.26927E-02
         0.26927E-02
         0.26927E-02
         0.26927E-02
         0.26927E-02
         0.26927E-02
         0.26927E-02
         0.26927E-02
         0.26927E-02
         0.26927E-02
         0.26927E-02
         0.26927E-02
         0.26927E-02
         0.26927E-02
         0.26927E-02
         0.26927E-02
         0.26927E-02
         0.26927E-02
         0.26927E-02
         0.26927E-02
         0.26927E-02
         0.26927E-02
         0.26927E-02
         0.26927E-02
         0.26927E-02
         0.26927E-02
         0.26927E-02
         0.26927E-02
         0.26927E-02
         0.26927E-02
         0.26927E-02
         0.26927E-02
         0.26927E-02
         0.26927E-02
         0.26927E-02
         0.26927E-02
         0.26927E-02
         0.26927E-02
         0.26927E-02
         0.26927E-02
         0.26927E-02
         0.26927E-02
         0.26927E-02
         0.26927E-02
         0.26927E-02
         0.26927E-02
         0.26927E-02
         0.26927E-02
         0.26927E-02
         0.26927E-02
         0.26927E-02
         0.26927E-02
         0.26927E-02
         0.26927E-02
         0.26927E-02
         0.26927E-02
         0.26927E-02
         0.26927E-02
         0.26927E-02
         0.26927E-02
         0.26927E-02
         0.26927E-02
         0.26927E-02
         0.26927E-02
         0.26927E-02
         0.26927E-02
         0.26927E-02
         0.26927E-02
         0.26927E-02
         0.26927E-02
         0.26927E-02
         0.26927E-02
         0.26927E-02
         0.26927E-02
         0.26927E-02
         0.26927E-02
         0.26927E-02
         0.26927E-02
         0.26927E-02
         0.26927E-02
         0.26927E-02
         0.26927E-02
         0.26927E-02
         0.26927E-02
         0.26927E-02
         0.26927E-02
         0.26927E-02
         0.26927E-02
         0.26927E-02
         0.26927E-02
         0.26927E-02
         0.26927E-02
         0.26927E-02
         0.26927E-02
         0.26927E-02
         0.26927E-02
         0.26927E-02
         0.26927E-02
         0.26927E-02
         0.26927E-02
         0.26927E-02
         0.26927E-02
         0.26927E-02
         0.26927E-02
         0.26927E-02
         0.26927E-02
         0.26927E-02
         0.26927E-02
         0.26927E-02
         0.26927E-02
         0.26927E-02
         0.26927E-02
         0.26927E-02
         0.26927E-02
         0.26927E-02
         0.26927E-02
         0.26927E-02
         0.26927E-02
         0.26927E-02
         0.26927E-02
         0.26927E-02
         0.26927E-02
         0.26927E-02
         0.26927E-02
         0.26927E-02
         0.26927E-02
         0.26927E-02
         0.26927E-02
         0.26927E-02
         0.26927E-02
         0.26927E-02
         0.26927E-02
         0.26927E-02
         0.26927E-02
         0.26927E-02
         0.26927E-02
         0.26927E-02
         0.26927E-02
         0.26927E-02
         0.26927E-02
         0.26927E-02
         0.26927E-02
         0.26927E-02
         0.26927E-02
         0.26927E-02
         0.26927E-02
         0.26927E-02
         0.26927E-02
         0.26927E-02
         0.26927E-02
         0.26927E-02
         0.26927E-02
         0.26927E-02
         0.26927E-02
         0.26927E-02
         0.26927E-02
         0.26927E-02
         0.26927E-02
         0.26927E-02
         0.26927E-02
         0.26927E-02
         0.26927E-02
         0.26927E-02
         0.26927E-02
         0.26927E-02
         0.26927E-02
         0.26927E-02
         0.26927E-02
         0.26927E-02
         0.26927E-02
         0.26927E-02
         0.26927E-02
         0.26927E-02
         0.26927E-02
         0.26927E-02
         0.26927E-02
         0.26927E-02
         0.26927E-02
         0.26927E-02
         0.26927E-02
         0.26927E-02
         0.26927E-02
         0.26927E-02
         0.26927E-02
         0.26927E-02
         0.26927E-02
         0.26927E-02
         0.26927E-02
         0.26927E-02
         0.26927E-02
         0.26927E-02
         0.26927E-02
         0.26927E-02
         0.26927E-02
         0.26927E-02
         0.26927E-02
         0.26927E-02
         0.26927E-02
         0.26927E-02
         0.26927E-02
         0.26927E-02
         0.26927E-02
         0.26927E-02
         0.26927E-02
         0.26927E-02
         0.26927E-02
         0.26927E-02
         0.26927E-02
         0.26927E-02
         0.26927E-02
         0.26927E-02
         0.26927E-02
         0.26927E-02
         0.26927E-02
         0.26927E-02
         0.26927E-02
         0.26927E-02
         0.26927E-02
         0.26927E-02
         0.26927E-02
         0.26927E-02
         0.26927E-02
         0.26927E-02
         0.26927E-02
         0.26927E-02
         0.26927E-02
         0.26927E-02
         0.26927E-02
         0.26927E-02
         0.26927E-02
         0.26927E-02
         0.26927E-02
         0.26927E-02
         0.26927E-02
         0.26927E-02
         0.26927E-02
         0.26927E-02
         0.26927E-02
         0.26927E-02
         0.26927E-02
         0.26927E-02
         0.26927E-02
         0.26927E-02
         0.26927E-02
         0.26927E-02
         0.26927E-02
         0.26927E-02
         0.26927E-02
         0.26927E-02
         0.26927E-02
         0.26927E-02
         0.26927E-02
         0.26927E-02
         0.26927E-02
         0.26927E-02
         0.26927E-02
         0.26927E-02
         0.26927E-02
         0.26927E-02
         0.26927E-02
         0.26927E-02
         0.26927E-02
         0.26927E-02
         0.26927E-02
         0.26927E-02
         0.26927E-02
         0.26927E-02
         0.26927E-02
         0.26927E-02
         0.26927E-02
         0.26927E-02
         0.26927E-02
         0.26927E-02
         0.26927E-02
         0.26927E-02
         0.26927E-02
         0.26927E-02
         0.26927E-02
         0.26927E-02
         0.26927E-02
         0.26927E-02
         0.26927E-02
         0.26927E-02
         0.26927E-02
         0.26927E-02
         0.26927E-02
         0.26927E-02
         0.26927E-02
         0.26927E-02
         0.26927E-02
         0.26927E-02
         0.26927E-02
         0.26927E-02
         0.26927E-02
         0.26927E-02
         0.26927E-02
         0.26927E-02
         0.26927E-02
         0.26927E-02
         0.26927E-02
         0.26927E-02
         0.26927E-02
         0.26927E-02
         0.26927E-02
         0.26927E-02
         0.26927E-02
         0.26927E-02
         0.26927E-02
         0.26927E-02
         0.26927E-02
         0.26927E-02
         0.26927E-02
         0.26927E-02
         0.26927E-02
         0.26927E-02
         0.26927E-02
         0.26927E-02
         0.26927E-02
         0.26927E-02
         0.26927E-02
         0.26927E-02
         0.26927E-02
         0.26927E-02
         0.26927E-02
         0.26927E-02
         0.26927E-02
         0.26927E-02
         0.26927E-02
         0.26927E-02
         0.26927E-02
         0.26927E-02
         0.26927E-02
         0.26927E-02
         0.26927E-02
         0.26927E-02
         0.26927E-02
         0.26927E-02
         0.26927E-02
         0.26927E-02
         0.26927E-02
         0.26927E-02
         0.26927E-02
         0.26927E-02
         0.26927E-02
         0.26927E-02
         0.26927E-02
         0.26927E-02
         0.26927E-02
         0.26927E-02
         0.26927E-02
         0.26927E-02
         0.26927E-02
         0.26927E-02
         0.26927E-02
         0.26927E-02
         0.26927E-02
         0.26927E-02
         0.26927E-02
         0.26927E-02
         0.26927E-02
         0.26927E-02
         0.26927E-02
         0.26927E-02
         0.26927E-02
         0.26927E-02
         0.26927E-02
         0.26927E-02
         0.26927E-02
         0.26927E-02
         0.26927E-02
         0.26927E-02
         0.26927E-02
         0.26927E-02
         0.26927E-02
         0.26927E-02
         0.26927E-02
         0.26927E-02
         0.26927E-02
         0.26927E-02
         0.26927E-02
         0.26927E-02
         0.26927E-02
         0.26927E-02
         0.26927E-02
         0.26927E-02
         0.26927E-02
         0.26927E-02
         0.26927E-02
         0.26927E-02
         0.26927E-02
         0.26927E-02
         0.26927E-02
         0.26927E-02
         0.26927E-02
         0.26927E-02
         0.26927E-02
         0.26927E-02
         0.26927E-02
         0.26927E-02
         0.26927E-02
         0.26927E-02
         0.26927E-02
         0.26927E-02
         0.26927E-02
         0.26927E-02
         0.26927E-02
         0.26927E-02
         0.26927E-02
         0.26927E-02
         0.26927E-02
         0.26927E-02
         0.26927E-02
         0.26927E-02
         0.26927E-02
         0.26927E-02
         0.26927E-02
         0.26927E-02
         0.26927E-02
         0.26927E-02
         0.26927E-02
         0.26927E-02
         0.26927E-02
         0.26927E-02
         0.26927E-02
         0.26927E-02
         0.26927E-02
         0.26927E-02
         0.26927E-02
         0.26927E-02
         0.26927E-02
         0.26927E-02
         0.26927E-02
         0.26927E-02
         0.26927E-02
         0.26927E-02
         0.26927E-02
         0.26927E-02
         0.26927E-02
         0.26927E-02
         0.26927E-02
         0.26927E-02
         0.26927E-02
         0.26927E-02
         0.26927E-02
         0.26927E-02
         0.26927E-02
         0.26927E-02
         0.26927E-02
         0.26927E-02
         0.26927E-02
         0.26927E-02
         0.26927E-02
         0.26927E-02
         0.26927E-02
         0.26927E-02
         0.26927E-02
         0.26927E-02
         0.26927E-02
         0.26927E-02
         0.26927E-02
         0.26927E-02
         0.26927E-02
         0.26927E-02
         0.26927E-02
         0.26927E-02
         0.26927E-02
         0.26927E-02
         0.26927E-02
         0.26927E-02
         0.26927E-02
         0.26927E-02
         0.26927E-02
         0.26927E-02
         0.26927E-02
         0.26927E-02
         0.26927E-02
         0.26927E-02
         0.26927E-02
         0.26927E-02
         0.26927E-02
         0.26927E-02
         0.26927E-02
         0.26927E-02
         0.26927E-02
         0.26927E-02
         0.26927E-02
         0.26927E-02
         0.26927E-02
         0.26927E-02
         0.26927E-02
         0.26927E-02
         0.26927E-02
         0.26927E-02
         0.26927E-02
         0.26927E-02
         0.26927E-02
         0.26927E-02
         0.26927E-02
         0.26927E-02
         0.26927E-02
         0.26927E-02
         0.26927E-02
         0.26927E-02
         0.26927E-02
         0.26927E-02
         0.26927E-02
         0.26927E-02
         0.26927E-02
         0.26927E-02
         0.26927E-02
         0.26927E-02
         0.26927E-02
         0.26927E-02
         0.26927E-02
         0.26927E-02
         0.26927E-02
         0.26927E-02
         0.26927E-02
         0.26927E-02
         0.26927E-02
         0.26927E-02
         0.26927E-02
         0.26927E-02
         0.26927E-02
         0.26927E-02
         0.26927E-02
         0.26927E-02
         0.26927E-02
         0.26927E-02
         0.26927E-02
         0.26927E-02
         0.26927E-02
         0.26927E-02
         0.26927E-02
         0.26927E-02
         0.26927E-02
         0.26927E-02
         0.26927E-02
         0.26927E-02
         0.26927E-02
         0.26927E-02
         0.26927E-02
         0.26927E-02
         0.26927E-02
         0.26927E-02
         0.26927E-02
         0.26927E-02
         0.26927E-02
         0.26927E-02
         0.26927E-02
         0.26927E-02
         0.26927E-02
         0.26927E-02
         0.26927E-02
         0.26927E-02
         0.26927E-02
         0.26927E-02
         0.26927E-02
         0.26927E-02
         0.26927E-02
         0.26927E-02
         0.26927E-02
         0.26927E-02
         0.26927E-02
         0.26927E-02
         0.26927E-02
         0.26927E-02
         0.26927E-02
         0.26927E-02
         0.26927E-02
         0.26927E-02
         0.26927E-02
         0.26927E-02
         0.26927E-02
         0.26927E-02
         0.26927E-02
         0.26927E-02
         0.26927E-02
         0.26927E-02
         0.26927E-02
         0.26927E-02
         0.26927E-02
         0.26927E-02
         0.26927E-02
         0.26927E-02
         0.26927E-02
         0.26927E-02
         0.26927E-02
         0.26927E-02
         0.26927E-02
         0.26927E-02
         0.26927E-02
         0.26927E-02
         0.26927E-02
         0.26927E-02
         0.26927E-02
         0.26927E-02
         0.26927E-02
         0.26927E-02
         0.26927E-02
         0.26927E-02
         0.26927E-02
         0.26927E-02
         0.26927E-02
         0.26927E-02
         0.26927E-02
         0.26927E-02
         0.26927E-02
         0.26927E-02
         0.26927E-02
         0.26927E-02
         0.26927E-02
         0.26927E-02
         0.26927E-02
         0.26927E-02
         0.26927E-02
         0.26927E-02
         0.26927E-02
         0.26927E-02
         0.26927E-02
         0.26927E-02
         0.26927E-02
         0.26927E-02
         0.26927E-02
         0.26927E-02
         0.26927E-02
         0.26927E-02
         0.26927E-02
         0.26927E-02
         0.26927E-02
         0.26927E-02
         0.26927E-02
         0.26927E-02
         0.26927E-02
         0.26927E-02
         0.26927E-02
         0.26927E-02
         0.26927E-02
         0.26927E-02
         0.26927E-02
         0.26927E-02
         0.26927E-02
         0.26927E-02
         0.26927E-02
         0.26927E-02
         0.26927E-02
         0.26927E-02
         0.26927E-02
         0.26927E-02
         0.26927E-02
         0.26927E-02
         0.26927E-02
         0.26927E-02
         0.26927E-02
         0.26927E-02
         0.26927E-02
         0.26927E-02
         0.26927E-02
         0.26927E-02
         0.26927E-02
         0.26927E-02
         0.26927E-02
         0.26927E-02
         0.26927E-02
         0.26927E-02
         0.26927E-02
         0.26927E-02
         0.26927E-02
         0.26927E-02
         0.26927E-02
         0.26927E-02
         0.26927E-02
         0.26927E-02
         0.26927E-02
         0.26927E-02
         0.26927E-02
         0.26927E-02
         0.26927E-02
         0.26927E-02
         0.26927E-02
         0.26927E-02
         0.26927E-02
         0.26927E-02
         0.26927E-02
         0.26927E-02
         0.26927E-02
         0.26927E-02
         0.26927E-02
         0.26927E-02
         0.26927E-02
         0.26927E-02
         0.26927E-02
         0.26927E-02
         0.26927E-02
         0.26927E-02
         0.26927E-02
         0.26927E-02
         0.26927E-02
         0.26927E-02
         0.26927E-02
         0.26927E-02
         0.26927E-02
         0.26927E-02
         0.26927E-02
         0.26927E-02
         0.26927E-02
         0.26927E-02
         0.26927E-02
         0.26927E-02
         0.26927E-02
         0.26927E-02
         0.26927E-02
         0.26927E-02
         0.26927E-02
         0.26927E-02
         0.26927E-02
         0.26927E-02
         0.26927E-02
         0.26927E-02
         0.26927E-02
         0.26927E-02
         0.26927E-02
         0.26927E-02
         0.26927E-02
         0.26927E-02
         0.26927E-02
         0.26927E-02
         0.26927E-02
         0.26927E-02
         0.26927E-02
         0.26927E-02
         0.26927E-02
         0.26927E-02
         0.26927E-02
         0.26927E-02
         0.26927E-02
         0.26927E-02
         0.26927E-02
         0.26927E-02
         0.26927E-02
         0.26927E-02
         0.26927E-02
         0.26927E-02
         0.26927E-02
         0.26927E-02
         0.26927E-02
         0.26927E-02
         0.26927E-02
         0.26927E-02
         0.26927E-02
         0.26927E-02
         0.26927E-02
         0.26927E-02
         0.26927E-02
         0.26927E-02
         0.26927E-02
         0.26927E-02
         0.26927E-02
         0.26927E-02
         0.26927E-02
         0.26927E-02
         0.26927E-02
         0.26927E-02
         0.26927E-02
         0.26927E-02
         0.26927E-02
         0.26927E-02
         0.26927E-02
         0.26927E-02
         0.26927E-02
         0.26927E-02
         0.26927E-02
         0.26927E-02
         0.26927E-02
         0.26927E-02
         0.26927E-02
         0.26927E-02
         0.26927E-02
         0.26927E-02
         0.26927E-02
         0.26927E-02
         0.26927E-02
         0.26927E-02
         0.26927E-02
         0.26927E-02
         0.26927E-02
         0.26927E-02
         0.26927E-02
         0.26927E-02
         0.26927E-02
         0.26927E-02
         0.26927E-02
         0.26927E-02
         0.26927E-02
         0.26927E-02
         0.26927E-02
         0.26927E-02
         0.26927E-02
         0.26927E-02
         0.26927E-02
         0.26927E-02
         0.26927E-02
         0.26927E-02
         0.26927E-02
         0.26927E-02
         0.26927E-02
         0.26927E-02
         0.26927E-02
         0.26927E-02
         0.26927E-02
         0.26927E-02
         0.26927E-02
         0.26927E-02
         0.26927E-02
         0.26927E-02
         0.26927E-02
         0.26927E-02
         0.26927E-02
         0.26927E-02
         0.26927E-02
         0.26927E-02
         0.26927E-02
         0.26927E-02
         0.26927E-02
         0.26927E-02
         0.26927E-02
         0.26927E-02
         0.26927E-02
         0.26927E-02
         0.26927E-02
         0.26927E-02
         0.26927E-02
         0.26927E-02
         0.26927E-02
         0.26927E-02
         0.26927E-02
         0.26927E-02
         0.26927E-02
         0.26927E-02
         0.26927E-02
         0.26927E-02
         0.26927E-02
         0.26927E-02
         0.26927E-02
         0.26927E-02
         0.26927E-02
         0.26927E-02
         0.26927E-02
         0.26927E-02
         0.26927E-02
         0.26927E-02
         0.26927E-02
         0.26927E-02
         0.26927E-02
         0.26927E-02
         0.26927E-02
         0.26927E-02
         0.26927E-02
         0.26927E-02
         0.26927E-02
         0.26927E-02
         0.26927E-02
         0.26927E-02
         0.26927E-02
         0.26927E-02
         0.26927E-02
         0.26927E-02
         0.26927E-02
         0.26927E-02
         0.26927E-02
         0.26927E-02
         0.26927E-02
         0.26927E-02
         0.26927E-02
         0.26927E-02
         0.26927E-02
         0.26927E-02
         0.26927E-02
         0.26927E-02
         0.26927E-02
         0.26927E-02
         0.26927E-02
         0.26927E-02
         0.26927E-02
         0.26927E-02
         0.26927E-02
         0.26927E-02
         0.26927E-02
         0.26927E-02
         0.26927E-02
         0.26927E-02
         0.26927E-02
         0.26927E-02
         0.26927E-02
         0.26927E-02
         0.26927E-02
         0.26927E-02
         0.26927E-02
         0.26927E-02
         0.26927E-02
         0.26927E-02
         0.26927E-02
         0.26927E-02
         0.26927E-02
         0.26927E-02
         0.26927E-02
         0.26927E-02
         0.26927E-02
         0.26927E-02
         0.26927E-02
         0.26927E-02
         0.26927E-02
         0.26927E-02
         0.26927E-02
         0.26927E-02
         0.26927E-02
         0.26927E-02
         0.26927E-02
         0.26927E-02
         0.26927E-02
         0.26927E-02
         0.26927E-02
         0.26927E-02
         0.26927E-02
         0.26927E-02
         0.26927E-02
         0.26927E-02
         0.26927E-02
         0.26927E-02
         0.26927E-02
         0.26927E-02
         0.26927E-02
         0.26927E-02
         0.26927E-02
         0.26927E-02
         0.26927E-02
         0.26927E-02
         0.26927E-02
         0.26927E-02
         0.26927E-02
         0.26927E-02
         0.26927E-02
         0.26927E-02
         0.26927E-02
         0.26927E-02
         0.26927E-02
         0.26927E-02
         0.26927E-02
         0.26927E-02
         0.26927E-02
         0.26927E-02
         0.26927E-02
         0.26927E-02
         0.26927E-02
         0.26927E-02
         0.26927E-02
         0.26927E-02
         0.26927E-02
         0.26927E-02
         0.26927E-02
         0.26927E-02
         0.26927E-02
         0.26927E-02
         0.26927E-02
         0.26927E-02
         0.26927E-02
         0.26927E-02
         0.26927E-02
         0.26927E-02
         0.26927E-02
         0.26927E-02
         0.26927E-02
         0.26927E-02
         0.26927E-02
         0.26927E-02
         0.26927E-02
         0.26927E-02
         0.26927E-02
         0.26927E-02
         0.26927E-02
         0.26927E-02
         0.26927E-02
         0.26928E-02
         0.26928E-02
         0.26928E-02
         0.26928E-02
         0.26928E-02
         0.26928E-02
         0.26928E-02
         0.26928E-02
         0.26928E-02
         0.26928E-02
         0.26928E-02
         0.26928E-02
         0.26928E-02
         0.26928E-02
         0.26928E-02
         0.26928E-02
         0.26928E-02
         0.26928E-02
         0.26928E-02
         0.26928E-02
         0.26928E-02
         0.26928E-02
         0.26928E-02
         0.26928E-02
         0.26928E-02
         0.26928E-02
         0.26928E-02
         0.26928E-02
         0.26928E-02
         0.26928E-02
         0.26928E-02
         0.26928E-02
         0.26928E-02
         0.26928E-02
         0.26928E-02
         0.26928E-02
         0.26928E-02
         0.26928E-02
         0.26928E-02
         0.26928E-02
         0.26928E-02
         0.26928E-02
         0.26928E-02
         0.26928E-02
         0.26928E-02
         0.26928E-02
         0.26928E-02
         0.26928E-02
         0.26928E-02
         0.26928E-02
         0.26928E-02
         0.26928E-02
         0.26928E-02
         0.26928E-02
         0.26928E-02
         0.26928E-02
         0.26928E-02
         0.26928E-02
         0.26928E-02
         0.26928E-02
         0.26928E-02
         0.26928E-02
         0.26928E-02
         0.26928E-02
         0.26928E-02
         0.26928E-02
         0.26928E-02
         0.26928E-02
         0.26928E-02
         0.26928E-02
         0.26928E-02
         0.26928E-02
         0.26928E-02
         0.26928E-02
         0.26928E-02
         0.26928E-02
         0.26928E-02
         0.26928E-02
         0.26928E-02
         0.26928E-02
         0.26928E-02
         0.26928E-02
         0.26928E-02
         0.26928E-02
         0.26928E-02
         0.26928E-02
         0.26928E-02
         0.26928E-02
         0.26928E-02
         0.26928E-02
         0.26928E-02
         0.26928E-02
         0.26928E-02
         0.26928E-02
         0.26928E-02
         0.26928E-02
         0.26928E-02
         0.26928E-02
         0.26928E-02
         0.26928E-02
         0.26928E-02
         0.26928E-02
         0.26928E-02
         0.26928E-02
         0.26928E-02
         0.26928E-02
         0.26928E-02
         0.26928E-02
         0.26928E-02
         0.26928E-02
         0.26928E-02
         0.26928E-02
         0.26928E-02
         0.26928E-02
         0.26928E-02
         0.26928E-02
         0.26928E-02
         0.26928E-02
         0.26928E-02
         0.26928E-02
         0.26928E-02
         0.26928E-02
         0.26928E-02
         0.26928E-02
         0.26928E-02
         0.26928E-02
         0.26928E-02
         0.26928E-02
         0.26928E-02
         0.26928E-02
         0.26928E-02
         0.26928E-02
         0.26928E-02
         0.26928E-02
         0.26928E-02
         0.26928E-02
         0.26928E-02
         0.26928E-02
         0.26928E-02
         0.26928E-02
         0.26928E-02
         0.26928E-02
         0.26928E-02
         0.26928E-02
         0.26928E-02
         0.26928E-02
         0.26928E-02
         0.26928E-02
         0.26928E-02
         0.26928E-02
         0.26928E-02
         0.26928E-02
         0.26928E-02
         0.26928E-02
         0.26928E-02
         0.26928E-02
  
SCALARS                   nodal_volume  double 1
LOOKUP_TABLE default
         0.91140E-09
         0.72412E-09
         0.77574E-09
         0.13316E-08
         0.45570E-09
         0.36211E-09
         0.38787E-09
         0.66566E-09
         0.71537E-09
         0.91211E-09
         0.35767E-09
         0.45600E-09
         0.51195E-09
         0.61532E-09
         0.25605E-09
         0.30776E-09
         0.10101E-08
         0.74536E-09
         0.50500E-09
         0.37281E-09
         0.30273E-09
         0.57012E-09
         0.62699E-09
         0.15144E-09
         0.28509E-09
         0.31352E-09
         0.51329E-09
         0.64933E-09
         0.25683E-09
         0.32471E-09
         0.12026E-08
         0.93909E-09
         0.11935E-08
         0.60122E-09
         0.46945E-09
         0.59663E-09
         0.70296E-09
         0.80270E-09
         0.35149E-09
         0.40134E-09
         0.75859E-09
         0.84013E-09
         0.37932E-09
         0.42007E-09
         0.64542E-09
         0.40086E-09
         0.32274E-09
         0.20045E-09
         0.76288E-09
         0.38153E-09
         0.63346E-09
         0.31675E-09
         0.66583E-09
         0.33318E-09
         0.68008E-09
         0.34022E-09
         0.58930E-09
         0.71738E-09
         0.29472E-09
         0.35874E-09
         0.90938E-09
         0.64302E-09
         0.45469E-09
         0.32154E-09
         0.10152E-08
         0.50747E-09
         0.88120E-09
         0.44042E-09
         0.40077E-09
         0.61872E-09
         0.20039E-09
         0.30940E-09
         0.70206E-09
         0.35106E-09
         0.74172E-09
         0.37089E-09
         0.71539E-09
         0.35770E-09
         0.56226E-09
         0.28113E-09
         0.35349E-09
         0.58452E-09
         0.17675E-09
         0.29229E-09
         0.77354E-09
         0.38679E-09
         0.62469E-09
         0.31238E-09
         0.54957E-09
         0.27483E-09
         0.36009E-09
         0.61365E-09
         0.18007E-09
         0.30685E-09
         0.83268E-09
         0.41635E-09
         0.87287E-09
         0.43642E-09
         0.70438E-09
         0.35217E-09
         0.43365E-09
         0.74413E-09
         0.21683E-09
         0.37198E-09
         0.27660E-09
         0.35144E-09
         0.13833E-09
         0.17573E-09
         0.32921E-09
         0.16465E-09
         0.38764E-09
         0.19382E-09
         0.37797E-09
         0.18897E-09
         0.36707E-09
         0.18352E-09
         0.39112E-09
         0.19552E-09
         0.41268E-09
         0.20627E-09
         0.38876E-09
         0.19433E-09
         0.30402E-09
         0.15200E-09
         0.24796E-09
         0.12398E-09
         0.31999E-09
         0.16000E-09
         0.42608E-09
         0.21303E-09
         0.46805E-09
         0.23401E-09
         0.44933E-09
         0.22466E-09
         0.40550E-09
         0.20276E-09
         0.36826E-09
         0.18414E-09
         0.29911E-09
         0.14956E-09
         0.25178E-09
         0.12591E-09
         0.32888E-09
         0.16445E-09
         0.43529E-09
         0.21765E-09
         0.44963E-09
         0.22482E-09
         0.36384E-09
         0.18194E-09
         0.29543E-09
         0.14774E-09
         0.36126E-09
         0.18063E-09
         0.42771E-09
         0.21386E-09
         0.91143E-09
         0.72396E-09
         0.77579E-09
         0.13322E-08
         0.71547E-09
         0.91237E-09
         0.51167E-09
         0.61494E-09
         0.10105E-08
         0.74486E-09
         0.30244E-09
         0.57001E-09
         0.62694E-09
         0.51257E-09
         0.64918E-09
         0.12029E-08
         0.93950E-09
         0.11941E-08
         0.70298E-09
         0.80279E-09
         0.75855E-09
         0.84015E-09
         0.64535E-09
         0.40081E-09
         0.76254E-09
         0.63339E-09
         0.66483E-09
         0.67941E-09
         0.58904E-09
         0.71721E-09
         0.90946E-09
         0.64293E-09
         0.10157E-08
         0.88199E-09
         0.40076E-09
         0.61859E-09
         0.70195E-09
         0.74166E-09
         0.71543E-09
         0.56228E-09
         0.35349E-09
         0.58443E-09
         0.77349E-09
         0.62459E-09
         0.54943E-09
         0.35999E-09
         0.61359E-09
         0.83268E-09
         0.87299E-09
         0.70451E-09
         0.43366E-09
         0.74449E-09
         0.27651E-09
         0.35143E-09
         0.32904E-09
         0.38765E-09
         0.37805E-09
         0.36714E-09
         0.39129E-09
         0.41297E-09
         0.38899E-09
         0.30408E-09
         0.24798E-09
         0.31999E-09
         0.42613E-09
         0.46815E-09
         0.44938E-09
         0.40548E-09
         0.36823E-09
         0.29908E-09
         0.25174E-09
         0.32885E-09
         0.43527E-09
         0.44962E-09
         0.36376E-09
         0.29536E-09
         0.36130E-09
         0.42769E-09
         0.91151E-09
         0.72383E-09
         0.77587E-09
         0.13329E-08
         0.71560E-09
         0.91267E-09
         0.51142E-09
         0.61459E-09
         0.10109E-08
         0.74439E-09
         0.30216E-09
         0.56992E-09
         0.62691E-09
         0.51187E-09
         0.64906E-09
         0.12033E-08
         0.93995E-09
         0.11947E-08
         0.70302E-09
         0.80291E-09
         0.75853E-09
         0.84020E-09
         0.64530E-09
         0.40078E-09
         0.76223E-09
         0.63335E-09
         0.66385E-09
         0.67875E-09
         0.58880E-09
         0.71706E-09
         0.90957E-09
         0.64286E-09
         0.10162E-08
         0.88281E-09
         0.40076E-09
         0.61849E-09
         0.70188E-09
         0.74162E-09
         0.71550E-09
         0.56232E-09
         0.35350E-09
         0.58436E-09
         0.77347E-09
         0.62452E-09
         0.54931E-09
         0.35990E-09
         0.61355E-09
         0.83270E-09
         0.87315E-09
         0.70467E-09
         0.43368E-09
         0.74487E-09
         0.27643E-09
         0.35143E-09
         0.32889E-09
         0.38767E-09
         0.37814E-09
         0.36723E-09
         0.39147E-09
         0.41328E-09
         0.38923E-09
         0.30416E-09
         0.24800E-09
         0.32001E-09
         0.42620E-09
         0.46826E-09
         0.44944E-09
         0.40548E-09
         0.36821E-09
         0.29906E-09
         0.25171E-09
         0.32883E-09
         0.43527E-09
         0.44963E-09
         0.36369E-09
         0.29530E-09
         0.36135E-09
         0.42769E-09
         0.91156E-09
         0.72368E-09
         0.77594E-09
         0.13335E-08
         0.71571E-09
         0.91295E-09
         0.51115E-09
         0.61422E-09
         0.10112E-08
         0.74389E-09
         0.30187E-09
         0.56982E-09
         0.62686E-09
         0.51116E-09
         0.64892E-09
         0.12036E-08
         0.94038E-09
         0.11953E-08
         0.70304E-09
         0.80300E-09
         0.75850E-09
         0.84023E-09
         0.64523E-09
         0.40073E-09
         0.76190E-09
         0.63330E-09
         0.66285E-09
         0.67809E-09
         0.58855E-09
         0.71689E-09
         0.90966E-09
         0.64278E-09
         0.10168E-08
         0.88361E-09
         0.40076E-09
         0.61837E-09
         0.70178E-09
         0.74156E-09
         0.71554E-09
         0.56234E-09
         0.35350E-09
         0.58428E-09
         0.77343E-09
         0.62442E-09
         0.54918E-09
         0.35981E-09
         0.61349E-09
         0.83271E-09
         0.87328E-09
         0.70481E-09
         0.43369E-09
         0.74524E-09
         0.27634E-09
         0.35142E-09
         0.32873E-09
         0.38768E-09
         0.37823E-09
         0.36731E-09
         0.39163E-09
         0.41358E-09
         0.38945E-09
         0.30422E-09
         0.24802E-09
         0.32001E-09
         0.42625E-09
         0.46837E-09
         0.44949E-09
         0.40546E-09
         0.36819E-09
         0.29904E-09
         0.25167E-09
         0.32881E-09
         0.43526E-09
         0.44963E-09
         0.36362E-09
         0.29523E-09
         0.36139E-09
         0.42768E-09
         0.91161E-09
         0.72353E-09
         0.77600E-09
         0.13341E-08
         0.71583E-09
         0.91323E-09
         0.51088E-09
         0.61386E-09
         0.10116E-08
         0.74341E-09
         0.30158E-09
         0.56972E-09
         0.62682E-09
         0.51045E-09
         0.64879E-09
         0.12040E-08
         0.94081E-09
         0.11959E-08
         0.70307E-09
         0.80310E-09
         0.75847E-09
         0.84027E-09
         0.64517E-09
         0.40069E-09
         0.76158E-09
         0.63325E-09
         0.66186E-09
         0.67742E-09
         0.58831E-09
         0.71673E-09
         0.90975E-09
         0.64270E-09
         0.10173E-08
         0.88441E-09
         0.40075E-09
         0.61825E-09
         0.70169E-09
         0.74151E-09
         0.71559E-09
         0.56237E-09
         0.35350E-09
         0.58420E-09
         0.77339E-09
         0.62433E-09
         0.54905E-09
         0.35972E-09
         0.61344E-09
         0.83272E-09
         0.87341E-09
         0.70496E-09
         0.43370E-09
         0.74562E-09
         0.27626E-09
         0.35142E-09
         0.32857E-09
         0.38770E-09
         0.37832E-09
         0.36739E-09
         0.39181E-09
         0.41387E-09
         0.38968E-09
         0.30429E-09
         0.24804E-09
         0.32002E-09
         0.42631E-09
         0.46847E-09
         0.44954E-09
         0.40545E-09
         0.36816E-09
         0.29901E-09
         0.25163E-09
         0.32878E-09
         0.43525E-09
         0.44963E-09
         0.36354E-09
         0.29517E-09
         0.36144E-09
         0.42766E-09
         0.91167E-09
         0.72338E-09
         0.77607E-09
         0.13348E-08
         0.71594E-09
         0.91351E-09
         0.51062E-09
         0.61349E-09
         0.10119E-08
         0.74292E-09
         0.30129E-09
         0.56962E-09
         0.62678E-09
         0.50974E-09
         0.64865E-09
         0.12044E-08
         0.94125E-09
         0.11965E-08
         0.70310E-09
         0.80321E-09
         0.75844E-09
         0.84031E-09
         0.64511E-09
         0.40065E-09
         0.76125E-09
         0.63320E-09
         0.66087E-09
         0.67676E-09
         0.58806E-09
         0.71657E-09
         0.90984E-09
         0.64263E-09
         0.10179E-08
         0.88522E-09
         0.40075E-09
         0.61813E-09
         0.70160E-09
         0.74146E-09
         0.71564E-09
         0.56240E-09
         0.35350E-09
         0.58412E-09
         0.77336E-09
         0.62425E-09
         0.54892E-09
         0.35963E-09
         0.61339E-09
         0.83274E-09
         0.87355E-09
         0.70511E-09
         0.43371E-09
         0.74599E-09
         0.27618E-09
         0.35141E-09
         0.32841E-09
         0.38771E-09
         0.37841E-09
         0.36747E-09
         0.39198E-09
         0.41417E-09
         0.38992E-09
         0.30436E-09
         0.24806E-09
         0.32003E-09
         0.42637E-09
         0.46858E-09
         0.44960E-09
         0.40544E-09
         0.36814E-09
         0.29899E-09
         0.25159E-09
         0.32876E-09
         0.43525E-09
         0.44963E-09
         0.36347E-09
         0.29511E-09
         0.36148E-09
         0.42766E-09
         0.91171E-09
         0.72323E-09
         0.77613E-09
         0.13354E-08
         0.71606E-09
         0.91379E-09
         0.51035E-09
         0.61313E-09
         0.10123E-08
         0.74243E-09
         0.30101E-09
         0.56952E-09
         0.62674E-09
         0.50903E-09
         0.64851E-09
         0.12047E-08
         0.94167E-09
         0.11971E-08
         0.70312E-09
         0.80331E-09
         0.75840E-09
         0.84034E-09
         0.64504E-09
         0.40061E-09
         0.76092E-09
         0.63314E-09
         0.65988E-09
         0.67609E-09
         0.58781E-09
         0.71641E-09
         0.90993E-09
         0.64255E-09
         0.10184E-08
         0.88601E-09
         0.40075E-09
         0.61801E-09
         0.70151E-09
         0.74140E-09
         0.71569E-09
         0.56243E-09
         0.35350E-09
         0.58404E-09
         0.77332E-09
         0.62416E-09
         0.54879E-09
         0.35953E-09
         0.61334E-09
         0.83274E-09
         0.87368E-09
         0.70525E-09
         0.43372E-09
         0.74636E-09
         0.27609E-09
         0.35141E-09
         0.32825E-09
         0.38772E-09
         0.37849E-09
         0.36754E-09
         0.39215E-09
         0.41447E-09
         0.39014E-09
         0.30443E-09
         0.24808E-09
         0.32004E-09
         0.42642E-09
         0.46868E-09
         0.44965E-09
         0.40543E-09
         0.36812E-09
         0.29897E-09
         0.25155E-09
         0.32874E-09
         0.43524E-09
         0.44963E-09
         0.36340E-09
         0.29504E-09
         0.36153E-09
         0.42764E-09
         0.91176E-09
         0.72308E-09
         0.77620E-09
         0.13360E-08
         0.71617E-09
         0.91407E-09
         0.51008E-09
         0.61276E-09
         0.10126E-08
         0.74195E-09
         0.30072E-09
         0.56942E-09
         0.62670E-09
         0.50832E-09
         0.64838E-09
         0.12051E-08
         0.94210E-09
         0.11977E-08
         0.70314E-09
         0.80341E-09
         0.75837E-09
         0.84038E-09
         0.64498E-09
         0.40056E-09
         0.76060E-09
         0.63309E-09
         0.65888E-09
         0.67542E-09
         0.58756E-09
         0.71624E-09
         0.91002E-09
         0.64247E-09
         0.10189E-08
         0.88682E-09
         0.40074E-09
         0.61790E-09
         0.70142E-09
         0.74135E-09
         0.71574E-09
         0.56245E-09
         0.35351E-09
         0.58396E-09
         0.77328E-09
         0.62407E-09
         0.54866E-09
         0.35944E-09
         0.61329E-09
         0.83275E-09
         0.87382E-09
         0.70539E-09
         0.43373E-09
         0.74673E-09
         0.27601E-09
         0.35140E-09
         0.32809E-09
         0.38774E-09
         0.37858E-09
         0.36762E-09
         0.39232E-09
         0.41477E-09
         0.39037E-09
         0.30450E-09
         0.24810E-09
         0.32005E-09
         0.42648E-09
         0.46879E-09
         0.44970E-09
         0.40541E-09
         0.36809E-09
         0.29894E-09
         0.25151E-09
         0.32871E-09
         0.43523E-09
         0.44963E-09
         0.36333E-09
         0.29497E-09
         0.36157E-09
         0.42763E-09
         0.91182E-09
         0.72293E-09
         0.77627E-09
         0.13367E-08
         0.71629E-09
         0.91436E-09
         0.50982E-09
         0.61240E-09
         0.10130E-08
         0.74146E-09
         0.30043E-09
         0.56932E-09
         0.62666E-09
         0.50762E-09
         0.64825E-09
         0.12054E-08
         0.94253E-09
         0.11983E-08
         0.70317E-09
         0.80351E-09
         0.75834E-09
         0.84041E-09
         0.64491E-09
         0.40053E-09
         0.76028E-09
         0.63304E-09
         0.65790E-09
         0.67476E-09
         0.58731E-09
         0.71609E-09
         0.91012E-09
         0.64239E-09
         0.10195E-08
         0.88762E-09
         0.40074E-09
         0.61778E-09
         0.70133E-09
         0.74130E-09
         0.71579E-09
         0.56249E-09
         0.35351E-09
         0.58388E-09
         0.77324E-09
         0.62398E-09
         0.54853E-09
         0.35935E-09
         0.61324E-09
         0.83277E-09
         0.87396E-09
         0.70554E-09
         0.43375E-09
         0.74711E-09
         0.27592E-09
         0.35140E-09
         0.32793E-09
         0.38775E-09
         0.37867E-09
         0.36770E-09
         0.39249E-09
         0.41507E-09
         0.39061E-09
         0.30457E-09
         0.24812E-09
         0.32006E-09
         0.42654E-09
         0.46890E-09
         0.44975E-09
         0.40540E-09
         0.36807E-09
         0.29892E-09
         0.25148E-09
         0.32869E-09
         0.43522E-09
         0.44963E-09
         0.36325E-09
         0.29491E-09
         0.36162E-09
         0.42762E-09
         0.91187E-09
         0.72278E-09
         0.77633E-09
         0.13373E-08
         0.71640E-09
         0.91463E-09
         0.50955E-09
         0.61204E-09
         0.10134E-08
         0.74098E-09
         0.30015E-09
         0.56922E-09
         0.62662E-09
         0.50691E-09
         0.64811E-09
         0.12058E-08
         0.94296E-09
         0.11989E-08
         0.70320E-09
         0.80361E-09
         0.75831E-09
         0.84045E-09
         0.64485E-09
         0.40048E-09
         0.75995E-09
         0.63298E-09
         0.65690E-09
         0.67409E-09
         0.58706E-09
         0.71592E-09
         0.91020E-09
         0.64231E-09
         0.10200E-08
         0.88843E-09
         0.40074E-09
         0.61766E-09
         0.70124E-09
         0.74124E-09
         0.71584E-09
         0.56251E-09
         0.35351E-09
         0.58380E-09
         0.77320E-09
         0.62389E-09
         0.54840E-09
         0.35926E-09
         0.61318E-09
         0.83277E-09
         0.87409E-09
         0.70568E-09
         0.43376E-09
         0.74748E-09
         0.27584E-09
         0.35139E-09
         0.32777E-09
         0.38777E-09
         0.37876E-09
         0.36778E-09
         0.39266E-09
         0.41536E-09
         0.39084E-09
         0.30464E-09
         0.24814E-09
         0.32006E-09
         0.42659E-09
         0.46900E-09
         0.44980E-09
         0.40539E-09
         0.36805E-09
         0.29890E-09
         0.25144E-09
         0.32867E-09
         0.43521E-09
         0.44963E-09
         0.36318E-09
         0.29485E-09
         0.36166E-09
         0.42761E-09
         0.91192E-09
         0.72263E-09
         0.77640E-09
         0.13380E-08
         0.71652E-09
         0.91491E-09
         0.50928E-09
         0.61167E-09
         0.10137E-08
         0.74049E-09
         0.29986E-09
         0.56912E-09
         0.62657E-09
         0.50620E-09
         0.64797E-09
         0.12061E-08
         0.94339E-09
         0.11995E-08
         0.70322E-09
         0.80371E-09
         0.75827E-09
         0.84048E-09
         0.64478E-09
         0.40044E-09
         0.75962E-09
         0.63293E-09
         0.65591E-09
         0.67343E-09
         0.58681E-09
         0.71576E-09
         0.91029E-09
         0.64223E-09
         0.10205E-08
         0.88923E-09
         0.40073E-09
         0.61754E-09
         0.70114E-09
         0.74119E-09
         0.71588E-09
         0.56254E-09
         0.35351E-09
         0.58372E-09
         0.77316E-09
         0.62380E-09
         0.54827E-09
         0.35917E-09
         0.61313E-09
         0.83278E-09
         0.87422E-09
         0.70582E-09
         0.43377E-09
         0.74785E-09
         0.27575E-09
         0.35138E-09
         0.32761E-09
         0.38778E-09
         0.37885E-09
         0.36786E-09
         0.39283E-09
         0.41566E-09
         0.39107E-09
         0.30470E-09
         0.24816E-09
         0.32007E-09
         0.42665E-09
         0.46911E-09
         0.44985E-09
         0.40538E-09
         0.36802E-09
         0.29887E-09
         0.25140E-09
         0.32864E-09
         0.43520E-09
         0.44963E-09
         0.36310E-09
         0.29478E-09
         0.36170E-09
         0.42760E-09
         0.91198E-09
         0.72248E-09
         0.77646E-09
         0.13386E-08
         0.71663E-09
         0.91520E-09
         0.50901E-09
         0.61131E-09
         0.10141E-08
         0.74000E-09
         0.29957E-09
         0.56902E-09
         0.62653E-09
         0.50549E-09
         0.64784E-09
         0.12065E-08
         0.94382E-09
         0.12002E-08
         0.70325E-09
         0.80381E-09
         0.75824E-09
         0.84052E-09
         0.64472E-09
         0.40040E-09
         0.75929E-09
         0.63288E-09
         0.65492E-09
         0.67276E-09
         0.58657E-09
         0.71560E-09
         0.91038E-09
         0.64216E-09
         0.10211E-08
         0.89003E-09
         0.40073E-09
         0.61742E-09
         0.70105E-09
         0.74114E-09
         0.71593E-09
         0.56257E-09
         0.35351E-09
         0.58364E-09
         0.77313E-09
         0.62371E-09
         0.54814E-09
         0.35908E-09
         0.61308E-09
         0.83280E-09
         0.87436E-09
         0.70597E-09
         0.43378E-09
         0.74823E-09
         0.27567E-09
         0.35138E-09
         0.32745E-09
         0.38779E-09
         0.37893E-09
         0.36794E-09
         0.39300E-09
         0.41596E-09
         0.39130E-09
         0.30477E-09
         0.24818E-09
         0.32008E-09
         0.42671E-09
         0.46921E-09
         0.44991E-09
         0.40537E-09
         0.36800E-09
         0.29885E-09
         0.25136E-09
         0.32862E-09
         0.43520E-09
         0.44963E-09
         0.36303E-09
         0.29472E-09
         0.36175E-09
         0.42759E-09
         0.91203E-09
         0.72233E-09
         0.77653E-09
         0.13392E-08
         0.71675E-09
         0.91547E-09
         0.50875E-09
         0.61094E-09
         0.10144E-08
         0.73952E-09
         0.29928E-09
         0.56892E-09
         0.62649E-09
         0.50478E-09
         0.64770E-09
         0.12068E-08
         0.94424E-09
         0.12008E-08
         0.70327E-09
         0.80391E-09
         0.75821E-09
         0.84055E-09
         0.64465E-09
         0.40035E-09
         0.75896E-09
         0.63282E-09
         0.65393E-09
         0.67210E-09
         0.58632E-09
         0.71543E-09
         0.91047E-09
         0.64208E-09
         0.10216E-08
         0.89084E-09
         0.40073E-09
         0.61730E-09
         0.70096E-09
         0.74108E-09
         0.71598E-09
         0.56259E-09
         0.35351E-09
         0.58356E-09
         0.77309E-09
         0.62362E-09
         0.54801E-09
         0.35898E-09
         0.61303E-09
         0.83281E-09
         0.87449E-09
         0.70611E-09
         0.43379E-09
         0.74860E-09
         0.27558E-09
         0.35137E-09
         0.32729E-09
         0.38781E-09
         0.37902E-09
         0.36802E-09
         0.39317E-09
         0.41625E-09
         0.39153E-09
         0.30484E-09
         0.24820E-09
         0.32009E-09
         0.42677E-09
         0.46932E-09
         0.44996E-09
         0.40536E-09
         0.36798E-09
         0.29883E-09
         0.25132E-09
         0.32859E-09
         0.43519E-09
         0.44963E-09
         0.36296E-09
         0.29465E-09
         0.36179E-09
         0.42758E-09
         0.91208E-09
         0.72218E-09
         0.77659E-09
         0.13399E-08
         0.71686E-09
         0.91576E-09
         0.50848E-09
         0.61058E-09
         0.10148E-08
         0.73903E-09
         0.29900E-09
         0.56882E-09
         0.62645E-09
         0.50408E-09
         0.64757E-09
         0.12072E-08
         0.94467E-09
         0.12014E-08
         0.70330E-09
         0.80401E-09
         0.75818E-09
         0.84059E-09
         0.64459E-09
         0.40031E-09
         0.75864E-09
         0.63277E-09
         0.65294E-09
         0.67143E-09
         0.58607E-09
         0.71527E-09
         0.91057E-09
         0.64200E-09
         0.10221E-08
         0.89164E-09
         0.40072E-09
         0.61719E-09
         0.70087E-09
         0.74103E-09
         0.71603E-09
         0.56262E-09
         0.35352E-09
         0.58348E-09
         0.77305E-09
         0.62354E-09
         0.54788E-09
         0.35889E-09
         0.61298E-09
         0.83282E-09
         0.87463E-09
         0.70626E-09
         0.43380E-09
         0.74897E-09
         0.27550E-09
         0.35137E-09
         0.32713E-09
         0.38782E-09
         0.37911E-09
         0.36810E-09
         0.39334E-09
         0.41655E-09
         0.39176E-09
         0.30491E-09
         0.24822E-09
         0.32010E-09
         0.42682E-09
         0.46942E-09
         0.45001E-09
         0.40534E-09
         0.36796E-09
         0.29881E-09
         0.25128E-09
         0.32857E-09
         0.43518E-09
         0.44963E-09
         0.36288E-09
         0.29459E-09
         0.36184E-09
         0.42757E-09
         0.91214E-09
         0.72204E-09
         0.77666E-09
         0.13405E-08
         0.71698E-09
         0.91604E-09
         0.50822E-09
         0.61022E-09
         0.10151E-08
         0.73855E-09
         0.29871E-09
         0.56872E-09
         0.62641E-09
         0.50337E-09
         0.64743E-09
         0.12075E-08
         0.94510E-09
         0.12020E-08
         0.70333E-09
         0.80411E-09
         0.75815E-09
         0.84063E-09
         0.64453E-09
         0.40027E-09
         0.75831E-09
         0.63272E-09
         0.65196E-09
         0.67077E-09
         0.58582E-09
         0.71511E-09
         0.91066E-09
         0.64192E-09
         0.10227E-08
         0.89245E-09
         0.40072E-09
         0.61707E-09
         0.70078E-09
         0.74098E-09
         0.71608E-09
         0.56265E-09
         0.35352E-09
         0.58340E-09
         0.77301E-09
         0.62345E-09
         0.54775E-09
         0.35880E-09
         0.61293E-09
         0.83283E-09
         0.87476E-09
         0.70641E-09
         0.43382E-09
         0.74935E-09
         0.27541E-09
         0.35136E-09
         0.32697E-09
         0.38784E-09
         0.37920E-09
         0.36818E-09
         0.39352E-09
         0.41685E-09
         0.39199E-09
         0.30498E-09
         0.24824E-09
         0.32011E-09
         0.42688E-09
         0.46953E-09
         0.45007E-09
         0.40533E-09
         0.36793E-09
         0.29878E-09
         0.25124E-09
         0.32855E-09
         0.43517E-09
         0.44963E-09
         0.36281E-09
         0.29452E-09
         0.36188E-09
         0.42756E-09
         0.91219E-09
         0.72188E-09
         0.77672E-09
         0.13412E-08
         0.71709E-09
         0.91632E-09
         0.50795E-09
         0.60986E-09
         0.10155E-08
         0.73806E-09
         0.29842E-09
         0.56862E-09
         0.62636E-09
         0.50266E-09
         0.64730E-09
         0.12079E-08
         0.94552E-09
         0.12026E-08
         0.70335E-09
         0.80421E-09
         0.75811E-09
         0.84066E-09
         0.64446E-09
         0.40023E-09
         0.75798E-09
         0.63267E-09
         0.65096E-09
         0.67010E-09
         0.58557E-09
         0.71494E-09
         0.91074E-09
         0.64184E-09
         0.10232E-08
         0.89325E-09
         0.40072E-09
         0.61695E-09
         0.70069E-09
         0.74092E-09
         0.71612E-09
         0.56268E-09
         0.35352E-09
         0.58332E-09
         0.77297E-09
         0.62336E-09
         0.54762E-09
         0.35871E-09
         0.61287E-09
         0.83284E-09
         0.87489E-09
         0.70655E-09
         0.43383E-09
         0.74972E-09
         0.27533E-09
         0.35136E-09
         0.32681E-09
         0.38785E-09
         0.37929E-09
         0.36825E-09
         0.39369E-09
         0.41715E-09
         0.39222E-09
         0.30505E-09
         0.24826E-09
         0.32011E-09
         0.42694E-09
         0.46963E-09
         0.45011E-09
         0.40532E-09
         0.36791E-09
         0.29876E-09
         0.25120E-09
         0.32853E-09
         0.43516E-09
         0.44962E-09
         0.36274E-09
         0.29445E-09
         0.36192E-09
         0.42755E-09
         0.91224E-09
         0.72173E-09
         0.77679E-09
         0.13418E-08
         0.71720E-09
         0.91660E-09
         0.50768E-09
         0.60949E-09
         0.10158E-08
         0.73758E-09
         0.29814E-09
         0.56852E-09
         0.62632E-09
         0.50195E-09
         0.64716E-09
         0.12082E-08
         0.94595E-09
         0.12032E-08
         0.70337E-09
         0.80431E-09
         0.75808E-09
         0.84069E-09
         0.64440E-09
         0.40018E-09
         0.75766E-09
         0.63262E-09
         0.64998E-09
         0.66943E-09
         0.58532E-09
         0.71478E-09
         0.91083E-09
         0.64176E-09
         0.10238E-08
         0.89406E-09
         0.40071E-09
         0.61683E-09
         0.70059E-09
         0.74087E-09
         0.71617E-09
         0.56270E-09
         0.35352E-09
         0.58324E-09
         0.77294E-09
         0.62327E-09
         0.54749E-09
         0.35861E-09
         0.61282E-09
         0.83284E-09
         0.87503E-09
         0.70669E-09
         0.43384E-09
         0.75009E-09
         0.27524E-09
         0.35135E-09
         0.32665E-09
         0.38786E-09
         0.37937E-09
         0.36833E-09
         0.39386E-09
         0.41745E-09
         0.39245E-09
         0.30512E-09
         0.24828E-09
         0.32012E-09
         0.42699E-09
         0.46974E-09
         0.45017E-09
         0.40531E-09
         0.36788E-09
         0.29873E-09
         0.25117E-09
         0.32850E-09
         0.43515E-09
         0.44962E-09
         0.36266E-09
         0.29439E-09
         0.36197E-09
         0.42754E-09
         0.91230E-09
         0.72159E-09
         0.77686E-09
         0.13425E-08
         0.71732E-09
         0.91688E-09
         0.50742E-09
         0.60913E-09
         0.10162E-08
         0.73710E-09
         0.29785E-09
         0.56842E-09
         0.62628E-09
         0.50125E-09
         0.64703E-09
         0.12086E-08
         0.94638E-09
         0.12038E-08
         0.70340E-09
         0.80441E-09
         0.75805E-09
         0.84073E-09
         0.64433E-09
         0.40014E-09
         0.75733E-09
         0.63257E-09
         0.64899E-09
         0.66877E-09
         0.58508E-09
         0.71462E-09
         0.91093E-09
         0.64169E-09
         0.10243E-08
         0.89487E-09
         0.40071E-09
         0.61671E-09
         0.70051E-09
         0.74082E-09
         0.71622E-09
         0.56273E-09
         0.35352E-09
         0.58316E-09
         0.77290E-09
         0.62318E-09
         0.54737E-09
         0.35852E-09
         0.61277E-09
         0.83286E-09
         0.87517E-09
         0.70684E-09
         0.43385E-09
         0.75047E-09
         0.27516E-09
         0.35135E-09
         0.32649E-09
         0.38788E-09
         0.37946E-09
         0.36841E-09
         0.39403E-09
         0.41775E-09
         0.39268E-09
         0.30519E-09
         0.24830E-09
         0.32013E-09
         0.42705E-09
         0.46985E-09
         0.45022E-09
         0.40530E-09
         0.36786E-09
         0.29871E-09
         0.25113E-09
         0.32848E-09
         0.43515E-09
         0.44962E-09
         0.36259E-09
         0.29433E-09
         0.36201E-09
         0.42753E-09
         0.91235E-09
         0.72143E-09
         0.77692E-09
         0.13431E-08
         0.71743E-09
         0.91716E-09
         0.50715E-09
         0.60877E-09
         0.10165E-08
         0.73661E-09
         0.29757E-09
         0.56832E-09
         0.62624E-09
         0.50054E-09
         0.64689E-09
         0.12089E-08
         0.94680E-09
         0.12044E-08
         0.70342E-09
         0.80450E-09
         0.75802E-09
         0.84076E-09
         0.64427E-09
         0.40010E-09
         0.75700E-09
         0.63251E-09
         0.64800E-09
         0.66810E-09
         0.58482E-09
         0.71445E-09
         0.91101E-09
         0.64161E-09
         0.10248E-08
         0.89567E-09
         0.40071E-09
         0.61659E-09
         0.70041E-09
         0.74077E-09
         0.71627E-09
         0.56276E-09
         0.35352E-09
         0.58308E-09
         0.77286E-09
         0.62309E-09
         0.54723E-09
         0.35843E-09
         0.61272E-09
         0.83287E-09
         0.87530E-09
         0.70698E-09
         0.43386E-09
         0.75084E-09
         0.27507E-09
         0.35134E-09
         0.32633E-09
         0.38789E-09
         0.37955E-09
         0.36849E-09
         0.39420E-09
         0.41804E-09
         0.39291E-09
         0.30525E-09
         0.24832E-09
         0.32014E-09
         0.42711E-09
         0.46995E-09
         0.45027E-09
         0.40528E-09
         0.36784E-09
         0.29869E-09
         0.25109E-09
         0.32845E-09
         0.43514E-09
         0.44962E-09
         0.36252E-09
         0.29426E-09
         0.36206E-09
         0.42751E-09
         0.91240E-09
         0.72128E-09
         0.77698E-09
         0.13437E-08
         0.71755E-09
         0.91744E-09
         0.50688E-09
         0.60841E-09
         0.10169E-08
         0.73612E-09
         0.29728E-09
         0.56822E-09
         0.62619E-09
         0.49984E-09
         0.64676E-09
         0.12093E-08
         0.94723E-09
         0.12050E-08
         0.70345E-09
         0.80460E-09
         0.75798E-09
         0.84080E-09
         0.64420E-09
         0.40006E-09
         0.75667E-09
         0.63246E-09
         0.64701E-09
         0.66744E-09
         0.58457E-09
         0.71429E-09
         0.91110E-09
         0.64153E-09
         0.10254E-08
         0.89648E-09
         0.40070E-09
         0.61647E-09
         0.70032E-09
         0.74071E-09
         0.71632E-09
         0.56279E-09
         0.35353E-09
         0.58300E-09
         0.77282E-09
         0.62300E-09
         0.54710E-09
         0.35834E-09
         0.61266E-09
         0.83288E-09
         0.87543E-09
         0.70713E-09
         0.43387E-09
         0.75122E-09
         0.27499E-09
         0.35133E-09
         0.32617E-09
         0.38790E-09
         0.37964E-09
         0.36857E-09
         0.39437E-09
         0.41834E-09
         0.39314E-09
         0.30532E-09
         0.24834E-09
         0.32014E-09
         0.42716E-09
         0.47005E-09
         0.45032E-09
         0.40527E-09
         0.36781E-09
         0.29866E-09
         0.25105E-09
         0.32843E-09
         0.43513E-09
         0.44962E-09
         0.36244E-09
         0.29419E-09
         0.36210E-09
         0.42750E-09
         0.91246E-09
         0.72114E-09
         0.77705E-09
         0.13444E-08
         0.71767E-09
         0.91773E-09
         0.50662E-09
         0.60805E-09
         0.10173E-08
         0.73564E-09
         0.29700E-09
         0.56812E-09
         0.62616E-09
         0.49914E-09
         0.64663E-09
         0.12097E-08
         0.94766E-09
         0.12056E-08
         0.70348E-09
         0.80471E-09
         0.75796E-09
         0.84084E-09
         0.64414E-09
         0.40002E-09
         0.75635E-09
         0.63241E-09
         0.64603E-09
         0.66678E-09
         0.58433E-09
         0.71413E-09
         0.91120E-09
         0.64146E-09
         0.10259E-08
         0.89729E-09
         0.40070E-09
         0.61636E-09
         0.70023E-09
         0.74067E-09
         0.71637E-09
         0.56282E-09
         0.35353E-09
         0.58293E-09
         0.77279E-09
         0.62291E-09
         0.54698E-09
         0.35825E-09
         0.61261E-09
         0.83289E-09
         0.87557E-09
         0.70728E-09
         0.43389E-09
         0.75160E-09
         0.27491E-09
         0.35133E-09
         0.32601E-09
         0.38792E-09
         0.37972E-09
         0.36865E-09
         0.39454E-09
         0.41864E-09
         0.39337E-09
         0.30539E-09
         0.24836E-09
         0.32015E-09
         0.42722E-09
         0.47016E-09
         0.45038E-09
         0.40526E-09
         0.36779E-09
         0.29864E-09
         0.25101E-09
         0.32841E-09
         0.43512E-09
         0.44962E-09
         0.36237E-09
         0.29413E-09
         0.36215E-09
         0.42750E-09
         0.91249E-09
         0.72097E-09
         0.77710E-09
         0.13450E-08
         0.71777E-09
         0.91799E-09
         0.50634E-09
         0.60767E-09
         0.10176E-08
         0.73514E-09
         0.29670E-09
         0.56801E-09
         0.62610E-09
         0.49842E-09
         0.64648E-09
         0.12100E-08
         0.94806E-09
         0.12062E-08
         0.70349E-09
         0.80479E-09
         0.75791E-09
         0.84086E-09
         0.64406E-09
         0.39997E-09
         0.75600E-09
         0.63234E-09
         0.64503E-09
         0.66610E-09
         0.58407E-09
         0.71395E-09
         0.91127E-09
         0.64136E-09
         0.10264E-08
         0.89808E-09
         0.40069E-09
         0.61622E-09
         0.70012E-09
         0.74060E-09
         0.71641E-09
         0.56283E-09
         0.35352E-09
         0.58283E-09
         0.77273E-09
         0.62281E-09
         0.54684E-09
         0.35815E-09
         0.61255E-09
         0.83288E-09
         0.87569E-09
         0.70741E-09
         0.43389E-09
         0.75195E-09
         0.27482E-09
         0.35132E-09
         0.32584E-09
         0.38793E-09
         0.37980E-09
         0.36872E-09
         0.39470E-09
         0.41893E-09
         0.39360E-09
         0.30545E-09
         0.24837E-09
         0.32016E-09
         0.42727E-09
         0.47026E-09
         0.45042E-09
         0.40524E-09
         0.36776E-09
         0.29861E-09
         0.25097E-09
         0.32838E-09
         0.43510E-09
         0.44961E-09
         0.36229E-09
         0.29406E-09
         0.36218E-09
         0.42748E-09
         0.91256E-09
         0.72083E-09
         0.77718E-09
         0.13457E-08
         0.71789E-09
         0.91829E-09
         0.50608E-09
         0.60732E-09
         0.10180E-08
         0.73467E-09
         0.29642E-09
         0.56792E-09
         0.62607E-09
         0.49772E-09
         0.64636E-09
         0.12103E-08
         0.94850E-09
         0.12068E-08
         0.70352E-09
         0.80490E-09
         0.75789E-09
         0.84091E-09
         0.64401E-09
         0.39993E-09
         0.75569E-09
         0.63230E-09
         0.64405E-09
         0.66544E-09
         0.58382E-09
         0.71379E-09
         0.91137E-09
         0.64129E-09
         0.10270E-08
         0.89890E-09
         0.40069E-09
         0.61611E-09
         0.70004E-09
         0.74056E-09
         0.71646E-09
         0.56287E-09
         0.35353E-09
         0.58276E-09
         0.77271E-09
         0.62273E-09
         0.54672E-09
         0.35806E-09
         0.61251E-09
         0.83291E-09
         0.87583E-09
         0.70756E-09
         0.43391E-09
         0.75234E-09
         0.27474E-09
         0.35132E-09
         0.32569E-09
         0.38794E-09
         0.37990E-09
         0.36881E-09
         0.39488E-09
         0.41923E-09
         0.39383E-09
         0.30553E-09
         0.24840E-09
         0.32017E-09
         0.42734E-09
         0.47037E-09
         0.45048E-09
         0.40524E-09
         0.36774E-09
         0.29859E-09
         0.25093E-09
         0.32836E-09
         0.43510E-09
         0.44962E-09
         0.36222E-09
         0.29400E-09
         0.36223E-09
         0.42747E-09
         0.45631E-09
         0.36039E-09
         0.38862E-09
         0.67302E-09
         0.35899E-09
         0.45923E-09
         0.25298E-09
         0.30358E-09
         0.50909E-09
         0.36723E-09
         0.14815E-09
         0.28394E-09
         0.31303E-09
         0.24869E-09
         0.32316E-09
         0.60528E-09
         0.47437E-09
         0.60357E-09
         0.35178E-09
         0.40249E-09
         0.37895E-09
         0.42048E-09
         0.32200E-09
         0.19996E-09
         0.37777E-09
         0.31615E-09
         0.32179E-09
         0.33257E-09
         0.29186E-09
         0.35687E-09
         0.45572E-09
         0.32064E-09
         0.51365E-09
         0.44967E-09
         0.20035E-09
         0.30804E-09
         0.35001E-09
         0.37028E-09
         0.35826E-09
         0.28145E-09
         0.17677E-09
         0.29137E-09
         0.38636E-09
         0.31135E-09
         0.27333E-09
         0.17901E-09
         0.30625E-09
         0.41647E-09
         0.43797E-09
         0.35383E-09
         0.21697E-09
         0.37628E-09
         0.13735E-09
         0.17566E-09
         0.16281E-09
         0.19398E-09
         0.18998E-09
         0.18443E-09
         0.19749E-09
         0.20970E-09
         0.19698E-09
         0.15279E-09
         0.12421E-09
         0.16009E-09
         0.21369E-09
         0.23522E-09
         0.22526E-09
         0.20262E-09
         0.18387E-09
         0.14930E-09
         0.12546E-09
         0.16418E-09
         0.21756E-09
         0.22482E-09
         0.18110E-09
         0.14699E-09
         0.18113E-09
         0.21374E-09
  
SCALARS               pre_disp_force_x  double 1
LOOKUP_TABLE default
         0.00000E+00
         0.00000E+00
         0.00000E+00
         0.00000E+00
         0.00000E+00
         0.00000E+00
         0.00000E+00
         0.00000E+00
         0.00000E+00
         0.00000E+00
         0.00000E+00
         0.00000E+00
         0.00000E+00
         0.00000E+00
         0.00000E+00
         0.00000E+00
         0.00000E+00
         0.00000E+00
         0.00000E+00
         0.00000E+00
         0.00000E+00
         0.00000E+00
         0.00000E+00
         0.00000E+00
         0.00000E+00
         0.00000E+00
         0.00000E+00
         0.00000E+00
         0.00000E+00
         0.00000E+00
         0.00000E+00
         0.00000E+00
         0.00000E+00
         0.00000E+00
         0.00000E+00
         0.00000E+00
         0.00000E+00
         0.00000E+00
         0.00000E+00
         0.00000E+00
         0.00000E+00
         0.00000E+00
         0.00000E+00
         0.00000E+00
         0.00000E+00
         0.00000E+00
         0.00000E+00
         0.00000E+00
         0.00000E+00
         0.00000E+00
         0.00000E+00
         0.00000E+00
         0.00000E+00
         0.00000E+00
         0.00000E+00
         0.00000E+00
         0.00000E+00
         0.00000E+00
         0.00000E+00
         0.00000E+00
         0.00000E+00
         0.00000E+00
         0.00000E+00
         0.00000E+00
         0.00000E+00
         0.00000E+00
         0.00000E+00
         0.00000E+00
         0.00000E+00
         0.00000E+00
         0.00000E+00
         0.00000E+00
         0.00000E+00
         0.00000E+00
         0.00000E+00
         0.00000E+00
         0.00000E+00
         0.00000E+00
         0.00000E+00
         0.00000E+00
         0.00000E+00
         0.00000E+00
         0.00000E+00
         0.00000E+00
         0.00000E+00
         0.00000E+00
         0.00000E+00
         0.00000E+00
         0.00000E+00
         0.00000E+00
         0.00000E+00
         0.00000E+00
         0.00000E+00
         0.00000E+00
         0.00000E+00
         0.00000E+00
         0.00000E+00
         0.00000E+00
         0.00000E+00
         0.00000E+00
         0.00000E+00
         0.00000E+00
         0.00000E+00
         0.00000E+00
         0.00000E+00
         0.00000E+00
         0.00000E+00
         0.00000E+00
         0.00000E+00
         0.00000E+00
         0.00000E+00
         0.00000E+00
         0.00000E+00
         0.00000E+00
         0.00000E+00
         0.00000E+00
         0.00000E+00
         0.00000E+00
         0.00000E+00
         0.00000E+00
         0.00000E+00
         0.00000E+00
         0.00000E+00
         0.00000E+00
         0.00000E+00
         0.00000E+00
         0.00000E+00
         0.00000E+00
         0.00000E+00
         0.00000E+00
         0.00000E+00
         0.00000E+00
         0.00000E+00
         0.00000E+00
         0.00000E+00
         0.00000E+00
         0.00000E+00
         0.00000E+00
         0.00000E+00
         0.00000E+00
         0.00000E+00
         0.00000E+00
         0.00000E+00
         0.00000E+00
         0.00000E+00
         0.00000E+00
         0.00000E+00
         0.00000E+00
         0.00000E+00
         0.00000E+00
         0.00000E+00
         0.00000E+00
         0.00000E+00
         0.00000E+00
         0.00000E+00
         0.00000E+00
         0.00000E+00
         0.00000E+00
         0.00000E+00
         0.00000E+00
         0.00000E+00
         0.00000E+00
         0.00000E+00
         0.00000E+00
         0.00000E+00
         0.00000E+00
         0.00000E+00
         0.00000E+00
         0.00000E+00
         0.00000E+00
         0.00000E+00
         0.00000E+00
         0.00000E+00
         0.00000E+00
         0.00000E+00
         0.00000E+00
         0.00000E+00
         0.00000E+00
         0.00000E+00
         0.00000E+00
         0.00000E+00
         0.00000E+00
         0.00000E+00
         0.00000E+00
         0.00000E+00
         0.00000E+00
         0.00000E+00
         0.00000E+00
         0.00000E+00
         0.00000E+00
         0.00000E+00
         0.00000E+00
         0.00000E+00
         0.00000E+00
         0.00000E+00
         0.00000E+00
         0.00000E+00
         0.00000E+00
         0.00000E+00
         0.00000E+00
         0.00000E+00
         0.00000E+00
         0.00000E+00
         0.00000E+00
         0.00000E+00
         0.00000E+00
         0.00000E+00
         0.00000E+00
         0.00000E+00
         0.00000E+00
         0.00000E+00
         0.00000E+00
         0.00000E+00
         0.00000E+00
         0.00000E+00
         0.00000E+00
         0.00000E+00
         0.00000E+00
         0.00000E+00
         0.00000E+00
         0.00000E+00
         0.00000E+00
         0.00000E+00
         0.00000E+00
         0.00000E+00
         0.00000E+00
         0.00000E+00
         0.00000E+00
         0.00000E+00
         0.00000E+00
         0.00000E+00
         0.00000E+00
         0.00000E+00
         0.00000E+00
         0.00000E+00
         0.00000E+00
         0.00000E+00
         0.00000E+00
         0.00000E+00
         0.00000E+00
         0.00000E+00
         0.00000E+00
         0.00000E+00
         0.00000E+00
         0.00000E+00
         0.00000E+00
         0.00000E+00
         0.00000E+00
         0.00000E+00
         0.00000E+00
         0.00000E+00
         0.00000E+00
         0.00000E+00
         0.00000E+00
         0.00000E+00
         0.00000E+00
         0.00000E+00
         0.00000E+00
         0.00000E+00
         0.00000E+00
         0.00000E+00
         0.00000E+00
         0.00000E+00
         0.00000E+00
         0.00000E+00
         0.00000E+00
         0.00000E+00
         0.00000E+00
         0.00000E+00
         0.00000E+00
         0.00000E+00
         0.00000E+00
         0.00000E+00
         0.00000E+00
         0.00000E+00
         0.00000E+00
         0.00000E+00
         0.00000E+00
         0.00000E+00
         0.00000E+00
         0.00000E+00
         0.00000E+00
         0.00000E+00
         0.00000E+00
         0.00000E+00
         0.00000E+00
         0.00000E+00
         0.00000E+00
         0.00000E+00
         0.00000E+00
         0.00000E+00
         0.00000E+00
         0.00000E+00
         0.00000E+00
         0.00000E+00
         0.00000E+00
         0.00000E+00
         0.00000E+00
         0.00000E+00
         0.00000E+00
         0.00000E+00
         0.00000E+00
         0.00000E+00
         0.00000E+00
         0.00000E+00
         0.00000E+00
         0.00000E+00
         0.00000E+00
         0.00000E+00
         0.00000E+00
         0.00000E+00
         0.00000E+00
         0.00000E+00
         0.00000E+00
         0.00000E+00
         0.00000E+00
         0.00000E+00
         0.00000E+00
         0.00000E+00
         0.00000E+00
         0.00000E+00
         0.00000E+00
         0.00000E+00
         0.00000E+00
         0.00000E+00
         0.00000E+00
         0.00000E+00
         0.00000E+00
         0.00000E+00
         0.00000E+00
         0.00000E+00
         0.00000E+00
         0.00000E+00
         0.00000E+00
         0.00000E+00
         0.00000E+00
         0.00000E+00
         0.00000E+00
         0.00000E+00
         0.00000E+00
         0.00000E+00
         0.00000E+00
         0.00000E+00
         0.00000E+00
         0.00000E+00
         0.00000E+00
         0.00000E+00
         0.00000E+00
         0.00000E+00
         0.00000E+00
         0.00000E+00
         0.00000E+00
         0.00000E+00
         0.00000E+00
         0.00000E+00
         0.00000E+00
         0.00000E+00
         0.00000E+00
         0.00000E+00
         0.00000E+00
         0.00000E+00
         0.00000E+00
         0.00000E+00
         0.00000E+00
         0.00000E+00
         0.00000E+00
         0.00000E+00
         0.00000E+00
         0.00000E+00
         0.00000E+00
         0.00000E+00
         0.00000E+00
         0.00000E+00
         0.00000E+00
         0.00000E+00
         0.00000E+00
         0.00000E+00
         0.00000E+00
         0.00000E+00
         0.00000E+00
         0.00000E+00
         0.00000E+00
         0.00000E+00
         0.00000E+00
         0.00000E+00
         0.00000E+00
         0.00000E+00
         0.00000E+00
         0.00000E+00
         0.00000E+00
         0.00000E+00
         0.00000E+00
         0.00000E+00
         0.00000E+00
         0.00000E+00
         0.00000E+00
         0.00000E+00
         0.00000E+00
         0.00000E+00
         0.00000E+00
         0.00000E+00
         0.00000E+00
         0.00000E+00
         0.00000E+00
         0.00000E+00
         0.00000E+00
         0.00000E+00
         0.00000E+00
         0.00000E+00
         0.00000E+00
         0.00000E+00
         0.00000E+00
         0.00000E+00
         0.00000E+00
         0.00000E+00
         0.00000E+00
         0.00000E+00
         0.00000E+00
         0.00000E+00
         0.00000E+00
         0.00000E+00
         0.00000E+00
         0.00000E+00
         0.00000E+00
         0.00000E+00
         0.00000E+00
         0.00000E+00
         0.00000E+00
         0.00000E+00
         0.00000E+00
         0.00000E+00
         0.00000E+00
         0.00000E+00
         0.00000E+00
         0.00000E+00
         0.00000E+00
         0.00000E+00
         0.00000E+00
         0.00000E+00
         0.00000E+00
         0.00000E+00
         0.00000E+00
         0.00000E+00
         0.00000E+00
         0.00000E+00
         0.00000E+00
         0.00000E+00
         0.00000E+00
         0.00000E+00
         0.00000E+00
         0.00000E+00
         0.00000E+00
         0.00000E+00
         0.00000E+00
         0.00000E+00
         0.00000E+00
         0.00000E+00
         0.00000E+00
         0.00000E+00
         0.00000E+00
         0.00000E+00
         0.00000E+00
         0.00000E+00
         0.00000E+00
         0.00000E+00
         0.00000E+00
         0.00000E+00
         0.00000E+00
         0.00000E+00
         0.00000E+00
         0.00000E+00
         0.00000E+00
         0.00000E+00
         0.00000E+00
         0.00000E+00
         0.00000E+00
         0.00000E+00
         0.00000E+00
         0.00000E+00
         0.00000E+00
         0.00000E+00
         0.00000E+00
         0.00000E+00
         0.00000E+00
         0.00000E+00
         0.00000E+00
         0.00000E+00
         0.00000E+00
         0.00000E+00
         0.00000E+00
         0.00000E+00
         0.00000E+00
         0.00000E+00
         0.00000E+00
         0.00000E+00
         0.00000E+00
         0.00000E+00
         0.00000E+00
         0.00000E+00
         0.00000E+00
         0.00000E+00
         0.00000E+00
         0.00000E+00
         0.00000E+00
         0.00000E+00
         0.00000E+00
         0.00000E+00
         0.00000E+00
         0.00000E+00
         0.00000E+00
         0.00000E+00
         0.00000E+00
         0.00000E+00
         0.00000E+00
         0.00000E+00
         0.00000E+00
         0.00000E+00
         0.00000E+00
         0.00000E+00
         0.00000E+00
         0.00000E+00
         0.00000E+00
         0.00000E+00
         0.00000E+00
         0.00000E+00
         0.00000E+00
         0.00000E+00
         0.00000E+00
         0.00000E+00
         0.00000E+00
         0.00000E+00
         0.00000E+00
         0.00000E+00
         0.00000E+00
         0.00000E+00
         0.00000E+00
         0.00000E+00
         0.00000E+00
         0.00000E+00
         0.00000E+00
         0.00000E+00
         0.00000E+00
         0.00000E+00
         0.00000E+00
         0.00000E+00
         0.00000E+00
         0.00000E+00
         0.00000E+00
         0.00000E+00
         0.00000E+00
         0.00000E+00
         0.00000E+00
         0.00000E+00
         0.00000E+00
         0.00000E+00
         0.00000E+00
         0.00000E+00
         0.00000E+00
         0.00000E+00
         0.00000E+00
         0.00000E+00
         0.00000E+00
         0.00000E+00
         0.00000E+00
         0.00000E+00
         0.00000E+00
         0.00000E+00
         0.00000E+00
         0.00000E+00
         0.00000E+00
         0.00000E+00
         0.00000E+00
         0.00000E+00
         0.00000E+00
         0.00000E+00
         0.00000E+00
         0.00000E+00
         0.00000E+00
         0.00000E+00
         0.00000E+00
         0.00000E+00
         0.00000E+00
         0.00000E+00
         0.00000E+00
         0.00000E+00
         0.00000E+00
         0.00000E+00
         0.00000E+00
         0.00000E+00
         0.00000E+00
         0.00000E+00
         0.00000E+00
         0.00000E+00
         0.00000E+00
         0.00000E+00
         0.00000E+00
         0.00000E+00
         0.00000E+00
         0.00000E+00
         0.00000E+00
         0.00000E+00
         0.00000E+00
         0.00000E+00
         0.00000E+00
         0.00000E+00
         0.00000E+00
         0.00000E+00
         0.00000E+00
         0.00000E+00
         0.00000E+00
         0.00000E+00
         0.00000E+00
         0.00000E+00
         0.00000E+00
         0.00000E+00
         0.00000E+00
         0.00000E+00
         0.00000E+00
         0.00000E+00
         0.00000E+00
         0.00000E+00
         0.00000E+00
         0.00000E+00
         0.00000E+00
         0.00000E+00
         0.00000E+00
         0.00000E+00
         0.00000E+00
         0.00000E+00
         0.00000E+00
         0.00000E+00
         0.00000E+00
         0.00000E+00
         0.00000E+00
         0.00000E+00
         0.00000E+00
         0.00000E+00
         0.00000E+00
         0.00000E+00
         0.00000E+00
         0.00000E+00
         0.00000E+00
         0.00000E+00
         0.00000E+00
         0.00000E+00
         0.00000E+00
         0.00000E+00
         0.00000E+00
         0.00000E+00
         0.00000E+00
         0.00000E+00
         0.00000E+00
         0.00000E+00
         0.00000E+00
         0.00000E+00
         0.00000E+00
         0.00000E+00
         0.00000E+00
         0.00000E+00
         0.00000E+00
         0.00000E+00
         0.00000E+00
         0.00000E+00
         0.00000E+00
         0.00000E+00
         0.00000E+00
         0.00000E+00
         0.00000E+00
         0.00000E+00
         0.00000E+00
         0.00000E+00
         0.00000E+00
         0.00000E+00
         0.00000E+00
         0.00000E+00
         0.00000E+00
         0.00000E+00
         0.00000E+00
         0.00000E+00
         0.00000E+00
         0.00000E+00
         0.00000E+00
         0.00000E+00
         0.00000E+00
         0.00000E+00
         0.00000E+00
         0.00000E+00
         0.00000E+00
         0.00000E+00
         0.00000E+00
         0.00000E+00
         0.00000E+00
         0.00000E+00
         0.00000E+00
         0.00000E+00
         0.00000E+00
         0.00000E+00
         0.00000E+00
         0.00000E+00
         0.00000E+00
         0.00000E+00
         0.00000E+00
         0.00000E+00
         0.00000E+00
         0.00000E+00
         0.00000E+00
         0.00000E+00
         0.00000E+00
         0.00000E+00
         0.00000E+00
         0.00000E+00
         0.00000E+00
         0.00000E+00
         0.00000E+00
         0.00000E+00
         0.00000E+00
         0.00000E+00
         0.00000E+00
         0.00000E+00
         0.00000E+00
         0.00000E+00
         0.00000E+00
         0.00000E+00
         0.00000E+00
         0.00000E+00
         0.00000E+00
         0.00000E+00
         0.00000E+00
         0.00000E+00
         0.00000E+00
         0.00000E+00
         0.00000E+00
         0.00000E+00
         0.00000E+00
         0.00000E+00
         0.00000E+00
         0.00000E+00
         0.00000E+00
         0.00000E+00
         0.00000E+00
         0.00000E+00
         0.00000E+00
         0.00000E+00
         0.00000E+00
         0.00000E+00
         0.00000E+00
         0.00000E+00
         0.00000E+00
         0.00000E+00
         0.00000E+00
         0.00000E+00
         0.00000E+00
         0.00000E+00
         0.00000E+00
         0.00000E+00
         0.00000E+00
         0.00000E+00
         0.00000E+00
         0.00000E+00
         0.00000E+00
         0.00000E+00
         0.00000E+00
         0.00000E+00
         0.00000E+00
         0.00000E+00
         0.00000E+00
         0.00000E+00
         0.00000E+00
         0.00000E+00
         0.00000E+00
         0.00000E+00
         0.00000E+00
         0.00000E+00
         0.00000E+00
         0.00000E+00
         0.00000E+00
         0.00000E+00
         0.00000E+00
         0.00000E+00
         0.00000E+00
         0.00000E+00
         0.00000E+00
         0.00000E+00
         0.00000E+00
         0.00000E+00
         0.00000E+00
         0.00000E+00
         0.00000E+00
         0.00000E+00
         0.00000E+00
         0.00000E+00
         0.00000E+00
         0.00000E+00
         0.00000E+00
         0.00000E+00
         0.00000E+00
         0.00000E+00
         0.00000E+00
         0.00000E+00
         0.00000E+00
         0.00000E+00
         0.00000E+00
         0.00000E+00
         0.00000E+00
         0.00000E+00
         0.00000E+00
         0.00000E+00
         0.00000E+00
         0.00000E+00
         0.00000E+00
         0.00000E+00
         0.00000E+00
         0.00000E+00
         0.00000E+00
         0.00000E+00
         0.00000E+00
         0.00000E+00
         0.00000E+00
         0.00000E+00
         0.00000E+00
         0.00000E+00
         0.00000E+00
         0.00000E+00
         0.00000E+00
         0.00000E+00
         0.00000E+00
         0.00000E+00
         0.00000E+00
         0.00000E+00
         0.00000E+00
         0.00000E+00
         0.00000E+00
         0.00000E+00
         0.00000E+00
         0.00000E+00
         0.00000E+00
         0.00000E+00
         0.00000E+00
         0.00000E+00
         0.00000E+00
         0.00000E+00
         0.00000E+00
         0.00000E+00
         0.00000E+00
         0.00000E+00
         0.00000E+00
         0.00000E+00
         0.00000E+00
         0.00000E+00
         0.00000E+00
         0.00000E+00
         0.00000E+00
         0.00000E+00
         0.00000E+00
         0.00000E+00
         0.00000E+00
         0.00000E+00
         0.00000E+00
         0.00000E+00
         0.00000E+00
         0.00000E+00
         0.00000E+00
         0.00000E+00
         0.00000E+00
         0.00000E+00
         0.00000E+00
         0.00000E+00
         0.00000E+00
         0.00000E+00
         0.00000E+00
         0.00000E+00
         0.00000E+00
         0.00000E+00
         0.00000E+00
         0.00000E+00
         0.00000E+00
         0.00000E+00
         0.00000E+00
         0.00000E+00
         0.00000E+00
         0.00000E+00
         0.00000E+00
         0.00000E+00
         0.00000E+00
         0.00000E+00
         0.00000E+00
         0.00000E+00
         0.00000E+00
         0.00000E+00
         0.00000E+00
         0.00000E+00
         0.00000E+00
         0.00000E+00
         0.00000E+00
         0.00000E+00
         0.00000E+00
         0.00000E+00
         0.00000E+00
         0.00000E+00
         0.00000E+00
         0.00000E+00
         0.00000E+00
         0.00000E+00
         0.00000E+00
         0.00000E+00
         0.00000E+00
         0.00000E+00
         0.00000E+00
         0.00000E+00
         0.00000E+00
         0.00000E+00
         0.00000E+00
         0.00000E+00
         0.00000E+00
         0.00000E+00
         0.00000E+00
         0.00000E+00
         0.00000E+00
         0.00000E+00
         0.00000E+00
         0.00000E+00
         0.00000E+00
         0.00000E+00
         0.00000E+00
         0.00000E+00
         0.00000E+00
         0.00000E+00
         0.00000E+00
         0.00000E+00
         0.00000E+00
         0.00000E+00
         0.00000E+00
         0.00000E+00
         0.00000E+00
         0.00000E+00
         0.00000E+00
         0.00000E+00
         0.00000E+00
         0.00000E+00
         0.00000E+00
         0.00000E+00
         0.00000E+00
         0.00000E+00
         0.00000E+00
         0.00000E+00
         0.00000E+00
         0.00000E+00
         0.00000E+00
         0.00000E+00
         0.00000E+00
         0.00000E+00
         0.00000E+00
         0.00000E+00
         0.00000E+00
         0.00000E+00
         0.00000E+00
         0.00000E+00
         0.00000E+00
         0.00000E+00
         0.00000E+00
         0.00000E+00
         0.00000E+00
         0.00000E+00
         0.00000E+00
         0.00000E+00
         0.00000E+00
         0.00000E+00
         0.00000E+00
         0.00000E+00
         0.00000E+00
         0.00000E+00
         0.00000E+00
         0.00000E+00
         0.00000E+00
         0.00000E+00
         0.00000E+00
         0.00000E+00
         0.00000E+00
         0.00000E+00
         0.00000E+00
         0.00000E+00
         0.00000E+00
         0.00000E+00
         0.00000E+00
         0.00000E+00
         0.00000E+00
         0.00000E+00
         0.00000E+00
         0.00000E+00
         0.00000E+00
         0.00000E+00
         0.00000E+00
         0.00000E+00
         0.00000E+00
         0.00000E+00
         0.00000E+00
         0.00000E+00
         0.00000E+00
         0.00000E+00
         0.00000E+00
         0.00000E+00
         0.00000E+00
         0.00000E+00
         0.00000E+00
         0.00000E+00
         0.00000E+00
         0.00000E+00
         0.00000E+00
         0.00000E+00
         0.00000E+00
         0.00000E+00
         0.00000E+00
         0.00000E+00
         0.00000E+00
         0.00000E+00
         0.00000E+00
         0.00000E+00
         0.00000E+00
         0.00000E+00
         0.00000E+00
         0.00000E+00
         0.00000E+00
         0.00000E+00
         0.00000E+00
         0.00000E+00
         0.00000E+00
         0.00000E+00
         0.00000E+00
         0.00000E+00
         0.00000E+00
         0.00000E+00
         0.00000E+00
         0.00000E+00
         0.00000E+00
         0.00000E+00
         0.00000E+00
         0.00000E+00
         0.00000E+00
         0.00000E+00
         0.00000E+00
         0.00000E+00
         0.00000E+00
         0.00000E+00
         0.00000E+00
         0.00000E+00
         0.00000E+00
         0.00000E+00
         0.00000E+00
         0.00000E+00
         0.00000E+00
         0.00000E+00
         0.00000E+00
         0.00000E+00
         0.00000E+00
         0.00000E+00
         0.00000E+00
         0.00000E+00
         0.00000E+00
         0.00000E+00
         0.00000E+00
         0.00000E+00
         0.00000E+00
         0.00000E+00
         0.00000E+00
         0.00000E+00
         0.00000E+00
         0.00000E+00
         0.00000E+00
         0.00000E+00
         0.00000E+00
         0.00000E+00
         0.00000E+00
         0.00000E+00
         0.00000E+00
         0.00000E+00
         0.00000E+00
         0.00000E+00
         0.00000E+00
         0.00000E+00
         0.00000E+00
         0.00000E+00
         0.00000E+00
         0.00000E+00
         0.00000E+00
         0.00000E+00
         0.00000E+00
         0.00000E+00
         0.00000E+00
         0.00000E+00
         0.00000E+00
         0.00000E+00
         0.00000E+00
         0.00000E+00
         0.00000E+00
         0.00000E+00
         0.00000E+00
         0.00000E+00
         0.00000E+00
         0.00000E+00
         0.00000E+00
         0.00000E+00
         0.00000E+00
         0.00000E+00
         0.00000E+00
         0.00000E+00
         0.00000E+00
         0.00000E+00
         0.00000E+00
         0.00000E+00
         0.00000E+00
         0.00000E+00
         0.00000E+00
         0.00000E+00
         0.00000E+00
         0.00000E+00
         0.00000E+00
         0.00000E+00
         0.00000E+00
         0.00000E+00
         0.00000E+00
         0.00000E+00
         0.00000E+00
         0.00000E+00
         0.00000E+00
         0.00000E+00
         0.00000E+00
         0.00000E+00
         0.00000E+00
         0.00000E+00
         0.00000E+00
         0.00000E+00
         0.00000E+00
         0.00000E+00
         0.00000E+00
         0.00000E+00
         0.00000E+00
         0.00000E+00
         0.00000E+00
         0.00000E+00
         0.00000E+00
         0.00000E+00
         0.00000E+00
         0.00000E+00
         0.00000E+00
         0.00000E+00
         0.00000E+00
         0.00000E+00
         0.00000E+00
         0.00000E+00
         0.00000E+00
         0.00000E+00
         0.00000E+00
         0.00000E+00
         0.00000E+00
         0.00000E+00
         0.00000E+00
         0.00000E+00
         0.00000E+00
         0.00000E+00
         0.00000E+00
         0.00000E+00
         0.00000E+00
         0.00000E+00
         0.00000E+00
         0.00000E+00
         0.00000E+00
         0.00000E+00
         0.00000E+00
         0.00000E+00
         0.00000E+00
         0.00000E+00
         0.00000E+00
         0.00000E+00
         0.00000E+00
         0.00000E+00
         0.00000E+00
         0.00000E+00
         0.00000E+00
         0.00000E+00
         0.00000E+00
         0.00000E+00
         0.00000E+00
         0.00000E+00
         0.00000E+00
         0.00000E+00
         0.00000E+00
         0.00000E+00
         0.00000E+00
         0.00000E+00
         0.00000E+00
         0.00000E+00
         0.00000E+00
         0.00000E+00
         0.00000E+00
         0.00000E+00
         0.00000E+00
         0.00000E+00
         0.00000E+00
         0.00000E+00
         0.00000E+00
         0.00000E+00
         0.00000E+00
         0.00000E+00
         0.00000E+00
         0.00000E+00
         0.00000E+00
         0.00000E+00
         0.00000E+00
         0.00000E+00
         0.00000E+00
         0.00000E+00
         0.00000E+00
         0.00000E+00
         0.00000E+00
         0.00000E+00
         0.00000E+00
         0.00000E+00
         0.00000E+00
         0.00000E+00
         0.00000E+00
         0.00000E+00
         0.00000E+00
         0.00000E+00
         0.00000E+00
         0.00000E+00
         0.00000E+00
         0.00000E+00
         0.00000E+00
         0.00000E+00
         0.00000E+00
         0.00000E+00
         0.00000E+00
         0.00000E+00
         0.00000E+00
         0.00000E+00
         0.00000E+00
         0.00000E+00
         0.00000E+00
         0.00000E+00
         0.00000E+00
         0.00000E+00
         0.00000E+00
         0.00000E+00
         0.00000E+00
         0.00000E+00
         0.00000E+00
         0.00000E+00
         0.00000E+00
         0.00000E+00
         0.00000E+00
         0.00000E+00
         0.00000E+00
         0.00000E+00
         0.00000E+00
         0.00000E+00
         0.00000E+00
         0.00000E+00
         0.00000E+00
         0.00000E+00
         0.00000E+00
         0.00000E+00
         0.00000E+00
         0.00000E+00
         0.00000E+00
         0.00000E+00
         0.00000E+00
         0.00000E+00
         0.00000E+00
         0.00000E+00
         0.00000E+00
         0.00000E+00
         0.00000E+00
         0.00000E+00
         0.00000E+00
         0.00000E+00
         0.00000E+00
         0.00000E+00
         0.00000E+00
         0.00000E+00
         0.00000E+00
         0.00000E+00
         0.00000E+00
         0.00000E+00
         0.00000E+00
         0.00000E+00
         0.00000E+00
         0.00000E+00
         0.00000E+00
         0.00000E+00
         0.00000E+00
         0.00000E+00
         0.00000E+00
         0.00000E+00
         0.00000E+00
         0.00000E+00
         0.00000E+00
         0.00000E+00
         0.00000E+00
         0.00000E+00
         0.00000E+00
         0.00000E+00
         0.00000E+00
         0.00000E+00
         0.00000E+00
         0.00000E+00
         0.00000E+00
         0.00000E+00
         0.00000E+00
         0.00000E+00
         0.00000E+00
         0.00000E+00
         0.00000E+00
         0.00000E+00
         0.00000E+00
         0.00000E+00
         0.00000E+00
         0.00000E+00
         0.00000E+00
         0.00000E+00
         0.00000E+00
         0.00000E+00
         0.00000E+00
         0.00000E+00
         0.00000E+00
         0.00000E+00
         0.00000E+00
         0.00000E+00
         0.00000E+00
         0.00000E+00
         0.00000E+00
         0.00000E+00
         0.00000E+00
         0.00000E+00
         0.00000E+00
         0.00000E+00
         0.00000E+00
         0.00000E+00
         0.00000E+00
         0.00000E+00
         0.00000E+00
         0.00000E+00
         0.00000E+00
         0.00000E+00
         0.00000E+00
         0.00000E+00
         0.00000E+00
         0.00000E+00
         0.00000E+00
         0.00000E+00
         0.00000E+00
         0.00000E+00
         0.00000E+00
         0.00000E+00
         0.00000E+00
         0.00000E+00
         0.00000E+00
         0.00000E+00
         0.00000E+00
         0.00000E+00
         0.00000E+00
         0.00000E+00
         0.00000E+00
         0.00000E+00
         0.00000E+00
         0.00000E+00
         0.00000E+00
         0.00000E+00
         0.00000E+00
         0.00000E+00
         0.00000E+00
         0.00000E+00
         0.00000E+00
         0.00000E+00
         0.00000E+00
         0.00000E+00
         0.00000E+00
         0.00000E+00
         0.00000E+00
         0.00000E+00
         0.00000E+00
         0.00000E+00
         0.00000E+00
         0.00000E+00
         0.00000E+00
         0.00000E+00
         0.00000E+00
         0.00000E+00
         0.00000E+00
         0.00000E+00
         0.00000E+00
         0.00000E+00
         0.00000E+00
         0.00000E+00
         0.00000E+00
         0.00000E+00
         0.00000E+00
         0.00000E+00
         0.00000E+00
         0.00000E+00
         0.00000E+00
         0.00000E+00
         0.00000E+00
         0.00000E+00
         0.00000E+00
         0.00000E+00
         0.00000E+00
         0.00000E+00
         0.00000E+00
         0.00000E+00
         0.00000E+00
         0.00000E+00
         0.00000E+00
         0.00000E+00
         0.00000E+00
         0.00000E+00
         0.00000E+00
         0.00000E+00
         0.00000E+00
         0.00000E+00
         0.00000E+00
         0.00000E+00
         0.00000E+00
         0.00000E+00
         0.00000E+00
         0.00000E+00
         0.00000E+00
         0.00000E+00
         0.00000E+00
         0.00000E+00
         0.00000E+00
         0.00000E+00
         0.00000E+00
         0.00000E+00
         0.00000E+00
         0.00000E+00
         0.00000E+00
         0.00000E+00
         0.00000E+00
         0.00000E+00
         0.00000E+00
         0.00000E+00
         0.00000E+00
         0.00000E+00
         0.00000E+00
         0.00000E+00
         0.00000E+00
         0.00000E+00
         0.00000E+00
         0.00000E+00
         0.00000E+00
         0.00000E+00
         0.00000E+00
         0.00000E+00
         0.00000E+00
         0.00000E+00
         0.00000E+00
         0.00000E+00
         0.00000E+00
         0.00000E+00
         0.00000E+00
         0.00000E+00
         0.00000E+00
         0.00000E+00
         0.00000E+00
         0.00000E+00
         0.00000E+00
         0.00000E+00
         0.00000E+00
         0.00000E+00
         0.00000E+00
         0.00000E+00
         0.00000E+00
         0.00000E+00
         0.00000E+00
         0.00000E+00
         0.00000E+00
         0.00000E+00
         0.00000E+00
         0.00000E+00
         0.00000E+00
         0.00000E+00
         0.00000E+00
         0.00000E+00
         0.00000E+00
         0.00000E+00
         0.00000E+00
         0.00000E+00
         0.00000E+00
         0.00000E+00
         0.00000E+00
         0.00000E+00
         0.00000E+00
         0.00000E+00
         0.00000E+00
         0.00000E+00
         0.00000E+00
         0.00000E+00
         0.00000E+00
         0.00000E+00
         0.00000E+00
         0.00000E+00
         0.00000E+00
         0.00000E+00
         0.00000E+00
         0.00000E+00
         0.00000E+00
         0.00000E+00
         0.00000E+00
         0.00000E+00
         0.00000E+00
         0.00000E+00
         0.00000E+00
         0.00000E+00
         0.00000E+00
         0.00000E+00
         0.00000E+00
         0.00000E+00
         0.00000E+00
         0.00000E+00
         0.00000E+00
         0.00000E+00
         0.00000E+00
         0.00000E+00
         0.00000E+00
         0.00000E+00
         0.00000E+00
         0.00000E+00
         0.00000E+00
         0.00000E+00
         0.00000E+00
         0.00000E+00
         0.00000E+00
         0.00000E+00
         0.00000E+00
         0.00000E+00
         0.00000E+00
         0.00000E+00
         0.00000E+00
         0.00000E+00
         0.00000E+00
         0.00000E+00
         0.00000E+00
         0.00000E+00
         0.00000E+00
         0.00000E+00
         0.00000E+00
         0.00000E+00
         0.00000E+00
         0.00000E+00
         0.00000E+00
         0.00000E+00
         0.00000E+00
         0.00000E+00
         0.00000E+00
         0.00000E+00
         0.00000E+00
         0.00000E+00
         0.00000E+00
         0.00000E+00
         0.00000E+00
         0.00000E+00
         0.00000E+00
         0.00000E+00
         0.00000E+00
         0.00000E+00
         0.00000E+00
         0.00000E+00
         0.00000E+00
         0.00000E+00
         0.00000E+00
         0.00000E+00
         0.00000E+00
         0.00000E+00
         0.00000E+00
         0.00000E+00
         0.00000E+00
         0.00000E+00
         0.00000E+00
         0.00000E+00
         0.00000E+00
         0.00000E+00
         0.00000E+00
         0.00000E+00
         0.00000E+00
         0.00000E+00
         0.00000E+00
         0.00000E+00
         0.00000E+00
         0.00000E+00
         0.00000E+00
         0.00000E+00
         0.00000E+00
         0.00000E+00
         0.00000E+00
         0.00000E+00
         0.00000E+00
         0.00000E+00
         0.00000E+00
         0.00000E+00
         0.00000E+00
         0.00000E+00
         0.00000E+00
         0.00000E+00
         0.00000E+00
         0.00000E+00
         0.00000E+00
         0.00000E+00
         0.00000E+00
         0.00000E+00
         0.00000E+00
         0.00000E+00
         0.00000E+00
         0.00000E+00
         0.00000E+00
         0.00000E+00
         0.00000E+00
         0.00000E+00
         0.00000E+00
         0.00000E+00
         0.00000E+00
         0.00000E+00
         0.00000E+00
         0.00000E+00
         0.00000E+00
         0.00000E+00
         0.00000E+00
         0.00000E+00
         0.00000E+00
         0.00000E+00
         0.00000E+00
         0.00000E+00
         0.00000E+00
         0.00000E+00
         0.00000E+00
         0.00000E+00
         0.00000E+00
         0.00000E+00
         0.00000E+00
         0.00000E+00
         0.00000E+00
         0.00000E+00
         0.00000E+00
         0.00000E+00
         0.00000E+00
         0.00000E+00
         0.00000E+00
         0.00000E+00
         0.00000E+00
         0.00000E+00
         0.00000E+00
         0.00000E+00
         0.00000E+00
         0.00000E+00
         0.00000E+00
         0.00000E+00
         0.00000E+00
         0.00000E+00
         0.00000E+00
         0.00000E+00
         0.00000E+00
         0.00000E+00
         0.00000E+00
         0.00000E+00
         0.00000E+00
         0.00000E+00
         0.00000E+00
         0.00000E+00
         0.00000E+00
         0.00000E+00
         0.00000E+00
         0.00000E+00
         0.00000E+00
         0.00000E+00
         0.00000E+00
         0.00000E+00
         0.00000E+00
         0.00000E+00
         0.00000E+00
         0.00000E+00
         0.00000E+00
         0.00000E+00
         0.00000E+00
         0.00000E+00
         0.00000E+00
         0.00000E+00
         0.00000E+00
         0.00000E+00
         0.00000E+00
         0.00000E+00
         0.00000E+00
         0.00000E+00
         0.00000E+00
         0.00000E+00
         0.00000E+00
         0.00000E+00
         0.00000E+00
         0.00000E+00
         0.00000E+00
         0.00000E+00
         0.00000E+00
         0.00000E+00
         0.00000E+00
         0.00000E+00
         0.00000E+00
         0.00000E+00
         0.00000E+00
         0.00000E+00
         0.00000E+00
         0.00000E+00
         0.00000E+00
         0.00000E+00
         0.00000E+00
         0.00000E+00
         0.00000E+00
         0.00000E+00
         0.00000E+00
         0.00000E+00
         0.00000E+00
         0.00000E+00
         0.00000E+00
         0.00000E+00
         0.00000E+00
         0.00000E+00
         0.00000E+00
         0.00000E+00
         0.00000E+00
         0.00000E+00
         0.00000E+00
         0.00000E+00
         0.00000E+00
         0.00000E+00
         0.00000E+00
         0.00000E+00
         0.00000E+00
         0.00000E+00
         0.00000E+00
         0.00000E+00
         0.00000E+00
         0.00000E+00
         0.00000E+00
         0.00000E+00
         0.00000E+00
         0.00000E+00
         0.00000E+00
         0.00000E+00
         0.00000E+00
         0.00000E+00
         0.00000E+00
         0.00000E+00
         0.00000E+00
         0.00000E+00
         0.00000E+00
         0.00000E+00
         0.00000E+00
         0.00000E+00
         0.00000E+00
         0.00000E+00
         0.00000E+00
         0.00000E+00
         0.00000E+00
         0.00000E+00
         0.00000E+00
         0.00000E+00
         0.00000E+00
         0.00000E+00
         0.00000E+00
         0.00000E+00
         0.00000E+00
         0.00000E+00
         0.00000E+00
         0.00000E+00
         0.00000E+00
         0.00000E+00
         0.00000E+00
         0.00000E+00
         0.00000E+00
         0.00000E+00
         0.00000E+00
         0.00000E+00
         0.00000E+00
         0.00000E+00
         0.00000E+00
         0.00000E+00
         0.00000E+00
         0.00000E+00
         0.00000E+00
         0.00000E+00
         0.00000E+00
         0.00000E+00
         0.00000E+00
         0.00000E+00
         0.00000E+00
         0.00000E+00
         0.00000E+00
         0.00000E+00
         0.00000E+00
         0.00000E+00
         0.00000E+00
         0.00000E+00
         0.00000E+00
         0.00000E+00
         0.00000E+00
         0.00000E+00
         0.00000E+00
         0.00000E+00
         0.00000E+00
         0.00000E+00
         0.00000E+00
         0.00000E+00
         0.00000E+00
         0.00000E+00
         0.00000E+00
         0.00000E+00
         0.00000E+00
         0.00000E+00
         0.00000E+00
         0.00000E+00
         0.00000E+00
         0.00000E+00
         0.00000E+00
         0.00000E+00
         0.00000E+00
         0.00000E+00
         0.00000E+00
         0.00000E+00
         0.00000E+00
         0.00000E+00
         0.00000E+00
         0.00000E+00
         0.00000E+00
         0.00000E+00
         0.00000E+00
         0.00000E+00
         0.00000E+00
         0.00000E+00
         0.00000E+00
         0.00000E+00
         0.00000E+00
         0.00000E+00
         0.00000E+00
         0.00000E+00
         0.00000E+00
         0.00000E+00
         0.00000E+00
         0.00000E+00
         0.00000E+00
         0.00000E+00
         0.00000E+00
         0.00000E+00
         0.00000E+00
         0.00000E+00
         0.00000E+00
         0.00000E+00
         0.00000E+00
         0.00000E+00
         0.00000E+00
         0.00000E+00
         0.00000E+00
         0.00000E+00
         0.00000E+00
         0.00000E+00
         0.00000E+00
         0.00000E+00
         0.00000E+00
         0.00000E+00
         0.00000E+00
         0.00000E+00
         0.00000E+00
         0.00000E+00
         0.00000E+00
         0.00000E+00
         0.00000E+00
         0.00000E+00
         0.00000E+00
         0.00000E+00
         0.00000E+00
         0.00000E+00
         0.00000E+00
         0.00000E+00
         0.00000E+00
         0.00000E+00
         0.00000E+00
         0.00000E+00
         0.00000E+00
         0.00000E+00
         0.00000E+00
         0.00000E+00
         0.00000E+00
         0.00000E+00
         0.00000E+00
         0.00000E+00
         0.00000E+00
         0.00000E+00
         0.00000E+00
         0.00000E+00
         0.00000E+00
         0.00000E+00
         0.00000E+00
         0.00000E+00
         0.00000E+00
         0.00000E+00
         0.00000E+00
         0.00000E+00
         0.00000E+00
         0.00000E+00
         0.00000E+00
         0.00000E+00
         0.00000E+00
         0.00000E+00
         0.00000E+00
         0.00000E+00
         0.00000E+00
         0.00000E+00
         0.00000E+00
         0.00000E+00
         0.00000E+00
         0.00000E+00
         0.00000E+00
         0.00000E+00
         0.00000E+00
         0.00000E+00
         0.00000E+00
         0.00000E+00
         0.00000E+00
         0.00000E+00
         0.00000E+00
         0.00000E+00
         0.00000E+00
         0.00000E+00
         0.00000E+00
         0.00000E+00
         0.00000E+00
         0.00000E+00
         0.00000E+00
         0.00000E+00
         0.00000E+00
         0.00000E+00
         0.00000E+00
         0.00000E+00
         0.00000E+00
         0.00000E+00
         0.00000E+00
         0.00000E+00
         0.00000E+00
         0.00000E+00
         0.00000E+00
         0.00000E+00
         0.00000E+00
         0.00000E+00
         0.00000E+00
  
SCALARS               pre_disp_force_y  double 1
LOOKUP_TABLE default
         0.00000E+00
         0.00000E+00
         0.00000E+00
         0.00000E+00
         0.00000E+00
         0.00000E+00
         0.00000E+00
         0.00000E+00
         0.00000E+00
         0.00000E+00
         0.00000E+00
         0.00000E+00
         0.00000E+00
         0.00000E+00
         0.00000E+00
         0.00000E+00
         0.00000E+00
         0.00000E+00
         0.00000E+00
         0.00000E+00
         0.00000E+00
         0.00000E+00
         0.00000E+00
         0.00000E+00
         0.00000E+00
         0.00000E+00
         0.00000E+00
         0.00000E+00
         0.00000E+00
         0.00000E+00
         0.00000E+00
         0.00000E+00
         0.00000E+00
         0.00000E+00
         0.00000E+00
         0.00000E+00
         0.00000E+00
         0.00000E+00
         0.00000E+00
         0.00000E+00
         0.00000E+00
         0.00000E+00
         0.00000E+00
         0.00000E+00
         0.00000E+00
         0.00000E+00
         0.00000E+00
         0.00000E+00
         0.00000E+00
         0.00000E+00
         0.00000E+00
         0.00000E+00
         0.00000E+00
         0.00000E+00
         0.00000E+00
         0.00000E+00
         0.00000E+00
         0.00000E+00
         0.00000E+00
         0.00000E+00
         0.00000E+00
         0.00000E+00
         0.00000E+00
         0.00000E+00
         0.00000E+00
         0.00000E+00
         0.00000E+00
         0.00000E+00
         0.00000E+00
         0.00000E+00
         0.00000E+00
         0.00000E+00
         0.00000E+00
         0.00000E+00
         0.00000E+00
         0.00000E+00
         0.00000E+00
         0.00000E+00
         0.00000E+00
         0.00000E+00
         0.00000E+00
         0.00000E+00
         0.00000E+00
         0.00000E+00
         0.00000E+00
         0.00000E+00
         0.00000E+00
         0.00000E+00
         0.00000E+00
         0.00000E+00
         0.00000E+00
         0.00000E+00
         0.00000E+00
         0.00000E+00
         0.00000E+00
         0.00000E+00
         0.00000E+00
         0.00000E+00
         0.00000E+00
         0.00000E+00
         0.00000E+00
         0.00000E+00
         0.00000E+00
         0.00000E+00
         0.00000E+00
         0.00000E+00
         0.00000E+00
         0.00000E+00
         0.00000E+00
         0.00000E+00
         0.00000E+00
         0.00000E+00
         0.00000E+00
         0.00000E+00
         0.00000E+00
         0.00000E+00
         0.00000E+00
         0.00000E+00
         0.00000E+00
         0.00000E+00
         0.00000E+00
         0.00000E+00
         0.00000E+00
         0.00000E+00
         0.00000E+00
         0.00000E+00
         0.00000E+00
         0.00000E+00
         0.00000E+00
         0.00000E+00
         0.00000E+00
         0.00000E+00
         0.00000E+00
         0.00000E+00
         0.00000E+00
         0.00000E+00
         0.00000E+00
         0.00000E+00
         0.00000E+00
         0.00000E+00
         0.00000E+00
         0.00000E+00
         0.00000E+00
         0.00000E+00
         0.00000E+00
         0.00000E+00
         0.00000E+00
         0.00000E+00
         0.00000E+00
         0.00000E+00
         0.00000E+00
         0.00000E+00
         0.00000E+00
         0.00000E+00
         0.00000E+00
         0.00000E+00
         0.00000E+00
         0.00000E+00
         0.00000E+00
         0.00000E+00
         0.00000E+00
         0.00000E+00
         0.00000E+00
         0.00000E+00
         0.00000E+00
         0.00000E+00
         0.00000E+00
         0.00000E+00
         0.00000E+00
         0.00000E+00
         0.00000E+00
         0.00000E+00
         0.00000E+00
         0.00000E+00
         0.00000E+00
         0.00000E+00
         0.00000E+00
         0.00000E+00
         0.00000E+00
         0.00000E+00
         0.00000E+00
         0.00000E+00
         0.00000E+00
         0.00000E+00
         0.00000E+00
         0.00000E+00
         0.00000E+00
         0.00000E+00
         0.00000E+00
         0.00000E+00
         0.00000E+00
         0.00000E+00
         0.00000E+00
         0.00000E+00
         0.00000E+00
         0.00000E+00
         0.00000E+00
         0.00000E+00
         0.00000E+00
         0.00000E+00
         0.00000E+00
         0.00000E+00
         0.00000E+00
         0.00000E+00
         0.00000E+00
         0.00000E+00
         0.00000E+00
         0.00000E+00
         0.00000E+00
         0.00000E+00
         0.00000E+00
         0.00000E+00
         0.00000E+00
         0.00000E+00
         0.00000E+00
         0.00000E+00
         0.00000E+00
         0.00000E+00
         0.00000E+00
         0.00000E+00
         0.00000E+00
         0.00000E+00
         0.00000E+00
         0.00000E+00
         0.00000E+00
         0.00000E+00
         0.00000E+00
         0.00000E+00
         0.00000E+00
         0.00000E+00
         0.00000E+00
         0.00000E+00
         0.00000E+00
         0.00000E+00
         0.00000E+00
         0.00000E+00
         0.00000E+00
         0.00000E+00
         0.00000E+00
         0.00000E+00
         0.00000E+00
         0.00000E+00
         0.00000E+00
         0.00000E+00
         0.00000E+00
         0.00000E+00
         0.00000E+00
         0.00000E+00
         0.00000E+00
         0.00000E+00
         0.00000E+00
         0.00000E+00
         0.00000E+00
         0.00000E+00
         0.00000E+00
         0.00000E+00
         0.00000E+00
         0.00000E+00
         0.00000E+00
         0.00000E+00
         0.00000E+00
         0.00000E+00
         0.00000E+00
         0.00000E+00
         0.00000E+00
         0.00000E+00
         0.00000E+00
         0.00000E+00
         0.00000E+00
         0.00000E+00
         0.00000E+00
         0.00000E+00
         0.00000E+00
         0.00000E+00
         0.00000E+00
         0.00000E+00
         0.00000E+00
         0.00000E+00
         0.00000E+00
         0.00000E+00
         0.00000E+00
         0.00000E+00
         0.00000E+00
         0.00000E+00
         0.00000E+00
         0.00000E+00
         0.00000E+00
         0.00000E+00
         0.00000E+00
         0.00000E+00
         0.00000E+00
         0.00000E+00
         0.00000E+00
         0.00000E+00
         0.00000E+00
         0.00000E+00
         0.00000E+00
         0.00000E+00
         0.00000E+00
         0.00000E+00
         0.00000E+00
         0.00000E+00
         0.00000E+00
         0.00000E+00
         0.00000E+00
         0.00000E+00
         0.00000E+00
         0.00000E+00
         0.00000E+00
         0.00000E+00
         0.00000E+00
         0.00000E+00
         0.00000E+00
         0.00000E+00
         0.00000E+00
         0.00000E+00
         0.00000E+00
         0.00000E+00
         0.00000E+00
         0.00000E+00
         0.00000E+00
         0.00000E+00
         0.00000E+00
         0.00000E+00
         0.00000E+00
         0.00000E+00
         0.00000E+00
         0.00000E+00
         0.00000E+00
         0.00000E+00
         0.00000E+00
         0.00000E+00
         0.00000E+00
         0.00000E+00
         0.00000E+00
         0.00000E+00
         0.00000E+00
         0.00000E+00
         0.00000E+00
         0.00000E+00
         0.00000E+00
         0.00000E+00
         0.00000E+00
         0.00000E+00
         0.00000E+00
         0.00000E+00
         0.00000E+00
         0.00000E+00
         0.00000E+00
         0.00000E+00
         0.00000E+00
         0.00000E+00
         0.00000E+00
         0.00000E+00
         0.00000E+00
         0.00000E+00
         0.00000E+00
         0.00000E+00
         0.00000E+00
         0.00000E+00
         0.00000E+00
         0.00000E+00
         0.00000E+00
         0.00000E+00
         0.00000E+00
         0.00000E+00
         0.00000E+00
         0.00000E+00
         0.00000E+00
         0.00000E+00
         0.00000E+00
         0.00000E+00
         0.00000E+00
         0.00000E+00
         0.00000E+00
         0.00000E+00
         0.00000E+00
         0.00000E+00
         0.00000E+00
         0.00000E+00
         0.00000E+00
         0.00000E+00
         0.00000E+00
         0.00000E+00
         0.00000E+00
         0.00000E+00
         0.00000E+00
         0.00000E+00
         0.00000E+00
         0.00000E+00
         0.00000E+00
         0.00000E+00
         0.00000E+00
         0.00000E+00
         0.00000E+00
         0.00000E+00
         0.00000E+00
         0.00000E+00
         0.00000E+00
         0.00000E+00
         0.00000E+00
         0.00000E+00
         0.00000E+00
         0.00000E+00
         0.00000E+00
         0.00000E+00
         0.00000E+00
         0.00000E+00
         0.00000E+00
         0.00000E+00
         0.00000E+00
         0.00000E+00
         0.00000E+00
         0.00000E+00
         0.00000E+00
         0.00000E+00
         0.00000E+00
         0.00000E+00
         0.00000E+00
         0.00000E+00
         0.00000E+00
         0.00000E+00
         0.00000E+00
         0.00000E+00
         0.00000E+00
         0.00000E+00
         0.00000E+00
         0.00000E+00
         0.00000E+00
         0.00000E+00
         0.00000E+00
         0.00000E+00
         0.00000E+00
         0.00000E+00
         0.00000E+00
         0.00000E+00
         0.00000E+00
         0.00000E+00
         0.00000E+00
         0.00000E+00
         0.00000E+00
         0.00000E+00
         0.00000E+00
         0.00000E+00
         0.00000E+00
         0.00000E+00
         0.00000E+00
         0.00000E+00
         0.00000E+00
         0.00000E+00
         0.00000E+00
         0.00000E+00
         0.00000E+00
         0.00000E+00
         0.00000E+00
         0.00000E+00
         0.00000E+00
         0.00000E+00
         0.00000E+00
         0.00000E+00
         0.00000E+00
         0.00000E+00
         0.00000E+00
         0.00000E+00
         0.00000E+00
         0.00000E+00
         0.00000E+00
         0.00000E+00
         0.00000E+00
         0.00000E+00
         0.00000E+00
         0.00000E+00
         0.00000E+00
         0.00000E+00
         0.00000E+00
         0.00000E+00
         0.00000E+00
         0.00000E+00
         0.00000E+00
         0.00000E+00
         0.00000E+00
         0.00000E+00
         0.00000E+00
         0.00000E+00
         0.00000E+00
         0.00000E+00
         0.00000E+00
         0.00000E+00
         0.00000E+00
         0.00000E+00
         0.00000E+00
         0.00000E+00
         0.00000E+00
         0.00000E+00
         0.00000E+00
         0.00000E+00
         0.00000E+00
         0.00000E+00
         0.00000E+00
         0.00000E+00
         0.00000E+00
         0.00000E+00
         0.00000E+00
         0.00000E+00
         0.00000E+00
         0.00000E+00
         0.00000E+00
         0.00000E+00
         0.00000E+00
         0.00000E+00
         0.00000E+00
         0.00000E+00
         0.00000E+00
         0.00000E+00
         0.00000E+00
         0.00000E+00
         0.00000E+00
         0.00000E+00
         0.00000E+00
         0.00000E+00
         0.00000E+00
         0.00000E+00
         0.00000E+00
         0.00000E+00
         0.00000E+00
         0.00000E+00
         0.00000E+00
         0.00000E+00
         0.00000E+00
         0.00000E+00
         0.00000E+00
         0.00000E+00
         0.00000E+00
         0.00000E+00
         0.00000E+00
         0.00000E+00
         0.00000E+00
         0.00000E+00
         0.00000E+00
         0.00000E+00
         0.00000E+00
         0.00000E+00
         0.00000E+00
         0.00000E+00
         0.00000E+00
         0.00000E+00
         0.00000E+00
         0.00000E+00
         0.00000E+00
         0.00000E+00
         0.00000E+00
         0.00000E+00
         0.00000E+00
         0.00000E+00
         0.00000E+00
         0.00000E+00
         0.00000E+00
         0.00000E+00
         0.00000E+00
         0.00000E+00
         0.00000E+00
         0.00000E+00
         0.00000E+00
         0.00000E+00
         0.00000E+00
         0.00000E+00
         0.00000E+00
         0.00000E+00
         0.00000E+00
         0.00000E+00
         0.00000E+00
         0.00000E+00
         0.00000E+00
         0.00000E+00
         0.00000E+00
         0.00000E+00
         0.00000E+00
         0.00000E+00
         0.00000E+00
         0.00000E+00
         0.00000E+00
         0.00000E+00
         0.00000E+00
         0.00000E+00
         0.00000E+00
         0.00000E+00
         0.00000E+00
         0.00000E+00
         0.00000E+00
         0.00000E+00
         0.00000E+00
         0.00000E+00
         0.00000E+00
         0.00000E+00
         0.00000E+00
         0.00000E+00
         0.00000E+00
         0.00000E+00
         0.00000E+00
         0.00000E+00
         0.00000E+00
         0.00000E+00
         0.00000E+00
         0.00000E+00
         0.00000E+00
         0.00000E+00
         0.00000E+00
         0.00000E+00
         0.00000E+00
         0.00000E+00
         0.00000E+00
         0.00000E+00
         0.00000E+00
         0.00000E+00
         0.00000E+00
         0.00000E+00
         0.00000E+00
         0.00000E+00
         0.00000E+00
         0.00000E+00
         0.00000E+00
         0.00000E+00
         0.00000E+00
         0.00000E+00
         0.00000E+00
         0.00000E+00
         0.00000E+00
         0.00000E+00
         0.00000E+00
         0.00000E+00
         0.00000E+00
         0.00000E+00
         0.00000E+00
         0.00000E+00
         0.00000E+00
         0.00000E+00
         0.00000E+00
         0.00000E+00
         0.00000E+00
         0.00000E+00
         0.00000E+00
         0.00000E+00
         0.00000E+00
         0.00000E+00
         0.00000E+00
         0.00000E+00
         0.00000E+00
         0.00000E+00
         0.00000E+00
         0.00000E+00
         0.00000E+00
         0.00000E+00
         0.00000E+00
         0.00000E+00
         0.00000E+00
         0.00000E+00
         0.00000E+00
         0.00000E+00
         0.00000E+00
         0.00000E+00
         0.00000E+00
         0.00000E+00
         0.00000E+00
         0.00000E+00
         0.00000E+00
         0.00000E+00
         0.00000E+00
         0.00000E+00
         0.00000E+00
         0.00000E+00
         0.00000E+00
         0.00000E+00
         0.00000E+00
         0.00000E+00
         0.00000E+00
         0.00000E+00
         0.00000E+00
         0.00000E+00
         0.00000E+00
         0.00000E+00
         0.00000E+00
         0.00000E+00
         0.00000E+00
         0.00000E+00
         0.00000E+00
         0.00000E+00
         0.00000E+00
         0.00000E+00
         0.00000E+00
         0.00000E+00
         0.00000E+00
         0.00000E+00
         0.00000E+00
         0.00000E+00
         0.00000E+00
         0.00000E+00
         0.00000E+00
         0.00000E+00
         0.00000E+00
         0.00000E+00
         0.00000E+00
         0.00000E+00
         0.00000E+00
         0.00000E+00
         0.00000E+00
         0.00000E+00
         0.00000E+00
         0.00000E+00
         0.00000E+00
         0.00000E+00
         0.00000E+00
         0.00000E+00
         0.00000E+00
         0.00000E+00
         0.00000E+00
         0.00000E+00
         0.00000E+00
         0.00000E+00
         0.00000E+00
         0.00000E+00
         0.00000E+00
         0.00000E+00
         0.00000E+00
         0.00000E+00
         0.00000E+00
         0.00000E+00
         0.00000E+00
         0.00000E+00
         0.00000E+00
         0.00000E+00
         0.00000E+00
         0.00000E+00
         0.00000E+00
         0.00000E+00
         0.00000E+00
         0.00000E+00
         0.00000E+00
         0.00000E+00
         0.00000E+00
         0.00000E+00
         0.00000E+00
         0.00000E+00
         0.00000E+00
         0.00000E+00
         0.00000E+00
         0.00000E+00
         0.00000E+00
         0.00000E+00
         0.00000E+00
         0.00000E+00
         0.00000E+00
         0.00000E+00
         0.00000E+00
         0.00000E+00
         0.00000E+00
         0.00000E+00
         0.00000E+00
         0.00000E+00
         0.00000E+00
         0.00000E+00
         0.00000E+00
         0.00000E+00
         0.00000E+00
         0.00000E+00
         0.00000E+00
         0.00000E+00
         0.00000E+00
         0.00000E+00
         0.00000E+00
         0.00000E+00
         0.00000E+00
         0.00000E+00
         0.00000E+00
         0.00000E+00
         0.00000E+00
         0.00000E+00
         0.00000E+00
         0.00000E+00
         0.00000E+00
         0.00000E+00
         0.00000E+00
         0.00000E+00
         0.00000E+00
         0.00000E+00
         0.00000E+00
         0.00000E+00
         0.00000E+00
         0.00000E+00
         0.00000E+00
         0.00000E+00
         0.00000E+00
         0.00000E+00
         0.00000E+00
         0.00000E+00
         0.00000E+00
         0.00000E+00
         0.00000E+00
         0.00000E+00
         0.00000E+00
         0.00000E+00
         0.00000E+00
         0.00000E+00
         0.00000E+00
         0.00000E+00
         0.00000E+00
         0.00000E+00
         0.00000E+00
         0.00000E+00
         0.00000E+00
         0.00000E+00
         0.00000E+00
         0.00000E+00
         0.00000E+00
         0.00000E+00
         0.00000E+00
         0.00000E+00
         0.00000E+00
         0.00000E+00
         0.00000E+00
         0.00000E+00
         0.00000E+00
         0.00000E+00
         0.00000E+00
         0.00000E+00
         0.00000E+00
         0.00000E+00
         0.00000E+00
         0.00000E+00
         0.00000E+00
         0.00000E+00
         0.00000E+00
         0.00000E+00
         0.00000E+00
         0.00000E+00
         0.00000E+00
         0.00000E+00
         0.00000E+00
         0.00000E+00
         0.00000E+00
         0.00000E+00
         0.00000E+00
         0.00000E+00
         0.00000E+00
         0.00000E+00
         0.00000E+00
         0.00000E+00
         0.00000E+00
         0.00000E+00
         0.00000E+00
         0.00000E+00
         0.00000E+00
         0.00000E+00
         0.00000E+00
         0.00000E+00
         0.00000E+00
         0.00000E+00
         0.00000E+00
         0.00000E+00
         0.00000E+00
         0.00000E+00
         0.00000E+00
         0.00000E+00
         0.00000E+00
         0.00000E+00
         0.00000E+00
         0.00000E+00
         0.00000E+00
         0.00000E+00
         0.00000E+00
         0.00000E+00
         0.00000E+00
         0.00000E+00
         0.00000E+00
         0.00000E+00
         0.00000E+00
         0.00000E+00
         0.00000E+00
         0.00000E+00
         0.00000E+00
         0.00000E+00
         0.00000E+00
         0.00000E+00
         0.00000E+00
         0.00000E+00
         0.00000E+00
         0.00000E+00
         0.00000E+00
         0.00000E+00
         0.00000E+00
         0.00000E+00
         0.00000E+00
         0.00000E+00
         0.00000E+00
         0.00000E+00
         0.00000E+00
         0.00000E+00
         0.00000E+00
         0.00000E+00
         0.00000E+00
         0.00000E+00
         0.00000E+00
         0.00000E+00
         0.00000E+00
         0.00000E+00
         0.00000E+00
         0.00000E+00
         0.00000E+00
         0.00000E+00
         0.00000E+00
         0.00000E+00
         0.00000E+00
         0.00000E+00
         0.00000E+00
         0.00000E+00
         0.00000E+00
         0.00000E+00
         0.00000E+00
         0.00000E+00
         0.00000E+00
         0.00000E+00
         0.00000E+00
         0.00000E+00
         0.00000E+00
         0.00000E+00
         0.00000E+00
         0.00000E+00
         0.00000E+00
         0.00000E+00
         0.00000E+00
         0.00000E+00
         0.00000E+00
         0.00000E+00
         0.00000E+00
         0.00000E+00
         0.00000E+00
         0.00000E+00
         0.00000E+00
         0.00000E+00
         0.00000E+00
         0.00000E+00
         0.00000E+00
         0.00000E+00
         0.00000E+00
         0.00000E+00
         0.00000E+00
         0.00000E+00
         0.00000E+00
         0.00000E+00
         0.00000E+00
         0.00000E+00
         0.00000E+00
         0.00000E+00
         0.00000E+00
         0.00000E+00
         0.00000E+00
         0.00000E+00
         0.00000E+00
         0.00000E+00
         0.00000E+00
         0.00000E+00
         0.00000E+00
         0.00000E+00
         0.00000E+00
         0.00000E+00
         0.00000E+00
         0.00000E+00
         0.00000E+00
         0.00000E+00
         0.00000E+00
         0.00000E+00
         0.00000E+00
         0.00000E+00
         0.00000E+00
         0.00000E+00
         0.00000E+00
         0.00000E+00
         0.00000E+00
         0.00000E+00
         0.00000E+00
         0.00000E+00
         0.00000E+00
         0.00000E+00
         0.00000E+00
         0.00000E+00
         0.00000E+00
         0.00000E+00
         0.00000E+00
         0.00000E+00
         0.00000E+00
         0.00000E+00
         0.00000E+00
         0.00000E+00
         0.00000E+00
         0.00000E+00
         0.00000E+00
         0.00000E+00
         0.00000E+00
         0.00000E+00
         0.00000E+00
         0.00000E+00
         0.00000E+00
         0.00000E+00
         0.00000E+00
         0.00000E+00
         0.00000E+00
         0.00000E+00
         0.00000E+00
         0.00000E+00
         0.00000E+00
         0.00000E+00
         0.00000E+00
         0.00000E+00
         0.00000E+00
         0.00000E+00
         0.00000E+00
         0.00000E+00
         0.00000E+00
         0.00000E+00
         0.00000E+00
         0.00000E+00
         0.00000E+00
         0.00000E+00
         0.00000E+00
         0.00000E+00
         0.00000E+00
         0.00000E+00
         0.00000E+00
         0.00000E+00
         0.00000E+00
         0.00000E+00
         0.00000E+00
         0.00000E+00
         0.00000E+00
         0.00000E+00
         0.00000E+00
         0.00000E+00
         0.00000E+00
         0.00000E+00
         0.00000E+00
         0.00000E+00
         0.00000E+00
         0.00000E+00
         0.00000E+00
         0.00000E+00
         0.00000E+00
         0.00000E+00
         0.00000E+00
         0.00000E+00
         0.00000E+00
         0.00000E+00
         0.00000E+00
         0.00000E+00
         0.00000E+00
         0.00000E+00
         0.00000E+00
         0.00000E+00
         0.00000E+00
         0.00000E+00
         0.00000E+00
         0.00000E+00
         0.00000E+00
         0.00000E+00
         0.00000E+00
         0.00000E+00
         0.00000E+00
         0.00000E+00
         0.00000E+00
         0.00000E+00
         0.00000E+00
         0.00000E+00
         0.00000E+00
         0.00000E+00
         0.00000E+00
         0.00000E+00
         0.00000E+00
         0.00000E+00
         0.00000E+00
         0.00000E+00
         0.00000E+00
         0.00000E+00
         0.00000E+00
         0.00000E+00
         0.00000E+00
         0.00000E+00
         0.00000E+00
         0.00000E+00
         0.00000E+00
         0.00000E+00
         0.00000E+00
         0.00000E+00
         0.00000E+00
         0.00000E+00
         0.00000E+00
         0.00000E+00
         0.00000E+00
         0.00000E+00
         0.00000E+00
         0.00000E+00
         0.00000E+00
         0.00000E+00
         0.00000E+00
         0.00000E+00
         0.00000E+00
         0.00000E+00
         0.00000E+00
         0.00000E+00
         0.00000E+00
         0.00000E+00
         0.00000E+00
         0.00000E+00
         0.00000E+00
         0.00000E+00
         0.00000E+00
         0.00000E+00
         0.00000E+00
         0.00000E+00
         0.00000E+00
         0.00000E+00
         0.00000E+00
         0.00000E+00
         0.00000E+00
         0.00000E+00
         0.00000E+00
         0.00000E+00
         0.00000E+00
         0.00000E+00
         0.00000E+00
         0.00000E+00
         0.00000E+00
         0.00000E+00
         0.00000E+00
         0.00000E+00
         0.00000E+00
         0.00000E+00
         0.00000E+00
         0.00000E+00
         0.00000E+00
         0.00000E+00
         0.00000E+00
         0.00000E+00
         0.00000E+00
         0.00000E+00
         0.00000E+00
         0.00000E+00
         0.00000E+00
         0.00000E+00
         0.00000E+00
         0.00000E+00
         0.00000E+00
         0.00000E+00
         0.00000E+00
         0.00000E+00
         0.00000E+00
         0.00000E+00
         0.00000E+00
         0.00000E+00
         0.00000E+00
         0.00000E+00
         0.00000E+00
         0.00000E+00
         0.00000E+00
         0.00000E+00
         0.00000E+00
         0.00000E+00
         0.00000E+00
         0.00000E+00
         0.00000E+00
         0.00000E+00
         0.00000E+00
         0.00000E+00
         0.00000E+00
         0.00000E+00
         0.00000E+00
         0.00000E+00
         0.00000E+00
         0.00000E+00
         0.00000E+00
         0.00000E+00
         0.00000E+00
         0.00000E+00
         0.00000E+00
         0.00000E+00
         0.00000E+00
         0.00000E+00
         0.00000E+00
         0.00000E+00
         0.00000E+00
         0.00000E+00
         0.00000E+00
         0.00000E+00
         0.00000E+00
         0.00000E+00
         0.00000E+00
         0.00000E+00
         0.00000E+00
         0.00000E+00
         0.00000E+00
         0.00000E+00
         0.00000E+00
         0.00000E+00
         0.00000E+00
         0.00000E+00
         0.00000E+00
         0.00000E+00
         0.00000E+00
         0.00000E+00
         0.00000E+00
         0.00000E+00
         0.00000E+00
         0.00000E+00
         0.00000E+00
         0.00000E+00
         0.00000E+00
         0.00000E+00
         0.00000E+00
         0.00000E+00
         0.00000E+00
         0.00000E+00
         0.00000E+00
         0.00000E+00
         0.00000E+00
         0.00000E+00
         0.00000E+00
         0.00000E+00
         0.00000E+00
         0.00000E+00
         0.00000E+00
         0.00000E+00
         0.00000E+00
         0.00000E+00
         0.00000E+00
         0.00000E+00
         0.00000E+00
         0.00000E+00
         0.00000E+00
         0.00000E+00
         0.00000E+00
         0.00000E+00
         0.00000E+00
         0.00000E+00
         0.00000E+00
         0.00000E+00
         0.00000E+00
         0.00000E+00
         0.00000E+00
         0.00000E+00
         0.00000E+00
         0.00000E+00
         0.00000E+00
         0.00000E+00
         0.00000E+00
         0.00000E+00
         0.00000E+00
         0.00000E+00
         0.00000E+00
         0.00000E+00
         0.00000E+00
         0.00000E+00
         0.00000E+00
         0.00000E+00
         0.00000E+00
         0.00000E+00
         0.00000E+00
         0.00000E+00
         0.00000E+00
         0.00000E+00
         0.00000E+00
         0.00000E+00
         0.00000E+00
         0.00000E+00
         0.00000E+00
         0.00000E+00
         0.00000E+00
         0.00000E+00
         0.00000E+00
         0.00000E+00
         0.00000E+00
         0.00000E+00
         0.00000E+00
         0.00000E+00
         0.00000E+00
         0.00000E+00
         0.00000E+00
         0.00000E+00
         0.00000E+00
         0.00000E+00
         0.00000E+00
         0.00000E+00
         0.00000E+00
         0.00000E+00
         0.00000E+00
         0.00000E+00
         0.00000E+00
         0.00000E+00
         0.00000E+00
         0.00000E+00
         0.00000E+00
         0.00000E+00
         0.00000E+00
         0.00000E+00
         0.00000E+00
         0.00000E+00
         0.00000E+00
         0.00000E+00
         0.00000E+00
         0.00000E+00
         0.00000E+00
         0.00000E+00
         0.00000E+00
         0.00000E+00
         0.00000E+00
         0.00000E+00
         0.00000E+00
         0.00000E+00
         0.00000E+00
         0.00000E+00
         0.00000E+00
         0.00000E+00
         0.00000E+00
         0.00000E+00
         0.00000E+00
         0.00000E+00
         0.00000E+00
         0.00000E+00
         0.00000E+00
         0.00000E+00
         0.00000E+00
         0.00000E+00
         0.00000E+00
         0.00000E+00
         0.00000E+00
         0.00000E+00
         0.00000E+00
         0.00000E+00
         0.00000E+00
         0.00000E+00
         0.00000E+00
         0.00000E+00
         0.00000E+00
         0.00000E+00
         0.00000E+00
         0.00000E+00
         0.00000E+00
         0.00000E+00
         0.00000E+00
         0.00000E+00
         0.00000E+00
         0.00000E+00
         0.00000E+00
         0.00000E+00
         0.00000E+00
         0.00000E+00
         0.00000E+00
         0.00000E+00
         0.00000E+00
         0.00000E+00
         0.00000E+00
         0.00000E+00
         0.00000E+00
         0.00000E+00
         0.00000E+00
         0.00000E+00
         0.00000E+00
         0.00000E+00
         0.00000E+00
         0.00000E+00
         0.00000E+00
         0.00000E+00
         0.00000E+00
         0.00000E+00
         0.00000E+00
         0.00000E+00
         0.00000E+00
         0.00000E+00
         0.00000E+00
         0.00000E+00
         0.00000E+00
         0.00000E+00
         0.00000E+00
         0.00000E+00
         0.00000E+00
         0.00000E+00
         0.00000E+00
         0.00000E+00
         0.00000E+00
         0.00000E+00
         0.00000E+00
         0.00000E+00
         0.00000E+00
         0.00000E+00
         0.00000E+00
         0.00000E+00
         0.00000E+00
         0.00000E+00
         0.00000E+00
         0.00000E+00
         0.00000E+00
         0.00000E+00
         0.00000E+00
         0.00000E+00
         0.00000E+00
         0.00000E+00
         0.00000E+00
         0.00000E+00
         0.00000E+00
         0.00000E+00
         0.00000E+00
         0.00000E+00
         0.00000E+00
         0.00000E+00
         0.00000E+00
         0.00000E+00
         0.00000E+00
         0.00000E+00
         0.00000E+00
         0.00000E+00
         0.00000E+00
         0.00000E+00
         0.00000E+00
         0.00000E+00
         0.00000E+00
         0.00000E+00
         0.00000E+00
         0.00000E+00
         0.00000E+00
         0.00000E+00
         0.00000E+00
         0.00000E+00
         0.00000E+00
         0.00000E+00
         0.00000E+00
         0.00000E+00
         0.00000E+00
         0.00000E+00
         0.00000E+00
         0.00000E+00
         0.00000E+00
         0.00000E+00
         0.00000E+00
         0.00000E+00
         0.00000E+00
         0.00000E+00
         0.00000E+00
         0.00000E+00
         0.00000E+00
         0.00000E+00
         0.00000E+00
         0.00000E+00
         0.00000E+00
         0.00000E+00
         0.00000E+00
         0.00000E+00
         0.00000E+00
         0.00000E+00
         0.00000E+00
         0.00000E+00
         0.00000E+00
         0.00000E+00
         0.00000E+00
         0.00000E+00
         0.00000E+00
         0.00000E+00
         0.00000E+00
         0.00000E+00
         0.00000E+00
         0.00000E+00
         0.00000E+00
         0.00000E+00
         0.00000E+00
         0.00000E+00
         0.00000E+00
         0.00000E+00
         0.00000E+00
         0.00000E+00
         0.00000E+00
         0.00000E+00
         0.00000E+00
         0.00000E+00
         0.00000E+00
         0.00000E+00
         0.00000E+00
         0.00000E+00
         0.00000E+00
         0.00000E+00
         0.00000E+00
         0.00000E+00
         0.00000E+00
         0.00000E+00
         0.00000E+00
         0.00000E+00
         0.00000E+00
         0.00000E+00
         0.00000E+00
         0.00000E+00
         0.00000E+00
         0.00000E+00
         0.00000E+00
         0.00000E+00
         0.00000E+00
         0.00000E+00
         0.00000E+00
         0.00000E+00
         0.00000E+00
         0.00000E+00
         0.00000E+00
         0.00000E+00
         0.00000E+00
         0.00000E+00
         0.00000E+00
         0.00000E+00
         0.00000E+00
         0.00000E+00
         0.00000E+00
         0.00000E+00
         0.00000E+00
         0.00000E+00
         0.00000E+00
         0.00000E+00
         0.00000E+00
         0.00000E+00
         0.00000E+00
         0.00000E+00
         0.00000E+00
         0.00000E+00
         0.00000E+00
         0.00000E+00
         0.00000E+00
         0.00000E+00
         0.00000E+00
         0.00000E+00
         0.00000E+00
         0.00000E+00
         0.00000E+00
         0.00000E+00
         0.00000E+00
         0.00000E+00
         0.00000E+00
         0.00000E+00
         0.00000E+00
         0.00000E+00
         0.00000E+00
         0.00000E+00
         0.00000E+00
         0.00000E+00
         0.00000E+00
         0.00000E+00
         0.00000E+00
         0.00000E+00
         0.00000E+00
         0.00000E+00
         0.00000E+00
         0.00000E+00
         0.00000E+00
         0.00000E+00
         0.00000E+00
         0.00000E+00
         0.00000E+00
         0.00000E+00
         0.00000E+00
         0.00000E+00
         0.00000E+00
         0.00000E+00
         0.00000E+00
         0.00000E+00
         0.00000E+00
         0.00000E+00
         0.00000E+00
         0.00000E+00
         0.00000E+00
         0.00000E+00
         0.00000E+00
         0.00000E+00
         0.00000E+00
         0.00000E+00
         0.00000E+00
         0.00000E+00
         0.00000E+00
         0.00000E+00
         0.00000E+00
         0.00000E+00
         0.00000E+00
         0.00000E+00
         0.00000E+00
         0.00000E+00
         0.00000E+00
         0.00000E+00
         0.00000E+00
         0.00000E+00
         0.00000E+00
         0.00000E+00
         0.00000E+00
         0.00000E+00
         0.00000E+00
         0.00000E+00
         0.00000E+00
         0.00000E+00
         0.00000E+00
         0.00000E+00
         0.00000E+00
         0.00000E+00
         0.00000E+00
         0.00000E+00
         0.00000E+00
         0.00000E+00
         0.00000E+00
         0.00000E+00
         0.00000E+00
         0.00000E+00
         0.00000E+00
         0.00000E+00
         0.00000E+00
         0.00000E+00
         0.00000E+00
         0.00000E+00
         0.00000E+00
         0.00000E+00
         0.00000E+00
         0.00000E+00
         0.00000E+00
         0.00000E+00
         0.00000E+00
         0.00000E+00
         0.00000E+00
         0.00000E+00
         0.00000E+00
         0.00000E+00
         0.00000E+00
         0.00000E+00
         0.00000E+00
         0.00000E+00
         0.00000E+00
         0.00000E+00
         0.00000E+00
         0.00000E+00
         0.00000E+00
         0.00000E+00
         0.00000E+00
         0.00000E+00
         0.00000E+00
         0.00000E+00
         0.00000E+00
         0.00000E+00
         0.00000E+00
         0.00000E+00
         0.00000E+00
         0.00000E+00
         0.00000E+00
         0.00000E+00
         0.00000E+00
         0.00000E+00
         0.00000E+00
         0.00000E+00
         0.00000E+00
         0.00000E+00
         0.00000E+00
         0.00000E+00
         0.00000E+00
         0.00000E+00
         0.00000E+00
         0.00000E+00
         0.00000E+00
         0.00000E+00
         0.00000E+00
         0.00000E+00
         0.00000E+00
         0.00000E+00
         0.00000E+00
         0.00000E+00
         0.00000E+00
         0.00000E+00
         0.00000E+00
         0.00000E+00
         0.00000E+00
         0.00000E+00
         0.00000E+00
         0.00000E+00
         0.00000E+00
         0.00000E+00
         0.00000E+00
         0.00000E+00
         0.00000E+00
         0.00000E+00
         0.00000E+00
         0.00000E+00
         0.00000E+00
         0.00000E+00
         0.00000E+00
         0.00000E+00
         0.00000E+00
         0.00000E+00
         0.00000E+00
         0.00000E+00
         0.00000E+00
         0.00000E+00
         0.00000E+00
         0.00000E+00
         0.00000E+00
         0.00000E+00
         0.00000E+00
         0.00000E+00
         0.00000E+00
         0.00000E+00
         0.00000E+00
         0.00000E+00
         0.00000E+00
         0.00000E+00
         0.00000E+00
         0.00000E+00
         0.00000E+00
         0.00000E+00
         0.00000E+00
         0.00000E+00
         0.00000E+00
         0.00000E+00
         0.00000E+00
         0.00000E+00
         0.00000E+00
         0.00000E+00
         0.00000E+00
         0.00000E+00
         0.00000E+00
         0.00000E+00
         0.00000E+00
         0.00000E+00
         0.00000E+00
         0.00000E+00
         0.00000E+00
         0.00000E+00
         0.00000E+00
         0.00000E+00
         0.00000E+00
         0.00000E+00
         0.00000E+00
         0.00000E+00
         0.00000E+00
         0.00000E+00
         0.00000E+00
         0.00000E+00
         0.00000E+00
         0.00000E+00
         0.00000E+00
         0.00000E+00
         0.00000E+00
         0.00000E+00
         0.00000E+00
         0.00000E+00
         0.00000E+00
         0.00000E+00
         0.00000E+00
         0.00000E+00
         0.00000E+00
         0.00000E+00
         0.00000E+00
         0.00000E+00
         0.00000E+00
         0.00000E+00
         0.00000E+00
         0.00000E+00
         0.00000E+00
         0.00000E+00
         0.00000E+00
         0.00000E+00
         0.00000E+00
         0.00000E+00
         0.00000E+00
         0.00000E+00
         0.00000E+00
         0.00000E+00
         0.00000E+00
         0.00000E+00
         0.00000E+00
         0.00000E+00
         0.00000E+00
         0.00000E+00
         0.00000E+00
         0.00000E+00
         0.00000E+00
         0.00000E+00
         0.00000E+00
         0.00000E+00
         0.00000E+00
         0.00000E+00
         0.00000E+00
         0.00000E+00
         0.00000E+00
         0.00000E+00
         0.00000E+00
         0.00000E+00
         0.00000E+00
         0.00000E+00
         0.00000E+00
         0.00000E+00
         0.00000E+00
         0.00000E+00
         0.00000E+00
         0.00000E+00
         0.00000E+00
         0.00000E+00
         0.00000E+00
         0.00000E+00
         0.00000E+00
         0.00000E+00
         0.00000E+00
         0.00000E+00
         0.00000E+00
         0.00000E+00
         0.00000E+00
         0.00000E+00
         0.00000E+00
         0.00000E+00
         0.00000E+00
         0.00000E+00
         0.00000E+00
         0.00000E+00
         0.00000E+00
         0.00000E+00
         0.00000E+00
         0.00000E+00
         0.00000E+00
         0.00000E+00
         0.00000E+00
         0.00000E+00
         0.00000E+00
         0.00000E+00
         0.00000E+00
         0.00000E+00
         0.00000E+00
         0.00000E+00
         0.00000E+00
         0.00000E+00
         0.00000E+00
         0.00000E+00
         0.00000E+00
         0.00000E+00
         0.00000E+00
         0.00000E+00
         0.00000E+00
         0.00000E+00
         0.00000E+00
         0.00000E+00
         0.00000E+00
         0.00000E+00
         0.00000E+00
         0.00000E+00
         0.00000E+00
         0.00000E+00
         0.00000E+00
         0.00000E+00
         0.00000E+00
         0.00000E+00
         0.00000E+00
         0.00000E+00
         0.00000E+00
         0.00000E+00
         0.00000E+00
         0.00000E+00
         0.00000E+00
         0.00000E+00
         0.00000E+00
         0.00000E+00
         0.00000E+00
         0.00000E+00
         0.00000E+00
         0.00000E+00
         0.00000E+00
         0.00000E+00
         0.00000E+00
         0.00000E+00
         0.00000E+00
         0.00000E+00
         0.00000E+00
         0.00000E+00
         0.00000E+00
         0.00000E+00
         0.00000E+00
         0.00000E+00
         0.00000E+00
         0.00000E+00
         0.00000E+00
         0.00000E+00
         0.00000E+00
         0.00000E+00
         0.00000E+00
         0.00000E+00
         0.00000E+00
         0.00000E+00
         0.00000E+00
         0.00000E+00
         0.00000E+00
         0.00000E+00
         0.00000E+00
         0.00000E+00
         0.00000E+00
         0.00000E+00
         0.00000E+00
         0.00000E+00
         0.00000E+00
         0.00000E+00
         0.00000E+00
         0.00000E+00
         0.00000E+00
         0.00000E+00
         0.00000E+00
         0.00000E+00
         0.00000E+00
         0.00000E+00
         0.00000E+00
         0.00000E+00
         0.00000E+00
         0.00000E+00
         0.00000E+00
         0.00000E+00
         0.00000E+00
         0.00000E+00
         0.00000E+00
         0.00000E+00
         0.00000E+00
         0.00000E+00
         0.00000E+00
         0.00000E+00
         0.00000E+00
         0.00000E+00
         0.00000E+00
         0.00000E+00
         0.00000E+00
         0.00000E+00
         0.00000E+00
         0.00000E+00
         0.00000E+00
         0.00000E+00
         0.00000E+00
         0.00000E+00
         0.00000E+00
         0.00000E+00
         0.00000E+00
         0.00000E+00
         0.00000E+00
         0.00000E+00
         0.00000E+00
         0.00000E+00
         0.00000E+00
         0.00000E+00
         0.00000E+00
         0.00000E+00
         0.00000E+00
         0.00000E+00
         0.00000E+00
         0.00000E+00
         0.00000E+00
         0.00000E+00
  
SCALARS               pre_disp_force_z  double 1
LOOKUP_TABLE default
         0.00000E+00
         0.00000E+00
         0.00000E+00
         0.00000E+00
        -0.00000E+00
        -0.00000E+00
        -0.00000E+00
        -0.00000E+00
         0.00000E+00
         0.00000E+00
        -0.00000E+00
        -0.00000E+00
         0.00000E+00
         0.00000E+00
        -0.00000E+00
        -0.00000E+00
         0.00000E+00
         0.00000E+00
        -0.00000E+00
        -0.00000E+00
         0.00000E+00
         0.00000E+00
         0.00000E+00
        -0.00000E+00
        -0.00000E+00
        -0.00000E+00
         0.00000E+00
         0.00000E+00
        -0.00000E+00
        -0.00000E+00
         0.00000E+00
         0.00000E+00
         0.00000E+00
        -0.00000E+00
        -0.00000E+00
        -0.00000E+00
         0.00000E+00
         0.00000E+00
        -0.00000E+00
        -0.00000E+00
         0.00000E+00
         0.00000E+00
        -0.00000E+00
        -0.00000E+00
         0.00000E+00
         0.00000E+00
        -0.00000E+00
        -0.00000E+00
         0.00000E+00
        -0.00000E+00
         0.00000E+00
        -0.00000E+00
         0.00000E+00
        -0.00000E+00
         0.00000E+00
        -0.00000E+00
         0.00000E+00
         0.00000E+00
        -0.00000E+00
        -0.00000E+00
         0.00000E+00
         0.00000E+00
        -0.00000E+00
        -0.00000E+00
         0.00000E+00
        -0.00000E+00
         0.00000E+00
        -0.00000E+00
         0.00000E+00
         0.00000E+00
        -0.00000E+00
        -0.00000E+00
         0.00000E+00
        -0.00000E+00
         0.00000E+00
        -0.00000E+00
         0.00000E+00
        -0.00000E+00
         0.00000E+00
        -0.00000E+00
         0.00000E+00
         0.00000E+00
        -0.00000E+00
        -0.00000E+00
         0.00000E+00
        -0.00000E+00
         0.00000E+00
        -0.00000E+00
         0.00000E+00
        -0.00000E+00
         0.00000E+00
         0.00000E+00
        -0.00000E+00
        -0.00000E+00
         0.00000E+00
        -0.00000E+00
         0.00000E+00
        -0.00000E+00
         0.00000E+00
        -0.00000E+00
         0.00000E+00
         0.00000E+00
        -0.00000E+00
        -0.00000E+00
         0.00000E+00
         0.00000E+00
        -0.00000E+00
        -0.00000E+00
         0.00000E+00
        -0.00000E+00
         0.00000E+00
        -0.00000E+00
         0.00000E+00
        -0.00000E+00
         0.00000E+00
        -0.00000E+00
         0.00000E+00
        -0.00000E+00
         0.00000E+00
        -0.00000E+00
         0.00000E+00
        -0.00000E+00
         0.00000E+00
        -0.00000E+00
         0.00000E+00
        -0.00000E+00
         0.00000E+00
        -0.00000E+00
         0.00000E+00
        -0.00000E+00
         0.00000E+00
        -0.00000E+00
         0.00000E+00
        -0.00000E+00
         0.00000E+00
        -0.00000E+00
         0.00000E+00
        -0.00000E+00
         0.00000E+00
        -0.00000E+00
         0.00000E+00
        -0.00000E+00
         0.00000E+00
        -0.00000E+00
         0.00000E+00
        -0.00000E+00
         0.00000E+00
        -0.00000E+00
         0.00000E+00
        -0.00000E+00
         0.00000E+00
        -0.00000E+00
         0.00000E+00
        -0.00000E+00
         0.00000E+00
        -0.00000E+00
         0.00000E+00
         0.00000E+00
         0.00000E+00
         0.00000E+00
         0.00000E+00
         0.00000E+00
         0.00000E+00
         0.00000E+00
         0.00000E+00
         0.00000E+00
         0.00000E+00
         0.00000E+00
         0.00000E+00
         0.00000E+00
         0.00000E+00
         0.00000E+00
         0.00000E+00
         0.00000E+00
         0.00000E+00
         0.00000E+00
         0.00000E+00
         0.00000E+00
         0.00000E+00
         0.00000E+00
         0.00000E+00
         0.00000E+00
         0.00000E+00
         0.00000E+00
         0.00000E+00
         0.00000E+00
         0.00000E+00
         0.00000E+00
         0.00000E+00
         0.00000E+00
         0.00000E+00
         0.00000E+00
         0.00000E+00
         0.00000E+00
         0.00000E+00
         0.00000E+00
         0.00000E+00
         0.00000E+00
         0.00000E+00
         0.00000E+00
         0.00000E+00
         0.00000E+00
         0.00000E+00
         0.00000E+00
         0.00000E+00
         0.00000E+00
         0.00000E+00
         0.00000E+00
         0.00000E+00
         0.00000E+00
         0.00000E+00
         0.00000E+00
         0.00000E+00
         0.00000E+00
         0.00000E+00
         0.00000E+00
         0.00000E+00
         0.00000E+00
         0.00000E+00
         0.00000E+00
         0.00000E+00
         0.00000E+00
         0.00000E+00
         0.00000E+00
         0.00000E+00
         0.00000E+00
         0.00000E+00
         0.00000E+00
         0.00000E+00
         0.00000E+00
         0.00000E+00
         0.00000E+00
         0.00000E+00
         0.00000E+00
         0.00000E+00
         0.00000E+00
         0.00000E+00
         0.00000E+00
         0.00000E+00
         0.00000E+00
         0.00000E+00
         0.00000E+00
         0.00000E+00
         0.00000E+00
         0.00000E+00
         0.00000E+00
         0.00000E+00
         0.00000E+00
         0.00000E+00
         0.00000E+00
         0.00000E+00
         0.00000E+00
         0.00000E+00
         0.00000E+00
         0.00000E+00
         0.00000E+00
         0.00000E+00
         0.00000E+00
         0.00000E+00
         0.00000E+00
         0.00000E+00
         0.00000E+00
         0.00000E+00
         0.00000E+00
         0.00000E+00
         0.00000E+00
         0.00000E+00
         0.00000E+00
         0.00000E+00
         0.00000E+00
         0.00000E+00
         0.00000E+00
         0.00000E+00
         0.00000E+00
         0.00000E+00
         0.00000E+00
         0.00000E+00
         0.00000E+00
         0.00000E+00
         0.00000E+00
         0.00000E+00
         0.00000E+00
         0.00000E+00
         0.00000E+00
         0.00000E+00
         0.00000E+00
         0.00000E+00
         0.00000E+00
         0.00000E+00
         0.00000E+00
         0.00000E+00
         0.00000E+00
         0.00000E+00
         0.00000E+00
         0.00000E+00
         0.00000E+00
         0.00000E+00
         0.00000E+00
         0.00000E+00
         0.00000E+00
         0.00000E+00
         0.00000E+00
         0.00000E+00
         0.00000E+00
         0.00000E+00
         0.00000E+00
         0.00000E+00
         0.00000E+00
         0.00000E+00
         0.00000E+00
         0.00000E+00
         0.00000E+00
         0.00000E+00
         0.00000E+00
         0.00000E+00
         0.00000E+00
         0.00000E+00
         0.00000E+00
         0.00000E+00
         0.00000E+00
         0.00000E+00
         0.00000E+00
         0.00000E+00
         0.00000E+00
         0.00000E+00
         0.00000E+00
         0.00000E+00
         0.00000E+00
         0.00000E+00
         0.00000E+00
         0.00000E+00
         0.00000E+00
         0.00000E+00
         0.00000E+00
         0.00000E+00
         0.00000E+00
         0.00000E+00
         0.00000E+00
         0.00000E+00
         0.00000E+00
         0.00000E+00
         0.00000E+00
         0.00000E+00
         0.00000E+00
         0.00000E+00
         0.00000E+00
         0.00000E+00
         0.00000E+00
         0.00000E+00
         0.00000E+00
         0.00000E+00
         0.00000E+00
         0.00000E+00
         0.00000E+00
         0.00000E+00
         0.00000E+00
         0.00000E+00
         0.00000E+00
         0.00000E+00
         0.00000E+00
         0.00000E+00
         0.00000E+00
         0.00000E+00
         0.00000E+00
         0.00000E+00
         0.00000E+00
         0.00000E+00
         0.00000E+00
         0.00000E+00
         0.00000E+00
         0.00000E+00
         0.00000E+00
         0.00000E+00
         0.00000E+00
         0.00000E+00
         0.00000E+00
         0.00000E+00
         0.00000E+00
         0.00000E+00
         0.00000E+00
         0.00000E+00
         0.00000E+00
         0.00000E+00
         0.00000E+00
         0.00000E+00
         0.00000E+00
         0.00000E+00
         0.00000E+00
         0.00000E+00
         0.00000E+00
         0.00000E+00
         0.00000E+00
         0.00000E+00
         0.00000E+00
         0.00000E+00
         0.00000E+00
         0.00000E+00
         0.00000E+00
         0.00000E+00
         0.00000E+00
         0.00000E+00
         0.00000E+00
         0.00000E+00
         0.00000E+00
         0.00000E+00
         0.00000E+00
         0.00000E+00
         0.00000E+00
         0.00000E+00
         0.00000E+00
         0.00000E+00
         0.00000E+00
         0.00000E+00
         0.00000E+00
         0.00000E+00
         0.00000E+00
         0.00000E+00
         0.00000E+00
         0.00000E+00
         0.00000E+00
         0.00000E+00
         0.00000E+00
         0.00000E+00
         0.00000E+00
         0.00000E+00
         0.00000E+00
         0.00000E+00
         0.00000E+00
         0.00000E+00
         0.00000E+00
         0.00000E+00
         0.00000E+00
         0.00000E+00
         0.00000E+00
         0.00000E+00
         0.00000E+00
         0.00000E+00
         0.00000E+00
         0.00000E+00
         0.00000E+00
         0.00000E+00
         0.00000E+00
         0.00000E+00
         0.00000E+00
         0.00000E+00
         0.00000E+00
         0.00000E+00
         0.00000E+00
         0.00000E+00
         0.00000E+00
         0.00000E+00
         0.00000E+00
         0.00000E+00
         0.00000E+00
         0.00000E+00
         0.00000E+00
         0.00000E+00
         0.00000E+00
         0.00000E+00
         0.00000E+00
         0.00000E+00
         0.00000E+00
         0.00000E+00
         0.00000E+00
         0.00000E+00
         0.00000E+00
         0.00000E+00
         0.00000E+00
         0.00000E+00
         0.00000E+00
         0.00000E+00
         0.00000E+00
         0.00000E+00
         0.00000E+00
         0.00000E+00
         0.00000E+00
         0.00000E+00
         0.00000E+00
         0.00000E+00
         0.00000E+00
         0.00000E+00
         0.00000E+00
         0.00000E+00
         0.00000E+00
         0.00000E+00
         0.00000E+00
         0.00000E+00
         0.00000E+00
         0.00000E+00
         0.00000E+00
         0.00000E+00
         0.00000E+00
         0.00000E+00
         0.00000E+00
         0.00000E+00
         0.00000E+00
         0.00000E+00
         0.00000E+00
         0.00000E+00
         0.00000E+00
         0.00000E+00
         0.00000E+00
         0.00000E+00
         0.00000E+00
         0.00000E+00
         0.00000E+00
         0.00000E+00
         0.00000E+00
         0.00000E+00
         0.00000E+00
         0.00000E+00
         0.00000E+00
         0.00000E+00
         0.00000E+00
         0.00000E+00
         0.00000E+00
         0.00000E+00
         0.00000E+00
         0.00000E+00
         0.00000E+00
         0.00000E+00
         0.00000E+00
         0.00000E+00
         0.00000E+00
         0.00000E+00
         0.00000E+00
         0.00000E+00
         0.00000E+00
         0.00000E+00
         0.00000E+00
         0.00000E+00
         0.00000E+00
         0.00000E+00
         0.00000E+00
         0.00000E+00
         0.00000E+00
         0.00000E+00
         0.00000E+00
         0.00000E+00
         0.00000E+00
         0.00000E+00
         0.00000E+00
         0.00000E+00
         0.00000E+00
         0.00000E+00
         0.00000E+00
         0.00000E+00
         0.00000E+00
         0.00000E+00
         0.00000E+00
         0.00000E+00
         0.00000E+00
         0.00000E+00
         0.00000E+00
         0.00000E+00
         0.00000E+00
         0.00000E+00
         0.00000E+00
         0.00000E+00
         0.00000E+00
         0.00000E+00
         0.00000E+00
         0.00000E+00
         0.00000E+00
         0.00000E+00
         0.00000E+00
         0.00000E+00
         0.00000E+00
         0.00000E+00
         0.00000E+00
         0.00000E+00
         0.00000E+00
         0.00000E+00
         0.00000E+00
         0.00000E+00
         0.00000E+00
         0.00000E+00
         0.00000E+00
         0.00000E+00
         0.00000E+00
         0.00000E+00
         0.00000E+00
         0.00000E+00
         0.00000E+00
         0.00000E+00
         0.00000E+00
         0.00000E+00
         0.00000E+00
         0.00000E+00
         0.00000E+00
         0.00000E+00
         0.00000E+00
         0.00000E+00
         0.00000E+00
         0.00000E+00
         0.00000E+00
         0.00000E+00
         0.00000E+00
         0.00000E+00
         0.00000E+00
         0.00000E+00
         0.00000E+00
         0.00000E+00
         0.00000E+00
         0.00000E+00
         0.00000E+00
         0.00000E+00
         0.00000E+00
         0.00000E+00
         0.00000E+00
         0.00000E+00
         0.00000E+00
         0.00000E+00
         0.00000E+00
         0.00000E+00
         0.00000E+00
         0.00000E+00
         0.00000E+00
         0.00000E+00
         0.00000E+00
         0.00000E+00
         0.00000E+00
         0.00000E+00
         0.00000E+00
         0.00000E+00
         0.00000E+00
         0.00000E+00
         0.00000E+00
         0.00000E+00
         0.00000E+00
         0.00000E+00
         0.00000E+00
         0.00000E+00
         0.00000E+00
         0.00000E+00
         0.00000E+00
         0.00000E+00
         0.00000E+00
         0.00000E+00
         0.00000E+00
         0.00000E+00
         0.00000E+00
         0.00000E+00
         0.00000E+00
         0.00000E+00
         0.00000E+00
         0.00000E+00
         0.00000E+00
         0.00000E+00
         0.00000E+00
         0.00000E+00
         0.00000E+00
         0.00000E+00
         0.00000E+00
         0.00000E+00
         0.00000E+00
         0.00000E+00
         0.00000E+00
         0.00000E+00
         0.00000E+00
         0.00000E+00
         0.00000E+00
         0.00000E+00
         0.00000E+00
         0.00000E+00
         0.00000E+00
         0.00000E+00
         0.00000E+00
         0.00000E+00
         0.00000E+00
         0.00000E+00
         0.00000E+00
         0.00000E+00
         0.00000E+00
         0.00000E+00
         0.00000E+00
         0.00000E+00
         0.00000E+00
         0.00000E+00
         0.00000E+00
         0.00000E+00
         0.00000E+00
         0.00000E+00
         0.00000E+00
         0.00000E+00
         0.00000E+00
         0.00000E+00
         0.00000E+00
         0.00000E+00
         0.00000E+00
         0.00000E+00
         0.00000E+00
         0.00000E+00
         0.00000E+00
         0.00000E+00
         0.00000E+00
         0.00000E+00
         0.00000E+00
         0.00000E+00
         0.00000E+00
         0.00000E+00
         0.00000E+00
         0.00000E+00
         0.00000E+00
         0.00000E+00
         0.00000E+00
         0.00000E+00
         0.00000E+00
         0.00000E+00
         0.00000E+00
         0.00000E+00
         0.00000E+00
         0.00000E+00
         0.00000E+00
         0.00000E+00
         0.00000E+00
         0.00000E+00
         0.00000E+00
         0.00000E+00
         0.00000E+00
         0.00000E+00
         0.00000E+00
         0.00000E+00
         0.00000E+00
         0.00000E+00
         0.00000E+00
         0.00000E+00
         0.00000E+00
         0.00000E+00
         0.00000E+00
         0.00000E+00
         0.00000E+00
         0.00000E+00
         0.00000E+00
         0.00000E+00
         0.00000E+00
         0.00000E+00
         0.00000E+00
         0.00000E+00
         0.00000E+00
         0.00000E+00
         0.00000E+00
         0.00000E+00
         0.00000E+00
         0.00000E+00
         0.00000E+00
         0.00000E+00
         0.00000E+00
         0.00000E+00
         0.00000E+00
         0.00000E+00
         0.00000E+00
         0.00000E+00
         0.00000E+00
         0.00000E+00
         0.00000E+00
         0.00000E+00
         0.00000E+00
         0.00000E+00
         0.00000E+00
         0.00000E+00
         0.00000E+00
         0.00000E+00
         0.00000E+00
         0.00000E+00
         0.00000E+00
         0.00000E+00
         0.00000E+00
         0.00000E+00
         0.00000E+00
         0.00000E+00
         0.00000E+00
         0.00000E+00
         0.00000E+00
         0.00000E+00
         0.00000E+00
         0.00000E+00
         0.00000E+00
         0.00000E+00
         0.00000E+00
         0.00000E+00
         0.00000E+00
         0.00000E+00
         0.00000E+00
         0.00000E+00
         0.00000E+00
         0.00000E+00
         0.00000E+00
         0.00000E+00
         0.00000E+00
         0.00000E+00
         0.00000E+00
         0.00000E+00
         0.00000E+00
         0.00000E+00
         0.00000E+00
         0.00000E+00
         0.00000E+00
         0.00000E+00
         0.00000E+00
         0.00000E+00
         0.00000E+00
         0.00000E+00
         0.00000E+00
         0.00000E+00
         0.00000E+00
         0.00000E+00
         0.00000E+00
         0.00000E+00
         0.00000E+00
         0.00000E+00
         0.00000E+00
         0.00000E+00
         0.00000E+00
         0.00000E+00
         0.00000E+00
         0.00000E+00
         0.00000E+00
         0.00000E+00
         0.00000E+00
         0.00000E+00
         0.00000E+00
         0.00000E+00
         0.00000E+00
         0.00000E+00
         0.00000E+00
         0.00000E+00
         0.00000E+00
         0.00000E+00
         0.00000E+00
         0.00000E+00
         0.00000E+00
         0.00000E+00
         0.00000E+00
         0.00000E+00
         0.00000E+00
         0.00000E+00
         0.00000E+00
         0.00000E+00
         0.00000E+00
         0.00000E+00
         0.00000E+00
         0.00000E+00
         0.00000E+00
         0.00000E+00
         0.00000E+00
         0.00000E+00
         0.00000E+00
         0.00000E+00
         0.00000E+00
         0.00000E+00
         0.00000E+00
         0.00000E+00
         0.00000E+00
         0.00000E+00
         0.00000E+00
         0.00000E+00
         0.00000E+00
         0.00000E+00
         0.00000E+00
         0.00000E+00
         0.00000E+00
         0.00000E+00
         0.00000E+00
         0.00000E+00
         0.00000E+00
         0.00000E+00
         0.00000E+00
         0.00000E+00
         0.00000E+00
         0.00000E+00
         0.00000E+00
         0.00000E+00
         0.00000E+00
         0.00000E+00
         0.00000E+00
         0.00000E+00
         0.00000E+00
         0.00000E+00
         0.00000E+00
         0.00000E+00
         0.00000E+00
         0.00000E+00
         0.00000E+00
         0.00000E+00
         0.00000E+00
         0.00000E+00
         0.00000E+00
         0.00000E+00
         0.00000E+00
         0.00000E+00
         0.00000E+00
         0.00000E+00
         0.00000E+00
         0.00000E+00
         0.00000E+00
         0.00000E+00
         0.00000E+00
         0.00000E+00
         0.00000E+00
         0.00000E+00
         0.00000E+00
         0.00000E+00
         0.00000E+00
         0.00000E+00
         0.00000E+00
         0.00000E+00
         0.00000E+00
         0.00000E+00
         0.00000E+00
         0.00000E+00
         0.00000E+00
         0.00000E+00
         0.00000E+00
         0.00000E+00
         0.00000E+00
         0.00000E+00
         0.00000E+00
         0.00000E+00
         0.00000E+00
         0.00000E+00
         0.00000E+00
         0.00000E+00
         0.00000E+00
         0.00000E+00
         0.00000E+00
         0.00000E+00
         0.00000E+00
         0.00000E+00
         0.00000E+00
         0.00000E+00
         0.00000E+00
         0.00000E+00
         0.00000E+00
         0.00000E+00
         0.00000E+00
         0.00000E+00
         0.00000E+00
         0.00000E+00
         0.00000E+00
         0.00000E+00
         0.00000E+00
         0.00000E+00
         0.00000E+00
         0.00000E+00
         0.00000E+00
         0.00000E+00
         0.00000E+00
         0.00000E+00
         0.00000E+00
         0.00000E+00
         0.00000E+00
         0.00000E+00
         0.00000E+00
         0.00000E+00
         0.00000E+00
         0.00000E+00
         0.00000E+00
         0.00000E+00
         0.00000E+00
         0.00000E+00
         0.00000E+00
         0.00000E+00
         0.00000E+00
         0.00000E+00
         0.00000E+00
         0.00000E+00
         0.00000E+00
         0.00000E+00
         0.00000E+00
         0.00000E+00
         0.00000E+00
         0.00000E+00
         0.00000E+00
         0.00000E+00
         0.00000E+00
         0.00000E+00
         0.00000E+00
         0.00000E+00
         0.00000E+00
         0.00000E+00
         0.00000E+00
         0.00000E+00
         0.00000E+00
         0.00000E+00
         0.00000E+00
         0.00000E+00
         0.00000E+00
         0.00000E+00
         0.00000E+00
         0.00000E+00
         0.00000E+00
         0.00000E+00
         0.00000E+00
         0.00000E+00
         0.00000E+00
         0.00000E+00
         0.00000E+00
         0.00000E+00
         0.00000E+00
         0.00000E+00
         0.00000E+00
         0.00000E+00
         0.00000E+00
         0.00000E+00
         0.00000E+00
         0.00000E+00
         0.00000E+00
         0.00000E+00
         0.00000E+00
         0.00000E+00
         0.00000E+00
         0.00000E+00
         0.00000E+00
         0.00000E+00
         0.00000E+00
         0.00000E+00
         0.00000E+00
         0.00000E+00
         0.00000E+00
         0.00000E+00
         0.00000E+00
         0.00000E+00
         0.00000E+00
         0.00000E+00
         0.00000E+00
         0.00000E+00
         0.00000E+00
         0.00000E+00
         0.00000E+00
         0.00000E+00
         0.00000E+00
         0.00000E+00
         0.00000E+00
         0.00000E+00
         0.00000E+00
         0.00000E+00
         0.00000E+00
         0.00000E+00
         0.00000E+00
         0.00000E+00
         0.00000E+00
         0.00000E+00
         0.00000E+00
         0.00000E+00
         0.00000E+00
         0.00000E+00
         0.00000E+00
         0.00000E+00
         0.00000E+00
         0.00000E+00
         0.00000E+00
         0.00000E+00
         0.00000E+00
         0.00000E+00
         0.00000E+00
         0.00000E+00
         0.00000E+00
         0.00000E+00
         0.00000E+00
         0.00000E+00
         0.00000E+00
         0.00000E+00
         0.00000E+00
         0.00000E+00
         0.00000E+00
         0.00000E+00
         0.00000E+00
         0.00000E+00
         0.00000E+00
         0.00000E+00
         0.00000E+00
         0.00000E+00
         0.00000E+00
         0.00000E+00
         0.00000E+00
         0.00000E+00
         0.00000E+00
         0.00000E+00
         0.00000E+00
         0.00000E+00
         0.00000E+00
         0.00000E+00
         0.00000E+00
         0.00000E+00
         0.00000E+00
         0.00000E+00
         0.00000E+00
         0.00000E+00
         0.00000E+00
         0.00000E+00
         0.00000E+00
         0.00000E+00
         0.00000E+00
         0.00000E+00
         0.00000E+00
         0.00000E+00
         0.00000E+00
         0.00000E+00
         0.00000E+00
         0.00000E+00
         0.00000E+00
         0.00000E+00
         0.00000E+00
         0.00000E+00
         0.00000E+00
         0.00000E+00
         0.00000E+00
         0.00000E+00
         0.00000E+00
         0.00000E+00
         0.00000E+00
         0.00000E+00
         0.00000E+00
         0.00000E+00
         0.00000E+00
         0.00000E+00
         0.00000E+00
         0.00000E+00
         0.00000E+00
         0.00000E+00
         0.00000E+00
         0.00000E+00
         0.00000E+00
         0.00000E+00
         0.00000E+00
         0.00000E+00
         0.00000E+00
         0.00000E+00
         0.00000E+00
         0.00000E+00
         0.00000E+00
         0.00000E+00
         0.00000E+00
         0.00000E+00
         0.00000E+00
         0.00000E+00
         0.00000E+00
         0.00000E+00
         0.00000E+00
         0.00000E+00
         0.00000E+00
         0.00000E+00
         0.00000E+00
         0.00000E+00
         0.00000E+00
         0.00000E+00
         0.00000E+00
         0.00000E+00
         0.00000E+00
         0.00000E+00
         0.00000E+00
         0.00000E+00
         0.00000E+00
         0.00000E+00
         0.00000E+00
         0.00000E+00
         0.00000E+00
         0.00000E+00
         0.00000E+00
         0.00000E+00
         0.00000E+00
         0.00000E+00
         0.00000E+00
         0.00000E+00
         0.00000E+00
         0.00000E+00
         0.00000E+00
         0.00000E+00
         0.00000E+00
         0.00000E+00
         0.00000E+00
         0.00000E+00
         0.00000E+00
         0.00000E+00
         0.00000E+00
         0.00000E+00
         0.00000E+00
         0.00000E+00
         0.00000E+00
         0.00000E+00
         0.00000E+00
         0.00000E+00
         0.00000E+00
         0.00000E+00
         0.00000E+00
         0.00000E+00
         0.00000E+00
         0.00000E+00
         0.00000E+00
         0.00000E+00
         0.00000E+00
         0.00000E+00
         0.00000E+00
         0.00000E+00
         0.00000E+00
         0.00000E+00
         0.00000E+00
         0.00000E+00
         0.00000E+00
         0.00000E+00
         0.00000E+00
         0.00000E+00
         0.00000E+00
         0.00000E+00
         0.00000E+00
         0.00000E+00
         0.00000E+00
         0.00000E+00
         0.00000E+00
         0.00000E+00
         0.00000E+00
         0.00000E+00
         0.00000E+00
         0.00000E+00
         0.00000E+00
         0.00000E+00
         0.00000E+00
         0.00000E+00
         0.00000E+00
         0.00000E+00
         0.00000E+00
         0.00000E+00
         0.00000E+00
         0.00000E+00
         0.00000E+00
         0.00000E+00
         0.00000E+00
         0.00000E+00
         0.00000E+00
         0.00000E+00
         0.00000E+00
         0.00000E+00
         0.00000E+00
         0.00000E+00
         0.00000E+00
         0.00000E+00
         0.00000E+00
         0.00000E+00
         0.00000E+00
         0.00000E+00
         0.00000E+00
         0.00000E+00
         0.00000E+00
         0.00000E+00
         0.00000E+00
         0.00000E+00
         0.00000E+00
         0.00000E+00
         0.00000E+00
         0.00000E+00
         0.00000E+00
         0.00000E+00
         0.00000E+00
         0.00000E+00
         0.00000E+00
         0.00000E+00
         0.00000E+00
         0.00000E+00
         0.00000E+00
         0.00000E+00
         0.00000E+00
         0.00000E+00
         0.00000E+00
         0.00000E+00
         0.00000E+00
         0.00000E+00
         0.00000E+00
         0.00000E+00
         0.00000E+00
         0.00000E+00
         0.00000E+00
         0.00000E+00
         0.00000E+00
         0.00000E+00
         0.00000E+00
         0.00000E+00
         0.00000E+00
         0.00000E+00
         0.00000E+00
         0.00000E+00
         0.00000E+00
         0.00000E+00
         0.00000E+00
         0.00000E+00
         0.00000E+00
         0.00000E+00
         0.00000E+00
         0.00000E+00
         0.00000E+00
         0.00000E+00
         0.00000E+00
         0.00000E+00
         0.00000E+00
         0.00000E+00
         0.00000E+00
         0.00000E+00
         0.00000E+00
         0.00000E+00
         0.00000E+00
         0.00000E+00
         0.00000E+00
         0.00000E+00
         0.00000E+00
         0.00000E+00
         0.00000E+00
         0.00000E+00
         0.00000E+00
         0.00000E+00
         0.00000E+00
         0.00000E+00
         0.00000E+00
         0.00000E+00
         0.00000E+00
         0.00000E+00
         0.00000E+00
         0.00000E+00
         0.00000E+00
         0.00000E+00
         0.00000E+00
         0.00000E+00
         0.00000E+00
         0.00000E+00
         0.00000E+00
         0.00000E+00
         0.00000E+00
         0.00000E+00
         0.00000E+00
         0.00000E+00
         0.00000E+00
         0.00000E+00
         0.00000E+00
         0.00000E+00
         0.00000E+00
         0.00000E+00
         0.00000E+00
         0.00000E+00
         0.00000E+00
         0.00000E+00
         0.00000E+00
         0.00000E+00
         0.00000E+00
         0.00000E+00
         0.00000E+00
         0.00000E+00
         0.00000E+00
         0.00000E+00
         0.00000E+00
         0.00000E+00
         0.00000E+00
         0.00000E+00
         0.00000E+00
         0.00000E+00
         0.00000E+00
         0.00000E+00
         0.00000E+00
         0.00000E+00
         0.00000E+00
         0.00000E+00
         0.00000E+00
         0.00000E+00
         0.00000E+00
         0.00000E+00
         0.00000E+00
         0.00000E+00
         0.00000E+00
         0.00000E+00
         0.00000E+00
         0.00000E+00
         0.00000E+00
         0.00000E+00
         0.00000E+00
         0.00000E+00
         0.00000E+00
         0.00000E+00
         0.00000E+00
         0.00000E+00
         0.00000E+00
         0.00000E+00
         0.00000E+00
         0.00000E+00
         0.00000E+00
         0.00000E+00
         0.00000E+00
         0.00000E+00
         0.00000E+00
         0.00000E+00
         0.00000E+00
         0.00000E+00
         0.00000E+00
         0.00000E+00
         0.00000E+00
         0.00000E+00
         0.00000E+00
         0.00000E+00
         0.00000E+00
         0.00000E+00
         0.00000E+00
         0.00000E+00
         0.00000E+00
         0.00000E+00
         0.00000E+00
         0.00000E+00
         0.00000E+00
         0.00000E+00
         0.00000E+00
         0.00000E+00
         0.00000E+00
         0.00000E+00
         0.00000E+00
         0.00000E+00
         0.00000E+00
         0.00000E+00
         0.00000E+00
         0.00000E+00
         0.00000E+00
         0.00000E+00
         0.00000E+00
         0.00000E+00
         0.00000E+00
         0.00000E+00
         0.00000E+00
         0.00000E+00
         0.00000E+00
         0.00000E+00
         0.00000E+00
         0.00000E+00
         0.00000E+00
         0.00000E+00
         0.00000E+00
         0.00000E+00
         0.00000E+00
         0.00000E+00
         0.00000E+00
         0.00000E+00
         0.00000E+00
         0.00000E+00
         0.00000E+00
         0.00000E+00
         0.00000E+00
         0.00000E+00
         0.00000E+00
         0.00000E+00
         0.00000E+00
         0.00000E+00
         0.00000E+00
         0.00000E+00
         0.00000E+00
         0.00000E+00
         0.00000E+00
         0.00000E+00
         0.00000E+00
         0.00000E+00
         0.00000E+00
         0.00000E+00
         0.00000E+00
         0.00000E+00
         0.00000E+00
         0.00000E+00
         0.00000E+00
         0.00000E+00
         0.00000E+00
         0.00000E+00
         0.00000E+00
         0.00000E+00
         0.00000E+00
         0.00000E+00
         0.00000E+00
         0.00000E+00
         0.00000E+00
         0.00000E+00
         0.00000E+00
         0.00000E+00
         0.00000E+00
         0.00000E+00
         0.00000E+00
         0.00000E+00
         0.00000E+00
         0.00000E+00
         0.00000E+00
         0.00000E+00
         0.00000E+00
         0.00000E+00
         0.00000E+00
         0.00000E+00
         0.00000E+00
         0.00000E+00
         0.00000E+00
         0.00000E+00
         0.00000E+00
         0.00000E+00
         0.00000E+00
         0.00000E+00
         0.00000E+00
         0.00000E+00
         0.00000E+00
         0.00000E+00
         0.00000E+00
         0.00000E+00
         0.00000E+00
         0.00000E+00
         0.00000E+00
         0.00000E+00
         0.00000E+00
         0.00000E+00
         0.00000E+00
         0.00000E+00
         0.00000E+00
         0.00000E+00
         0.00000E+00
         0.00000E+00
         0.00000E+00
         0.00000E+00
         0.00000E+00
         0.00000E+00
         0.00000E+00
         0.00000E+00
         0.00000E+00
         0.00000E+00
         0.00000E+00
         0.00000E+00
         0.00000E+00
         0.00000E+00
         0.00000E+00
         0.00000E+00
         0.00000E+00
         0.00000E+00
         0.00000E+00
         0.00000E+00
         0.00000E+00
         0.00000E+00
         0.00000E+00
         0.00000E+00
         0.00000E+00
         0.00000E+00
         0.00000E+00
         0.00000E+00
         0.00000E+00
         0.00000E+00
         0.00000E+00
         0.00000E+00
         0.00000E+00
         0.00000E+00
         0.00000E+00
         0.00000E+00
         0.00000E+00
         0.00000E+00
         0.00000E+00
         0.00000E+00
         0.00000E+00
         0.00000E+00
         0.00000E+00
         0.00000E+00
         0.00000E+00
         0.00000E+00
         0.00000E+00
         0.00000E+00
         0.00000E+00
         0.00000E+00
         0.00000E+00
         0.00000E+00
         0.00000E+00
         0.00000E+00
         0.00000E+00
         0.00000E+00
         0.00000E+00
         0.00000E+00
         0.00000E+00
         0.00000E+00
         0.00000E+00
         0.00000E+00
         0.00000E+00
         0.00000E+00
         0.00000E+00
         0.00000E+00
         0.00000E+00
         0.00000E+00
         0.00000E+00
         0.00000E+00
         0.00000E+00
         0.00000E+00
         0.00000E+00
         0.00000E+00
         0.00000E+00
         0.00000E+00
         0.00000E+00
         0.00000E+00
         0.00000E+00
         0.00000E+00
         0.00000E+00
         0.00000E+00
         0.00000E+00
         0.00000E+00
         0.00000E+00
         0.00000E+00
         0.00000E+00
         0.00000E+00
         0.00000E+00
         0.00000E+00
         0.00000E+00
         0.00000E+00
         0.00000E+00
         0.00000E+00
         0.00000E+00
         0.00000E+00
         0.00000E+00
         0.00000E+00
         0.00000E+00
         0.00000E+00
         0.00000E+00
         0.00000E+00
         0.00000E+00
         0.00000E+00
         0.00000E+00
         0.00000E+00
         0.00000E+00
         0.00000E+00
         0.00000E+00
         0.00000E+00
         0.00000E+00
         0.00000E+00
         0.00000E+00
         0.00000E+00
         0.00000E+00
         0.00000E+00
         0.00000E+00
         0.00000E+00
         0.00000E+00
         0.00000E+00
         0.00000E+00
         0.00000E+00
         0.00000E+00
         0.00000E+00
         0.00000E+00
         0.00000E+00
         0.00000E+00
         0.00000E+00
         0.00000E+00
         0.00000E+00
         0.00000E+00
         0.00000E+00
         0.00000E+00
         0.00000E+00
         0.00000E+00
         0.00000E+00
         0.00000E+00
         0.00000E+00
         0.00000E+00
         0.00000E+00
         0.00000E+00
         0.00000E+00
         0.00000E+00
         0.00000E+00
         0.00000E+00
         0.00000E+00
         0.00000E+00
         0.00000E+00
         0.00000E+00
         0.00000E+00
         0.00000E+00
         0.00000E+00
         0.00000E+00
         0.00000E+00
         0.00000E+00
         0.00000E+00
         0.00000E+00
         0.00000E+00
         0.00000E+00
         0.00000E+00
         0.00000E+00
         0.00000E+00
         0.00000E+00
         0.00000E+00
         0.00000E+00
         0.00000E+00
         0.00000E+00
         0.00000E+00
         0.00000E+00
         0.00000E+00
         0.00000E+00
         0.00000E+00
         0.00000E+00
         0.00000E+00
         0.00000E+00
         0.00000E+00
         0.00000E+00
         0.00000E+00
         0.00000E+00
         0.00000E+00
         0.00000E+00
         0.00000E+00
         0.00000E+00
         0.00000E+00
         0.00000E+00
         0.00000E+00
         0.00000E+00
         0.00000E+00
         0.00000E+00
         0.00000E+00
         0.00000E+00
         0.00000E+00
         0.00000E+00
         0.00000E+00
         0.00000E+00
         0.00000E+00
         0.00000E+00
         0.00000E+00
         0.00000E+00
         0.00000E+00
         0.00000E+00
         0.00000E+00
         0.00000E+00
         0.00000E+00
         0.00000E+00
         0.00000E+00
         0.00000E+00
         0.00000E+00
         0.00000E+00
         0.00000E+00
         0.00000E+00
         0.00000E+00
         0.00000E+00
         0.00000E+00
         0.00000E+00
         0.00000E+00
         0.00000E+00
         0.00000E+00
         0.00000E+00
         0.00000E+00
         0.00000E+00
         0.00000E+00
         0.00000E+00
         0.00000E+00
         0.00000E+00
         0.00000E+00
         0.00000E+00
         0.00000E+00
         0.00000E+00
         0.00000E+00
         0.00000E+00
         0.00000E+00
         0.00000E+00
         0.00000E+00
         0.00000E+00
         0.00000E+00
         0.00000E+00
         0.00000E+00
         0.00000E+00
         0.00000E+00
         0.00000E+00
         0.00000E+00
         0.00000E+00
         0.00000E+00
         0.00000E+00
         0.00000E+00
         0.00000E+00
         0.00000E+00
         0.00000E+00
         0.00000E+00
         0.00000E+00
         0.00000E+00
         0.00000E+00
         0.00000E+00
         0.00000E+00
         0.00000E+00
         0.00000E+00
         0.00000E+00
         0.00000E+00
         0.00000E+00
         0.00000E+00
         0.00000E+00
         0.00000E+00
         0.00000E+00
         0.00000E+00
         0.00000E+00
         0.00000E+00
         0.00000E+00
         0.00000E+00
         0.00000E+00
         0.00000E+00
         0.00000E+00
         0.00000E+00
         0.00000E+00
         0.00000E+00
         0.00000E+00
         0.00000E+00
         0.00000E+00
         0.00000E+00
         0.00000E+00
         0.00000E+00
         0.00000E+00
         0.00000E+00
         0.00000E+00
         0.00000E+00
         0.00000E+00
         0.00000E+00
         0.00000E+00
         0.00000E+00
         0.00000E+00
         0.00000E+00
         0.00000E+00
         0.00000E+00
         0.00000E+00
         0.00000E+00
         0.00000E+00
         0.00000E+00
         0.00000E+00
         0.00000E+00
         0.00000E+00
         0.00000E+00
         0.00000E+00
         0.00000E+00
         0.00000E+00
         0.00000E+00
         0.00000E+00
         0.00000E+00
         0.00000E+00
         0.00000E+00
         0.00000E+00
         0.00000E+00
         0.00000E+00
         0.00000E+00
         0.00000E+00
         0.00000E+00
         0.00000E+00
         0.00000E+00
         0.00000E+00
         0.00000E+00
         0.00000E+00
         0.00000E+00
         0.00000E+00
         0.00000E+00
         0.00000E+00
         0.00000E+00
         0.00000E+00
         0.00000E+00
         0.00000E+00
         0.00000E+00
         0.00000E+00
         0.00000E+00
         0.00000E+00
         0.00000E+00
         0.00000E+00
         0.00000E+00
         0.00000E+00
         0.00000E+00
         0.00000E+00
         0.00000E+00
         0.00000E+00
         0.00000E+00
         0.00000E+00
         0.00000E+00
         0.00000E+00
         0.00000E+00
         0.00000E+00
         0.00000E+00
         0.00000E+00
         0.00000E+00
         0.00000E+00
         0.00000E+00
         0.00000E+00
         0.00000E+00
         0.00000E+00
         0.00000E+00
         0.00000E+00
         0.00000E+00
         0.00000E+00
         0.00000E+00
         0.00000E+00
         0.00000E+00
         0.00000E+00
         0.00000E+00
         0.00000E+00
         0.00000E+00
         0.00000E+00
         0.00000E+00
         0.00000E+00
         0.00000E+00
         0.00000E+00
         0.00000E+00
         0.00000E+00
         0.00000E+00
         0.00000E+00
         0.00000E+00
         0.00000E+00
         0.00000E+00
         0.00000E+00
         0.00000E+00
         0.00000E+00
         0.00000E+00
         0.00000E+00
         0.00000E+00
         0.00000E+00
         0.00000E+00
         0.00000E+00
         0.00000E+00
         0.00000E+00
         0.00000E+00
         0.00000E+00
         0.00000E+00
         0.00000E+00
         0.00000E+00
         0.00000E+00
         0.00000E+00
         0.00000E+00
         0.00000E+00
         0.00000E+00
         0.00000E+00
         0.00000E+00
         0.00000E+00
         0.00000E+00
         0.00000E+00
         0.00000E+00
         0.00000E+00
         0.00000E+00
         0.00000E+00
         0.00000E+00
         0.00000E+00
         0.00000E+00
         0.00000E+00
         0.00000E+00
         0.00000E+00
         0.00000E+00
         0.00000E+00
         0.00000E+00
         0.00000E+00
         0.00000E+00
         0.00000E+00
         0.00000E+00
         0.00000E+00
         0.00000E+00
         0.00000E+00
         0.00000E+00
         0.00000E+00
         0.00000E+00
         0.00000E+00
         0.00000E+00
         0.00000E+00
         0.00000E+00
         0.00000E+00
         0.00000E+00
         0.00000E+00
         0.00000E+00
         0.00000E+00
         0.00000E+00
         0.00000E+00
         0.00000E+00
         0.00000E+00
         0.00000E+00
         0.00000E+00
  
SCALARS                      stress_xx  double 1
LOOKUP_TABLE default
         0.37302E+12
         0.36750E+12
         0.37100E+12
         0.37728E+12
        -0.11630E+03
        -0.13041E+03
        -0.12487E+03
        -0.11344E+03
         0.36731E+12
         0.36918E+12
        -0.11727E+03
        -0.11349E+03
         0.35950E+12
         0.35921E+12
        -0.13934E+03
        -0.13101E+03
         0.37636E+12
         0.35964E+12
        -0.10296E+03
        -0.11420E+03
         0.35349E+12
         0.34872E+12
         0.35632E+12
        -0.13810E+03
        -0.12061E+03
        -0.12454E+03
         0.34890E+12
         0.34193E+12
        -0.13249E+03
        -0.11173E+03
         0.37606E+12
         0.36879E+12
         0.38310E+12
        -0.11306E+03
        -0.10511E+03
        -0.10219E+03
         0.37185E+12
         0.36258E+12
        -0.11961E+03
        -0.10915E+03
         0.36818E+12
         0.36103E+12
        -0.10338E+03
        -0.91520E+02
         0.37423E+12
         0.37691E+12
        -0.11329E+03
        -0.12659E+03
         0.35529E+12
        -0.11067E+03
         0.37639E+12
        -0.13005E+03
         0.34689E+12
        -0.11688E+03
         0.34470E+12
        -0.11211E+03
         0.34474E+12
         0.35253E+12
        -0.11422E+03
        -0.11124E+03
         0.37591E+12
         0.37311E+12
        -0.11454E+03
        -0.12948E+03
         0.37765E+12
        -0.11052E+03
         0.37433E+12
        -0.12062E+03
         0.36559E+12
         0.36471E+12
        -0.11611E+03
        -0.12166E+03
         0.36274E+12
        -0.12268E+03
         0.33945E+12
        -0.96928E+02
         0.33823E+12
        -0.94083E+02
         0.33884E+12
        -0.99202E+02
         0.34221E+12
         0.34572E+12
        -0.94516E+02
        -0.98539E+02
         0.35278E+12
        -0.91776E+02
         0.37409E+12
        -0.12035E+03
         0.37077E+12
        -0.12318E+03
         0.36804E+12
         0.36654E+12
        -0.11829E+03
        -0.11967E+03
         0.36839E+12
        -0.10870E+03
         0.36970E+12
        -0.10714E+03
         0.36852E+12
        -0.11470E+03
         0.36810E+12
         0.36930E+12
        -0.11248E+03
        -0.11578E+03
         0.36151E+12
         0.36467E+12
        -0.87330E+02
        -0.82139E+02
         0.36091E+12
        -0.83389E+02
         0.36456E+12
        -0.79956E+02
         0.36096E+12
        -0.78842E+02
         0.35300E+12
        -0.74506E+02
         0.34527E+12
        -0.66190E+02
         0.34064E+12
        -0.59601E+02
         0.34017E+12
        -0.59187E+02
         0.34032E+12
        -0.64185E+02
         0.34534E+12
        -0.67456E+02
         0.35471E+12
        -0.61595E+02
         0.36500E+12
        -0.55521E+02
         0.37103E+12
        -0.55458E+02
         0.37698E+12
        -0.61988E+02
         0.38090E+12
        -0.70681E+02
         0.38076E+12
        -0.75933E+02
         0.37122E+12
        -0.82007E+02
         0.36456E+12
        -0.87858E+02
         0.36227E+12
        -0.80484E+02
         0.36584E+12
        -0.70606E+02
         0.36770E+12
        -0.70388E+02
         0.36458E+12
        -0.77013E+02
         0.36463E+12
        -0.82102E+02
         0.36698E+12
        -0.77914E+02
         0.37005E+12
        -0.75324E+02
        -0.31565E+11
        -0.31719E+11
        -0.31700E+11
        -0.31492E+11
        -0.31850E+11
        -0.31683E+11
        -0.31886E+11
        -0.31785E+11
        -0.31527E+11
        -0.31694E+11
        -0.31982E+11
        -0.32008E+11
        -0.31935E+11
        -0.31929E+11
        -0.31978E+11
        -0.31503E+11
        -0.31544E+11
        -0.31426E+11
        -0.31735E+11
        -0.31684E+11
        -0.31756E+11
        -0.31709E+11
        -0.31794E+11
        -0.31773E+11
        -0.31688E+11
        -0.31695E+11
        -0.31834E+11
        -0.31822E+11
        -0.31915E+11
        -0.31771E+11
        -0.31523E+11
        -0.31721E+11
        -0.31525E+11
        -0.31658E+11
        -0.32026E+11
        -0.31926E+11
        -0.31872E+11
        -0.31935E+11
        -0.31942E+11
        -0.32032E+11
        -0.32089E+11
        -0.31938E+11
        -0.31753E+11
        -0.31781E+11
        -0.31878E+11
        -0.32022E+11
        -0.31901E+11
        -0.31744E+11
        -0.31756E+11
        -0.31878E+11
        -0.31986E+11
        -0.31837E+11
        -0.32198E+11
        -0.32120E+11
        -0.32135E+11
        -0.32114E+11
        -0.32120E+11
        -0.32165E+11
        -0.32204E+11
        -0.32215E+11
        -0.32211E+11
        -0.32214E+11
        -0.32228E+11
        -0.32124E+11
        -0.32073E+11
        -0.32052E+11
        -0.32013E+11
        -0.31981E+11
        -0.31983E+11
        -0.32035E+11
        -0.32175E+11
        -0.32146E+11
        -0.32100E+11
        -0.32101E+11
        -0.32109E+11
        -0.32152E+11
        -0.32086E+11
        -0.32059E+11
         0.81660E+06
         0.35989E+06
         0.44994E+06
         0.45000E+06
         0.19601E+06
         0.45382E+06
        -0.29319E+06
        -0.68096E+06
         0.10131E+07
        -0.74392E+06
        -0.77074E+06
        -0.36652E+05
        -0.13165E+06
        -0.25441E+07
        -0.81695E+06
        -0.25576E+06
         0.19177E+06
         0.55304E+06
        -0.18254E+05
        -0.56523E+05
        -0.10614E+07
        -0.59774E+06
        -0.14355E+07
        -0.43839E+06
        -0.78789E+06
        -0.11090E+06
        -0.32057E+07
        -0.17459E+07
        -0.10192E+07
        -0.79096E+06
        -0.14768E+06
        -0.26985E+06
         0.41749E+06
         0.84783E+06
        -0.91064E+06
        -0.59104E+06
        -0.33175E+06
        -0.10427E+07
        -0.64608E+06
        -0.42200E+06
        -0.72409E+06
        -0.11839E+07
        -0.10220E+07
        -0.11531E+07
        -0.85565E+06
        -0.35847E+06
        -0.19120E+06
        -0.23848E+06
         0.43655E+06
         0.73005E+06
         0.17850E+06
         0.24453E+06
        -0.23835E+07
        -0.66494E+06
        -0.14205E+07
         0.17745E+06
         0.15530E+07
         0.25407E+07
         0.21090E+07
         0.22832E+07
         0.18034E+07
         0.91597E+06
         0.65703E+05
        -0.58065E+06
        -0.11018E+07
        -0.41653E+06
        -0.16003E+07
        -0.23471E+07
        -0.19476E+07
        -0.16888E+07
        -0.86717E+06
         0.44741E+06
         0.43078E+06
         0.23210E+05
        -0.73087E+06
        -0.12435E+07
        -0.94291E+06
        -0.28039E+06
         0.76538E+06
         0.31203E+06
         0.40340E+06
         0.41178E+06
         0.13540E+06
         0.40083E+06
        -0.34078E+06
        -0.73877E+06
         0.96413E+06
        -0.80684E+06
        -0.82364E+06
        -0.11838E+06
        -0.20176E+06
        -0.26032E+07
        -0.89788E+06
        -0.30866E+06
         0.14157E+06
         0.51610E+06
        -0.70753E+05
        -0.10805E+06
        -0.11307E+07
        -0.66515E+06
        -0.15066E+07
        -0.48914E+06
        -0.85227E+06
        -0.15940E+06
        -0.32645E+07
        -0.17974E+07
        -0.10771E+07
        -0.85798E+06
        -0.19715E+06
        -0.31558E+06
         0.38071E+06
         0.80919E+06
        -0.98143E+06
        -0.64841E+06
        -0.39187E+06
        -0.11242E+07
        -0.72108E+06
        -0.49559E+06
        -0.80439E+06
        -0.12622E+07
        -0.10961E+07
        -0.12207E+07
        -0.91892E+06
        -0.42988E+06
        -0.25421E+06
        -0.29694E+06
         0.38539E+06
         0.67689E+06
         0.11367E+06
         0.18783E+06
        -0.25171E+07
        -0.79522E+06
        -0.15488E+07
         0.54512E+05
         0.14230E+07
         0.23958E+07
         0.19643E+07
         0.21368E+07
         0.16557E+07
         0.76486E+06
        -0.84716E+05
        -0.71968E+06
        -0.12177E+07
        -0.52475E+06
        -0.17138E+07
        -0.24684E+07
        -0.20715E+07
        -0.18184E+07
        -0.99720E+06
         0.30983E+06
         0.30111E+06
        -0.93902E+05
        -0.84810E+06
        -0.13636E+07
        -0.10644E+07
        -0.40414E+06
         0.77724E+06
         0.32141E+06
         0.41328E+06
         0.42150E+06
         0.15201E+06
         0.41578E+06
        -0.33241E+06
        -0.72471E+06
         0.97281E+06
        -0.80383E+06
        -0.81220E+06
        -0.10288E+06
        -0.18868E+06
        -0.25859E+07
        -0.87765E+06
        -0.31975E+06
         0.13757E+06
         0.52687E+06
        -0.83643E+05
        -0.11740E+06
        -0.11419E+07
        -0.66942E+06
        -0.15533E+07
        -0.52578E+06
        -0.88050E+06
        -0.19343E+06
        -0.32532E+07
        -0.18035E+07
        -0.11016E+07
        -0.90489E+06
        -0.19776E+06
        -0.32592E+06
         0.39331E+06
         0.82170E+06
        -0.96334E+06
        -0.63352E+06
        -0.37833E+06
        -0.11106E+07
        -0.70956E+06
        -0.49209E+06
        -0.80651E+06
        -0.12908E+07
        -0.11360E+07
        -0.12659E+07
        -0.92954E+06
        -0.41994E+06
        -0.24267E+06
        -0.28415E+06
         0.39943E+06
         0.69318E+06
         0.13232E+06
         0.20432E+06
        -0.24772E+07
        -0.75942E+06
        -0.15091E+07
         0.84975E+05
         0.14457E+07
         0.24183E+07
         0.19930E+07
         0.21655E+07
         0.16850E+07
         0.79517E+06
        -0.66920E+05
        -0.72031E+06
        -0.12158E+07
        -0.50478E+06
        -0.17007E+07
        -0.24929E+07
        -0.20981E+07
        -0.18115E+07
        -0.96138E+06
         0.35120E+06
         0.33817E+06
        -0.56502E+05
        -0.80597E+06
        -0.13283E+07
        -0.10357E+07
        -0.37650E+06
         0.76985E+06
         0.31732E+06
         0.40938E+06
         0.41511E+06
         0.14682E+06
         0.41176E+06
        -0.33754E+06
        -0.73156E+06
         0.95900E+06
        -0.83059E+06
        -0.81715E+06
        -0.11143E+06
        -0.19449E+06
        -0.25909E+07
        -0.88746E+06
        -0.36203E+06
         0.10732E+06
         0.52076E+06
        -0.12955E+06
        -0.16068E+06
        -0.11944E+07
        -0.71599E+06
        -0.16619E+07
        -0.60767E+06
        -0.95708E+06
        -0.27079E+06
        -0.32693E+07
        -0.18451E+07
        -0.11724E+07
        -0.10172E+07
        -0.22224E+06
        -0.36723E+06
         0.38945E+06
         0.81530E+06
        -0.97271E+06
        -0.63898E+06
        -0.38297E+06
        -0.11259E+07
        -0.72837E+06
        -0.52583E+06
        -0.85202E+06
        -0.13795E+07
        -0.12444E+07
        -0.13726E+07
        -0.98177E+06
        -0.44863E+06
        -0.26287E+06
        -0.29528E+06
         0.39077E+06
         0.68310E+06
         0.12272E+06
         0.19843E+06
        -0.24958E+07
        -0.77217E+06
        -0.15292E+07
         0.67239E+05
         0.14338E+07
         0.24045E+07
         0.19699E+07
         0.21405E+07
         0.16609E+07
         0.76595E+06
        -0.11325E+06
        -0.79508E+06
        -0.12860E+07
        -0.53806E+06
        -0.17382E+07
        -0.25961E+07
        -0.22073E+07
        -0.18627E+07
        -0.98565E+06
         0.32801E+06
         0.32059E+06
        -0.77312E+05
        -0.82756E+06
        -0.13430E+07
        -0.10469E+07
        -0.38773E+06
         0.75650E+06
         0.30907E+06
         0.40260E+06
         0.40854E+06
         0.14074E+06
         0.40594E+06
        -0.34492E+06
        -0.74345E+06
         0.94235E+06
        -0.85846E+06
        -0.82249E+06
        -0.11680E+06
        -0.20096E+06
        -0.25966E+07
        -0.89199E+06
        -0.39088E+06
         0.82990E+05
         0.51515E+06
        -0.15976E+06
        -0.19169E+06
        -0.12280E+07
        -0.74943E+06
        -0.17286E+07
        -0.65841E+06
        -0.10127E+07
        -0.32039E+06
        -0.32833E+07
        -0.18749E+07
        -0.12218E+07
        -0.10919E+07
        -0.24784E+06
        -0.39731E+06
         0.37985E+06
         0.80643E+06
        -0.98239E+06
        -0.64605E+06
        -0.39003E+06
        -0.11375E+07
        -0.74404E+06
        -0.55155E+06
        -0.88411E+06
        -0.14392E+07
        -0.13155E+07
        -0.14403E+07
        -0.10160E+07
        -0.46750E+06
        -0.28078E+06
        -0.31292E+06
         0.37568E+06
         0.66820E+06
         0.10762E+06
         0.18867E+06
        -0.25126E+07
        -0.78330E+06
        -0.15464E+07
         0.53441E+05
         0.14283E+07
         0.24005E+07
         0.19600E+07
         0.21239E+07
         0.16405E+07
         0.74789E+06
        -0.14145E+06
        -0.84680E+06
        -0.13339E+07
        -0.56378E+06
        -0.17647E+07
        -0.26630E+07
        -0.22839E+07
        -0.18993E+07
        -0.99663E+06
         0.30693E+06
         0.29727E+06
        -0.10119E+06
        -0.85543E+06
        -0.13670E+07
        -0.10618E+07
        -0.39893E+06
         0.72435E+06
         0.29325E+06
         0.39590E+06
         0.41338E+06
         0.14960E+06
         0.41653E+06
        -0.35042E+06
        -0.76485E+06
         0.91880E+06
        -0.89629E+06
        -0.81740E+06
        -0.98677E+05
        -0.19420E+06
        -0.25918E+07
        -0.86883E+06
        -0.38643E+06
         0.76091E+05
         0.52616E+06
        -0.15352E+06
        -0.18655E+06
        -0.12179E+07
        -0.73759E+06
        -0.17271E+07
        -0.65944E+06
        -0.10371E+07
        -0.32748E+06
        -0.32867E+07
        -0.18775E+07
        -0.12211E+07
        -0.10948E+07
        -0.27830E+06
        -0.41318E+06
         0.36234E+06
         0.80417E+06
        -0.97459E+06
        -0.64493E+06
        -0.39119E+06
        -0.11236E+07
        -0.73231E+06
        -0.53858E+06
        -0.86854E+06
        -0.14303E+07
        -0.13080E+07
        -0.14443E+07
        -0.10200E+07
        -0.47055E+06
        -0.29625E+06
        -0.34811E+06
         0.33862E+06
         0.64797E+06
         0.10279E+06
         0.19381E+06
        -0.24798E+07
        -0.74939E+06
        -0.15187E+07
         0.71903E+05
         0.14478E+07
         0.24268E+07
         0.19898E+07
         0.21524E+07
         0.16735E+07
         0.79142E+06
        -0.10343E+06
        -0.82385E+06
        -0.13086E+07
        -0.53741E+06
        -0.17393E+07
        -0.26427E+07
        -0.22691E+07
        -0.18846E+07
        -0.97890E+06
         0.31913E+06
         0.29468E+06
        -0.11780E+06
        -0.86624E+06
        -0.13614E+07
        -0.10454E+07
        -0.37544E+06
         0.67546E+06
         0.26526E+06
         0.37987E+06
         0.40926E+06
         0.14360E+06
         0.41650E+06
        -0.37039E+06
        -0.80738E+06
         0.87870E+06
        -0.95237E+06
        -0.82978E+06
        -0.10577E+06
        -0.20572E+06
        -0.26090E+07
        -0.87348E+06
        -0.39557E+06
         0.55880E+05
         0.52490E+06
        -0.15879E+06
        -0.19332E+06
        -0.12224E+07
        -0.74082E+06
        -0.17324E+07
        -0.66564E+06
        -0.10711E+07
        -0.34010E+06
        -0.33105E+07
        -0.18923E+07
        -0.12283E+07
        -0.11040E+07
        -0.32053E+06
        -0.43908E+06
         0.33453E+06
         0.79240E+06
        -0.98588E+06
        -0.65667E+06
        -0.40521E+06
        -0.11357E+07
        -0.74381E+06
        -0.54507E+06
        -0.87134E+06
        -0.14320E+07
        -0.13087E+07
        -0.14544E+07
        -0.10388E+07
        -0.49732E+06
        -0.33199E+06
        -0.40079E+06
         0.28578E+06
         0.61267E+06
         0.82512E+05
         0.18730E+06
        -0.24934E+07
        -0.75994E+06
        -0.15267E+07
         0.62592E+05
         0.14344E+07
         0.24107E+07
         0.19764E+07
         0.21409E+07
         0.16620E+07
         0.78286E+06
        -0.11028E+06
        -0.83216E+06
        -0.13101E+07
        -0.53946E+06
        -0.17450E+07
        -0.26459E+07
        -0.22755E+07
        -0.19077E+07
        -0.10133E+07
         0.28114E+06
         0.25210E+06
        -0.17042E+06
        -0.91233E+06
        -0.13858E+07
        -0.10586E+07
        -0.38585E+06
         0.66111E+06
         0.25483E+06
         0.37329E+06
         0.40384E+06
         0.13708E+06
         0.41088E+06
        -0.38117E+06
        -0.82152E+06
         0.86722E+06
        -0.96900E+06
        -0.83850E+06
        -0.11569E+06
        -0.21706E+06
        -0.26175E+07
        -0.88159E+06
        -0.40386E+06
         0.46807E+05
         0.52068E+06
        -0.16362E+06
        -0.19855E+06
        -0.12296E+07
        -0.74849E+06
        -0.17393E+07
        -0.67037E+06
        -0.10840E+07
        -0.34732E+06
        -0.33208E+07
        -0.18998E+07
        -0.12391E+07
        -0.11128E+07
        -0.33486E+06
        -0.44926E+06
         0.32709E+06
         0.78580E+06
        -0.99548E+06
        -0.66290E+06
        -0.41371E+06
        -0.11508E+07
        -0.75702E+06
        -0.55830E+06
        -0.88486E+06
        -0.14430E+07
        -0.13156E+07
        -0.14634E+07
        -0.10499E+07
        -0.50982E+06
        -0.34367E+06
        -0.41402E+06
         0.27278E+06
         0.60039E+06
         0.70033E+05
         0.17907E+06
        -0.25121E+07
        -0.77832E+06
        -0.15391E+07
         0.49723E+05
         0.14189E+07
         0.23970E+07
         0.19624E+07
         0.21214E+07
         0.16364E+07
         0.75589E+06
        -0.13472E+06
        -0.84320E+06
        -0.13188E+07
        -0.55816E+06
        -0.17647E+07
        -0.26647E+07
        -0.22998E+07
        -0.19311E+07
        -0.10328E+07
         0.26526E+06
         0.23918E+06
        -0.18795E+06
        -0.93542E+06
        -0.14074E+07
        -0.10768E+07
        -0.40397E+06
         0.67002E+06
         0.26176E+06
         0.37835E+06
         0.40512E+06
         0.14530E+06
         0.41333E+06
        -0.37599E+06
        -0.80973E+06
         0.87542E+06
        -0.95800E+06
        -0.83167E+06
        -0.10592E+06
        -0.21011E+06
        -0.26040E+07
        -0.86566E+06
        -0.39464E+06
         0.52461E+05
         0.52608E+06
        -0.15448E+06
        -0.19053E+06
        -0.12193E+07
        -0.73900E+06
        -0.17292E+07
        -0.66205E+06
        -0.10766E+07
        -0.33959E+06
        -0.33065E+07
        -0.18892E+07
        -0.12340E+07
        -0.11050E+07
        -0.32777E+06
        -0.44328E+06
         0.33413E+06
         0.78801E+06
        -0.98526E+06
        -0.65508E+06
        -0.40682E+06
        -0.11405E+07
        -0.74920E+06
        -0.55146E+06
        -0.87570E+06
        -0.14335E+07
        -0.13055E+07
        -0.14540E+07
        -0.10421E+07
        -0.50170E+06
        -0.33576E+06
        -0.40516E+06
         0.28153E+06
         0.60721E+06
         0.75547E+05
         0.18152E+06
        -0.24841E+07
        -0.75074E+06
        -0.15226E+07
         0.56463E+05
         0.14326E+07
         0.24183E+07
         0.19861E+07
         0.21383E+07
         0.16430E+07
         0.76597E+06
        -0.11666E+06
        -0.81756E+06
        -0.12965E+07
        -0.54365E+06
        -0.17511E+07
        -0.26489E+07
        -0.22836E+07
        -0.19112E+07
        -0.10139E+07
         0.28737E+06
         0.26206E+06
        -0.16757E+06
        -0.91824E+06
        -0.13922E+07
        -0.10617E+07
        -0.38763E+06
         0.66756E+06
         0.26108E+06
         0.37704E+06
         0.40139E+06
         0.14439E+06
         0.41057E+06
        -0.37846E+06
        -0.81288E+06
         0.86994E+06
        -0.96426E+06
        -0.83520E+06
        -0.11197E+06
        -0.21202E+06
        -0.26070E+07
        -0.87420E+06
        -0.40001E+06
         0.46047E+05
         0.52151E+06
        -0.15846E+06
        -0.19448E+06
        -0.12229E+07
        -0.74387E+06
        -0.17328E+07
        -0.66519E+06
        -0.10811E+07
        -0.34263E+06
        -0.33098E+07
        -0.18893E+07
        -0.12385E+07
        -0.11093E+07
        -0.33279E+06
        -0.44632E+06
         0.33107E+06
         0.78313E+06
        -0.98896E+06
        -0.65772E+06
        -0.40867E+06
        -0.11537E+07
        -0.75683E+06
        -0.55842E+06
        -0.88230E+06
        -0.14380E+07
        -0.13113E+07
        -0.14564E+07
        -0.10444E+07
        -0.50562E+06
        -0.34109E+06
        -0.41130E+06
         0.27648E+06
         0.60238E+06
         0.70739E+05
         0.17693E+06
        -0.24922E+07
        -0.75706E+06
        -0.15356E+07
         0.45312E+05
         0.14312E+07
         0.24104E+07
         0.19678E+07
         0.21178E+07
         0.16312E+07
         0.74804E+06
        -0.13625E+06
        -0.82730E+06
        -0.13080E+07
        -0.54995E+06
        -0.17571E+07
        -0.26545E+07
        -0.22844E+07
        -0.19151E+07
        -0.10194E+07
         0.27240E+06
         0.24362E+06
        -0.18180E+06
        -0.92532E+06
        -0.13956E+07
        -0.10698E+07
        -0.39922E+06
         0.66091E+06
         0.25572E+06
         0.37327E+06
         0.39913E+06
         0.13997E+06
         0.40901E+06
        -0.38365E+06
        -0.81798E+06
         0.86501E+06
        -0.97051E+06
        -0.83923E+06
        -0.11998E+06
        -0.21729E+06
        -0.26088E+07
        -0.88295E+06
        -0.40724E+06
         0.40650E+05
         0.51915E+06
        -0.16337E+06
        -0.19731E+06
        -0.12276E+07
        -0.74882E+06
        -0.17383E+07
        -0.67007E+06
        -0.10856E+07
        -0.34829E+06
        -0.33123E+07
        -0.18906E+07
        -0.12432E+07
        -0.11125E+07
        -0.33966E+06
        -0.45139E+06
         0.33029E+06
         0.78224E+06
        -0.99746E+06
        -0.66253E+06
        -0.41316E+06
        -0.11664E+07
        -0.76530E+06
        -0.56456E+06
        -0.88610E+06
        -0.14419E+07
        -0.13167E+07
        -0.14611E+07
        -0.10488E+07
        -0.51094E+06
        -0.34606E+06
        -0.41665E+06
         0.27166E+06
         0.59814E+06
         0.66179E+05
         0.17509E+06
        -0.25083E+07
        -0.77048E+06
        -0.15455E+07
         0.41928E+05
         0.14268E+07
         0.23945E+07
         0.19448E+07
         0.20993E+07
         0.16189E+07
         0.73516E+06
        -0.14426E+06
        -0.83691E+06
        -0.13218E+07
        -0.55934E+06
        -0.17671E+07
        -0.26661E+07
        -0.22920E+07
        -0.19241E+07
        -0.10304E+07
         0.26005E+06
         0.22964E+06
        -0.19636E+06
        -0.93563E+06
        -0.14055E+07
        -0.10823E+07
        -0.41242E+06
         0.66506E+06
         0.25784E+06
         0.37514E+06
         0.40171E+06
         0.14570E+06
         0.41421E+06
        -0.38080E+06
        -0.80952E+06
         0.86903E+06
        -0.96571E+06
        -0.83282E+06
        -0.11333E+06
        -0.21532E+06
        -0.25963E+07
        -0.86816E+06
        -0.40236E+06
         0.41973E+05
         0.52452E+06
        -0.15785E+06
        -0.19081E+06
        -0.12193E+07
        -0.74032E+06
        -0.17314E+07
        -0.66498E+06
        -0.10827E+07
        -0.34343E+06
        -0.33032E+07
        -0.18836E+07
        -0.12373E+07
        -0.11040E+07
        -0.33423E+06
        -0.44728E+06
         0.33831E+06
         0.78771E+06
        -0.99127E+06
        -0.65741E+06
        -0.41018E+06
        -0.11582E+07
        -0.75752E+06
        -0.55429E+06
        -0.87588E+06
        -0.14347E+07
        -0.13086E+07
        -0.14553E+07
        -0.10440E+07
        -0.50639E+06
        -0.34118E+06
        -0.41136E+06
         0.27747E+06
         0.60394E+06
         0.71959E+05
         0.18127E+06
        -0.24878E+07
        -0.74824E+06
        -0.15245E+07
         0.52145E+05
         0.14236E+07
         0.23956E+07
         0.19613E+07
         0.21174E+07
         0.16313E+07
         0.75387E+06
        -0.12651E+06
        -0.82847E+06
        -0.13069E+07
        -0.54414E+06
        -0.17534E+07
        -0.26555E+07
        -0.22847E+07
        -0.19151E+07
        -0.10218E+07
         0.27336E+06
         0.24544E+06
        -0.18120E+06
        -0.92236E+06
        -0.13943E+07
        -0.10659E+07
        -0.39324E+06
         0.66190E+06
         0.25352E+06
         0.37149E+06
         0.39756E+06
         0.14120E+06
         0.41006E+06
        -0.38704E+06
        -0.81405E+06
         0.86515E+06
        -0.97346E+06
        -0.83880E+06
        -0.12326E+06
        -0.22576E+06
        -0.26008E+07
        -0.87429E+06
        -0.40833E+06
         0.35465E+05
         0.51960E+06
        -0.16387E+06
        -0.19554E+06
        -0.12281E+07
        -0.74931E+06
        -0.17407E+07
        -0.67061E+06
        -0.10907E+07
        -0.34841E+06
        -0.33120E+07
        -0.18908E+07
        -0.12460E+07
        -0.11094E+07
        -0.34069E+06
        -0.45206E+06
         0.33414E+06
         0.78330E+06
        -0.99939E+06
        -0.66310E+06
        -0.41769E+06
        -0.11720E+07
        -0.77083E+06
        -0.56579E+06
        -0.88851E+06
        -0.14468E+07
        -0.13177E+07
        -0.14652E+07
        -0.10523E+07
        -0.51417E+06
        -0.34835E+06
        -0.41964E+06
         0.27121E+06
         0.59918E+06
         0.65834E+05
         0.17600E+06
        -0.25038E+07
        -0.76199E+06
        -0.15402E+07
         0.33929E+05
         0.14024E+07
         0.23753E+07
         0.19488E+07
         0.21014E+07
         0.16104E+07
         0.73314E+06
        -0.15180E+06
        -0.85343E+06
        -0.13234E+07
        -0.56127E+06
        -0.17682E+07
        -0.26725E+07
        -0.23108E+07
        -0.19385E+07
        -0.10335E+07
         0.25705E+06
         0.22875E+06
        -0.18977E+06
        -0.92806E+06
        -0.14066E+07
        -0.10827E+07
        -0.41003E+06
         0.66124E+06
         0.25205E+06
         0.37039E+06
         0.39607E+06
         0.14115E+06
         0.40928E+06
        -0.38920E+06
        -0.81360E+06
         0.86589E+06
        -0.97343E+06
        -0.83948E+06
        -0.12471E+06
        -0.22761E+06
        -0.25977E+07
        -0.87353E+06
        -0.41000E+06
         0.34130E+05
         0.51907E+06
        -0.16443E+06
        -0.19546E+06
        -0.12297E+07
        -0.75064E+06
        -0.17428E+07
        -0.67171E+06
        -0.10924E+07
        -0.34992E+06
        -0.33103E+07
        -0.18911E+07
        -0.12499E+07
        -0.11109E+07
        -0.34449E+06
        -0.45389E+06
         0.33375E+06
         0.78238E+06
        -0.10015E+07
        -0.66468E+06
        -0.41983E+06
        -0.11788E+07
        -0.77864E+06
        -0.57075E+06
        -0.88995E+06
        -0.14482E+07
        -0.13190E+07
        -0.14666E+07
        -0.10536E+07
        -0.51595E+06
        -0.35053E+06
        -0.42300E+06
         0.26884E+06
         0.59816E+06
         0.64810E+05
         0.17501E+06
        -0.25041E+07
        -0.76161E+06
        -0.15443E+07
         0.26906E+05
         0.14021E+07
         0.23749E+07
         0.19438E+07
         0.20879E+07
         0.15954E+07
         0.72485E+06
        -0.15261E+06
        -0.85586E+06
        -0.13276E+07
        -0.56792E+06
        -0.17760E+07
        -0.26780E+07
        -0.23143E+07
        -0.19416E+07
        -0.10367E+07
         0.25116E+06
         0.22143E+06
        -0.19446E+06
        -0.92838E+06
        -0.14080E+07
        -0.10902E+07
        -0.41688E+06
         0.67458E+06
         0.26531E+06
         0.38141E+06
         0.40332E+06
         0.15689E+06
         0.42054E+06
        -0.37668E+06
        -0.79675E+06
         0.87561E+06
        -0.96081E+06
        -0.82464E+06
        -0.10344E+06
        -0.20945E+06
        -0.25780E+07
        -0.85162E+06
        -0.39867E+06
         0.42405E+05
         0.52854E+06
        -0.15237E+06
        -0.18260E+06
        -0.12116E+07
        -0.73390E+06
        -0.17260E+07
        -0.66062E+06
        -0.10795E+07
        -0.33897E+06
        -0.32922E+07
        -0.18738E+07
        -0.12363E+07
        -0.10948E+07
        -0.33271E+06
        -0.44251E+06
         0.34492E+06
         0.78968E+06
        -0.98440E+06
        -0.65045E+06
        -0.40488E+06
        -0.11657E+07
        -0.76273E+06
        -0.55366E+06
        -0.87283E+06
        -0.14314E+07
        -0.13038E+07
        -0.14492E+07
        -0.10363E+07
        -0.49820E+06
        -0.33529E+06
        -0.40927E+06
         0.28044E+06
         0.60864E+06
         0.76697E+05
         0.18549E+06
        -0.24669E+07
        -0.72451E+06
        -0.15130E+07
         0.49494E+05
         0.14297E+07
         0.24099E+07
         0.19730E+07
         0.21101E+07
         0.16205E+07
         0.75224E+06
        -0.12793E+06
        -0.82694E+06
        -0.13047E+07
        -0.54249E+06
        -0.17471E+07
        -0.26478E+07
        -0.22801E+07
        -0.19049E+07
        -0.10051E+07
         0.28406E+06
         0.24954E+06
        -0.17358E+06
        -0.90519E+06
        -0.13806E+07
        -0.10604E+07
        -0.38691E+06
         0.66884E+06
         0.26142E+06
         0.37802E+06
         0.39827E+06
         0.15109E+06
         0.41623E+06
        -0.38239E+06
        -0.80289E+06
         0.86987E+06
        -0.97055E+06
        -0.83056E+06
        -0.11109E+06
        -0.21418E+06
        -0.25830E+07
        -0.86058E+06
        -0.40616E+06
         0.34594E+05
         0.52462E+06
        -0.16034E+06
        -0.18855E+06
        -0.12174E+07
        -0.74209E+06
        -0.17318E+07
        -0.66741E+06
        -0.10888E+07
        -0.34598E+06
        -0.33001E+07
        -0.18785E+07
        -0.12399E+07
        -0.10987E+07
        -0.33764E+06
        -0.44794E+06
         0.34270E+06
         0.78432E+06
        -0.99478E+06
        -0.65557E+06
        -0.40844E+06
        -0.11813E+07
        -0.77367E+06
        -0.55901E+06
        -0.88080E+06
        -0.14408E+07
        -0.13142E+07
        -0.14565E+07
        -0.10435E+07
        -0.50551E+06
        -0.34122E+06
        -0.41399E+06
         0.27522E+06
         0.60150E+06
         0.69325E+05
         0.18007E+06
        -0.24905E+07
        -0.74438E+06
        -0.15311E+07
         0.39871E+05
         0.14265E+07
         0.24008E+07
         0.19531E+07
         0.20860E+07
         0.15973E+07
         0.73160E+06
        -0.15230E+06
        -0.85483E+06
        -0.13244E+07
        -0.55227E+06
        -0.17517E+07
        -0.26508E+07
        -0.22896E+07
        -0.19215E+07
        -0.10174E+07
         0.26940E+06
         0.23619E+06
        -0.18865E+06
        -0.92120E+06
        -0.13907E+07
        -0.10700E+07
        -0.40280E+06
         0.65932E+06
         0.25161E+06
         0.36868E+06
         0.39162E+06
         0.14146E+06
         0.40760E+06
        -0.39102E+06
        -0.81036E+06
         0.86142E+06
        -0.98807E+06
        -0.83784E+06
        -0.12343E+06
        -0.22439E+06
        -0.25881E+07
        -0.87202E+06
        -0.41520E+06
         0.23512E+05
         0.51999E+06
        -0.16687E+06
        -0.19112E+06
        -0.12246E+07
        -0.75169E+06
        -0.17387E+07
        -0.67326E+06
        -0.11044E+07
        -0.35285E+06
        -0.33181E+07
        -0.18866E+07
        -0.12236E+07
        -0.10873E+07
        -0.34591E+06
        -0.45563E+06
         0.34050E+06
         0.78061E+06
        -0.10064E+07
        -0.66423E+06
        -0.41728E+06
        -0.12042E+07
        -0.78446E+06
        -0.54327E+06
        -0.88153E+06
        -0.14510E+07
        -0.13282E+07
        -0.14644E+07
        -0.10528E+07
        -0.51727E+06
        -0.35170E+06
        -0.42228E+06
         0.26916E+06
         0.59576E+06
         0.62821E+05
         0.17334E+06
        -0.25062E+07
        -0.75881E+06
        -0.15434E+07
         0.29040E+05
         0.14115E+07
         0.23762E+07
         0.19249E+07
         0.20591E+07
         0.15740E+07
         0.72621E+06
        -0.19485E+06
        -0.92171E+06
        -0.13521E+07
        -0.56762E+06
        -0.17656E+07
        -0.26632E+07
        -0.23047E+07
        -0.19388E+07
        -0.10375E+07
         0.24647E+06
         0.22086E+06
        -0.20304E+06
        -0.93752E+06
        -0.14029E+07
        -0.10888E+07
        -0.42394E+06
         0.67201E+06
         0.26379E+06
         0.38065E+06
         0.40051E+06
         0.15814E+06
         0.41972E+06
        -0.38022E+06
        -0.79376E+06
         0.86828E+06
        -0.99071E+06
        -0.82451E+06
        -0.10756E+06
        -0.21098E+06
        -0.25693E+07
        -0.85240E+06
        -0.40374E+06
         0.28697E+05
         0.52891E+06
        -0.15295E+06
        -0.17037E+06
        -0.12095E+07
        -0.73705E+06
        -0.17252E+07
        -0.66128E+06
        -0.11020E+07
        -0.34093E+06
        -0.33211E+07
        -0.18755E+07
        -0.11683E+07
        -0.10370E+07
        -0.33598E+06
        -0.44407E+06
         0.35144E+06
         0.79030E+06
        -0.98802E+06
        -0.64841E+06
        -0.40316E+06
        -0.12033E+07
        -0.76613E+06
        -0.48250E+06
        -0.84853E+06
        -0.14340E+07
        -0.13194E+07
        -0.14495E+07
        -0.10359E+07
        -0.49754E+06
        -0.33581E+06
        -0.40974E+06
         0.28186E+06
         0.61003E+06
         0.78595E+05
         0.18569E+06
        -0.24679E+07
        -0.72112E+06
        -0.15048E+07
         0.55949E+05
         0.14287E+07
         0.23960E+07
         0.19524E+07
         0.20868E+07
         0.16047E+07
         0.78581E+06
        -0.20863E+06
        -0.97553E+06
        -0.13501E+07
        -0.54654E+06
        -0.17480E+07
        -0.26484E+07
        -0.22862E+07
        -0.19081E+07
        -0.99982E+06
         0.28168E+06
         0.25134E+06
        -0.17168E+06
        -0.90202E+06
        -0.13701E+07
        -0.10623E+07
        -0.39619E+06
         0.62412E+06
         0.21869E+06
         0.33757E+06
         0.36301E+06
         0.10137E+06
         0.36940E+06
        -0.42544E+06
        -0.84875E+06
         0.82066E+06
        -0.10594E+07
        -0.87493E+06
        -0.18354E+06
        -0.28099E+06
        -0.26268E+07
        -0.92954E+06
        -0.45001E+06
        -0.17846E+05
         0.49209E+06
        -0.19960E+06
        -0.21146E+06
        -0.12745E+07
        -0.80084E+06
        -0.17882E+07
        -0.70374E+06
        -0.11634E+07
        -0.38125E+06
        -0.33920E+07
        -0.19252E+07
        -0.11933E+07
        -0.10716E+07
        -0.38061E+06
        -0.48570E+06
         0.31437E+06
         0.74893E+06
        -0.10570E+07
        -0.70498E+06
        -0.46472E+06
        -0.12921E+07
        -0.83517E+06
        -0.52309E+06
        -0.91323E+06
        -0.15037E+07
        -0.13891E+07
        -0.15097E+07
        -0.10981E+07
        -0.57118E+06
        -0.39671E+06
        -0.46387E+06
         0.23131E+06
         0.55327E+06
         0.88711E+04
         0.12771E+06
        -0.26012E+07
        -0.85045E+06
        -0.16394E+07
        -0.81136E+05
         0.12921E+07
         0.22643E+07
         0.18184E+07
         0.19431E+07
         0.14701E+07
         0.66313E+06
        -0.37954E+06
        -0.11615E+07
        -0.14816E+07
        -0.65558E+06
        -0.18625E+07
        -0.27675E+07
        -0.24091E+07
        -0.20457E+07
        -0.11411E+07
         0.14610E+06
         0.12579E+06
        -0.29187E+06
        -0.10250E+07
        -0.14965E+07
        -0.11838E+07
        -0.51693E+06
         0.65136E+06
         0.22174E+06
         0.34562E+06
         0.37682E+06
         0.12113E+06
         0.38654E+06
        -0.42049E+06
        -0.81392E+06
         0.85246E+06
        -0.10094E+07
        -0.86086E+06
        -0.18220E+06
        -0.29902E+06
        -0.25857E+07
        -0.89425E+06
        -0.41514E+06
         0.98820E+04
         0.51301E+06
        -0.17438E+06
        -0.18624E+06
        -0.12447E+07
        -0.77885E+06
        -0.17430E+07
        -0.67203E+06
        -0.11115E+07
        -0.35178E+06
        -0.33314E+07
        -0.18666E+07
        -0.11475E+07
        -0.10207E+07
        -0.35439E+06
        -0.46722E+06
         0.32754E+06
         0.74287E+06
        -0.10469E+07
        -0.70899E+06
        -0.48206E+06
        -0.12514E+07
        -0.78681E+06
        -0.48112E+06
        -0.88403E+06
        -0.14647E+07
        -0.13474E+07
        -0.14683E+07
        -0.10750E+07
        -0.55979E+06
        -0.38735E+06
        -0.44101E+06
         0.24840E+06
         0.55422E+06
         0.13511E+05
         0.12921E+06
        -0.25499E+07
        -0.78366E+06
        -0.16224E+07
        -0.11072E+06
         0.12308E+07
         0.22268E+07
         0.18796E+07
         0.20060E+07
         0.15202E+07
         0.69291E+06
        -0.37119E+06
        -0.11360E+07
        -0.14319E+07
        -0.63097E+06
        -0.18106E+07
        -0.26932E+07
        -0.23457E+07
        -0.19972E+07
        -0.11201E+07
         0.14366E+06
         0.15379E+06
        -0.25191E+06
        -0.96142E+06
        -0.14195E+07
        -0.11231E+07
        -0.45419E+06
         0.18841E+09
         0.18079E+09
         0.17783E+09
         0.14926E+09
         0.22592E+09
         0.20015E+09
         0.17512E+09
         0.21379E+09
         0.17248E+09
         0.21358E+09
         0.20878E+09
         0.29068E+09
         0.25520E+09
         0.23045E+09
         0.29975E+09
         0.17174E+09
         0.16376E+09
         0.13534E+09
         0.17989E+09
         0.16810E+09
         0.23420E+09
         0.23515E+09
         0.22234E+09
         0.15992E+09
         0.20131E+09
         0.14710E+09
         0.22707E+09
         0.18421E+09
         0.19076E+09
         0.20988E+09
         0.16885E+09
         0.15475E+09
         0.14923E+09
         0.15375E+09
         0.25787E+09
         0.21702E+09
         0.22514E+09
         0.28029E+09
         0.26456E+09
         0.25847E+09
         0.27378E+09
         0.25599E+09
         0.24262E+09
         0.21266E+09
         0.21949E+09
         0.26170E+09
         0.22636E+09
         0.20577E+09
         0.19450E+09
         0.20808E+09
         0.24535E+09
         0.21295E+09
         0.48590E+09
         0.47616E+09
         0.48526E+09
         0.47009E+09
         0.48553E+09
         0.50986E+09
         0.51189E+09
         0.50581E+09
         0.50961E+09
         0.52381E+09
         0.50727E+09
         0.47778E+09
         0.42296E+09
         0.39906E+09
         0.40527E+09
         0.41502E+09
         0.42080E+09
         0.45907E+09
         0.49204E+09
         0.49457E+09
         0.45317E+09
         0.43685E+09
         0.45250E+09
         0.44716E+09
         0.44390E+09
         0.44479E+09
         0.22269E+10
         0.23315E+10
         0.22976E+10
         0.20948E+10
         0.25837E+10
         0.24252E+10
         0.25227E+10
         0.25443E+10
         0.21758E+10
         0.25429E+10
         0.27715E+10
         0.31102E+10
         0.28183E+10
         0.28526E+10
         0.32191E+10
         0.21321E+10
         0.22915E+10
         0.19974E+10
         0.23673E+10
         0.24909E+10
         0.25810E+10
         0.26371E+10
         0.24769E+10
         0.22759E+10
         0.25716E+10
         0.21953E+10
         0.28423E+10
         0.27933E+10
         0.28061E+10
         0.26630E+10
         0.21548E+10
         0.22659E+10
         0.21116E+10
         0.22089E+10
         0.28301E+10
         0.25949E+10
         0.26042E+10
         0.31163E+10
         0.30355E+10
         0.29988E+10
         0.30530E+10
         0.28987E+10
         0.27413E+10
         0.24172E+10
         0.25168E+10
         0.28295E+10
         0.26148E+10
         0.24578E+10
         0.24085E+10
         0.24979E+10
         0.27140E+10
         0.25054E+10
         0.44916E+10
         0.43768E+10
         0.44682E+10
         0.43289E+10
         0.44577E+10
         0.46859E+10
         0.47610E+10
         0.47504E+10
         0.47837E+10
         0.48928E+10
         0.47514E+10
         0.44679E+10
         0.40060E+10
         0.37866E+10
         0.37972E+10
         0.38460E+10
         0.38835E+10
         0.42107E+10
         0.45110E+10
         0.45295E+10
         0.41929E+10
         0.40635E+10
         0.41975E+10
         0.41673E+10
         0.41200E+10
         0.41084E+10
  
SCALARS                      stress_yy  double 1
LOOKUP_TABLE default
         0.37302E+12
         0.36750E+12
         0.37100E+12
         0.37728E+12
        -0.11630E+03
        -0.13041E+03
        -0.12487E+03
        -0.11344E+03
         0.36731E+12
         0.36918E+12
        -0.11727E+03
        -0.11349E+03
         0.35950E+12
         0.35921E+12
        -0.13934E+03
        -0.13101E+03
         0.37636E+12
         0.35964E+12
        -0.10296E+03
        -0.11420E+03
         0.35349E+12
         0.34872E+12
         0.35632E+12
        -0.13810E+03
        -0.12061E+03
        -0.12454E+03
         0.34890E+12
         0.34193E+12
        -0.13249E+03
        -0.11173E+03
         0.37606E+12
         0.36879E+12
         0.38310E+12
        -0.11306E+03
        -0.10511E+03
        -0.10219E+03
         0.37185E+12
         0.36258E+12
        -0.11961E+03
        -0.10915E+03
         0.36818E+12
         0.36103E+12
        -0.10338E+03
        -0.91520E+02
         0.37423E+12
         0.37691E+12
        -0.11329E+03
        -0.12659E+03
         0.35529E+12
        -0.11067E+03
         0.37639E+12
        -0.13005E+03
         0.34689E+12
        -0.11688E+03
         0.34470E+12
        -0.11211E+03
         0.34474E+12
         0.35253E+12
        -0.11422E+03
        -0.11124E+03
         0.37591E+12
         0.37311E+12
        -0.11454E+03
        -0.12948E+03
         0.37765E+12
        -0.11052E+03
         0.37433E+12
        -0.12062E+03
         0.36559E+12
         0.36471E+12
        -0.11611E+03
        -0.12166E+03
         0.36274E+12
        -0.12268E+03
         0.33945E+12
        -0.96928E+02
         0.33823E+12
        -0.94083E+02
         0.33884E+12
        -0.99202E+02
         0.34221E+12
         0.34572E+12
        -0.94516E+02
        -0.98539E+02
         0.35278E+12
        -0.91776E+02
         0.37409E+12
        -0.12035E+03
         0.37077E+12
        -0.12318E+03
         0.36804E+12
         0.36654E+12
        -0.11829E+03
        -0.11967E+03
         0.36839E+12
        -0.10870E+03
         0.36970E+12
        -0.10714E+03
         0.36852E+12
        -0.11470E+03
         0.36810E+12
         0.36930E+12
        -0.11248E+03
        -0.11578E+03
         0.36151E+12
         0.36467E+12
        -0.87330E+02
        -0.82139E+02
         0.36091E+12
        -0.83389E+02
         0.36456E+12
        -0.79956E+02
         0.36096E+12
        -0.78842E+02
         0.35300E+12
        -0.74506E+02
         0.34527E+12
        -0.66190E+02
         0.34064E+12
        -0.59601E+02
         0.34017E+12
        -0.59187E+02
         0.34032E+12
        -0.64185E+02
         0.34534E+12
        -0.67456E+02
         0.35471E+12
        -0.61595E+02
         0.36500E+12
        -0.55521E+02
         0.37103E+12
        -0.55458E+02
         0.37698E+12
        -0.61988E+02
         0.38090E+12
        -0.70681E+02
         0.38076E+12
        -0.75933E+02
         0.37122E+12
        -0.82007E+02
         0.36456E+12
        -0.87858E+02
         0.36227E+12
        -0.80484E+02
         0.36584E+12
        -0.70606E+02
         0.36770E+12
        -0.70388E+02
         0.36458E+12
        -0.77013E+02
         0.36463E+12
        -0.82102E+02
         0.36698E+12
        -0.77914E+02
         0.37005E+12
        -0.75324E+02
        -0.31565E+11
        -0.31719E+11
        -0.31700E+11
        -0.31492E+11
        -0.31850E+11
        -0.31683E+11
        -0.31886E+11
        -0.31785E+11
        -0.31527E+11
        -0.31694E+11
        -0.31982E+11
        -0.32008E+11
        -0.31935E+11
        -0.31929E+11
        -0.31978E+11
        -0.31503E+11
        -0.31544E+11
        -0.31426E+11
        -0.31735E+11
        -0.31684E+11
        -0.31756E+11
        -0.31709E+11
        -0.31794E+11
        -0.31773E+11
        -0.31688E+11
        -0.31695E+11
        -0.31834E+11
        -0.31822E+11
        -0.31915E+11
        -0.31771E+11
        -0.31523E+11
        -0.31721E+11
        -0.31525E+11
        -0.31658E+11
        -0.32026E+11
        -0.31926E+11
        -0.31872E+11
        -0.31935E+11
        -0.31942E+11
        -0.32032E+11
        -0.32089E+11
        -0.31938E+11
        -0.31753E+11
        -0.31781E+11
        -0.31878E+11
        -0.32022E+11
        -0.31901E+11
        -0.31744E+11
        -0.31756E+11
        -0.31878E+11
        -0.31986E+11
        -0.31837E+11
        -0.32198E+11
        -0.32120E+11
        -0.32135E+11
        -0.32114E+11
        -0.32120E+11
        -0.32165E+11
        -0.32204E+11
        -0.32215E+11
        -0.32211E+11
        -0.32214E+11
        -0.32228E+11
        -0.32124E+11
        -0.32073E+11
        -0.32052E+11
        -0.32013E+11
        -0.31981E+11
        -0.31983E+11
        -0.32035E+11
        -0.32175E+11
        -0.32146E+11
        -0.32100E+11
        -0.32101E+11
        -0.32109E+11
        -0.32152E+11
        -0.32086E+11
        -0.32059E+11
         0.13371E+06
        -0.25836E+06
        -0.95793E+05
         0.75056E+06
         0.23499E+06
         0.88147E+06
        -0.37207E+06
        -0.12414E+07
         0.48701E+06
        -0.12834E+07
        -0.12356E+07
        -0.10611E+07
        -0.32201E+06
        -0.18846E+07
        -0.16085E+07
         0.11429E+06
         0.47983E+06
         0.63952E+06
        -0.46215E+06
         0.81988E+05
        -0.19487E+06
         0.31115E+06
        -0.48380E+06
        -0.19827E+06
        -0.12906E+07
        -0.11900E+06
        -0.25047E+07
        -0.17348E+07
        -0.90726E+06
        -0.11391E+07
        -0.31940E+04
        -0.42569E+05
         0.51153E+06
         0.91642E+06
         0.44169E+05
        -0.59673E+05
        -0.44343E+05
        -0.15615E+07
        -0.15743E+07
        -0.11369E+07
        -0.18019E+06
        -0.21256E+06
        -0.16201E+06
        -0.58193E+06
        -0.67696E+06
        -0.11326E+07
        -0.53057E+06
        -0.12095E+06
        -0.22933E+06
        -0.91187E+04
         0.37820E+06
         0.10497E+07
        -0.11501E+07
         0.49367E+06
        -0.90916E+06
         0.11719E+06
         0.83517E+06
         0.12912E+07
         0.76028E+06
         0.10580E+07
         0.66785E+06
         0.12725E+06
         0.52836E+06
         0.65121E+06
         0.15843E+06
         0.83585E+06
        -0.31104E+06
        -0.12387E+07
        -0.13827E+07
        -0.15926E+07
        -0.17977E+07
        -0.86428E+06
        -0.72808E+06
        -0.11035E+07
        -0.15620E+07
        -0.10430E+07
         0.88911E+05
         0.77477E+06
         0.82662E+05
        -0.30622E+06
        -0.14243E+06
         0.71216E+06
         0.17343E+06
         0.82753E+06
        -0.41893E+06
        -0.13015E+07
         0.43722E+06
        -0.13492E+07
        -0.12897E+07
        -0.11425E+07
        -0.39181E+06
        -0.19449E+07
        -0.16905E+07
         0.62095E+05
         0.43047E+06
         0.60203E+06
        -0.51508E+06
         0.30130E+05
        -0.26476E+06
         0.24355E+06
        -0.55496E+06
        -0.24895E+06
        -0.13572E+07
        -0.16718E+06
        -0.25634E+07
        -0.17873E+07
        -0.96282E+06
        -0.12073E+07
        -0.51767E+05
        -0.88247E+05
         0.47192E+06
         0.87755E+06
        -0.26258E+05
        -0.11757E+06
        -0.10471E+06
        -0.16433E+07
        -0.16497E+07
        -0.12101E+07
        -0.26050E+06
        -0.29045E+06
        -0.23638E+06
        -0.64990E+06
        -0.74058E+06
        -0.12042E+07
        -0.59379E+06
        -0.17871E+06
        -0.28006E+06
        -0.61784E+05
         0.31314E+06
         0.99261E+06
        -0.12837E+07
         0.36324E+06
        -0.10377E+07
        -0.57538E+04
         0.70500E+06
         0.11463E+07
         0.61568E+06
         0.91195E+06
         0.51996E+06
        -0.23920E+05
         0.37800E+06
         0.51211E+06
         0.42504E+05
         0.72755E+06
        -0.42452E+06
        -0.13600E+07
        -0.15069E+07
        -0.17223E+07
        -0.19279E+07
        -0.10018E+07
        -0.85792E+06
        -0.12207E+07
        -0.16795E+07
        -0.11630E+07
        -0.32391E+05
         0.65132E+06
         0.94685E+05
        -0.29685E+06
        -0.13264E+06
         0.72167E+06
         0.18906E+06
         0.84153E+06
        -0.40982E+06
        -0.12897E+07
         0.44505E+06
        -0.13492E+07
        -0.12794E+07
        -0.11268E+07
        -0.37841E+06
        -0.19289E+07
        -0.16714E+07
         0.51731E+05
         0.42733E+06
         0.61225E+06
        -0.52841E+06
         0.20476E+05
        -0.27660E+06
         0.23911E+06
        -0.60164E+06
        -0.28549E+06
        -0.13875E+07
        -0.20084E+06
        -0.25521E+07
        -0.17943E+07
        -0.98490E+06
        -0.12553E+07
        -0.51448E+05
        -0.98493E+05
         0.48167E+06
         0.88984E+06
        -0.77956E+04
        -0.10321E+06
        -0.91402E+05
        -0.16298E+07
        -0.16386E+07
        -0.12062E+07
        -0.26266E+06
        -0.31871E+06
        -0.27650E+06
        -0.69551E+06
        -0.75162E+06
        -0.11945E+07
        -0.58245E+06
        -0.16521E+06
        -0.26562E+06
        -0.44990E+05
         0.33156E+06
         0.10087E+07
        -0.12438E+07
         0.39889E+06
        -0.99832E+06
         0.24706E+05
         0.72753E+06
         0.11689E+07
         0.64451E+06
         0.94090E+06
         0.54905E+06
         0.63286E+04
         0.39584E+06
         0.51139E+06
         0.44383E+05
         0.74744E+06
        -0.41127E+06
        -0.13847E+07
        -0.15337E+07
        -0.17154E+07
        -0.18923E+07
        -0.96041E+06
        -0.82103E+06
        -0.11834E+07
        -0.16377E+07
        -0.11276E+07
        -0.34977E+04
         0.67926E+06
         0.87459E+05
        -0.30093E+06
        -0.13663E+06
         0.71507E+06
         0.18290E+06
         0.83654E+06
        -0.41425E+06
        -0.12988E+07
         0.43037E+06
        -0.13789E+07
        -0.12855E+07
        -0.11351E+07
        -0.38391E+06
        -0.19353E+07
        -0.16823E+07
         0.10238E+05
         0.39799E+06
         0.60559E+06
        -0.57477E+06
        -0.23117E+05
        -0.32973E+06
         0.19239E+06
        -0.71027E+06
        -0.36725E+06
        -0.14660E+07
        -0.27774E+06
        -0.25682E+07
        -0.18369E+07
        -0.10532E+07
        -0.13686E+07
        -0.74868E+05
        -0.13956E+06
         0.47497E+06
         0.88322E+06
        -0.16812E+05
        -0.10919E+06
        -0.96272E+05
        -0.16453E+07
        -0.16578E+07
        -0.12396E+07
        -0.30827E+06
        -0.40690E+06
        -0.38501E+06
        -0.80282E+06
        -0.80443E+06
        -0.12234E+07
        -0.60288E+06
        -0.17562E+06
        -0.27387E+06
        -0.54578E+05
         0.32173E+06
         0.10023E+07
        -0.12624E+07
         0.38598E+06
        -0.10188E+07
         0.69694E+04
         0.71551E+06
         0.11552E+07
         0.62156E+06
         0.91608E+06
         0.52484E+06
        -0.22948E+05
         0.34953E+06
         0.43653E+06
        -0.25886E+05
         0.71407E+06
        -0.44871E+06
        -0.14879E+07
        -0.16433E+07
        -0.17667E+07
        -0.19167E+07
        -0.98357E+06
        -0.83877E+06
        -0.12043E+07
        -0.16597E+07
        -0.11422E+07
        -0.14536E+05
         0.66833E+06
         0.74280E+05
        -0.30918E+06
        -0.14351E+06
         0.70827E+06
         0.17587E+06
         0.82977E+06
        -0.42087E+06
        -0.13130E+07
         0.41283E+06
        -0.14097E+07
        -0.12920E+07
        -0.11403E+07
        -0.39006E+06
        -0.19423E+07
        -0.16879E+07
        -0.17774E+05
         0.37463E+06
         0.59942E+06
        -0.60545E+06
        -0.54433E+05
        -0.36407E+06
         0.15882E+06
        -0.77705E+06
        -0.41781E+06
        -0.15234E+07
        -0.32678E+06
        -0.25822E+07
        -0.18676E+07
        -0.11000E+07
        -0.14442E+07
        -0.99302E+05
        -0.16927E+06
         0.46252E+06
         0.87412E+06
        -0.26131E+05
        -0.11680E+06
        -0.10357E+06
        -0.16570E+07
        -0.16739E+07
        -0.12651E+07
        -0.34054E+06
        -0.46615E+06
        -0.45620E+06
        -0.87125E+06
        -0.83944E+06
        -0.12425E+07
        -0.62105E+06
        -0.19258E+06
        -0.28857E+06
        -0.68967E+05
         0.30641E+06
         0.99211E+06
        -0.12791E+07
         0.37471E+06
        -0.10363E+07
        -0.68329E+04
         0.70986E+06
         0.11513E+07
         0.61182E+06
         0.89973E+06
         0.50428E+06
        -0.41071E+05
         0.32133E+06
         0.38470E+06
        -0.73794E+05
         0.68828E+06
        -0.47514E+06
        -0.15548E+07
        -0.17203E+07
        -0.18035E+07
        -0.19279E+07
        -0.10046E+07
        -0.86225E+06
        -0.12283E+07
        -0.16879E+07
        -0.11661E+07
        -0.29206E+05
         0.65743E+06
         0.42297E+05
        -0.32496E+06
        -0.15032E+06
         0.71287E+06
         0.18377E+06
         0.83940E+06
        -0.42557E+06
        -0.13366E+07
         0.38837E+06
        -0.14505E+07
        -0.12881E+07
        -0.11219E+07
        -0.38301E+06
        -0.19388E+07
        -0.16658E+07
        -0.12491E+05
         0.36869E+06
         0.60988E+06
        -0.59970E+06
        -0.49561E+05
        -0.35460E+06
         0.17054E+06
        -0.77563E+06
        -0.41864E+06
        -0.15495E+07
        -0.33328E+06
        -0.25856E+07
        -0.18711E+07
        -0.10966E+07
        -0.14479E+07
        -0.12856E+06
        -0.18475E+06
         0.44214E+06
         0.87159E+06
        -0.17962E+05
        -0.11621E+06
        -0.10497E+06
        -0.16434E+07
        -0.16626E+07
        -0.12518E+07
        -0.32517E+06
        -0.45666E+06
        -0.44869E+06
        -0.87607E+06
        -0.84431E+06
        -0.12458E+07
        -0.63683E+06
        -0.22716E+06
        -0.32526E+06
        -0.88697E+05
         0.30136E+06
         0.99682E+06
        -0.12463E+07
         0.40847E+06
        -0.10089E+07
         0.11622E+05
         0.72916E+06
         0.11777E+07
         0.64178E+06
         0.92854E+06
         0.53706E+06
         0.24007E+04
         0.35933E+06
         0.40754E+06
        -0.48501E+05
         0.71457E+06
        -0.44966E+06
        -0.15346E+07
        -0.17059E+07
        -0.17889E+07
        -0.19103E+07
        -0.99236E+06
        -0.86501E+06
        -0.12450E+07
        -0.16990E+07
        -0.11604E+07
        -0.12599E+05
         0.68121E+06
        -0.64389E+04
        -0.35281E+06
        -0.16649E+06
         0.70848E+06
         0.17681E+06
         0.83841E+06
        -0.44462E+06
        -0.13813E+07
         0.34736E+06
        -0.15093E+07
        -0.13016E+07
        -0.11288E+07
        -0.39426E+06
        -0.19575E+07
        -0.16716E+07
        -0.20811E+05
         0.34935E+06
         0.60807E+06
        -0.60545E+06
        -0.56606E+05
        -0.35974E+06
         0.16719E+06
        -0.78096E+06
        -0.42461E+06
        -0.15852E+07
        -0.34533E+06
        -0.26094E+07
        -0.18869E+07
        -0.11011E+07
        -0.14578E+07
        -0.16964E+06
        -0.21034E+06
         0.41141E+06
         0.85950E+06
        -0.28893E+05
        -0.12846E+06
        -0.11925E+06
        -0.16557E+07
        -0.16745E+07
        -0.12581E+07
        -0.32819E+06
        -0.45783E+06
        -0.44946E+06
        -0.88695E+06
        -0.86393E+06
        -0.12729E+07
        -0.67305E+06
        -0.27945E+06
        -0.37785E+06
        -0.12349E+06
         0.28095E+06
         0.98986E+06
        -0.12599E+07
         0.39777E+06
        -0.10172E+07
         0.23053E+04
         0.71560E+06
         0.11617E+07
         0.62852E+06
         0.91725E+06
         0.52549E+06
        -0.62140E+04
         0.35246E+06
         0.39911E+06
        -0.49974E+05
         0.71245E+06
        -0.45524E+06
        -0.15378E+07
        -0.17127E+07
        -0.18122E+07
        -0.19449E+07
        -0.10303E+07
        -0.90778E+06
        -0.12977E+07
        -0.17454E+07
        -0.11847E+07
        -0.25587E+05
         0.67110E+06
        -0.20638E+05
        -0.36308E+06
        -0.17323E+06
         0.70274E+06
         0.16937E+06
         0.83183E+06
        -0.45439E+06
        -0.13976E+07
         0.33497E+06
        -0.15286E+07
        -0.13116E+07
        -0.11385E+07
        -0.40535E+06
        -0.19674E+07
        -0.16808E+07
        -0.28296E+05
         0.34111E+06
         0.60329E+06
        -0.61076E+06
        -0.62060E+05
        -0.36759E+06
         0.15941E+06
        -0.78795E+06
        -0.42914E+06
        -0.15997E+07
        -0.35200E+06
        -0.26197E+07
        -0.18954E+07
        -0.11091E+07
        -0.14672E+07
        -0.18284E+06
        -0.22025E+06
         0.40101E+06
         0.85253E+06
        -0.38119E+05
        -0.13520E+06
        -0.12801E+06
        -0.16710E+07
        -0.16882E+07
        -0.12710E+07
        -0.34191E+06
        -0.46831E+06
        -0.45633E+06
        -0.89675E+06
        -0.87585E+06
        -0.12857E+07
        -0.68528E+06
        -0.29238E+06
        -0.39066E+06
        -0.13526E+06
         0.26832E+06
         0.98120E+06
        -0.12787E+07
         0.37924E+06
        -0.10300E+07
        -0.10568E+05
         0.69991E+06
         0.11481E+07
         0.61457E+06
         0.89795E+06
         0.49971E+06
        -0.33229E+05
         0.32800E+06
         0.38796E+06
        -0.58754E+05
         0.69367E+06
        -0.47490E+06
        -0.15567E+07
        -0.17374E+07
        -0.18358E+07
        -0.19646E+07
        -0.10462E+07
        -0.92089E+06
        -0.13154E+07
        -0.17688E+07
        -0.12061E+07
        -0.43621E+05
         0.65329E+06
        -0.11587E+05
        -0.35598E+06
        -0.16832E+06
         0.70372E+06
         0.17664E+06
         0.83331E+06
        -0.44821E+06
        -0.13879E+07
         0.34225E+06
        -0.15203E+07
        -0.13059E+07
        -0.11285E+07
        -0.39814E+06
        -0.19554E+07
        -0.16659E+07
        -0.18282E+05
         0.34759E+06
         0.60815E+06
        -0.60210E+06
        -0.54299E+05
        -0.35791E+06
         0.16878E+06
        -0.77784E+06
        -0.42060E+06
        -0.15941E+07
        -0.34372E+06
        -0.26054E+07
        -0.18857E+07
        -0.11014E+07
        -0.14601E+07
        -0.17462E+06
        -0.21400E+06
         0.40510E+06
         0.85438E+06
        -0.27524E+05
        -0.12789E+06
        -0.12137E+06
        -0.16610E+07
        -0.16808E+07
        -0.12639E+07
        -0.33297E+06
        -0.45821E+06
        -0.44621E+06
        -0.88821E+06
        -0.86887E+06
        -0.12778E+07
        -0.67790E+06
        -0.28322E+06
        -0.38172E+06
        -0.12793E+06
         0.27370E+06
         0.98321E+06
        -0.12506E+07
         0.40668E+06
        -0.10137E+07
        -0.38338E+04
         0.71352E+06
         0.11695E+07
         0.63848E+06
         0.91508E+06
         0.50616E+06
        -0.23207E+05
         0.34605E+06
         0.41349E+06
        -0.36398E+05
         0.70811E+06
        -0.46121E+06
        -0.15410E+07
        -0.17216E+07
        -0.18161E+07
        -0.19458E+07
        -0.10240E+07
        -0.89820E+06
        -0.12951E+07
        -0.17519E+07
        -0.11908E+07
        -0.28283E+05
         0.66993E+06
        -0.13888E+05
        -0.35648E+06
        -0.16978E+06
         0.69968E+06
         0.17479E+06
         0.82960E+06
        -0.44967E+06
        -0.13931E+07
         0.33587E+06
        -0.15292E+07
        -0.13107E+07
        -0.11343E+07
        -0.39980E+06
        -0.19598E+07
        -0.16756E+07
        -0.22863E+05
         0.34199E+06
         0.60303E+06
        -0.60656E+06
        -0.58483E+05
        -0.36216E+06
         0.16380E+06
        -0.78148E+06
        -0.42351E+06
        -0.16003E+07
        -0.34622E+06
        -0.26088E+07
        -0.18868E+07
        -0.11030E+07
        -0.14651E+07
        -0.17851E+06
        -0.21679E+06
         0.39912E+06
         0.84914E+06
        -0.30863E+05
        -0.13103E+06
        -0.12348E+06
        -0.16744E+07
        -0.16888E+07
        -0.12706E+07
        -0.33978E+06
        -0.46218E+06
        -0.45209E+06
        -0.89136E+06
        -0.87200E+06
        -0.12820E+07
        -0.68379E+06
        -0.28909E+06
        -0.38656E+06
        -0.13225E+06
         0.26876E+06
         0.97818E+06
        -0.12587E+07
         0.40021E+06
        -0.10270E+07
        -0.14994E+05
         0.71188E+06
         0.11617E+07
         0.62030E+06
         0.89484E+06
         0.49413E+06
        -0.41182E+05
         0.32644E+06
         0.40363E+06
        -0.47939E+05
         0.70173E+06
        -0.46714E+06
        -0.15467E+07
        -0.17228E+07
        -0.18201E+07
        -0.19515E+07
        -0.10390E+07
        -0.91683E+06
        -0.13094E+07
        -0.17593E+07
        -0.11942E+07
        -0.36271E+05
         0.65864E+06
        -0.20392E+05
        -0.36167E+06
        -0.17370E+06
         0.69710E+06
         0.16946E+06
         0.82708E+06
        -0.45387E+06
        -0.14003E+07
         0.33002E+06
        -0.15380E+07
        -0.13159E+07
        -0.11421E+07
        -0.40482E+06
        -0.19631E+07
        -0.16854E+07
        -0.29301E+05
         0.33741E+06
         0.60013E+06
        -0.61193E+06
        -0.61573E+05
        -0.36753E+06
         0.15873E+06
        -0.78700E+06
        -0.42817E+06
        -0.16064E+07
        -0.35135E+06
        -0.26113E+07
        -0.18890E+07
        -0.11051E+07
        -0.14690E+07
        -0.18426E+06
        -0.22159E+06
         0.39540E+06
         0.84789E+06
        -0.38996E+05
        -0.13636E+06
        -0.12824E+06
        -0.16874E+07
        -0.16977E+07
        -0.12764E+07
        -0.34378E+06
        -0.46554E+06
        -0.45746E+06
        -0.89685E+06
        -0.87722E+06
        -0.12876E+07
        -0.68931E+06
        -0.29413E+06
        -0.39118E+06
        -0.13598E+06
         0.26407E+06
         0.97590E+06
        -0.12748E+07
         0.38664E+06
        -0.10372E+07
        -0.18391E+05
         0.70740E+06
         0.11459E+07
         0.59744E+06
         0.87657E+06
         0.48168E+06
        -0.54115E+05
         0.31843E+06
         0.39390E+06
        -0.61799E+05
         0.69226E+06
        -0.47703E+06
        -0.15583E+07
        -0.17308E+07
        -0.18293E+07
        -0.19627E+07
        -0.10513E+07
        -0.93101E+06
        -0.13241E+07
        -0.17699E+07
        -0.12039E+07
        -0.48540E+05
         0.64575E+06
        -0.16089E+05
        -0.35938E+06
        -0.17199E+06
         0.69935E+06
         0.17425E+06
         0.83132E+06
        -0.44999E+06
        -0.13939E+07
         0.33313E+06
        -0.15358E+07
        -0.13106E+07
        -0.11352E+07
        -0.40258E+06
        -0.19520E+07
        -0.16717E+07
        -0.23636E+05
         0.33954E+06
         0.60496E+06
        -0.60688E+06
        -0.55309E+05
        -0.35988E+06
         0.16711E+06
        -0.78018E+06
        -0.42285E+06
        -0.16051E+07
        -0.34594E+06
        -0.26022E+07
        -0.18829E+07
        -0.10964E+07
        -0.14610E+07
        -0.17769E+06
        -0.21723E+06
         0.40051E+06
         0.85299E+06
        -0.32435E+05
        -0.13175E+06
        -0.12551E+06
        -0.16795E+07
        -0.16903E+07
        -0.12659E+07
        -0.33377E+06
        -0.45783E+06
        -0.44933E+06
        -0.89182E+06
        -0.87318E+06
        -0.12833E+07
        -0.68496E+06
        -0.28856E+06
        -0.38518E+06
        -0.12967E+06
         0.26970E+06
         0.98162E+06
        -0.12543E+07
         0.40874E+06
        -0.10165E+07
        -0.81845E+04
         0.70398E+06
         0.11470E+07
         0.61404E+06
         0.89494E+06
         0.49391E+06
        -0.35452E+05
         0.33616E+06
         0.40223E+06
        -0.46853E+05
         0.70739E+06
        -0.46319E+06
        -0.15477E+07
        -0.17239E+07
        -0.18204E+07
        -0.19542E+07
        -0.10379E+07
        -0.91540E+06
        -0.13091E+07
        -0.17569E+07
        -0.11926E+07
        -0.31911E+05
         0.66522E+06
        -0.19093E+05
        -0.36352E+06
        -0.17580E+06
         0.69486E+06
         0.16881E+06
         0.82620E+06
        -0.45519E+06
        -0.14005E+07
         0.32834E+06
        -0.15462E+07
        -0.13177E+07
        -0.11449E+07
        -0.41278E+06
        -0.19580E+07
        -0.16789E+07
        -0.28811E+05
         0.33383E+06
         0.59950E+06
        -0.61338E+06
        -0.60296E+05
        -0.36928E+06
         0.15801E+06
        -0.78957E+06
        -0.42826E+06
        -0.16148E+07
        -0.35038E+06
        -0.26110E+07
        -0.18910E+07
        -0.11024E+07
        -0.14672E+07
        -0.18303E+06
        -0.22175E+06
         0.39342E+06
         0.84822E+06
        -0.40202E+05
        -0.13795E+06
        -0.13327E+06
        -0.16935E+07
        -0.17040E+07
        -0.12771E+07
        -0.34661E+06
        -0.46932E+06
        -0.45843E+06
        -0.90250E+06
        -0.88238E+06
        -0.12914E+07
        -0.69268E+06
        -0.29655E+06
        -0.39124E+06
        -0.13392E+06
         0.26344E+06
         0.97590E+06
        -0.12702E+07
         0.39484E+06
        -0.10325E+07
        -0.26407E+05
         0.68265E+06
         0.11268E+07
         0.60171E+06
         0.87914E+06
         0.47289E+06
        -0.56225E+05
         0.31087E+06
         0.37716E+06
        -0.63422E+05
         0.69017E+06
        -0.47796E+06
        -0.15648E+07
        -0.17504E+07
        -0.18440E+07
        -0.19661E+07
        -0.10542E+07
        -0.93227E+06
        -0.13177E+07
        -0.17629E+07
        -0.12047E+07
        -0.48532E+05
         0.64873E+06
        -0.19589E+05
        -0.36483E+06
        -0.17705E+06
         0.69302E+06
         0.16785E+06
         0.82445E+06
        -0.45636E+06
        -0.14021E+07
         0.32816E+06
        -0.15487E+07
        -0.13195E+07
        -0.11461E+07
        -0.41437E+06
        -0.19563E+07
        -0.16793E+07
        -0.29698E+05
         0.33329E+06
         0.59843E+06
        -0.61439E+06
        -0.60458E+05
        -0.37158E+06
         0.15656E+06
        -0.79169E+06
        -0.42913E+06
        -0.16182E+07
        -0.35135E+06
        -0.26094E+07
        -0.18922E+07
        -0.11035E+07
        -0.14693E+07
        -0.18570E+06
        -0.22332E+06
         0.39012E+06
         0.84692E+06
        -0.41987E+05
        -0.14004E+06
        -0.13565E+06
        -0.17006E+07
        -0.17123E+07
        -0.12817E+07
        -0.34827E+06
        -0.47022E+06
        -0.45974E+06
        -0.90471E+06
        -0.88445E+06
        -0.12934E+07
        -0.69543E+06
        -0.29962E+06
        -0.39340E+06
        -0.13443E+06
         0.26228E+06
         0.97446E+06
        -0.12706E+07
         0.39508E+06
        -0.10370E+07
        -0.33439E+05
         0.68215E+06
         0.11265E+07
         0.59679E+06
         0.86596E+06
         0.45769E+06
        -0.64557E+05
         0.31004E+06
         0.37461E+06
        -0.67586E+05
         0.68344E+06
        -0.48565E+06
        -0.15703E+07
        -0.17543E+07
        -0.18473E+07
        -0.19695E+07
        -0.10600E+07
        -0.93978E+06
        -0.13225E+07
        -0.17635E+07
        -0.12061E+07
        -0.55836E+05
         0.64219E+06
        -0.60905E+04
        -0.35140E+06
        -0.16618E+06
         0.69992E+06
         0.18264E+06
         0.83474E+06
        -0.44280E+06
        -0.13873E+07
         0.33696E+06
        -0.15387E+07
        -0.13057E+07
        -0.11246E+07
        -0.39595E+06
        -0.19381E+07
        -0.16584E+07
        -0.17590E+05
         0.34235E+06
         0.60737E+06
        -0.60280E+06
        -0.47858E+05
        -0.35416E+06
         0.17320E+06
        -0.77492E+06
        -0.41782E+06
        -0.16069E+07
        -0.33986E+06
        -0.25913E+07
        -0.18757E+07
        -0.10872E+07
        -0.14539E+07
        -0.17280E+06
        -0.21170E+06
         0.39839E+06
         0.85385E+06
        -0.24491E+05
        -0.12632E+06
        -0.12096E+06
        -0.16878E+07
        -0.16967E+07
        -0.12644E+07
        -0.33136E+06
        -0.45291E+06
        -0.44454E+06
        -0.88810E+06
        -0.86799E+06
        -0.12759E+07
        -0.68072E+06
        -0.28561E+06
        -0.38160E+06
        -0.12343E+06
         0.27401E+06
         0.98447E+06
        -0.12334E+07
         0.43204E+06
        -0.10059E+07
        -0.10860E+05
         0.70963E+06
         0.11616E+07
         0.62619E+06
         0.88832E+06
         0.48259E+06
        -0.37213E+05
         0.33471E+06
         0.40342E+06
        -0.44745E+05
         0.70880E+06
        -0.45667E+06
        -0.15402E+07
        -0.17205E+07
        -0.18107E+07
        -0.19381E+07
        -0.10271E+07
        -0.91186E+06
        -0.13017E+07
        -0.17406E+07
        -0.11785E+07
        -0.25931E+05
         0.67245E+06
        -0.11666E+05
        -0.35510E+06
        -0.16973E+06
         0.69451E+06
         0.17591E+06
         0.82949E+06
        -0.44748E+06
        -0.13955E+07
         0.33030E+06
        -0.15510E+07
        -0.13127E+07
        -0.11320E+07
        -0.40044E+06
        -0.19445E+07
        -0.16685E+07
        -0.24290E+05
         0.33532E+06
         0.60293E+06
        -0.61124E+06
        -0.54052E+05
        -0.36057E+06
         0.16489E+06
        -0.78073E+06
        -0.42439E+06
        -0.16178E+07
        -0.34633E+06
        -0.25992E+07
        -0.18812E+07
        -0.10880E+07
        -0.14585E+07
        -0.17661E+06
        -0.21689E+06
         0.39328E+06
         0.84812E+06
        -0.34508E+05
        -0.13194E+06
        -0.12477E+06
        -0.17037E+07
        -0.17081E+07
        -0.12694E+07
        -0.33954E+06
        -0.46180E+06
        -0.45502E+06
        -0.89618E+06
        -0.87606E+06
        -0.12835E+07
        -0.68720E+06
        -0.29004E+06
        -0.38662E+06
        -0.13005E+06
         0.26651E+06
         0.97858E+06
        -0.12569E+07
         0.41203E+06
        -0.10244E+07
        -0.20492E+05
         0.70627E+06
         0.11526E+07
         0.60636E+06
         0.86448E+06
         0.45930E+06
        -0.57897E+05
         0.31032E+06
         0.37542E+06
        -0.64468E+05
         0.69895E+06
        -0.46125E+06
        -0.15433E+07
        -0.17304E+07
        -0.18275E+07
        -0.19505E+07
        -0.10417E+07
        -0.92541E+06
        -0.13169E+07
        -0.17569E+07
        -0.11886E+07
        -0.35307E+05
         0.65687E+06
        -0.21025E+05
        -0.36474E+06
        -0.17922E+06
         0.68750E+06
         0.16536E+06
         0.81988E+06
        -0.45507E+06
        -0.14050E+07
         0.32093E+06
        -0.15710E+07
        -0.13211E+07
        -0.11441E+07
        -0.41040E+06
        -0.19511E+07
        -0.16810E+07
        -0.32546E+05
         0.32501E+06
         0.59778E+06
        -0.61824E+06
        -0.56877E+05
        -0.36841E+06
         0.15519E+06
        -0.78773E+06
        -0.43000E+06
        -0.16352E+07
        -0.35266E+06
        -0.26173E+07
        -0.18902E+07
        -0.10689E+07
        -0.14477E+07
        -0.18375E+06
        -0.22432E+06
         0.38821E+06
         0.84404E+06
        -0.45790E+05
        -0.14111E+06
        -0.13386E+06
        -0.17269E+07
        -0.17192E+07
        -0.12533E+07
        -0.34049E+06
        -0.47144E+06
        -0.46902E+06
        -0.90489E+06
        -0.88622E+06
        -0.12956E+07
        -0.69823E+06
        -0.29806E+06
        -0.39247E+06
        -0.13528E+06
         0.25986E+06
         0.97138E+06
        -0.12726E+07
         0.39745E+06
        -0.10370E+07
        -0.31337E+05
         0.69105E+06
         0.11281E+07
         0.57835E+06
         0.83785E+06
         0.43584E+06
        -0.63317E+05
         0.26776E+06
         0.30843E+06
        -0.92190E+05
         0.68351E+06
        -0.47500E+06
        -0.15557E+07
        -0.17459E+07
        -0.18450E+07
        -0.19708E+07
        -0.10646E+07
        -0.94093E+06
        -0.13314E+07
        -0.17735E+07
        -0.12006E+07
        -0.53930E+05
         0.63603E+06
        -0.81657E+04
        -0.35238E+06
        -0.16740E+06
         0.69600E+06
         0.18110E+06
         0.83104E+06
        -0.44322E+06
        -0.13904E+07
         0.32684E+06
        -0.15763E+07
        -0.13088E+07
        -0.11280E+07
        -0.39673E+06
        -0.19339E+07
        -0.16625E+07
        -0.20302E+05
         0.33095E+06
         0.60617E+06
        -0.60477E+06
        -0.36381E+05
        -0.35398E+06
         0.16972E+06
        -0.77425E+06
        -0.41781E+06
        -0.16344E+07
        -0.34020E+06
        -0.26203E+07
        -0.18799E+07
        -0.10109E+07
        -0.13980E+07
        -0.17269E+06
        -0.21251E+06
         0.39628E+06
         0.85336E+06
        -0.27047E+05
        -0.12580E+06
        -0.11999E+06
        -0.17263E+07
        -0.17013E+07
        -0.11922E+07
        -0.30775E+06
        -0.45390E+06
        -0.46019E+06
        -0.89071E+06
        -0.87014E+06
        -0.12761E+07
        -0.68288E+06
        -0.28522E+06
        -0.37955E+06
        -0.12049E+06
         0.27549E+06
         0.98325E+06
        -0.12343E+07
         0.43500E+06
        -0.99869E+06
        -0.44384E+04
         0.70818E+06
         0.11480E+07
         0.60591E+06
         0.86580E+06
         0.46631E+06
        -0.37512E+04
         0.25393E+06
         0.25450E+06
        -0.90180E+05
         0.70452E+06
        -0.45731E+06
        -0.15410E+07
        -0.17278E+07
        -0.18144E+07
        -0.19332E+07
        -0.10294E+07
        -0.91063E+06
        -0.13002E+07
        -0.17383E+07
        -0.11676E+07
        -0.27226E+05
         0.66408E+06
        -0.55897E+05
        -0.39730E+06
        -0.21065E+06
         0.65812E+06
         0.12340E+06
         0.77976E+06
        -0.48739E+06
        -0.14474E+07
         0.27826E+06
        -0.16476E+07
        -0.13602E+07
        -0.12038E+07
        -0.46649E+06
        -0.19929E+07
        -0.17407E+07
        -0.65802E+05
         0.28513E+06
         0.56883E+06
        -0.65189E+06
        -0.77747E+05
        -0.41970E+06
         0.10583E+06
        -0.83727E+06
        -0.46004E+06
        -0.16975E+07
        -0.37998E+06
        -0.26914E+07
        -0.19305E+07
        -0.10331E+07
        -0.14331E+07
        -0.21619E+06
        -0.25391E+06
         0.35634E+06
         0.81162E+06
        -0.95685E+05
        -0.18287E+06
        -0.18179E+06
        -0.18155E+07
        -0.17707E+07
        -0.12325E+07
        -0.37273E+06
        -0.52321E+06
        -0.52999E+06
        -0.95175E+06
        -0.93320E+06
        -0.13500E+07
        -0.74434E+06
        -0.33906E+06
        -0.42989E+06
        -0.17673E+06
         0.20563E+06
         0.92478E+06
        -0.13676E+07
         0.30553E+06
        -0.11335E+07
        -0.14153E+06
         0.57140E+06
         0.10164E+07
         0.47211E+06
         0.72234E+06
         0.33155E+06
        -0.12646E+06
         0.82951E+05
         0.68442E+05
        -0.22169E+06
         0.59540E+06
        -0.57172E+06
        -0.16601E+07
        -0.18511E+07
        -0.19522E+07
        -0.20747E+07
        -0.11649E+07
        -0.10364E+07
        -0.14205E+07
        -0.18616E+07
        -0.12940E+07
        -0.14858E+06
         0.54364E+06
        -0.28500E+05
        -0.39408E+06
        -0.20276E+06
         0.67155E+06
         0.14223E+06
         0.79595E+06
        -0.48141E+06
        -0.14146E+07
         0.30908E+06
        -0.16002E+07
        -0.13471E+07
        -0.12022E+07
        -0.48427E+06
        -0.19532E+07
        -0.17065E+07
        -0.30155E+05
         0.31357E+06
         0.58923E+06
        -0.62714E+06
        -0.52800E+05
        -0.39049E+06
         0.12771E+06
        -0.79210E+06
        -0.42812E+06
        -0.16473E+07
        -0.34999E+06
        -0.26309E+07
        -0.18726E+07
        -0.98457E+06
        -0.13827E+07
        -0.18885E+06
        -0.23519E+06
         0.36668E+06
         0.80518E+06
        -0.85220E+05
        -0.18737E+06
        -0.19936E+06
        -0.17753E+07
        -0.17226E+07
        -0.11901E+07
        -0.34382E+06
        -0.48367E+06
        -0.48839E+06
        -0.91107E+06
        -0.91090E+06
        -0.13389E+07
        -0.73551E+06
        -0.31590E+06
        -0.41259E+06
        -0.17526E+06
         0.21013E+06
         0.92581E+06
        -0.13162E+07
         0.37217E+06
        -0.11168E+07
        -0.17112E+06
         0.50991E+06
         0.97898E+06
         0.53348E+06
         0.78542E+06
         0.38156E+06
        -0.96705E+05
         0.91219E+05
         0.93840E+05
        -0.17195E+06
         0.61994E+06
        -0.51976E+06
        -0.15859E+07
        -0.17881E+07
        -0.19038E+07
        -0.20538E+07
        -0.11674E+07
        -0.10086E+07
        -0.13806E+07
        -0.17983E+07
        -0.12168E+07
        -0.87752E+05
         0.60668E+06
         0.18777E+09
         0.18026E+09
         0.17736E+09
         0.14952E+09
         0.22594E+09
         0.20051E+09
         0.17506E+09
         0.21323E+09
         0.17200E+09
         0.21304E+09
         0.20841E+09
         0.28970E+09
         0.25502E+09
         0.23098E+09
         0.29897E+09
         0.17209E+09
         0.16402E+09
         0.13542E+09
         0.17951E+09
         0.16823E+09
         0.23502E+09
         0.23601E+09
         0.22324E+09
         0.16014E+09
         0.20085E+09
         0.14710E+09
         0.22766E+09
         0.18420E+09
         0.19091E+09
         0.20957E+09
         0.16900E+09
         0.15497E+09
         0.14926E+09
         0.15381E+09
         0.25877E+09
         0.21748E+09
         0.22540E+09
         0.27979E+09
         0.26369E+09
         0.25782E+09
         0.27430E+09
         0.25692E+09
         0.24344E+09
         0.21319E+09
         0.21964E+09
         0.26097E+09
         0.22604E+09
         0.20588E+09
         0.19393E+09
         0.20744E+09
         0.24554E+09
         0.21367E+09
         0.48712E+09
         0.47730E+09
         0.48576E+09
         0.47003E+09
         0.48481E+09
         0.50862E+09
         0.51056E+09
         0.50461E+09
         0.50849E+09
         0.52303E+09
         0.50773E+09
         0.47900E+09
         0.42420E+09
         0.40030E+09
         0.40655E+09
         0.41611E+09
         0.42136E+09
         0.45916E+09
         0.49112E+09
         0.49327E+09
         0.45202E+09
         0.43573E+09
         0.45168E+09
         0.44736E+09
         0.44492E+09
         0.44584E+09
         0.22267E+10
         0.23314E+10
         0.22975E+10
         0.20948E+10
         0.25837E+10
         0.24252E+10
         0.25227E+10
         0.25442E+10
         0.21757E+10
         0.25428E+10
         0.27714E+10
         0.31098E+10
         0.28182E+10
         0.28527E+10
         0.32188E+10
         0.21322E+10
         0.22915E+10
         0.19974E+10
         0.23672E+10
         0.24909E+10
         0.25812E+10
         0.26374E+10
         0.24772E+10
         0.22759E+10
         0.25716E+10
         0.21953E+10
         0.28423E+10
         0.27933E+10
         0.28061E+10
         0.26629E+10
         0.21548E+10
         0.22659E+10
         0.21116E+10
         0.22089E+10
         0.28304E+10
         0.25949E+10
         0.26043E+10
         0.31162E+10
         0.30353E+10
         0.29987E+10
         0.30532E+10
         0.28990E+10
         0.27416E+10
         0.24174E+10
         0.25169E+10
         0.28293E+10
         0.26148E+10
         0.24578E+10
         0.24084E+10
         0.24978E+10
         0.27141E+10
         0.25056E+10
         0.44923E+10
         0.43775E+10
         0.44685E+10
         0.43288E+10
         0.44572E+10
         0.46850E+10
         0.47601E+10
         0.47496E+10
         0.47830E+10
         0.48923E+10
         0.47517E+10
         0.44687E+10
         0.40068E+10
         0.37874E+10
         0.37981E+10
         0.38467E+10
         0.38839E+10
         0.42107E+10
         0.45104E+10
         0.45286E+10
         0.41921E+10
         0.40627E+10
         0.41969E+10
         0.41674E+10
         0.41207E+10
         0.41091E+10
  
SCALARS                      stress_zz  double 1
LOOKUP_TABLE default
         0.37357E+12
         0.36805E+12
         0.37155E+12
         0.37782E+12
        -0.27136E+03
        -0.30428E+03
        -0.29136E+03
        -0.26469E+03
         0.36785E+12
         0.36972E+12
        -0.27363E+03
        -0.26480E+03
         0.36005E+12
         0.35975E+12
        -0.32513E+03
        -0.30570E+03
         0.37690E+12
         0.36019E+12
        -0.24023E+03
        -0.26646E+03
         0.35404E+12
         0.34926E+12
         0.35686E+12
        -0.32224E+03
        -0.28141E+03
        -0.29059E+03
         0.34945E+12
         0.34247E+12
        -0.30914E+03
        -0.26071E+03
         0.37660E+12
         0.36933E+12
         0.38365E+12
        -0.26381E+03
        -0.24525E+03
        -0.23845E+03
         0.37240E+12
         0.36313E+12
        -0.27910E+03
        -0.25468E+03
         0.36873E+12
         0.36157E+12
        -0.24122E+03
        -0.21355E+03
         0.37478E+12
         0.37746E+12
        -0.26434E+03
        -0.29537E+03
         0.35583E+12
        -0.25824E+03
         0.37694E+12
        -0.30344E+03
         0.34744E+12
        -0.27271E+03
         0.34524E+12
        -0.26159E+03
         0.34528E+12
         0.35307E+12
        -0.26652E+03
        -0.25957E+03
         0.37645E+12
         0.37366E+12
        -0.26726E+03
        -0.30213E+03
         0.37820E+12
        -0.25788E+03
         0.37488E+12
        -0.28145E+03
         0.36613E+12
         0.36526E+12
        -0.27092E+03
        -0.28388E+03
         0.36328E+12
        -0.28626E+03
         0.33999E+12
        -0.22616E+03
         0.33877E+12
        -0.21953E+03
         0.33938E+12
        -0.23147E+03
         0.34275E+12
         0.34626E+12
        -0.22054E+03
        -0.22993E+03
         0.35332E+12
        -0.21414E+03
         0.37464E+12
        -0.28082E+03
         0.37131E+12
        -0.28741E+03
         0.36859E+12
         0.36709E+12
        -0.27601E+03
        -0.27923E+03
         0.36893E+12
        -0.25362E+03
         0.37025E+12
        -0.25000E+03
         0.36906E+12
        -0.26763E+03
         0.36864E+12
         0.36984E+12
        -0.26245E+03
        -0.27015E+03
         0.36206E+12
         0.36521E+12
        -0.20377E+03
        -0.19166E+03
         0.36146E+12
        -0.19457E+03
         0.36510E+12
        -0.18656E+03
         0.36151E+12
        -0.18396E+03
         0.35354E+12
        -0.17385E+03
         0.34581E+12
        -0.15444E+03
         0.34118E+12
        -0.13907E+03
         0.34071E+12
        -0.13810E+03
         0.34086E+12
        -0.14977E+03
         0.34588E+12
        -0.15740E+03
         0.35526E+12
        -0.14372E+03
         0.36555E+12
        -0.12955E+03
         0.37157E+12
        -0.12940E+03
         0.37752E+12
        -0.14464E+03
         0.38145E+12
        -0.16492E+03
         0.38131E+12
        -0.17718E+03
         0.37176E+12
        -0.19135E+03
         0.36510E+12
        -0.20500E+03
         0.36282E+12
        -0.18780E+03
         0.36638E+12
        -0.16475E+03
         0.36825E+12
        -0.16424E+03
         0.36513E+12
        -0.17970E+03
         0.36517E+12
        -0.19157E+03
         0.36753E+12
        -0.18180E+03
         0.37060E+12
        -0.17576E+03
        -0.31985E+11
        -0.32140E+11
        -0.32120E+11
        -0.31912E+11
        -0.32271E+11
        -0.32103E+11
        -0.32307E+11
        -0.32206E+11
        -0.31947E+11
        -0.32115E+11
        -0.32403E+11
        -0.32429E+11
        -0.32356E+11
        -0.32350E+11
        -0.32399E+11
        -0.31923E+11
        -0.31964E+11
        -0.31846E+11
        -0.32156E+11
        -0.32104E+11
        -0.32177E+11
        -0.32129E+11
        -0.32215E+11
        -0.32194E+11
        -0.32109E+11
        -0.32115E+11
        -0.32255E+11
        -0.32243E+11
        -0.32335E+11
        -0.32192E+11
        -0.31943E+11
        -0.32142E+11
        -0.31945E+11
        -0.32079E+11
        -0.32447E+11
        -0.32346E+11
        -0.32293E+11
        -0.32355E+11
        -0.32363E+11
        -0.32453E+11
        -0.32510E+11
        -0.32359E+11
        -0.32174E+11
        -0.32201E+11
        -0.32298E+11
        -0.32443E+11
        -0.32322E+11
        -0.32165E+11
        -0.32177E+11
        -0.32299E+11
        -0.32407E+11
        -0.32257E+11
        -0.32618E+11
        -0.32540E+11
        -0.32555E+11
        -0.32534E+11
        -0.32539E+11
        -0.32584E+11
        -0.32624E+11
        -0.32635E+11
        -0.32630E+11
        -0.32634E+11
        -0.32648E+11
        -0.32544E+11
        -0.32493E+11
        -0.32472E+11
        -0.32433E+11
        -0.32401E+11
        -0.32402E+11
        -0.32455E+11
        -0.32595E+11
        -0.32566E+11
        -0.32520E+11
        -0.32520E+11
        -0.32529E+11
        -0.32573E+11
        -0.32506E+11
        -0.32479E+11
         0.21952E+07
         0.13134E+07
         0.15230E+07
         0.22437E+07
         0.18259E+07
         0.24498E+07
        -0.21549E+06
         0.62828E+05
         0.26026E+07
        -0.76457E+05
        -0.11868E+07
         0.10537E+07
         0.13524E+07
        -0.23445E+07
         0.25786E+06
         0.12115E+07
         0.15399E+07
         0.16992E+07
         0.58918E+06
         0.42132E+06
         0.84375E+06
         0.14510E+07
         0.35344E+06
        -0.29931E+04
        -0.71067E+06
        -0.66370E+05
        -0.35767E+07
        -0.39892E+07
        -0.18831E+07
        -0.44747E+06
         0.11018E+07
         0.24396E+06
         0.19861E+07
         0.27335E+07
         0.10335E+07
         0.86354E+06
         0.12396E+07
         0.23661E+05
         0.84507E+05
         0.48540E+06
         0.11169E+07
         0.75314E+06
         0.89480E+06
         0.36526E+06
         0.41990E+06
         0.66368E+06
         0.93405E+06
         0.11054E+07
         0.14653E+07
         0.19595E+07
         0.19820E+07
         0.24340E+07
         0.11551E+06
         0.19470E+07
         0.79729E+06
         0.22112E+07
         0.33581E+07
         0.41501E+07
         0.36242E+07
         0.38513E+07
         0.33746E+07
         0.26210E+07
         0.23724E+07
         0.20851E+07
         0.14676E+07
         0.22003E+07
         0.95412E+06
         0.71578E+05
         0.22760E+06
         0.29476E+06
         0.60988E+06
         0.18339E+07
         0.18620E+07
         0.14175E+07
         0.78311E+06
         0.77702E+06
         0.15663E+07
         0.22953E+07
         0.21201E+07
         0.12250E+07
         0.14341E+07
         0.21567E+07
         0.17368E+07
         0.23596E+07
        -0.32228E+06
        -0.23582E+05
         0.25124E+07
        -0.17075E+06
        -0.13059E+07
         0.95277E+06
         0.12607E+07
        -0.24492E+07
         0.15851E+06
         0.11239E+07
         0.14279E+07
         0.16108E+07
         0.47900E+06
         0.29897E+06
         0.75320E+06
         0.13617E+07
         0.25866E+06
        -0.12138E+06
        -0.82456E+06
        -0.17924E+06
        -0.36762E+07
        -0.41120E+07
        -0.20120E+07
        -0.56470E+06
         0.10135E+07
         0.13692E+06
         0.18939E+07
         0.26443E+07
         0.93870E+06
         0.77088E+06
         0.11519E+07
        -0.79586E+05
        -0.16215E+05
         0.38421E+06
         0.10150E+07
         0.65178E+06
         0.79835E+06
         0.27094E+06
         0.32828E+06
         0.56945E+06
         0.83959E+06
         0.10127E+07
         0.13757E+07
         0.18736E+07
         0.18935E+07
         0.23462E+07
        -0.29550E+05
         0.18057E+07
         0.65867E+06
         0.20785E+07
         0.32182E+07
         0.39949E+07
         0.34688E+07
         0.36931E+07
         0.32144E+07
         0.24579E+07
         0.22099E+07
         0.19347E+07
         0.13404E+07
         0.20810E+07
         0.83009E+06
        -0.60222E+05
         0.93250E+05
         0.15516E+06
         0.46928E+06
         0.16855E+07
         0.17210E+07
         0.12896E+07
         0.65553E+06
         0.64616E+06
         0.14344E+07
         0.21609E+07
         0.21379E+07
         0.12424E+07
         0.14532E+07
         0.21816E+07
         0.17601E+07
         0.23840E+07
        -0.29845E+06
        -0.34872E+04
         0.25272E+07
        -0.16523E+06
        -0.12817E+07
         0.97208E+06
         0.12783E+07
        -0.24269E+07
         0.18322E+06
         0.11065E+07
         0.14239E+07
         0.16337E+07
         0.45209E+06
         0.27511E+06
         0.73825E+06
         0.13559E+07
         0.19649E+06
        -0.20682E+06
        -0.87122E+06
        -0.25834E+06
        -0.36559E+07
        -0.41288E+07
        -0.20629E+07
        -0.64617E+06
         0.10139E+07
         0.11251E+06
         0.19169E+07
         0.26744E+07
         0.96354E+06
         0.79415E+06
         0.11713E+07
        -0.61178E+05
         0.10617E+04
         0.39040E+06
         0.10126E+07
         0.61504E+06
         0.74642E+06
         0.20781E+06
         0.31254E+06
         0.58240E+06
         0.85672E+06
         0.10336E+07
         0.13998E+07
         0.18999E+07
         0.19185E+07
         0.23710E+07
         0.13534E+05
         0.18443E+07
         0.70138E+06
         0.21114E+07
         0.32424E+07
         0.40189E+07
         0.34996E+07
         0.37242E+07
         0.32459E+07
         0.24904E+07
         0.22291E+07
         0.19340E+07
         0.13425E+07
         0.21030E+07
         0.84457E+06
        -0.86861E+05
         0.64381E+05
         0.16266E+06
         0.50786E+06
         0.17301E+07
         0.17612E+07
         0.13304E+07
         0.70094E+06
         0.68436E+06
         0.14654E+07
         0.21909E+07
         0.21273E+07
         0.12350E+07
         0.14459E+07
         0.21689E+07
         0.17517E+07
         0.23763E+07
        -0.30613E+06
        -0.14374E+05
         0.25011E+07
        -0.20476E+06
        -0.12940E+07
         0.96163E+06
         0.12710E+07
        -0.24418E+07
         0.17110E+06
         0.10369E+07
         0.13589E+07
         0.16173E+07
         0.35594E+06
         0.17199E+06
         0.66956E+06
         0.12942E+07
         0.51848E+05
        -0.39789E+06
        -0.10067E+07
        -0.43849E+06
        -0.36826E+07
        -0.42282E+07
        -0.22219E+07
        -0.84340E+06
         0.97120E+06
         0.16097E+05
         0.19016E+07
         0.26605E+07
         0.95140E+06
         0.78474E+06
         0.11643E+07
        -0.79843E+05
        -0.22942E+05
         0.34480E+06
         0.95491E+06
         0.50029E+06
         0.60556E+06
         0.59031E+05
         0.23673E+06
         0.54444E+06
         0.82636E+06
         0.10164E+07
         0.13843E+07
         0.18836E+07
         0.19052E+07
         0.23614E+07
        -0.68197E+04
         0.18304E+07
         0.67945E+06
         0.20922E+07
         0.32296E+07
         0.40042E+07
         0.34748E+07
         0.36972E+07
         0.32197E+07
         0.24588E+07
         0.21790E+07
         0.18531E+07
         0.12654E+07
         0.20663E+07
         0.80365E+06
        -0.19891E+06
        -0.54078E+05
         0.10754E+06
         0.48152E+06
         0.17051E+07
         0.17419E+07
         0.13076E+07
         0.67717E+06
         0.66810E+06
         0.14531E+07
         0.21787E+07
         0.21079E+07
         0.12199E+07
         0.14331E+07
         0.21557E+07
         0.17420E+07
         0.23657E+07
        -0.31902E+06
        -0.32712E+05
         0.24699E+07
        -0.24598E+06
        -0.13071E+07
         0.95512E+06
         0.12629E+07
        -0.24579E+07
         0.16545E+06
         0.98995E+06
         0.13080E+07
         0.16019E+07
         0.29280E+06
         0.97480E+05
         0.62535E+06
         0.12499E+07
        -0.37001E+05
        -0.51631E+06
        -0.11030E+07
        -0.55386E+06
        -0.37058E+07
        -0.42998E+07
        -0.23311E+07
        -0.97398E+06
         0.92663E+06
        -0.53918E+05
         0.18728E+07
         0.26408E+07
         0.93886E+06
         0.77274E+06
         0.11537E+07
        -0.93606E+05
        -0.42646E+05
         0.31041E+06
         0.91431E+06
         0.42320E+06
         0.51321E+06
        -0.35454E+05
         0.18677E+06
         0.51942E+06
         0.79945E+06
         0.98877E+06
         0.13575E+07
         0.18595E+07
         0.18843E+07
         0.23457E+07
        -0.25141E+05
         0.18181E+07
         0.66077E+06
         0.20773E+07
         0.32235E+07
         0.39998E+07
         0.34641E+07
         0.36793E+07
         0.31975E+07
         0.24392E+07
         0.21485E+07
         0.17972E+07
         0.12128E+07
         0.20379E+07
         0.77478E+06
        -0.27148E+06
        -0.13721E+06
         0.68156E+05
         0.46953E+06
         0.16824E+07
         0.17165E+07
         0.12814E+07
         0.64659E+06
         0.64179E+06
         0.14369E+07
         0.21665E+07
         0.20609E+07
         0.11908E+07
         0.14204E+07
         0.21692E+07
         0.17540E+07
         0.23827E+07
        -0.32753E+06
        -0.65159E+05
         0.24262E+07
        -0.30217E+06
        -0.12968E+07
         0.97768E+06
         0.12721E+07
        -0.24565E+07
         0.19375E+06
         0.99880E+06
         0.12977E+07
         0.16254E+07
         0.30613E+06
         0.10742E+06
         0.63821E+06
         0.12655E+07
        -0.34997E+05
        -0.51871E+06
        -0.11419E+07
        -0.57001E+06
        -0.37109E+07
        -0.43080E+07
        -0.23232E+07
        -0.97748E+06
         0.87332E+06
        -0.90860E+05
         0.18255E+07
         0.26364E+07
         0.94986E+06
         0.77393E+06
         0.11517E+07
        -0.74952E+05
        -0.25053E+05
         0.32982E+06
         0.93436E+06
         0.43555E+06
         0.52313E+06
        -0.41383E+05
         0.18038E+06
         0.51528E+06
         0.77617E+06
         0.93313E+06
         0.12922E+07
         0.18267E+07
         0.18774E+07
         0.23531E+07
         0.10268E+05
         0.18547E+07
         0.69050E+06
         0.20973E+07
         0.32443E+07
         0.40280E+07
         0.34961E+07
         0.37103E+07
         0.32330E+07
         0.24860E+07
         0.21895E+07
         0.18220E+07
         0.12406E+07
         0.20669E+07
         0.80264E+06
        -0.24926E+06
        -0.12118E+06
         0.84028E+05
         0.48858E+06
         0.16955E+07
         0.17135E+07
         0.12632E+07
         0.63453E+06
         0.64772E+06
         0.14546E+07
         0.21920E+07
         0.19893E+07
         0.11392E+07
         0.13899E+07
         0.21617E+07
         0.17444E+07
         0.23818E+07
        -0.36980E+06
        -0.12890E+06
         0.23525E+07
        -0.38573E+06
        -0.13250E+07
         0.96906E+06
         0.12574E+07
        -0.24921E+07
         0.18795E+06
         0.98491E+06
         0.12562E+07
         0.16203E+07
         0.29536E+06
         0.89570E+05
         0.63203E+06
         0.12611E+07
        -0.41974E+05
        -0.53308E+06
        -0.11986E+07
        -0.59916E+06
        -0.37508E+07
        -0.43447E+07
        -0.23335E+07
        -0.99205E+06
         0.79864E+06
        -0.15151E+06
         0.17542E+07
         0.26097E+07
         0.93516E+06
         0.75453E+06
         0.11310E+07
        -0.89405E+05
        -0.39024E+05
         0.32221E+06
         0.93103E+06
         0.43403E+06
         0.52228E+06
        -0.55738E+05
         0.15275E+06
         0.47990E+06
         0.72249E+06
         0.84948E+06
         0.11992E+07
         0.17695E+07
         0.18496E+07
         0.23425E+07
        -0.46814E+04
         0.18431E+07
         0.68162E+06
         0.20872E+07
         0.32298E+07
         0.40106E+07
         0.34817E+07
         0.36979E+07
         0.32205E+07
         0.24767E+07
         0.21820E+07
         0.18129E+07
         0.12389E+07
         0.20646E+07
         0.79656E+06
        -0.25262E+06
        -0.12817E+06
         0.59100E+05
         0.45132E+06
         0.16546E+07
         0.16671E+07
         0.12058E+07
         0.58417E+06
         0.62093E+06
         0.14402E+07
         0.21807E+07
         0.19685E+07
         0.11201E+07
         0.13775E+07
         0.21512E+07
         0.17341E+07
         0.23715E+07
        -0.39060E+06
        -0.15067E+06
         0.23309E+07
        -0.40983E+06
        -0.13450E+07
         0.95692E+06
         0.12428E+07
        -0.25129E+07
         0.17791E+06
         0.97244E+06
         0.12407E+07
         0.16082E+07
         0.28551E+06
         0.75473E+05
         0.62232E+06
         0.12509E+07
        -0.51172E+05
        -0.54408E+06
        -0.12164E+07
        -0.61574E+06
        -0.37676E+07
        -0.43642E+07
        -0.23523E+07
        -0.10058E+07
         0.77450E+06
        -0.17567E+06
         0.17303E+07
         0.25951E+07
         0.92277E+06
         0.74401E+06
         0.11184E+07
        -0.10774E+06
        -0.55311E+05
         0.30526E+06
         0.91408E+06
         0.42042E+06
         0.51352E+06
        -0.68562E+05
         0.13625E+06
         0.46336E+06
         0.70478E+06
         0.82874E+06
         0.11759E+07
         0.17495E+07
         0.18324E+07
         0.23292E+07
        -0.25165E+05
         0.18231E+07
         0.66805E+06
         0.20733E+07
         0.32129E+07
         0.39959E+07
         0.34666E+07
         0.36768E+07
         0.31926E+07
         0.24475E+07
         0.21555E+07
         0.18010E+07
         0.12293E+07
         0.20439E+07
         0.77509E+06
        -0.27292E+06
        -0.15454E+06
         0.33957E+05
         0.43008E+06
         0.16374E+07
         0.16529E+07
         0.11866E+07
         0.55879E+06
         0.59724E+06
         0.14203E+07
         0.21610E+07
         0.19819E+07
         0.11331E+07
         0.13872E+07
         0.21563E+07
         0.17452E+07
         0.23748E+07
        -0.37416E+06
        -0.13406E+06
         0.23449E+07
        -0.39236E+06
        -0.13303E+07
         0.96915E+06
         0.12523E+07
        -0.24970E+07
         0.19733E+06
         0.98924E+06
         0.12595E+07
         0.16186E+07
         0.30493E+06
         0.92190E+05
         0.63544E+06
         0.12634E+07
        -0.37598E+05
        -0.52454E+06
        -0.11974E+07
        -0.59744E+06
        -0.37423E+07
        -0.43415E+07
        -0.23341E+07
        -0.99034E+06
         0.78912E+06
        -0.16212E+06
         0.17402E+07
         0.26010E+07
         0.93703E+06
         0.75600E+06
         0.11282E+07
        -0.93739E+05
        -0.43029E+05
         0.31614E+06
         0.92595E+06
         0.43357E+06
         0.52682E+06
        -0.55889E+05
         0.14701E+06
         0.47398E+06
         0.71639E+06
         0.84323E+06
         0.11908E+07
         0.17605E+07
         0.18397E+07
         0.23324E+07
         0.50567E+04
         0.18528E+07
         0.68572E+06
         0.20806E+07
         0.32276E+07
         0.40188E+07
         0.34920E+07
         0.36951E+07
         0.31996E+07
         0.24582E+07
         0.21750E+07
         0.18286E+07
         0.12538E+07
         0.20599E+07
         0.79006E+06
        -0.25566E+06
        -0.13709E+06
         0.55377E+05
         0.45040E+06
         0.16613E+07
         0.16777E+07
         0.12087E+07
         0.57713E+06
         0.61352E+06
         0.14366E+07
         0.21788E+07
         0.19785E+07
         0.11319E+07
         0.13848E+07
         0.21497E+07
         0.17431E+07
         0.23692E+07
        -0.37555E+06
        -0.13956E+06
         0.23342E+07
        -0.40085E+06
        -0.13386E+07
         0.96180E+06
         0.12502E+07
        -0.25088E+07
         0.18677E+06
         0.98163E+06
         0.12502E+07
         0.16058E+07
         0.29685E+06
         0.81053E+05
         0.63043E+06
         0.12568E+07
        -0.42339E+05
        -0.53175E+06
        -0.12001E+07
        -0.60429E+06
        -0.37472E+07
        -0.43437E+07
        -0.23378E+07
        -0.99615E+06
         0.78183E+06
        -0.16965E+06
         0.17267E+07
         0.25904E+07
         0.93256E+06
         0.75125E+06
         0.11252E+07
        -0.10952E+06
        -0.51720E+05
         0.30790E+06
         0.91780E+06
         0.42843E+06
         0.51934E+06
        -0.59468E+05
         0.14317E+06
         0.46872E+06
         0.70819E+06
         0.83379E+06
         0.11814E+07
         0.17526E+07
         0.18329E+07
         0.23247E+07
        -0.38381E+04
         0.18457E+07
         0.67153E+06
         0.20685E+07
         0.32259E+07
         0.40103E+07
         0.34723E+07
         0.36730E+07
         0.31866E+07
         0.24387E+07
         0.21538E+07
         0.18181E+07
         0.12412E+07
         0.20529E+07
         0.78360E+06
        -0.26165E+06
        -0.13801E+06
         0.51181E+05
         0.44429E+06
         0.16451E+07
         0.16575E+07
         0.11931E+07
         0.56913E+06
         0.60955E+06
         0.14276E+07
         0.21662E+07
         0.19691E+07
         0.11222E+07
         0.13777E+07
         0.21466E+07
         0.17358E+07
         0.23658E+07
        -0.38325E+06
        -0.14792E+06
         0.23245E+07
        -0.40930E+06
        -0.13479E+07
         0.95204E+06
         0.12436E+07
        -0.25186E+07
         0.17597E+06
         0.97093E+06
         0.12432E+07
         0.15981E+07
         0.28686E+06
         0.72450E+05
         0.62396E+06
         0.12502E+07
        -0.49564E+05
        -0.54301E+06
        -0.12027E+07
        -0.61724E+06
        -0.37506E+07
        -0.43487E+07
        -0.23424E+07
        -0.10001E+07
         0.77119E+06
        -0.18189E+06
         0.17184E+07
         0.25891E+07
         0.92165E+06
         0.74298E+06
         0.11184E+07
        -0.12478E+06
        -0.61547E+05
         0.30077E+06
         0.91321E+06
         0.42407E+06
         0.51252E+06
        -0.66313E+05
         0.13633E+06
         0.46164E+06
         0.70053E+06
         0.82561E+06
         0.11725E+07
         0.17457E+07
         0.18264E+07
         0.23213E+07
        -0.21529E+05
         0.18311E+07
         0.66072E+06
         0.20649E+07
         0.32211E+07
         0.39932E+07
         0.34476E+07
         0.36531E+07
         0.31731E+07
         0.24247E+07
         0.21451E+07
         0.18076E+07
         0.12259E+07
         0.20425E+07
         0.77281E+06
        -0.27406E+06
        -0.14624E+06
         0.41514E+05
         0.43229E+06
         0.16318E+07
         0.16422E+07
         0.11772E+07
         0.55762E+06
         0.59859E+06
         0.14140E+07
         0.21518E+07
         0.19755E+07
         0.11263E+07
         0.13814E+07
         0.21547E+07
         0.17433E+07
         0.23737E+07
        -0.37217E+06
        -0.13624E+06
         0.23309E+07
        -0.40117E+06
        -0.13340E+07
         0.96042E+06
         0.12466E+07
        -0.25042E+07
         0.19398E+06
         0.98046E+06
         0.12520E+07
         0.16084E+07
         0.29868E+06
         0.85707E+05
         0.63445E+06
         0.12614E+07
        -0.40373E+05
        -0.53098E+06
        -0.11920E+07
        -0.60561E+06
        -0.37341E+07
        -0.43341E+07
        -0.23221E+07
        -0.98329E+06
         0.78281E+06
        -0.17271E+06
         0.17307E+07
         0.26026E+07
         0.93049E+06
         0.75066E+06
         0.11225E+07
        -0.11344E+06
        -0.49348E+05
         0.31642E+06
         0.92643E+06
         0.43412E+06
         0.52324E+06
        -0.58529E+05
         0.14285E+06
         0.46756E+06
         0.70761E+06
         0.83442E+06
         0.11822E+07
         0.17550E+07
         0.18340E+07
         0.23303E+07
         0.54154E+03
         0.18550E+07
         0.68319E+06
         0.20759E+07
         0.32175E+07
         0.39944E+07
         0.34652E+07
         0.36728E+07
         0.31864E+07
         0.24448E+07
         0.21642E+07
         0.18167E+07
         0.12423E+07
         0.20592E+07
         0.78795E+06
        -0.26239E+06
        -0.13839E+06
         0.51318E+05
         0.44149E+06
         0.16461E+07
         0.16592E+07
         0.11936E+07
         0.57172E+06
         0.61055E+06
         0.14317E+07
         0.21727E+07
         0.19711E+07
         0.11184E+07
         0.13746E+07
         0.21472E+07
         0.17359E+07
         0.23658E+07
        -0.38226E+06
        -0.14376E+06
         0.23231E+07
        -0.41185E+06
        -0.13476E+07
         0.94827E+06
         0.12332E+07
        -0.25187E+07
         0.18638E+06
         0.97187E+06
         0.12424E+07
         0.15948E+07
         0.28636E+06
         0.72710E+05
         0.62273E+06
         0.12494E+07
        -0.52767E+05
        -0.54398E+06
        -0.12011E+07
        -0.61697E+06
        -0.37483E+07
        -0.43527E+07
        -0.23357E+07
        -0.99124E+06
         0.77293E+06
        -0.18428E+06
         0.17146E+07
         0.25931E+07
         0.92007E+06
         0.74101E+06
         0.11113E+07
        -0.13010E+06
        -0.65712E+05
         0.30188E+06
         0.91061E+06
         0.41920E+06
         0.51157E+06
        -0.72573E+05
         0.13029E+06
         0.45723E+06
         0.69667E+06
         0.82157E+06
         0.11707E+07
         0.17472E+07
         0.18255E+07
         0.23216E+07
        -0.16937E+05
         0.18399E+07
         0.66609E+06
         0.20562E+07
         0.31946E+07
         0.39726E+07
         0.34518E+07
         0.36555E+07
         0.31636E+07
         0.24223E+07
         0.21368E+07
         0.17897E+07
         0.12242E+07
         0.20403E+07
         0.77183E+06
        -0.28073E+06
        -0.16673E+06
         0.26051E+05
         0.42876E+06
         0.16285E+07
         0.16409E+07
         0.11842E+07
         0.56522E+06
         0.59703E+06
         0.14134E+07
         0.21544E+07
         0.19704E+07
         0.11159E+07
         0.13726E+07
         0.21458E+07
         0.17350E+07
         0.23636E+07
        -0.38286E+06
        -0.14390E+06
         0.23236E+07
        -0.41089E+06
        -0.13493E+07
         0.94663E+06
         0.12312E+07
        -0.25203E+07
         0.18722E+06
         0.97045E+06
         0.12450E+07
         0.15914E+07
         0.28549E+06
         0.70992E+05
         0.62026E+06
         0.12476E+07
        -0.55472E+05
        -0.54639E+06
        -0.11988E+07
        -0.62022E+06
        -0.37446E+07
        -0.43551E+07
        -0.23380E+07
        -0.99205E+06
         0.76785E+06
        -0.18896E+06
         0.17074E+07
         0.25917E+07
         0.91770E+06
         0.73793E+06
         0.11079E+07
        -0.13785E+06
        -0.74631E+05
         0.29642E+06
         0.90901E+06
         0.41805E+06
         0.51002E+06
        -0.74857E+05
         0.12800E+06
         0.45481E+06
         0.69318E+06
         0.81657E+06
         0.11660E+07
         0.17455E+07
         0.18238E+07
         0.23194E+07
        -0.17490E+05
         0.18402E+07
         0.66145E+06
         0.20486E+07
         0.31941E+07
         0.39721E+07
         0.34464E+07
         0.36410E+07
         0.31472E+07
         0.24132E+07
         0.21359E+07
         0.17870E+07
         0.12196E+07
         0.20329E+07
         0.76343E+06
        -0.28658E+06
        -0.17054E+06
         0.22750E+05
         0.42513E+06
         0.16222E+07
         0.16328E+07
         0.11790E+07
         0.56455E+06
         0.59519E+06
         0.14051E+07
         0.21470E+07
         0.19903E+07
         0.11405E+07
         0.13937E+07
         0.21649E+07
         0.17571E+07
         0.23819E+07
        -0.34915E+06
        -0.11984E+06
         0.23404E+07
        -0.39109E+06
        -0.13165E+07
         0.97309E+06
         0.12554E+07
        -0.24939E+07
         0.21393E+06
         0.99070E+06
         0.12700E+07
         0.16113E+07
         0.31096E+06
         0.99033E+05
         0.64346E+06
         0.12697E+07
        -0.33035E+05
        -0.52037E+06
        -0.11702E+07
        -0.59441E+06
        -0.37128E+07
        -0.43164E+07
        -0.22996E+07
        -0.96209E+06
         0.79087E+06
        -0.16285E+06
         0.17271E+07
         0.26095E+07
         0.94124E+06
         0.76026E+06
         0.11294E+07
        -0.12027E+06
        -0.51455E+05
         0.32147E+06
         0.93100E+06
         0.44056E+06
         0.52992E+06
        -0.50980E+05
         0.15241E+06
         0.47812E+06
         0.71574E+06
         0.83882E+06
         0.11859E+07
         0.17625E+07
         0.18398E+07
         0.23351E+07
         0.22710E+05
         0.18802E+07
         0.69508E+06
         0.20730E+07
         0.32237E+07
         0.40095E+07
         0.34777E+07
         0.36650E+07
         0.31742E+07
         0.24426E+07
         0.21624E+07
         0.18183E+07
         0.12446E+07
         0.20609E+07
         0.79513E+06
        -0.25368E+06
        -0.13358E+06
         0.62338E+05
         0.45914E+06
         0.16577E+07
         0.16633E+07
         0.12017E+07
         0.58943E+06
         0.62487E+06
         0.14373E+07
         0.21795E+07
         0.19822E+07
         0.11335E+07
         0.13873E+07
         0.21552E+07
         0.17478E+07
         0.23737E+07
        -0.35798E+06
        -0.12972E+06
         0.23292E+07
        -0.40473E+06
        -0.13298E+07
         0.96377E+06
         0.12495E+07
        -0.25091E+07
         0.20287E+06
         0.97959E+06
         0.12575E+07
         0.16000E+07
         0.29459E+06
         0.83249E+05
         0.63564E+06
         0.12587E+07
        -0.40651E+05
        -0.53606E+06
        -0.11816E+07
        -0.61047E+06
        -0.37255E+07
        -0.43290E+07
        -0.23010E+07
        -0.96736E+06
         0.78376E+06
        -0.17594E+06
         0.17156E+07
         0.25978E+07
         0.92781E+06
         0.75152E+06
         0.11240E+07
        -0.13917E+06
        -0.64602E+05
         0.31543E+06
         0.92110E+06
         0.42904E+06
         0.51646E+06
        -0.61425E+05
         0.14148E+06
         0.46841E+06
         0.70666E+06
         0.83164E+06
         0.11762E+07
         0.17508E+07
         0.18295E+07
         0.23261E+07
        -0.30515E+04
         0.18585E+07
         0.67533E+06
         0.20626E+07
         0.32201E+07
         0.39998E+07
         0.34563E+07
         0.36391E+07
         0.31490E+07
         0.24202E+07
         0.21361E+07
         0.17881E+07
         0.12230E+07
         0.20500E+07
         0.79014E+06
        -0.25680E+06
        -0.14387E+06
         0.44503E+05
         0.44579E+06
         0.16419E+07
         0.16486E+07
         0.11852E+07
         0.57173E+06
         0.61358E+06
         0.14268E+07
         0.21623E+07
         0.19685E+07
         0.11155E+07
         0.13696E+07
         0.21419E+07
         0.17329E+07
         0.23582E+07
        -0.37356E+06
        -0.14154E+06
         0.23132E+07
        -0.42996E+06
        -0.13460E+07
         0.94866E+06
         0.12365E+07
        -0.25247E+07
         0.18878E+06
         0.96589E+06
         0.12374E+07
         0.15871E+07
         0.28125E+06
         0.75328E+05
         0.62596E+06
         0.12460E+07
        -0.49861E+05
        -0.54951E+06
        -0.12045E+07
        -0.62624E+06
        -0.37555E+07
        -0.43496E+07
        -0.22561E+07
        -0.94576E+06
         0.77063E+06
        -0.19427E+06
         0.17043E+07
         0.25899E+07
         0.91268E+06
         0.73707E+06
         0.11108E+07
        -0.16734E+06
        -0.77521E+05
         0.33858E+06
         0.92039E+06
         0.41655E+06
         0.49845E+06
        -0.72728E+05
         0.12754E+06
         0.45284E+06
         0.69077E+06
         0.81878E+06
         0.11651E+07
         0.17414E+07
         0.18204E+07
         0.23150E+07
        -0.20256E+05
         0.18427E+07
         0.66189E+06
         0.20509E+07
         0.32038E+07
         0.39734E+07
         0.34260E+07
         0.36100E+07
         0.31236E+07
         0.24143E+07
         0.20900E+07
         0.17158E+07
         0.11926E+07
         0.20331E+07
         0.77513E+06
        -0.27013E+06
        -0.16033E+06
         0.25793E+05
         0.42388E+06
         0.16171E+07
         0.16318E+07
         0.11694E+07
         0.55369E+06
         0.60017E+06
         0.14063E+07
         0.21393E+07
         0.19875E+07
         0.11382E+07
         0.13925E+07
         0.21647E+07
         0.17564E+07
         0.23779E+07
        -0.34381E+06
        -0.11785E+06
         0.23247E+07
        -0.43304E+06
        -0.13164E+07
         0.96843E+06
         0.12544E+07
        -0.24998E+07
         0.21266E+06
         0.98634E+06
         0.12552E+07
         0.16058E+07
         0.31059E+06
         0.12189E+06
         0.64527E+06
         0.12653E+07
        -0.31802E+05
        -0.52145E+06
        -0.11949E+07
        -0.59812E+06
        -0.37601E+07
        -0.43253E+07
        -0.21203E+07
        -0.85595E+06
         0.79031E+06
        -0.16773E+06
         0.17236E+07
         0.26133E+07
         0.93789E+06
         0.76197E+06
         0.11311E+07
        -0.16534E+06
        -0.51124E+05
         0.42391E+06
         0.96246E+06
         0.43932E+06
         0.51006E+06
        -0.52226E+05
         0.15142E+06
         0.47875E+06
         0.71430E+06
         0.83914E+06
         0.11870E+07
         0.17646E+07
         0.18416E+07
         0.23336E+07
         0.21126E+05
         0.18834E+07
         0.70338E+06
         0.20800E+07
         0.32222E+07
         0.39946E+07
         0.34554E+07
         0.36401E+07
         0.31566E+07
         0.24785E+07
         0.20751E+07
         0.16576E+07
         0.11948E+07
         0.20563E+07
         0.79448E+06
        -0.25395E+06
        -0.14033E+06
         0.58934E+05
         0.46453E+06
         0.16551E+07
         0.16648E+07
         0.12036E+07
         0.59193E+06
         0.63565E+06
         0.14350E+07
         0.21694E+07
         0.19175E+07
         0.10550E+07
         0.13106E+07
         0.20794E+07
         0.16728E+07
         0.22918E+07
        -0.44477E+06
        -0.19976E+06
         0.22385E+07
        -0.53455E+06
        -0.14281E+07
         0.87459E+06
         0.11630E+07
        -0.26044E+07
         0.11826E+06
         0.91068E+06
         0.11524E+07
         0.15177E+07
         0.21360E+06
         0.24126E+05
         0.56027E+06
         0.11808E+07
        -0.11557E+06
        -0.62034E+06
        -0.12997E+07
        -0.69193E+06
        -0.38810E+07
        -0.44429E+07
        -0.21715E+07
        -0.91507E+06
         0.71173E+06
        -0.26530E+06
         0.16309E+07
         0.25176E+07
         0.84573E+06
         0.67058E+06
         0.10413E+07
        -0.27720E+06
        -0.14259E+06
         0.36913E+06
         0.88046E+06
         0.34930E+06
         0.41958E+06
        -0.13626E+06
         0.61252E+05
         0.38171E+06
         0.62303E+06
         0.75322E+06
         0.10974E+07
         0.16720E+07
         0.17464E+07
         0.22428E+07
        -0.12368E+06
         0.17432E+07
         0.55797E+06
         0.19319E+07
         0.30752E+07
         0.38535E+07
         0.33115E+07
         0.34847E+07
         0.30106E+07
         0.23460E+07
         0.18903E+07
         0.14565E+07
         0.10505E+07
         0.19361E+07
         0.66946E+06
        -0.38321E+06
        -0.27357E+06
        -0.89311E+05
         0.31171E+06
         0.15088E+07
         0.15282E+07
         0.10724E+07
         0.45807E+06
         0.49779E+06
         0.13029E+07
         0.20382E+07
         0.19577E+07
         0.10608E+07
         0.13261E+07
         0.21137E+07
         0.17008E+07
         0.23200E+07
        -0.42864E+06
        -0.14917E+06
         0.22947E+07
        -0.45927E+06
        -0.13968E+07
         0.87639E+06
         0.11398E+07
        -0.25417E+07
         0.16129E+06
         0.97007E+06
         0.12228E+07
         0.15644E+07
         0.26648E+06
         0.81135E+05
         0.59881E+06
         0.12098E+07
        -0.55343E+05
        -0.54617E+06
        -0.12018E+07
        -0.62288E+06
        -0.37773E+07
        -0.43077E+07
        -0.20578E+07
        -0.82452E+06
         0.76073E+06
        -0.22258E+06
         0.16555E+07
         0.25042E+07
         0.85984E+06
         0.66364E+06
         0.10158E+07
        -0.22476E+06
        -0.75720E+05
         0.42838E+06
         0.91765E+06
         0.40063E+06
         0.47376E+06
        -0.78953E+05
         0.94070E+05
         0.39662E+06
         0.63683E+06
         0.79004E+06
         0.11270E+07
         0.16735E+07
         0.17524E+07
         0.22445E+07
        -0.68146E+05
         0.18153E+07
         0.57616E+06
         0.19000E+07
         0.30091E+07
         0.38133E+07
         0.33773E+07
         0.35527E+07
         0.30648E+07
         0.23780E+07
         0.18993E+07
         0.14841E+07
         0.11051E+07
         0.19632E+07
         0.72626E+06
        -0.30237E+06
        -0.20487E+06
        -0.36975E+05
         0.33437E+06
         0.15062E+07
         0.15585E+07
         0.11159E+07
         0.52679E+06
         0.58144E+06
         0.13686E+07
         0.21064E+07
         0.27320E+09
         0.31453E+09
         0.31580E+09
         0.31532E+09
         0.32458E+09
         0.32571E+09
         0.37883E+09
         0.31013E+09
         0.29471E+09
         0.31201E+09
         0.39260E+09
         0.35880E+09
         0.33304E+09
         0.37134E+09
         0.36577E+09
         0.27817E+09
         0.34246E+09
         0.31617E+09
         0.33717E+09
         0.39275E+09
         0.30480E+09
         0.31063E+09
         0.29574E+09
         0.34530E+09
         0.33805E+09
         0.34343E+09
         0.36719E+09
         0.42986E+09
         0.42113E+09
         0.34710E+09
         0.29047E+09
         0.35024E+09
         0.31885E+09
         0.33849E+09
         0.34447E+09
         0.33745E+09
         0.32307E+09
         0.35460E+09
         0.35295E+09
         0.35251E+09
         0.34711E+09
         0.33198E+09
         0.31491E+09
         0.29394E+09
         0.31256E+09
         0.34246E+09
         0.33152E+09
         0.31885E+09
         0.32558E+09
         0.32750E+09
         0.33202E+09
         0.32387E+09
         0.52948E+09
         0.51795E+09
         0.52571E+09
         0.50929E+09
         0.52352E+09
         0.54709E+09
         0.55064E+09
         0.54825E+09
         0.55337E+09
         0.56635E+09
         0.54983E+09
         0.51876E+09
         0.46618E+09
         0.44184E+09
         0.44519E+09
         0.45328E+09
         0.45805E+09
         0.49633E+09
         0.53280E+09
         0.53438E+09
         0.49345E+09
         0.47756E+09
         0.49264E+09
         0.48842E+09
         0.48425E+09
         0.48552E+09
         0.25256E+10
         0.26508E+10
         0.26174E+10
         0.24163E+10
         0.28938E+10
         0.27434E+10
         0.28520E+10
         0.28533E+10
         0.24906E+10
         0.28529E+10
         0.31019E+10
         0.33994E+10
         0.31161E+10
         0.31786E+10
         0.35061E+10
         0.24415E+10
         0.26164E+10
         0.23215E+10
         0.26908E+10
         0.28212E+10
         0.28691E+10
         0.29310E+10
         0.27675E+10
         0.26013E+10
         0.28941E+10
         0.25227E+10
         0.31680E+10
         0.31282E+10
         0.31396E+10
         0.29864E+10
         0.24694E+10
         0.25919E+10
         0.24336E+10
         0.25334E+10
         0.31349E+10
         0.29135E+10
         0.29143E+10
         0.34130E+10
         0.33437E+10
         0.33102E+10
         0.33476E+10
         0.31951E+10
         0.30327E+10
         0.27149E+10
         0.28236E+10
         0.31301E+10
         0.29284E+10
         0.27729E+10
         0.27280E+10
         0.28153E+10
         0.30180E+10
         0.28201E+10
         0.47299E+10
         0.46084E+10
         0.46963E+10
         0.45528E+10
         0.46780E+10
         0.49043E+10
         0.49858E+10
         0.49882E+10
         0.50260E+10
         0.51308E+10
         0.49877E+10
         0.46969E+10
         0.42421E+10
         0.40206E+10
         0.40213E+10
         0.40642E+10
         0.40985E+10
         0.44269E+10
         0.47425E+10
         0.47579E+10
         0.44223E+10
         0.42942E+10
         0.44261E+10
         0.43984E+10
         0.43464E+10
         0.43359E+10
  
SCALARS                      stress_yz  double 1
LOOKUP_TABLE default
         0.34311E+06
        -0.11413E+06
        -0.29652E+06
        -0.15251E+06
        -0.59975E+01
        -0.16530E+01
        -0.74327E+01
        -0.56692E+01
        -0.11114E+07
         0.73100E+06
        -0.11061E+02
        -0.97382E+01
        -0.97494E+06
        -0.49574E+05
         0.79161E+01
        -0.50753E+00
         0.33521E+06
         0.12493E+07
         0.11647E+00
         0.11917E+01
        -0.64827E+06
        -0.24402E+07
        -0.25367E+07
         0.18146E+02
         0.31339E+02
         0.26195E+02
        -0.24052E+06
        -0.24738E+07
         0.13053E+02
         0.25323E+02
         0.38309E+06
         0.33392E+06
        -0.28363E+06
         0.67670E+01
         0.69079E+01
        -0.14342E+00
         0.11385E+07
         0.10971E+07
         0.12452E+02
         0.96885E+01
         0.11191E+07
         0.71236E+06
         0.94108E+01
         0.86003E+01
         0.10150E+07
         0.34993E+06
        -0.31218E+00
         0.48287E+01
         0.94238E+06
         0.22735E+01
         0.92882E+05
        -0.18414E+00
         0.55519E+05
         0.87942E+01
        -0.36794E+06
         0.51157E+01
        -0.12000E+07
         0.21309E+06
         0.13878E+00
        -0.28168E+00
         0.46457E+06
         0.16951E+07
        -0.18909E+01
        -0.70730E+01
         0.28053E+06
        -0.38169E+01
         0.12044E+07
        -0.46499E+01
        -0.97812E+06
        -0.51809E+06
        -0.57464E+00
         0.75872E+01
        -0.18115E+07
         0.16660E+02
        -0.31401E+07
         0.16131E+02
        -0.31690E+07
         0.12245E+02
        -0.26104E+07
         0.10264E+02
        -0.38286E+07
        -0.29385E+07
         0.65843E+01
        -0.14598E+01
        -0.41098E+06
        -0.16335E+00
         0.15862E+07
        -0.10233E+02
         0.37489E+07
        -0.17914E+02
         0.52386E+07
         0.32472E+07
        -0.26569E+02
        -0.21505E+02
         0.22838E+07
        -0.16694E+02
         0.20492E+07
        -0.17079E+02
         0.19941E+07
        -0.18363E+02
         0.33183E+07
         0.27576E+07
        -0.17077E+02
        -0.81824E+01
        -0.22260E+07
         0.84259E+06
         0.60046E+01
        -0.74618E+01
        -0.54724E+07
         0.19976E+02
        -0.78340E+07
         0.29219E+02
        -0.95914E+07
         0.36086E+02
        -0.11248E+08
         0.35795E+02
        -0.13242E+08
         0.28327E+02
        -0.13535E+08
         0.21922E+02
        -0.12745E+08
         0.20389E+02
        -0.11341E+08
         0.19399E+02
        -0.82712E+07
         0.12397E+02
        -0.55861E+07
         0.40930E+01
        -0.28025E+07
         0.26448E+01
         0.20160E+06
         0.39753E+01
         0.26741E+07
         0.20532E+01
         0.47973E+07
        -0.62092E+01
         0.74243E+07
        -0.17526E+02
         0.83536E+07
        -0.27368E+02
         0.91373E+07
        -0.35879E+02
         0.11673E+08
        -0.35848E+02
         0.12091E+08
        -0.31294E+02
         0.11173E+08
        -0.30499E+02
         0.90874E+07
        -0.30688E+02
         0.61783E+07
        -0.24267E+02
         0.43760E+07
        -0.14350E+02
         0.31469E+07
        -0.11096E+02
        -0.28751E+07
        -0.14862E+07
        -0.12975E+07
        -0.40329E+06
        -0.13279E+07
        -0.14137E+07
        -0.14882E+06
        -0.22892E+07
        -0.19674E+07
        -0.28835E+07
         0.15022E+07
         0.64064E+07
         0.43808E+07
         0.50814E+06
         0.64742E+07
         0.76181E+06
        -0.67480E+06
         0.43472E+06
         0.56645E+06
        -0.42833E+06
         0.39309E+06
         0.32424E+06
        -0.10887E+07
         0.91781E+05
        -0.19688E+07
         0.29105E+06
         0.15053E+05
         0.26322E+06
         0.31912E+06
        -0.15424E+07
         0.74353E+06
        -0.80553E+06
         0.54071E+06
        -0.13159E+06
         0.21639E+06
         0.11745E+07
         0.26354E+07
         0.56926E+07
         0.52011E+07
         0.43893E+07
         0.41290E+07
         0.10280E+07
        -0.84277E+06
        -0.23110E+07
        -0.38143E+07
        -0.62174E+07
        -0.40869E+07
        -0.29362E+07
        -0.31324E+07
        -0.33231E+07
        -0.38920E+07
        -0.17823E+07
         0.33360E+07
        -0.40170E+07
         0.10876E+08
         0.15032E+08
         0.19159E+08
         0.22728E+08
         0.22831E+08
         0.20664E+08
         0.19666E+08
         0.18584E+08
         0.12002E+08
         0.52822E+07
         0.23266E+07
         0.10261E+07
        -0.15723E+07
        -0.62182E+07
        -0.11428E+08
        -0.14901E+08
        -0.17990E+08
        -0.20639E+08
        -0.19459E+08
        -0.18396E+08
        -0.17112E+08
        -0.11891E+08
        -0.69543E+07
        -0.61086E+07
        -0.16539E+09
        -0.16892E+09
        -0.16526E+09
        -0.51686E+08
        -0.12101E+09
        -0.77087E+08
        -0.10094E+09
        -0.15878E+09
        -0.16208E+09
        -0.15793E+09
         0.16530E+09
         0.18079E+09
         0.13826E+09
         0.38075E+08
         0.17067E+09
         0.84785E+08
        -0.42909E+08
         0.40965E+08
         0.16117E+09
         0.35698E+08
         0.47345E+08
         0.35670E+08
        -0.21196E+08
         0.55291E+08
        -0.16103E+09
         0.55280E+08
         0.86327E+07
         0.25787E+08
        -0.41191E+08
        -0.14867E+09
         0.10612E+09
         0.40196E+08
         0.98629E+08
         0.85638E+08
        -0.13731E+08
         0.67780E+08
         0.10149E+09
         0.15666E+09
         0.17637E+09
         0.16621E+09
         0.88067E+08
        -0.23838E+08
        -0.48799E+08
        -0.77388E+08
        -0.11079E+09
        -0.16888E+09
        -0.14588E+09
        -0.11241E+09
        -0.16959E+09
        -0.17102E+09
        -0.11165E+09
        -0.11921E+08
         0.35703E+08
        -0.49984E+08
         0.11173E+09
         0.14535E+09
         0.17701E+09
         0.19913E+09
         0.20250E+09
         0.19675E+09
         0.19303E+09
         0.17956E+09
         0.11484E+09
         0.38324E+08
         0.18159E+08
         0.16295E+08
        -0.69275E+07
        -0.55204E+08
        -0.10693E+09
        -0.13737E+09
        -0.18520E+09
        -0.20044E+09
        -0.19362E+09
        -0.19190E+09
        -0.18044E+09
        -0.12970E+09
        -0.65643E+08
        -0.62635E+08
        -0.16538E+09
        -0.16891E+09
        -0.16526E+09
        -0.52065E+08
        -0.12107E+09
        -0.77190E+08
        -0.10106E+09
        -0.15890E+09
        -0.16210E+09
        -0.15808E+09
         0.16540E+09
         0.18078E+09
         0.13825E+09
         0.38161E+08
         0.17073E+09
         0.84726E+08
        -0.43299E+08
         0.40904E+08
         0.16119E+09
         0.35499E+08
         0.47458E+08
         0.35707E+08
        -0.21203E+08
         0.55265E+08
        -0.16110E+09
         0.55179E+08
         0.87317E+07
         0.25932E+08
        -0.40919E+08
        -0.14874E+09
         0.10604E+09
         0.40108E+08
         0.98848E+08
         0.85778E+08
        -0.13596E+08
         0.67843E+08
         0.10150E+09
         0.15668E+09
         0.17638E+09
         0.16619E+09
         0.88081E+08
        -0.23762E+08
        -0.48844E+08
        -0.77429E+08
        -0.11082E+09
        -0.16889E+09
        -0.14590E+09
        -0.11235E+09
        -0.16959E+09
        -0.17101E+09
        -0.11166E+09
        -0.11757E+08
         0.35681E+08
        -0.49998E+08
         0.11175E+09
         0.14535E+09
         0.17702E+09
         0.19912E+09
         0.20249E+09
         0.19674E+09
         0.19304E+09
         0.17956E+09
         0.11483E+09
         0.38341E+08
         0.18159E+08
         0.16329E+08
        -0.68703E+07
        -0.55221E+08
        -0.10695E+09
        -0.13737E+09
        -0.18521E+09
        -0.20044E+09
        -0.19363E+09
        -0.19190E+09
        -0.18045E+09
        -0.12968E+09
        -0.65604E+08
        -0.62583E+08
        -0.16536E+09
        -0.16890E+09
        -0.16525E+09
        -0.52448E+08
        -0.12114E+09
        -0.77294E+08
        -0.10119E+09
        -0.15903E+09
        -0.16213E+09
        -0.15823E+09
         0.16550E+09
         0.18077E+09
         0.13823E+09
         0.38242E+08
         0.17078E+09
         0.84665E+08
        -0.43693E+08
         0.40842E+08
         0.16121E+09
         0.35296E+08
         0.47572E+08
         0.35742E+08
        -0.21212E+08
         0.55231E+08
        -0.16116E+09
         0.55065E+08
         0.88377E+07
         0.26085E+08
        -0.40623E+08
        -0.14880E+09
         0.10596E+09
         0.40002E+08
         0.99068E+08
         0.85916E+08
        -0.13461E+08
         0.67906E+08
         0.10152E+09
         0.15669E+09
         0.17639E+09
         0.16617E+09
         0.88097E+08
        -0.23680E+08
        -0.48884E+08
        -0.77477E+08
        -0.11085E+09
        -0.16890E+09
        -0.14591E+09
        -0.11228E+09
        -0.16960E+09
        -0.17100E+09
        -0.11167E+09
        -0.11594E+08
         0.35660E+08
        -0.50012E+08
         0.11177E+09
         0.14535E+09
         0.17702E+09
         0.19912E+09
         0.20248E+09
         0.19673E+09
         0.19304E+09
         0.17956E+09
         0.11483E+09
         0.38359E+08
         0.18160E+08
         0.16363E+08
        -0.68128E+07
        -0.55239E+08
        -0.10698E+09
        -0.13738E+09
        -0.18521E+09
        -0.20043E+09
        -0.19363E+09
        -0.19190E+09
        -0.18046E+09
        -0.12967E+09
        -0.65565E+08
        -0.62531E+08
        -0.16535E+09
        -0.16890E+09
        -0.16524E+09
        -0.52833E+08
        -0.12120E+09
        -0.77398E+08
        -0.10132E+09
        -0.15915E+09
        -0.16216E+09
        -0.15838E+09
         0.16560E+09
         0.18076E+09
         0.13822E+09
         0.38328E+08
         0.17084E+09
         0.84601E+08
        -0.44094E+08
         0.40778E+08
         0.16123E+09
         0.35082E+08
         0.47687E+08
         0.35774E+08
        -0.21230E+08
         0.55177E+08
        -0.16122E+09
         0.54914E+08
         0.89476E+07
         0.26288E+08
        -0.40255E+08
        -0.14886E+09
         0.10587E+09
         0.39858E+08
         0.99285E+08
         0.86055E+08
        -0.13327E+08
         0.67968E+08
         0.10153E+09
         0.15671E+09
         0.17640E+09
         0.16615E+09
         0.88120E+08
        -0.23578E+08
        -0.48915E+08
        -0.77545E+08
        -0.11089E+09
        -0.16891E+09
        -0.14592E+09
        -0.11222E+09
        -0.16960E+09
        -0.17100E+09
        -0.11168E+09
        -0.11431E+08
         0.35638E+08
        -0.50026E+08
         0.11179E+09
         0.14535E+09
         0.17703E+09
         0.19911E+09
         0.20247E+09
         0.19671E+09
         0.19304E+09
         0.17956E+09
         0.11482E+09
         0.38380E+08
         0.18161E+08
         0.16397E+08
        -0.67548E+07
        -0.55257E+08
        -0.10700E+09
        -0.13739E+09
        -0.18522E+09
        -0.20043E+09
        -0.19364E+09
        -0.19191E+09
        -0.18047E+09
        -0.12965E+09
        -0.65527E+08
        -0.62479E+08
        -0.16534E+09
        -0.16889E+09
        -0.16524E+09
        -0.53216E+08
        -0.12127E+09
        -0.77502E+08
        -0.10145E+09
        -0.15927E+09
        -0.16218E+09
        -0.15854E+09
         0.16570E+09
         0.18075E+09
         0.13820E+09
         0.38416E+08
         0.17089E+09
         0.84531E+08
        -0.44502E+08
         0.40714E+08
         0.16125E+09
         0.34855E+08
         0.47803E+08
         0.35801E+08
        -0.21257E+08
         0.55099E+08
        -0.16126E+09
         0.54724E+08
         0.90704E+07
         0.26536E+08
        -0.39813E+08
        -0.14891E+09
         0.10576E+09
         0.39670E+08
         0.99502E+08
         0.86195E+08
        -0.13191E+08
         0.68031E+08
         0.10155E+09
         0.15673E+09
         0.17641E+09
         0.16613E+09
         0.88151E+08
        -0.23455E+08
        -0.48934E+08
        -0.77634E+08
        -0.11095E+09
        -0.16892E+09
        -0.14594E+09
        -0.11216E+09
        -0.16960E+09
        -0.17099E+09
        -0.11169E+09
        -0.11266E+08
         0.35617E+08
        -0.50039E+08
         0.11181E+09
         0.14535E+09
         0.17703E+09
         0.19911E+09
         0.20246E+09
         0.19670E+09
         0.19305E+09
         0.17956E+09
         0.11482E+09
         0.38404E+08
         0.18164E+08
         0.16429E+08
        -0.66967E+07
        -0.55276E+08
        -0.10704E+09
        -0.13740E+09
        -0.18523E+09
        -0.20043E+09
        -0.19364E+09
        -0.19191E+09
        -0.18048E+09
        -0.12964E+09
        -0.65489E+08
        -0.62426E+08
        -0.16532E+09
        -0.16889E+09
        -0.16523E+09
        -0.53603E+08
        -0.12133E+09
        -0.77605E+08
        -0.10156E+09
        -0.15939E+09
        -0.16221E+09
        -0.15869E+09
         0.16579E+09
         0.18074E+09
         0.13819E+09
         0.38509E+08
         0.17094E+09
         0.84463E+08
        -0.44918E+08
         0.40652E+08
         0.16127E+09
         0.34624E+08
         0.47918E+08
         0.35827E+08
        -0.21287E+08
         0.55014E+08
        -0.16130E+09
         0.54522E+08
         0.92027E+07
         0.26811E+08
        -0.39340E+08
        -0.14895E+09
         0.10565E+09
         0.39460E+08
         0.99724E+08
         0.86341E+08
        -0.13055E+08
         0.68094E+08
         0.10157E+09
         0.15674E+09
         0.17643E+09
         0.16611E+09
         0.88183E+08
        -0.23325E+08
        -0.48948E+08
        -0.77728E+08
        -0.11102E+09
        -0.16894E+09
        -0.14596E+09
        -0.11211E+09
        -0.16961E+09
        -0.17098E+09
        -0.11170E+09
        -0.11100E+08
         0.35595E+08
        -0.50053E+08
         0.11183E+09
         0.14535E+09
         0.17704E+09
         0.19910E+09
         0.20245E+09
         0.19669E+09
         0.19305E+09
         0.17956E+09
         0.11482E+09
         0.38430E+08
         0.18167E+08
         0.16462E+08
        -0.66385E+07
        -0.55295E+08
        -0.10707E+09
        -0.13741E+09
        -0.18523E+09
        -0.20043E+09
        -0.19365E+09
        -0.19191E+09
        -0.18049E+09
        -0.12962E+09
        -0.65450E+08
        -0.62374E+08
        -0.16531E+09
        -0.16888E+09
        -0.16523E+09
        -0.54001E+08
        -0.12140E+09
        -0.77709E+08
        -0.10165E+09
        -0.15951E+09
        -0.16224E+09
        -0.15883E+09
         0.16589E+09
         0.18073E+09
         0.13817E+09
         0.38624E+08
         0.17100E+09
         0.84398E+08
        -0.45344E+08
         0.40589E+08
         0.16129E+09
         0.34393E+08
         0.48033E+08
         0.35853E+08
        -0.21317E+08
         0.54931E+08
        -0.16135E+09
         0.54319E+08
         0.93586E+07
         0.27103E+08
        -0.38859E+08
        -0.14899E+09
         0.10555E+09
         0.39236E+08
         0.99953E+08
         0.86494E+08
        -0.12918E+08
         0.68159E+08
         0.10159E+09
         0.15676E+09
         0.17644E+09
         0.16609E+09
         0.88218E+08
        -0.23193E+08
        -0.48960E+08
        -0.77823E+08
        -0.11108E+09
        -0.16895E+09
        -0.14599E+09
        -0.11208E+09
        -0.16962E+09
        -0.17097E+09
        -0.11171E+09
        -0.10932E+08
         0.35573E+08
        -0.50067E+08
         0.11186E+09
         0.14535E+09
         0.17704E+09
         0.19909E+09
         0.20244E+09
         0.19668E+09
         0.19306E+09
         0.17956E+09
         0.11482E+09
         0.38456E+08
         0.18170E+08
         0.16495E+08
        -0.65804E+07
        -0.55315E+08
        -0.10711E+09
        -0.13742E+09
        -0.18524E+09
        -0.20043E+09
        -0.19366E+09
        -0.19192E+09
        -0.18050E+09
        -0.12961E+09
        -0.65412E+08
        -0.62322E+08
        -0.16530E+09
        -0.16887E+09
        -0.16523E+09
        -0.54404E+08
        -0.12146E+09
        -0.77814E+08
        -0.10172E+09
        -0.15962E+09
        -0.16227E+09
        -0.15896E+09
         0.16598E+09
         0.18072E+09
         0.13816E+09
         0.38745E+08
         0.17105E+09
         0.84334E+08
        -0.45776E+08
         0.40524E+08
         0.16132E+09
         0.34162E+08
         0.48149E+08
         0.35880E+08
        -0.21347E+08
         0.54851E+08
        -0.16140E+09
         0.54116E+08
         0.95205E+07
         0.27402E+08
        -0.38376E+08
        -0.14902E+09
         0.10544E+09
         0.39003E+08
         0.10019E+09
         0.86653E+08
        -0.12780E+08
         0.68225E+08
         0.10161E+09
         0.15678E+09
         0.17645E+09
         0.16607E+09
         0.88252E+08
        -0.23060E+08
        -0.48972E+08
        -0.77916E+08
        -0.11115E+09
        -0.16896E+09
        -0.14602E+09
        -0.11205E+09
        -0.16962E+09
        -0.17096E+09
        -0.11171E+09
        -0.10763E+08
         0.35551E+08
        -0.50080E+08
         0.11188E+09
         0.14535E+09
         0.17705E+09
         0.19909E+09
         0.20244E+09
         0.19667E+09
         0.19306E+09
         0.17955E+09
         0.11482E+09
         0.38482E+08
         0.18173E+08
         0.16528E+08
        -0.65221E+07
        -0.55334E+08
        -0.10714E+09
        -0.13744E+09
        -0.18525E+09
        -0.20042E+09
        -0.19366E+09
        -0.19192E+09
        -0.18051E+09
        -0.12959E+09
        -0.65373E+08
        -0.62269E+08
        -0.16529E+09
        -0.16885E+09
        -0.16523E+09
        -0.54807E+08
        -0.12153E+09
        -0.77918E+08
        -0.10179E+09
        -0.15974E+09
        -0.16230E+09
        -0.15910E+09
         0.16607E+09
         0.18071E+09
         0.13815E+09
         0.38870E+08
         0.17111E+09
         0.84271E+08
        -0.46210E+08
         0.40460E+08
         0.16134E+09
         0.33929E+08
         0.48265E+08
         0.35907E+08
        -0.21376E+08
         0.54771E+08
        -0.16144E+09
         0.53915E+08
         0.96864E+07
         0.27699E+08
        -0.37894E+08
        -0.14905E+09
         0.10534E+09
         0.38772E+08
         0.10042E+09
         0.86809E+08
        -0.12642E+08
         0.68288E+08
         0.10163E+09
         0.15680E+09
         0.17646E+09
         0.16605E+09
         0.88286E+08
        -0.22929E+08
        -0.48984E+08
        -0.78009E+08
        -0.11121E+09
        -0.16898E+09
        -0.14605E+09
        -0.11203E+09
        -0.16963E+09
        -0.17095E+09
        -0.11171E+09
        -0.10593E+08
         0.35529E+08
        -0.50093E+08
         0.11190E+09
         0.14535E+09
         0.17705E+09
         0.19908E+09
         0.20243E+09
         0.19666E+09
         0.19307E+09
         0.17955E+09
         0.11481E+09
         0.38508E+08
         0.18177E+08
         0.16562E+08
        -0.64640E+07
        -0.55353E+08
        -0.10718E+09
        -0.13745E+09
        -0.18525E+09
        -0.20042E+09
        -0.19367E+09
        -0.19192E+09
        -0.18052E+09
        -0.12957E+09
        -0.65335E+08
        -0.62217E+08
        -0.16527E+09
        -0.16884E+09
        -0.16523E+09
        -0.55207E+08
        -0.12159E+09
        -0.78022E+08
        -0.10185E+09
        -0.15985E+09
        -0.16233E+09
        -0.15923E+09
         0.16616E+09
         0.18070E+09
         0.13814E+09
         0.38990E+08
         0.17116E+09
         0.84209E+08
        -0.46646E+08
         0.40395E+08
         0.16136E+09
         0.33695E+08
         0.48379E+08
         0.35933E+08
        -0.21405E+08
         0.54691E+08
        -0.16149E+09
         0.53714E+08
         0.98476E+07
         0.27992E+08
        -0.37413E+08
        -0.14909E+09
         0.10524E+09
         0.38539E+08
         0.10065E+09
         0.86967E+08
        -0.12504E+08
         0.68354E+08
         0.10165E+09
         0.15682E+09
         0.17647E+09
         0.16604E+09
         0.88320E+08
        -0.22798E+08
        -0.48997E+08
        -0.78101E+08
        -0.11128E+09
        -0.16899E+09
        -0.14609E+09
        -0.11201E+09
        -0.16964E+09
        -0.17095E+09
        -0.11172E+09
        -0.10423E+08
         0.35507E+08
        -0.50107E+08
         0.11192E+09
         0.14535E+09
         0.17706E+09
         0.19907E+09
         0.20242E+09
         0.19664E+09
         0.19307E+09
         0.17955E+09
         0.11481E+09
         0.38533E+08
         0.18180E+08
         0.16595E+08
        -0.64060E+07
        -0.55372E+08
        -0.10721E+09
        -0.13746E+09
        -0.18526E+09
        -0.20042E+09
        -0.19368E+09
        -0.19193E+09
        -0.18053E+09
        -0.12956E+09
        -0.65297E+08
        -0.62164E+08
        -0.16526E+09
        -0.16883E+09
        -0.16522E+09
        -0.55608E+08
        -0.12165E+09
        -0.78125E+08
        -0.10193E+09
        -0.15996E+09
        -0.16236E+09
        -0.15937E+09
         0.16625E+09
         0.18069E+09
         0.13813E+09
         0.39114E+08
         0.17122E+09
         0.84146E+08
        -0.47082E+08
         0.40330E+08
         0.16138E+09
         0.33459E+08
         0.48495E+08
         0.35959E+08
        -0.21435E+08
         0.54612E+08
        -0.16154E+09
         0.53514E+08
         0.10011E+08
         0.28281E+08
        -0.36934E+08
        -0.14912E+09
         0.10513E+09
         0.38308E+08
         0.10088E+09
         0.87125E+08
        -0.12365E+08
         0.68419E+08
         0.10167E+09
         0.15684E+09
         0.17649E+09
         0.16602E+09
         0.88354E+08
        -0.22667E+08
        -0.49009E+08
        -0.78193E+08
        -0.11134E+09
        -0.16900E+09
        -0.14612E+09
        -0.11198E+09
        -0.16965E+09
        -0.17094E+09
        -0.11172E+09
        -0.10252E+08
         0.35485E+08
        -0.50120E+08
         0.11194E+09
         0.14535E+09
         0.17706E+09
         0.19907E+09
         0.20241E+09
         0.19663E+09
         0.19307E+09
         0.17955E+09
         0.11481E+09
         0.38559E+08
         0.18184E+08
         0.16628E+08
        -0.63479E+07
        -0.55392E+08
        -0.10725E+09
        -0.13747E+09
        -0.18527E+09
        -0.20042E+09
        -0.19368E+09
        -0.19193E+09
        -0.18054E+09
        -0.12954E+09
        -0.65259E+08
        -0.62111E+08
        -0.16525E+09
        -0.16882E+09
        -0.16522E+09
        -0.56012E+08
        -0.12172E+09
        -0.78229E+08
        -0.10200E+09
        -0.16007E+09
        -0.16239E+09
        -0.15950E+09
         0.16633E+09
         0.18068E+09
         0.13811E+09
         0.39239E+08
         0.17127E+09
         0.84085E+08
        -0.47520E+08
         0.40265E+08
         0.16140E+09
         0.33225E+08
         0.48610E+08
         0.35984E+08
        -0.21464E+08
         0.54534E+08
        -0.16158E+09
         0.53314E+08
         0.10172E+08
         0.28568E+08
        -0.36453E+08
        -0.14916E+09
         0.10503E+09
         0.38076E+08
         0.10111E+09
         0.87285E+08
        -0.12226E+08
         0.68484E+08
         0.10169E+09
         0.15686E+09
         0.17650E+09
         0.16600E+09
         0.88387E+08
        -0.22537E+08
        -0.49020E+08
        -0.78285E+08
        -0.11141E+09
        -0.16901E+09
        -0.14615E+09
        -0.11196E+09
        -0.16966E+09
        -0.17093E+09
        -0.11173E+09
        -0.10081E+08
         0.35463E+08
        -0.50133E+08
         0.11196E+09
         0.14535E+09
         0.17707E+09
         0.19906E+09
         0.20240E+09
         0.19662E+09
         0.19308E+09
         0.17955E+09
         0.11481E+09
         0.38585E+08
         0.18187E+08
         0.16662E+08
        -0.62895E+07
        -0.55411E+08
        -0.10728E+09
        -0.13748E+09
        -0.18527E+09
        -0.20042E+09
        -0.19369E+09
        -0.19194E+09
        -0.18055E+09
        -0.12952E+09
        -0.65221E+08
        -0.62058E+08
        -0.16524E+09
        -0.16881E+09
        -0.16522E+09
        -0.56417E+08
        -0.12178E+09
        -0.78333E+08
        -0.10207E+09
        -0.16018E+09
        -0.16242E+09
        -0.15963E+09
         0.16641E+09
         0.18067E+09
         0.13810E+09
         0.39359E+08
         0.17133E+09
         0.84022E+08
        -0.47957E+08
         0.40198E+08
         0.16142E+09
         0.32992E+08
         0.48725E+08
         0.36010E+08
        -0.21493E+08
         0.54456E+08
        -0.16163E+09
         0.53113E+08
         0.10336E+08
         0.28853E+08
        -0.35975E+08
        -0.14919E+09
         0.10492E+09
         0.37842E+08
         0.10134E+09
         0.87442E+08
        -0.12087E+08
         0.68549E+08
         0.10171E+09
         0.15688E+09
         0.17651E+09
         0.16598E+09
         0.88421E+08
        -0.22407E+08
        -0.49032E+08
        -0.78377E+08
        -0.11148E+09
        -0.16903E+09
        -0.14619E+09
        -0.11194E+09
        -0.16967E+09
        -0.17092E+09
        -0.11173E+09
        -0.99094E+07
         0.35441E+08
        -0.50146E+08
         0.11198E+09
         0.14535E+09
         0.17707E+09
         0.19905E+09
         0.20239E+09
         0.19661E+09
         0.19308E+09
         0.17955E+09
         0.11481E+09
         0.38610E+08
         0.18191E+08
         0.16695E+08
        -0.62313E+07
        -0.55430E+08
        -0.10731E+09
        -0.13750E+09
        -0.18528E+09
        -0.20042E+09
        -0.19370E+09
        -0.19194E+09
        -0.18056E+09
        -0.12951E+09
        -0.65183E+08
        -0.62006E+08
        -0.16522E+09
        -0.16880E+09
        -0.16522E+09
        -0.56822E+08
        -0.12184E+09
        -0.78438E+08
        -0.10214E+09
        -0.16029E+09
        -0.16245E+09
        -0.15976E+09
         0.16649E+09
         0.18066E+09
         0.13809E+09
         0.39484E+08
         0.17138E+09
         0.83960E+08
        -0.48396E+08
         0.40133E+08
         0.16144E+09
         0.32760E+08
         0.48841E+08
         0.36035E+08
        -0.21523E+08
         0.54379E+08
        -0.16168E+09
         0.52912E+08
         0.10497E+08
         0.29133E+08
        -0.35498E+08
        -0.14923E+09
         0.10482E+09
         0.37610E+08
         0.10157E+09
         0.87602E+08
        -0.11947E+08
         0.68614E+08
         0.10173E+09
         0.15690E+09
         0.17652E+09
         0.16596E+09
         0.88455E+08
        -0.22276E+08
        -0.49044E+08
        -0.78469E+08
        -0.11154E+09
        -0.16904E+09
        -0.14622E+09
        -0.11192E+09
        -0.16968E+09
        -0.17091E+09
        -0.11174E+09
        -0.97387E+07
         0.35419E+08
        -0.50159E+08
         0.11200E+09
         0.14535E+09
         0.17708E+09
         0.19905E+09
         0.20238E+09
         0.19660E+09
         0.19309E+09
         0.17955E+09
         0.11481E+09
         0.38636E+08
         0.18194E+08
         0.16729E+08
        -0.61734E+07
        -0.55449E+08
        -0.10735E+09
        -0.13751E+09
        -0.18528E+09
        -0.20041E+09
        -0.19370E+09
        -0.19194E+09
        -0.18057E+09
        -0.12949E+09
        -0.65145E+08
        -0.61953E+08
        -0.16521E+09
        -0.16879E+09
        -0.16522E+09
        -0.57225E+08
        -0.12191E+09
        -0.78542E+08
        -0.10221E+09
        -0.16040E+09
        -0.16248E+09
        -0.15989E+09
         0.16657E+09
         0.18065E+09
         0.13808E+09
         0.39605E+08
         0.17144E+09
         0.83898E+08
        -0.48838E+08
         0.40068E+08
         0.16146E+09
         0.32525E+08
         0.48956E+08
         0.36060E+08
        -0.21551E+08
         0.54303E+08
        -0.16172E+09
         0.52711E+08
         0.10660E+08
         0.29409E+08
        -0.35023E+08
        -0.14926E+09
         0.10472E+09
         0.37377E+08
         0.10180E+09
         0.87760E+08
        -0.11808E+08
         0.68678E+08
         0.10175E+09
         0.15693E+09
         0.17653E+09
         0.16594E+09
         0.88489E+08
        -0.22147E+08
        -0.49056E+08
        -0.78561E+08
        -0.11161E+09
        -0.16905E+09
        -0.14625E+09
        -0.11190E+09
        -0.16969E+09
        -0.17090E+09
        -0.11174E+09
        -0.95664E+07
         0.35397E+08
        -0.50172E+08
         0.11202E+09
         0.14535E+09
         0.17708E+09
         0.19904E+09
         0.20237E+09
         0.19659E+09
         0.19309E+09
         0.17955E+09
         0.11480E+09
         0.38661E+08
         0.18197E+08
         0.16762E+08
        -0.61154E+07
        -0.55468E+08
        -0.10738E+09
        -0.13752E+09
        -0.18529E+09
        -0.20041E+09
        -0.19371E+09
        -0.19195E+09
        -0.18057E+09
        -0.12948E+09
        -0.65108E+08
        -0.61900E+08
        -0.16520E+09
        -0.16877E+09
        -0.16522E+09
        -0.57628E+08
        -0.12197E+09
        -0.78645E+08
        -0.10229E+09
        -0.16051E+09
        -0.16251E+09
        -0.16002E+09
         0.16665E+09
         0.18064E+09
         0.13807E+09
         0.39729E+08
         0.17149E+09
         0.83836E+08
        -0.49281E+08
         0.40002E+08
         0.16148E+09
         0.32291E+08
         0.49071E+08
         0.36084E+08
        -0.21580E+08
         0.54228E+08
        -0.16177E+09
         0.52509E+08
         0.10819E+08
         0.29681E+08
        -0.34549E+08
        -0.14930E+09
         0.10462E+09
         0.37145E+08
         0.10203E+09
         0.87921E+08
        -0.11668E+08
         0.68743E+08
         0.10176E+09
         0.15695E+09
         0.17655E+09
         0.16592E+09
         0.88523E+08
        -0.22017E+08
        -0.49069E+08
        -0.78652E+08
        -0.11167E+09
        -0.16907E+09
        -0.14629E+09
        -0.11187E+09
        -0.16970E+09
        -0.17089E+09
        -0.11174E+09
        -0.93936E+07
         0.35374E+08
        -0.50184E+08
         0.11204E+09
         0.14535E+09
         0.17709E+09
         0.19903E+09
         0.20236E+09
         0.19657E+09
         0.19309E+09
         0.17954E+09
         0.11480E+09
         0.38687E+08
         0.18200E+08
         0.16795E+08
        -0.60573E+07
        -0.55486E+08
        -0.10742E+09
        -0.13753E+09
        -0.18530E+09
        -0.20041E+09
        -0.19372E+09
        -0.19195E+09
        -0.18058E+09
        -0.12946E+09
        -0.65071E+08
        -0.61847E+08
        -0.16519E+09
        -0.16876E+09
        -0.16522E+09
        -0.58032E+08
        -0.12203E+09
        -0.78749E+08
        -0.10236E+09
        -0.16062E+09
        -0.16254E+09
        -0.16015E+09
         0.16672E+09
         0.18063E+09
         0.13806E+09
         0.39850E+08
         0.17155E+09
         0.83775E+08
        -0.49727E+08
         0.39934E+08
         0.16151E+09
         0.32060E+08
         0.49186E+08
         0.36108E+08
        -0.21609E+08
         0.54153E+08
        -0.16182E+09
         0.52307E+08
         0.10982E+08
         0.29951E+08
        -0.34075E+08
        -0.14933E+09
         0.10451E+09
         0.36912E+08
         0.10225E+09
         0.88081E+08
        -0.11527E+08
         0.68807E+08
         0.10178E+09
         0.15697E+09
         0.17656E+09
         0.16590E+09
         0.88557E+08
        -0.21889E+08
        -0.49082E+08
        -0.78744E+08
        -0.11174E+09
        -0.16908E+09
        -0.14632E+09
        -0.11185E+09
        -0.16971E+09
        -0.17088E+09
        -0.11175E+09
        -0.92216E+07
         0.35352E+08
        -0.50197E+08
         0.11206E+09
         0.14536E+09
         0.17709E+09
         0.19903E+09
         0.20236E+09
         0.19656E+09
         0.19310E+09
         0.17954E+09
         0.11480E+09
         0.38713E+08
         0.18203E+08
         0.16828E+08
        -0.59995E+07
        -0.55505E+08
        -0.10745E+09
        -0.13755E+09
        -0.18530E+09
        -0.20041E+09
        -0.19372E+09
        -0.19195E+09
        -0.18059E+09
        -0.12944E+09
        -0.65034E+08
        -0.61794E+08
        -0.16517E+09
        -0.16875E+09
        -0.16522E+09
        -0.58439E+08
        -0.12210E+09
        -0.78853E+08
        -0.10243E+09
        -0.16073E+09
        -0.16257E+09
        -0.16028E+09
         0.16679E+09
         0.18062E+09
         0.13804E+09
         0.39975E+08
         0.17160E+09
         0.83713E+08
        -0.50178E+08
         0.39867E+08
         0.16152E+09
         0.31839E+08
         0.49300E+08
         0.36131E+08
        -0.21639E+08
         0.54076E+08
        -0.16187E+09
         0.52107E+08
         0.11144E+08
         0.30218E+08
        -0.33603E+08
        -0.14936E+09
         0.10441E+09
         0.36675E+08
         0.10248E+09
         0.88242E+08
        -0.11387E+08
         0.68873E+08
         0.10180E+09
         0.15699E+09
         0.17657E+09
         0.16588E+09
         0.88593E+08
        -0.21761E+08
        -0.49097E+08
        -0.78835E+08
        -0.11181E+09
        -0.16909E+09
        -0.14635E+09
        -0.11183E+09
        -0.16972E+09
        -0.17087E+09
        -0.11175E+09
        -0.90491E+07
         0.35330E+08
        -0.50210E+08
         0.11208E+09
         0.14536E+09
         0.17710E+09
         0.19902E+09
         0.20235E+09
         0.19655E+09
         0.19310E+09
         0.17954E+09
         0.11480E+09
         0.38738E+08
         0.18204E+08
         0.16860E+08
        -0.59418E+07
        -0.55524E+08
        -0.10749E+09
        -0.13756E+09
        -0.18531E+09
        -0.20041E+09
        -0.19373E+09
        -0.19196E+09
        -0.18060E+09
        -0.12943E+09
        -0.64997E+08
        -0.61741E+08
        -0.16516E+09
        -0.16874E+09
        -0.16522E+09
        -0.58844E+08
        -0.12216E+09
        -0.78956E+08
        -0.10250E+09
        -0.16084E+09
        -0.16260E+09
        -0.16041E+09
         0.16686E+09
         0.18061E+09
         0.13803E+09
         0.40102E+08
         0.17166E+09
         0.83652E+08
        -0.50636E+08
         0.39799E+08
         0.16154E+09
         0.31628E+08
         0.49415E+08
         0.36154E+08
        -0.21667E+08
         0.54003E+08
        -0.16192E+09
         0.51905E+08
         0.11314E+08
         0.30482E+08
        -0.33132E+08
        -0.14938E+09
         0.10431E+09
         0.36442E+08
         0.10271E+09
         0.88402E+08
        -0.11246E+08
         0.68937E+08
         0.10182E+09
         0.15702E+09
         0.17658E+09
         0.16586E+09
         0.88631E+08
        -0.21634E+08
        -0.49115E+08
        -0.78925E+08
        -0.11187E+09
        -0.16911E+09
        -0.14639E+09
        -0.11180E+09
        -0.16973E+09
        -0.17086E+09
        -0.11176E+09
        -0.88749E+07
         0.35307E+08
        -0.50222E+08
         0.11210E+09
         0.14536E+09
         0.17710E+09
         0.19901E+09
         0.20234E+09
         0.19654E+09
         0.19311E+09
         0.17954E+09
         0.11480E+09
         0.38762E+08
         0.18203E+08
         0.16893E+08
        -0.58838E+07
        -0.55543E+08
        -0.10752E+09
        -0.13757E+09
        -0.18532E+09
        -0.20040E+09
        -0.19374E+09
        -0.19196E+09
        -0.18061E+09
        -0.12941E+09
        -0.64960E+08
        -0.61687E+08
        -0.16515E+09
        -0.16873E+09
        -0.16522E+09
        -0.59248E+08
        -0.12223E+09
        -0.79059E+08
        -0.10258E+09
        -0.16094E+09
        -0.16263E+09
        -0.16054E+09
         0.16693E+09
         0.18060E+09
         0.13802E+09
         0.40224E+08
         0.17171E+09
         0.83591E+08
        -0.51097E+08
         0.39732E+08
         0.16157E+09
         0.31423E+08
         0.49530E+08
         0.36177E+08
        -0.21695E+08
         0.53933E+08
        -0.16197E+09
         0.51709E+08
         0.11480E+08
         0.30736E+08
        -0.32666E+08
        -0.14941E+09
         0.10420E+09
         0.36214E+08
         0.10294E+09
         0.88565E+08
        -0.11106E+08
         0.68999E+08
         0.10184E+09
         0.15705E+09
         0.17659E+09
         0.16584E+09
         0.88670E+08
        -0.21509E+08
        -0.49134E+08
        -0.79014E+08
        -0.11194E+09
        -0.16912E+09
        -0.14642E+09
        -0.11178E+09
        -0.16973E+09
        -0.17085E+09
        -0.11176E+09
        -0.87011E+07
         0.35284E+08
        -0.50235E+08
         0.11212E+09
         0.14536E+09
         0.17711E+09
         0.19901E+09
         0.20233E+09
         0.19653E+09
         0.19311E+09
         0.17954E+09
         0.11481E+09
         0.38785E+08
         0.18201E+08
         0.16926E+08
        -0.58258E+07
        -0.55561E+08
        -0.10755E+09
        -0.13758E+09
        -0.18532E+09
        -0.20040E+09
        -0.19374E+09
        -0.19196E+09
        -0.18062E+09
        -0.12940E+09
        -0.64924E+08
        -0.61634E+08
        -0.15895E+09
        -0.15132E+09
        -0.14692E+09
        -0.52356E+08
        -0.11611E+09
        -0.72216E+08
        -0.93337E+08
        -0.15319E+09
        -0.14887E+09
        -0.15245E+09
         0.13166E+09
         0.17669E+09
         0.13395E+09
         0.35830E+08
         0.16833E+09
         0.78376E+08
        -0.44621E+08
         0.39786E+08
         0.13752E+09
         0.31327E+08
         0.48469E+08
         0.35209E+08
        -0.21143E+08
         0.48797E+08
        -0.14469E+09
         0.51730E+08
         0.10346E+08
         0.31012E+08
        -0.30148E+08
        -0.13342E+09
         0.95423E+08
         0.34720E+08
         0.92096E+08
         0.82481E+08
        -0.10578E+08
         0.63584E+08
         0.96789E+08
         0.15295E+09
         0.16969E+09
         0.15837E+09
         0.86471E+08
        -0.20827E+08
        -0.47949E+08
        -0.76469E+08
        -0.10699E+09
        -0.16371E+09
        -0.13787E+09
        -0.10398E+09
        -0.15314E+09
        -0.15738E+09
        -0.10759E+09
        -0.79686E+07
         0.35023E+08
        -0.49952E+08
         0.11150E+09
         0.14458E+09
         0.17622E+09
         0.19805E+09
         0.20125E+09
         0.19523E+09
         0.19176E+09
         0.17838E+09
         0.11409E+09
         0.38579E+08
         0.18073E+08
         0.16843E+08
        -0.57387E+07
        -0.55293E+08
        -0.10707E+09
        -0.13694E+09
        -0.18422E+09
        -0.19926E+09
        -0.19259E+09
        -0.19078E+09
        -0.17957E+09
        -0.12859E+09
        -0.64524E+08
        -0.61230E+08
        -0.78635E+08
        -0.50280E+08
        -0.47445E+08
        -0.14226E+08
        -0.51267E+08
        -0.25695E+08
        -0.20912E+08
        -0.68513E+08
        -0.53696E+08
        -0.66969E+08
         0.32750E+08
         0.10528E+09
         0.72102E+08
         0.11500E+08
         0.10288E+09
         0.31925E+08
        -0.11376E+08
         0.99089E+07
         0.39300E+08
         0.63634E+07
         0.28093E+08
         0.19436E+08
        -0.11834E+08
         0.11882E+08
        -0.47372E+08
         0.11931E+08
         0.33606E+07
         0.58216E+07
        -0.59977E+07
        -0.43680E+08
         0.34459E+08
         0.80165E+07
         0.24403E+08
         0.20231E+08
        -0.51894E+07
         0.23524E+08
         0.42971E+08
         0.85668E+08
         0.82635E+08
         0.73285E+08
         0.49194E+08
        -0.11481E+08
        -0.27405E+08
        -0.39408E+08
        -0.49385E+08
        -0.85278E+08
        -0.57399E+08
        -0.40467E+08
        -0.51943E+08
        -0.58325E+08
        -0.53175E+08
        -0.31306E+07
         0.27913E+08
        -0.40588E+08
         0.91521E+08
         0.11976E+09
         0.14752E+09
         0.16702E+09
         0.16732E+09
         0.15656E+09
         0.15175E+09
         0.14322E+09
         0.92020E+08
         0.31654E+08
         0.14419E+08
         0.13497E+08
        -0.46959E+07
        -0.46241E+08
        -0.90240E+08
        -0.11548E+09
        -0.14964E+09
        -0.16326E+09
        -0.15674E+09
        -0.15440E+09
        -0.14652E+09
        -0.10425E+09
        -0.53001E+08
        -0.50115E+08
  
SCALARS                      stress_xz  double 1
LOOKUP_TABLE default
         0.56619E+05
        -0.39929E+06
        -0.13182E+07
         0.90557E+05
        -0.62077E+01
         0.22011E+01
         0.73599E+01
         0.14699E+01
        -0.37090E+07
        -0.24781E+07
         0.22014E+02
         0.19829E+02
         0.15814E+06
        -0.64527E+06
        -0.27151E+01
        -0.12719E+02
        -0.13240E+06
        -0.61925E+06
        -0.91873E+01
        -0.13683E+02
        -0.90749E+06
        -0.15291E+07
        -0.14481E+07
        -0.91368E+01
        -0.42132E+01
         0.73608E+01
        -0.16151E+07
        -0.13114E+07
        -0.17103E+02
        -0.13567E+02
         0.30980E+06
        -0.68815E+06
         0.65860E+05
         0.17413E+01
        -0.67291E+01
        -0.41456E+01
         0.91912E+06
         0.44300E+06
        -0.99905E+01
        -0.10637E+02
         0.18319E+07
         0.25956E+07
        -0.22536E+02
        -0.16619E+02
         0.19601E+07
         0.10439E+07
        -0.24748E+02
        -0.11912E+02
        -0.56259E+06
        -0.74771E+01
         0.13400E+07
        -0.20813E+01
        -0.58684E+06
        -0.14610E+02
         0.43837E+06
        -0.38648E+01
         0.19180E+07
         0.52619E+06
        -0.33108E+01
        -0.80025E+01
        -0.33079E+05
         0.91256E+06
         0.66218E+01
         0.45409E+01
        -0.23701E+06
        -0.66607E+00
        -0.79337E+06
         0.43811E+01
        -0.52195E+07
        -0.35767E+07
         0.27383E+02
         0.19860E+02
        -0.23004E+07
         0.14461E+02
         0.54210E+06
        -0.10003E+02
         0.16964E+07
        -0.19633E+01
         0.35963E+07
        -0.30459E+01
         0.47585E+07
         0.33791E+07
        -0.11163E+02
        -0.12766E+02
         0.29849E+07
        -0.13730E+02
         0.23769E+07
        -0.19767E+02
         0.14803E+07
        -0.12608E+02
         0.23302E+07
         0.17137E+07
        -0.53810E+01
         0.73793E+01
        -0.39175E+06
         0.86557E+01
        -0.10754E+07
         0.36344E+01
        -0.25820E+07
         0.89749E+01
        -0.38169E+07
        -0.26195E+07
         0.20694E+02
         0.21594E+02
        -0.93478E+07
        -0.10351E+08
         0.38237E+02
         0.37682E+02
        -0.92582E+07
         0.32666E+02
        -0.84380E+07
         0.24412E+02
        -0.60536E+07
         0.13415E+02
        -0.43983E+07
         0.14346E+01
        -0.16319E+07
        -0.51094E+01
         0.21024E+07
        -0.40878E+01
         0.50172E+07
        -0.40179E+01
         0.74548E+07
        -0.90606E+01
         0.10028E+08
        -0.17238E+02
         0.12186E+08
        -0.20570E+02
         0.12955E+08
        -0.19408E+02
         0.12340E+08
        -0.21105E+02
         0.11309E+08
        -0.27391E+02
         0.10171E+08
        -0.32300E+02
         0.89708E+07
        -0.30026E+02
         0.71335E+07
        -0.24402E+02
         0.41854E+07
        -0.11520E+02
         0.35880E+06
         0.21998E+01
        -0.23407E+07
         0.53407E+01
        -0.36635E+07
         0.87333E+01
        -0.55097E+07
         0.17092E+02
        -0.72645E+07
         0.28046E+02
        -0.95482E+07
         0.33696E+02
        -0.10970E+08
         0.34465E+02
        -0.89036E+06
         0.46328E+06
         0.54355E+06
        -0.10953E+07
         0.42338E+07
         0.32776E+07
         0.49436E+06
        -0.72658E+06
        -0.37524E+06
        -0.66726E+06
         0.36567E+06
         0.15829E+07
         0.33081E+07
        -0.10583E+07
        -0.12727E+07
         0.14577E+07
         0.12230E+07
        -0.56732E+06
        -0.88157E+06
        -0.94853E+06
        -0.51834E+07
        -0.55200E+07
        -0.49836E+07
        -0.15490E+07
         0.62132E+06
        -0.46299E+06
        -0.14864E+07
        -0.16668E+06
        -0.17046E+07
        -0.11730E+07
         0.13013E+07
         0.25518E+06
        -0.61319E+06
        -0.19817E+06
         0.62544E+07
         0.39879E+07
         0.36102E+07
        -0.25261E+07
        -0.14389E+07
        -0.30759E+07
        -0.63259E+07
        -0.59034E+07
        -0.58349E+07
        -0.42886E+07
        -0.30747E+07
        -0.24029E+07
         0.45170E+06
         0.18883E+07
         0.54604E+06
         0.17298E+07
         0.46173E+07
         0.38930E+07
         0.18226E+08
         0.19154E+08
         0.17116E+08
         0.14565E+08
         0.10844E+08
         0.55201E+07
        -0.32732E+06
        -0.39292E+07
        -0.59874E+07
        -0.10278E+08
        -0.16750E+08
        -0.20415E+08
        -0.18714E+08
        -0.17952E+08
        -0.18970E+08
        -0.18970E+08
        -0.17232E+08
        -0.15081E+08
        -0.76279E+07
         0.12062E+07
         0.46388E+07
         0.51712E+07
         0.87558E+07
         0.13975E+08
         0.18143E+08
         0.19074E+08
        -0.56161E+08
         0.18668E+08
        -0.37575E+08
        -0.14426E+09
         0.12652E+09
         0.15314E+09
         0.73676E+08
        -0.72370E+08
        -0.51761E+08
        -0.72760E+08
        -0.29099E+08
         0.26831E+08
         0.11394E+09
        -0.16744E+09
        -0.67179E+08
         0.14914E+09
         0.13866E+09
        -0.83048E+08
        -0.48785E+08
        -0.98151E+08
        -0.17325E+09
        -0.17521E+09
        -0.17722E+09
        -0.13247E+09
         0.54212E+08
         0.50662E+08
        -0.17098E+09
         0.36481E+08
        -0.91949E+08
        -0.83619E+08
         0.13308E+09
         0.12382E+09
        -0.12411E+09
        -0.10711E+09
         0.17745E+09
         0.15861E+09
         0.14267E+09
        -0.89979E+08
        -0.19232E+08
        -0.59627E+08
        -0.15799E+09
        -0.17803E+09
        -0.17295E+09
        -0.15876E+09
        -0.13593E+09
        -0.59348E+08
         0.95220E+08
         0.13098E+09
        -0.20784E+08
         0.21377E+08
         0.13806E+09
         0.17306E+09
         0.19674E+09
         0.19405E+09
         0.16732E+09
         0.13892E+09
         0.97807E+08
         0.42231E+08
        -0.10885E+08
        -0.39241E+08
        -0.52922E+08
        -0.91206E+08
        -0.16499E+09
        -0.19708E+09
        -0.19653E+09
        -0.19580E+09
        -0.19801E+09
        -0.19156E+09
        -0.16905E+09
        -0.14760E+09
        -0.77906E+08
         0.19763E+08
         0.48083E+08
         0.51067E+08
         0.85630E+08
         0.15135E+09
         0.18875E+09
         0.18960E+09
        -0.56227E+08
         0.18733E+08
        -0.37626E+08
        -0.14436E+09
         0.12645E+09
         0.15309E+09
         0.74145E+08
        -0.72122E+08
        -0.51733E+08
        -0.72502E+08
        -0.28511E+08
         0.26897E+08
         0.11397E+09
        -0.16740E+09
        -0.67079E+08
         0.14918E+09
         0.13896E+09
        -0.82819E+08
        -0.48734E+08
        -0.97979E+08
        -0.17322E+09
        -0.17521E+09
        -0.17722E+09
        -0.13248E+09
         0.54113E+08
         0.50747E+08
        -0.17098E+09
         0.35795E+08
        -0.92596E+08
        -0.83532E+08
         0.13315E+09
         0.12381E+09
        -0.12359E+09
        -0.10716E+09
         0.17747E+09
         0.15858E+09
         0.14266E+09
        -0.89994E+08
        -0.19376E+08
        -0.59738E+08
        -0.15800E+09
        -0.17805E+09
        -0.17294E+09
        -0.15874E+09
        -0.13591E+09
        -0.59320E+08
         0.95200E+08
         0.13103E+09
        -0.20661E+08
         0.21331E+08
         0.13804E+09
         0.17305E+09
         0.19674E+09
         0.19404E+09
         0.16730E+09
         0.13892E+09
         0.97791E+08
         0.42231E+08
        -0.10902E+08
        -0.39275E+08
        -0.52890E+08
        -0.91194E+08
        -0.16499E+09
        -0.19708E+09
        -0.19653E+09
        -0.19580E+09
        -0.19801E+09
        -0.19156E+09
        -0.16904E+09
        -0.14760E+09
        -0.77889E+08
         0.19773E+08
         0.48053E+08
         0.51050E+08
         0.85594E+08
         0.15135E+09
         0.18875E+09
         0.18961E+09
        -0.56293E+08
         0.18797E+08
        -0.37676E+08
        -0.14445E+09
         0.12638E+09
         0.15303E+09
         0.74615E+08
        -0.71874E+08
        -0.51701E+08
        -0.72242E+08
        -0.27924E+08
         0.26963E+08
         0.11400E+09
        -0.16736E+09
        -0.66980E+08
         0.14923E+09
         0.13927E+09
        -0.82587E+08
        -0.48682E+08
        -0.97812E+08
        -0.17319E+09
        -0.17520E+09
        -0.17722E+09
        -0.13249E+09
         0.54024E+08
         0.50838E+08
        -0.17098E+09
         0.35117E+08
        -0.93246E+08
        -0.83450E+08
         0.13322E+09
         0.12380E+09
        -0.12307E+09
        -0.10721E+09
         0.17749E+09
         0.15855E+09
         0.14264E+09
        -0.90007E+08
        -0.19519E+08
        -0.59849E+08
        -0.15800E+09
        -0.17807E+09
        -0.17293E+09
        -0.15872E+09
        -0.13588E+09
        -0.59293E+08
         0.95182E+08
         0.13108E+09
        -0.20532E+08
         0.21284E+08
         0.13803E+09
         0.17305E+09
         0.19674E+09
         0.19403E+09
         0.16729E+09
         0.13892E+09
         0.97776E+08
         0.42231E+08
        -0.10918E+08
        -0.39308E+08
        -0.52857E+08
        -0.91183E+08
        -0.16500E+09
        -0.19708E+09
        -0.19652E+09
        -0.19579E+09
        -0.19802E+09
        -0.19156E+09
        -0.16903E+09
        -0.14760E+09
        -0.77871E+08
         0.19783E+08
         0.48022E+08
         0.51033E+08
         0.85557E+08
         0.15135E+09
         0.18875E+09
         0.18962E+09
        -0.56359E+08
         0.18864E+08
        -0.37725E+08
        -0.14455E+09
         0.12631E+09
         0.15297E+09
         0.75080E+08
        -0.71626E+08
        -0.51663E+08
        -0.71978E+08
        -0.27337E+08
         0.27030E+08
         0.11402E+09
        -0.16732E+09
        -0.66880E+08
         0.14927E+09
         0.13960E+09
        -0.82354E+08
        -0.48631E+08
        -0.97638E+08
        -0.17316E+09
        -0.17519E+09
        -0.17722E+09
        -0.13249E+09
         0.53965E+08
         0.50951E+08
        -0.17097E+09
         0.34461E+08
        -0.93894E+08
        -0.83377E+08
         0.13331E+09
         0.12381E+09
        -0.12255E+09
        -0.10726E+09
         0.17750E+09
         0.15852E+09
         0.14263E+09
        -0.90020E+08
        -0.19660E+08
        -0.59954E+08
        -0.15800E+09
        -0.17809E+09
        -0.17292E+09
        -0.15869E+09
        -0.13584E+09
        -0.59262E+08
         0.95161E+08
         0.13114E+09
        -0.20404E+08
         0.21236E+08
         0.13801E+09
         0.17304E+09
         0.19673E+09
         0.19402E+09
         0.16727E+09
         0.13892E+09
         0.97761E+08
         0.42231E+08
        -0.10935E+08
        -0.39342E+08
        -0.52825E+08
        -0.91172E+08
        -0.16499E+09
        -0.19707E+09
        -0.19652E+09
        -0.19579E+09
        -0.19802E+09
        -0.19156E+09
        -0.16902E+09
        -0.14760E+09
        -0.77853E+08
         0.19793E+08
         0.47992E+08
         0.51016E+08
         0.85521E+08
         0.15134E+09
         0.18875E+09
         0.18963E+09
        -0.56425E+08
         0.18930E+08
        -0.37774E+08
        -0.14464E+09
         0.12624E+09
         0.15291E+09
         0.75552E+08
        -0.71377E+08
        -0.51619E+08
        -0.71709E+08
        -0.26749E+08
         0.27097E+08
         0.11405E+09
        -0.16728E+09
        -0.66780E+08
         0.14932E+09
         0.13993E+09
        -0.82120E+08
        -0.48574E+08
        -0.97462E+08
        -0.17313E+09
        -0.17518E+09
        -0.17721E+09
        -0.13250E+09
         0.53935E+08
         0.51080E+08
        -0.17097E+09
         0.33826E+08
        -0.94540E+08
        -0.83313E+08
         0.13340E+09
         0.12384E+09
        -0.12203E+09
        -0.10731E+09
         0.17752E+09
         0.15849E+09
         0.14261E+09
        -0.90033E+08
        -0.19799E+08
        -0.60058E+08
        -0.15799E+09
        -0.17811E+09
        -0.17292E+09
        -0.15865E+09
        -0.13579E+09
        -0.59225E+08
         0.95139E+08
         0.13119E+09
        -0.20275E+08
         0.21189E+08
         0.13800E+09
         0.17304E+09
         0.19673E+09
         0.19402E+09
         0.16726E+09
         0.13892E+09
         0.97745E+08
         0.42231E+08
        -0.10952E+08
        -0.39376E+08
        -0.52792E+08
        -0.91160E+08
        -0.16499E+09
        -0.19707E+09
        -0.19652E+09
        -0.19579E+09
        -0.19803E+09
        -0.19156E+09
        -0.16900E+09
        -0.14760E+09
        -0.77835E+08
         0.19803E+08
         0.47961E+08
         0.50999E+08
         0.85485E+08
         0.15134E+09
         0.18876E+09
         0.18963E+09
        -0.56488E+08
         0.19003E+08
        -0.37816E+08
        -0.14473E+09
         0.12617E+09
         0.15285E+09
         0.76022E+08
        -0.71131E+08
        -0.51573E+08
        -0.71444E+08
        -0.26158E+08
         0.27163E+08
         0.11408E+09
        -0.16724E+09
        -0.66680E+08
         0.14937E+09
         0.14027E+09
        -0.81885E+08
        -0.48516E+08
        -0.97294E+08
        -0.17310E+09
        -0.17518E+09
        -0.17721E+09
        -0.13251E+09
         0.53910E+08
         0.51213E+08
        -0.17096E+09
         0.33194E+08
        -0.95190E+08
        -0.83261E+08
         0.13350E+09
         0.12387E+09
        -0.12150E+09
        -0.10735E+09
         0.17753E+09
         0.15846E+09
         0.14260E+09
        -0.90043E+08
        -0.19937E+08
        -0.60158E+08
        -0.15798E+09
        -0.17813E+09
        -0.17292E+09
        -0.15861E+09
        -0.13574E+09
        -0.59191E+08
         0.95113E+08
         0.13123E+09
        -0.20141E+08
         0.21147E+08
         0.13798E+09
         0.17303E+09
         0.19673E+09
         0.19401E+09
         0.16725E+09
         0.13892E+09
         0.97730E+08
         0.42232E+08
        -0.10968E+08
        -0.39410E+08
        -0.52760E+08
        -0.91149E+08
        -0.16499E+09
        -0.19707E+09
        -0.19652E+09
        -0.19578E+09
        -0.19803E+09
        -0.19156E+09
        -0.16899E+09
        -0.14759E+09
        -0.77817E+08
         0.19813E+08
         0.47930E+08
         0.50981E+08
         0.85449E+08
         0.15134E+09
         0.18876E+09
         0.18964E+09
        -0.56547E+08
         0.19095E+08
        -0.37845E+08
        -0.14482E+09
         0.12610E+09
         0.15279E+09
         0.76502E+08
        -0.70889E+08
        -0.51528E+08
        -0.71192E+08
        -0.25561E+08
         0.27228E+08
         0.11410E+09
        -0.16719E+09
        -0.66579E+08
         0.14942E+09
         0.14060E+09
        -0.81649E+08
        -0.48463E+08
        -0.97129E+08
        -0.17307E+09
        -0.17517E+09
        -0.17721E+09
        -0.13253E+09
         0.53871E+08
         0.51330E+08
        -0.17096E+09
         0.32548E+08
        -0.95846E+08
        -0.83218E+08
         0.13359E+09
         0.12387E+09
        -0.12096E+09
        -0.10738E+09
         0.17755E+09
         0.15843E+09
         0.14258E+09
        -0.90053E+08
        -0.20075E+08
        -0.60263E+08
        -0.15798E+09
        -0.17816E+09
        -0.17292E+09
        -0.15856E+09
        -0.13569E+09
        -0.59157E+08
         0.95072E+08
         0.13126E+09
        -0.19988E+08
         0.21120E+08
         0.13797E+09
         0.17303E+09
         0.19672E+09
         0.19400E+09
         0.16723E+09
         0.13892E+09
         0.97714E+08
         0.42232E+08
        -0.10984E+08
        -0.39444E+08
        -0.52727E+08
        -0.91139E+08
        -0.16499E+09
        -0.19706E+09
        -0.19652E+09
        -0.19578E+09
        -0.19804E+09
        -0.19156E+09
        -0.16897E+09
        -0.14758E+09
        -0.77799E+08
         0.19820E+08
         0.47897E+08
         0.50964E+08
         0.85414E+08
         0.15134E+09
         0.18876E+09
         0.18965E+09
        -0.56602E+08
         0.19191E+08
        -0.37868E+08
        -0.14491E+09
         0.12603E+09
         0.15274E+09
         0.76987E+08
        -0.70650E+08
        -0.51484E+08
        -0.70949E+08
        -0.24961E+08
         0.27294E+08
         0.11412E+09
        -0.16714E+09
        -0.66478E+08
         0.14946E+09
         0.14091E+09
        -0.81412E+08
        -0.48406E+08
        -0.96975E+08
        -0.17304E+09
        -0.17517E+09
        -0.17721E+09
        -0.13254E+09
         0.53825E+08
         0.51439E+08
        -0.17095E+09
         0.31898E+08
        -0.96512E+08
        -0.83179E+08
         0.13369E+09
         0.12386E+09
        -0.12041E+09
        -0.10740E+09
         0.17756E+09
         0.15840E+09
         0.14257E+09
        -0.90060E+08
        -0.20213E+08
        -0.60365E+08
        -0.15797E+09
        -0.17818E+09
        -0.17292E+09
        -0.15852E+09
        -0.13563E+09
        -0.59126E+08
         0.95025E+08
         0.13128E+09
        -0.19829E+08
         0.21099E+08
         0.13796E+09
         0.17303E+09
         0.19672E+09
         0.19399E+09
         0.16722E+09
         0.13892E+09
         0.97698E+08
         0.42232E+08
        -0.11000E+08
        -0.39478E+08
        -0.52695E+08
        -0.91128E+08
        -0.16498E+09
        -0.19706E+09
        -0.19652E+09
        -0.19578E+09
        -0.19804E+09
        -0.19156E+09
        -0.16896E+09
        -0.14758E+09
        -0.77781E+08
         0.19828E+08
         0.47864E+08
         0.50946E+08
         0.85380E+08
         0.15134E+09
         0.18877E+09
         0.18965E+09
        -0.56657E+08
         0.19289E+08
        -0.37890E+08
        -0.14500E+09
         0.12597E+09
         0.15268E+09
         0.77469E+08
        -0.70411E+08
        -0.51440E+08
        -0.70708E+08
        -0.24364E+08
         0.27359E+08
         0.11415E+09
        -0.16709E+09
        -0.66377E+08
         0.14951E+09
         0.14123E+09
        -0.81176E+08
        -0.48350E+08
        -0.96814E+08
        -0.17301E+09
        -0.17516E+09
        -0.17720E+09
        -0.13256E+09
         0.53779E+08
         0.51548E+08
        -0.17094E+09
         0.31249E+08
        -0.97176E+08
        -0.83140E+08
         0.13378E+09
         0.12386E+09
        -0.11986E+09
        -0.10743E+09
         0.17758E+09
         0.15837E+09
         0.14255E+09
        -0.90068E+08
        -0.20350E+08
        -0.60467E+08
        -0.15796E+09
        -0.17821E+09
        -0.17292E+09
        -0.15848E+09
        -0.13558E+09
        -0.59095E+08
         0.94980E+08
         0.13131E+09
        -0.19668E+08
         0.21080E+08
         0.13795E+09
         0.17302E+09
         0.19672E+09
         0.19398E+09
         0.16720E+09
         0.13892E+09
         0.97683E+08
         0.42232E+08
        -0.11017E+08
        -0.39511E+08
        -0.52662E+08
        -0.91118E+08
        -0.16498E+09
        -0.19706E+09
        -0.19652E+09
        -0.19578E+09
        -0.19804E+09
        -0.19156E+09
        -0.16894E+09
        -0.14757E+09
        -0.77763E+08
         0.19835E+08
         0.47830E+08
         0.50929E+08
         0.85346E+08
         0.15133E+09
         0.18877E+09
         0.18966E+09
        -0.56713E+08
         0.19387E+08
        -0.37912E+08
        -0.14509E+09
         0.12590E+09
         0.15262E+09
         0.77954E+08
        -0.70172E+08
        -0.51397E+08
        -0.70468E+08
        -0.23766E+08
         0.27425E+08
         0.11417E+09
        -0.16704E+09
        -0.66276E+08
         0.14956E+09
         0.14155E+09
        -0.80942E+08
        -0.48293E+08
        -0.96659E+08
        -0.17298E+09
        -0.17516E+09
        -0.17720E+09
        -0.13258E+09
         0.53733E+08
         0.51657E+08
        -0.17094E+09
         0.30604E+08
        -0.97838E+08
        -0.83101E+08
         0.13387E+09
         0.12385E+09
        -0.11932E+09
        -0.10746E+09
         0.17760E+09
         0.15834E+09
         0.14253E+09
        -0.90075E+08
        -0.20487E+08
        -0.60570E+08
        -0.15796E+09
        -0.17823E+09
        -0.17292E+09
        -0.15844E+09
        -0.13553E+09
        -0.59062E+08
         0.94933E+08
         0.13133E+09
        -0.19509E+08
         0.21058E+08
         0.13794E+09
         0.17302E+09
         0.19672E+09
         0.19398E+09
         0.16719E+09
         0.13892E+09
         0.97667E+08
         0.42232E+08
        -0.11033E+08
        -0.39544E+08
        -0.52630E+08
        -0.91107E+08
        -0.16498E+09
        -0.19705E+09
        -0.19652E+09
        -0.19577E+09
        -0.19805E+09
        -0.19156E+09
        -0.16893E+09
        -0.14757E+09
        -0.77745E+08
         0.19843E+08
         0.47796E+08
         0.50911E+08
         0.85312E+08
         0.15133E+09
         0.18877E+09
         0.18967E+09
        -0.56769E+08
         0.19486E+08
        -0.37935E+08
        -0.14517E+09
         0.12583E+09
         0.15256E+09
         0.78434E+08
        -0.69935E+08
        -0.51353E+08
        -0.70230E+08
        -0.23167E+08
         0.27491E+08
         0.11419E+09
        -0.16699E+09
        -0.66175E+08
         0.14960E+09
         0.14187E+09
        -0.80708E+08
        -0.48241E+08
        -0.96496E+08
        -0.17295E+09
        -0.17515E+09
        -0.17720E+09
        -0.13260E+09
         0.53688E+08
         0.51764E+08
        -0.17093E+09
         0.29958E+08
        -0.98499E+08
        -0.83061E+08
         0.13396E+09
         0.12384E+09
        -0.11877E+09
        -0.10748E+09
         0.17761E+09
         0.15831E+09
         0.14252E+09
        -0.90082E+08
        -0.20624E+08
        -0.60672E+08
        -0.15795E+09
        -0.17826E+09
        -0.17292E+09
        -0.15839E+09
        -0.13548E+09
        -0.59032E+08
         0.94886E+08
         0.13135E+09
        -0.19348E+08
         0.21037E+08
         0.13793E+09
         0.17301E+09
         0.19671E+09
         0.19397E+09
         0.16717E+09
         0.13892E+09
         0.97651E+08
         0.42232E+08
        -0.11049E+08
        -0.39578E+08
        -0.52597E+08
        -0.91096E+08
        -0.16498E+09
        -0.19705E+09
        -0.19652E+09
        -0.19577E+09
        -0.19805E+09
        -0.19156E+09
        -0.16891E+09
        -0.14756E+09
        -0.77727E+08
         0.19850E+08
         0.47762E+08
         0.50893E+08
         0.85278E+08
         0.15133E+09
         0.18877E+09
         0.18968E+09
        -0.56824E+08
         0.19583E+08
        -0.37956E+08
        -0.14526E+09
         0.12576E+09
         0.15250E+09
         0.78918E+08
        -0.69697E+08
        -0.51308E+08
        -0.69993E+08
        -0.22569E+08
         0.27557E+08
         0.11422E+09
        -0.16694E+09
        -0.66074E+08
         0.14965E+09
         0.14218E+09
        -0.80472E+08
        -0.48186E+08
        -0.96341E+08
        -0.17292E+09
        -0.17515E+09
        -0.17720E+09
        -0.13262E+09
         0.53642E+08
         0.51876E+08
        -0.17092E+09
         0.29315E+08
        -0.99154E+08
        -0.83024E+08
         0.13405E+09
         0.12383E+09
        -0.11822E+09
        -0.10751E+09
         0.17763E+09
         0.15828E+09
         0.14250E+09
        -0.90088E+08
        -0.20761E+08
        -0.60776E+08
        -0.15794E+09
        -0.17828E+09
        -0.17292E+09
        -0.15835E+09
        -0.13542E+09
        -0.59001E+08
         0.94841E+08
         0.13137E+09
        -0.19186E+08
         0.21017E+08
         0.13792E+09
         0.17301E+09
         0.19671E+09
         0.19396E+09
         0.16716E+09
         0.13891E+09
         0.97636E+08
         0.42233E+08
        -0.11065E+08
        -0.39612E+08
        -0.52565E+08
        -0.91086E+08
        -0.16498E+09
        -0.19704E+09
        -0.19651E+09
        -0.19577E+09
        -0.19806E+09
        -0.19157E+09
        -0.16890E+09
        -0.14756E+09
        -0.77709E+08
         0.19857E+08
         0.47729E+08
         0.50876E+08
         0.85245E+08
         0.15133E+09
         0.18878E+09
         0.18968E+09
        -0.56880E+08
         0.19682E+08
        -0.37977E+08
        -0.14534E+09
         0.12569E+09
         0.15244E+09
         0.79400E+08
        -0.69459E+08
        -0.51263E+08
        -0.69756E+08
        -0.21974E+08
         0.27623E+08
         0.11424E+09
        -0.16689E+09
        -0.65972E+08
         0.14969E+09
         0.14250E+09
        -0.80236E+08
        -0.48132E+08
        -0.96181E+08
        -0.17289E+09
        -0.17514E+09
        -0.17720E+09
        -0.13264E+09
         0.53595E+08
         0.51983E+08
        -0.17092E+09
         0.28671E+08
        -0.99814E+08
        -0.82986E+08
         0.13414E+09
         0.12382E+09
        -0.11767E+09
        -0.10754E+09
         0.17764E+09
         0.15825E+09
         0.14249E+09
        -0.90094E+08
        -0.20897E+08
        -0.60878E+08
        -0.15794E+09
        -0.17831E+09
        -0.17292E+09
        -0.15831E+09
        -0.13537E+09
        -0.58968E+08
         0.94793E+08
         0.13139E+09
        -0.19023E+08
         0.20996E+08
         0.13791E+09
         0.17300E+09
         0.19671E+09
         0.19395E+09
         0.16715E+09
         0.13891E+09
         0.97620E+08
         0.42233E+08
        -0.11082E+08
        -0.39645E+08
        -0.52532E+08
        -0.91076E+08
        -0.16497E+09
        -0.19704E+09
        -0.19651E+09
        -0.19576E+09
        -0.19806E+09
        -0.19157E+09
        -0.16889E+09
        -0.14755E+09
        -0.77691E+08
         0.19864E+08
         0.47695E+08
         0.50859E+08
         0.85211E+08
         0.15133E+09
         0.18878E+09
         0.18969E+09
        -0.56936E+08
         0.19779E+08
        -0.37998E+08
        -0.14543E+09
         0.12563E+09
         0.15238E+09
         0.79877E+08
        -0.69222E+08
        -0.51219E+08
        -0.69520E+08
        -0.21380E+08
         0.27688E+08
         0.11426E+09
        -0.16684E+09
        -0.65872E+08
         0.14974E+09
         0.14282E+09
        -0.80002E+08
        -0.48082E+08
        -0.96026E+08
        -0.17286E+09
        -0.17514E+09
        -0.17719E+09
        -0.13265E+09
         0.53548E+08
         0.52091E+08
        -0.17091E+09
         0.28031E+08
        -0.10047E+09
        -0.82946E+08
         0.13423E+09
         0.12381E+09
        -0.11712E+09
        -0.10756E+09
         0.17766E+09
         0.15822E+09
         0.14247E+09
        -0.90098E+08
        -0.21033E+08
        -0.60982E+08
        -0.15793E+09
        -0.17833E+09
        -0.17292E+09
        -0.15827E+09
        -0.13532E+09
        -0.58938E+08
         0.94745E+08
         0.13141E+09
        -0.18860E+08
         0.20974E+08
         0.13790E+09
         0.17300E+09
         0.19671E+09
         0.19395E+09
         0.16713E+09
         0.13891E+09
         0.97605E+08
         0.42233E+08
        -0.11098E+08
        -0.39678E+08
        -0.52499E+08
        -0.91065E+08
        -0.16497E+09
        -0.19704E+09
        -0.19651E+09
        -0.19576E+09
        -0.19807E+09
        -0.19157E+09
        -0.16887E+09
        -0.14755E+09
        -0.77673E+08
         0.19871E+08
         0.47661E+08
         0.50841E+08
         0.85177E+08
         0.15133E+09
         0.18878E+09
         0.18970E+09
        -0.56992E+08
         0.19875E+08
        -0.38019E+08
        -0.14552E+09
         0.12556E+09
         0.15232E+09
         0.80358E+08
        -0.68985E+08
        -0.51174E+08
        -0.69287E+08
        -0.20786E+08
         0.27755E+08
         0.11429E+09
        -0.16679E+09
        -0.65770E+08
         0.14978E+09
         0.14313E+09
        -0.79768E+08
        -0.48028E+08
        -0.95864E+08
        -0.17283E+09
        -0.17513E+09
        -0.17719E+09
        -0.13267E+09
         0.53501E+08
         0.52199E+08
        -0.17090E+09
         0.27391E+08
        -0.10113E+09
        -0.82907E+08
         0.13432E+09
         0.12380E+09
        -0.11657E+09
        -0.10759E+09
         0.17767E+09
         0.15819E+09
         0.14245E+09
        -0.90102E+08
        -0.21169E+08
        -0.61085E+08
        -0.15792E+09
        -0.17835E+09
        -0.17292E+09
        -0.15823E+09
        -0.13527E+09
        -0.58907E+08
         0.94700E+08
         0.13143E+09
        -0.18694E+08
         0.20954E+08
         0.13788E+09
         0.17299E+09
         0.19670E+09
         0.19394E+09
         0.16712E+09
         0.13891E+09
         0.97589E+08
         0.42233E+08
        -0.11114E+08
        -0.39710E+08
        -0.52467E+08
        -0.91055E+08
        -0.16497E+09
        -0.19703E+09
        -0.19651E+09
        -0.19576E+09
        -0.19807E+09
        -0.19157E+09
        -0.16886E+09
        -0.14754E+09
        -0.77655E+08
         0.19878E+08
         0.47627E+08
         0.50824E+08
         0.85143E+08
         0.15132E+09
         0.18878E+09
         0.18971E+09
        -0.57049E+08
         0.19974E+08
        -0.38040E+08
        -0.14560E+09
         0.12549E+09
         0.15226E+09
         0.80836E+08
        -0.68749E+08
        -0.51129E+08
        -0.69054E+08
        -0.20192E+08
         0.27821E+08
         0.11431E+09
        -0.16673E+09
        -0.65669E+08
         0.14983E+09
         0.14345E+09
        -0.79536E+08
        -0.47974E+08
        -0.95708E+08
        -0.17280E+09
        -0.17513E+09
        -0.17719E+09
        -0.13269E+09
         0.53452E+08
         0.52308E+08
        -0.17089E+09
         0.26751E+08
        -0.10179E+09
        -0.82867E+08
         0.13441E+09
         0.12379E+09
        -0.11603E+09
        -0.10761E+09
         0.17769E+09
         0.15816E+09
         0.14244E+09
        -0.90106E+08
        -0.21305E+08
        -0.61187E+08
        -0.15791E+09
        -0.17838E+09
        -0.17292E+09
        -0.15818E+09
        -0.13521E+09
        -0.58874E+08
         0.94652E+08
         0.13145E+09
        -0.18530E+08
         0.20932E+08
         0.13787E+09
         0.17299E+09
         0.19670E+09
         0.19393E+09
         0.16711E+09
         0.13891E+09
         0.97573E+08
         0.42233E+08
        -0.11130E+08
        -0.39743E+08
        -0.52434E+08
        -0.91045E+08
        -0.16497E+09
        -0.19703E+09
        -0.19651E+09
        -0.19575E+09
        -0.19808E+09
        -0.19157E+09
        -0.16884E+09
        -0.14753E+09
        -0.77637E+08
         0.19885E+08
         0.47593E+08
         0.50807E+08
         0.85109E+08
         0.15132E+09
         0.18878E+09
         0.18971E+09
        -0.57105E+08
         0.20072E+08
        -0.38061E+08
        -0.14568E+09
         0.12542E+09
         0.15220E+09
         0.81316E+08
        -0.68512E+08
        -0.51082E+08
        -0.68819E+08
        -0.19599E+08
         0.27887E+08
         0.11433E+09
        -0.16668E+09
        -0.65567E+08
         0.14987E+09
         0.14377E+09
        -0.79304E+08
        -0.47921E+08
        -0.95548E+08
        -0.17277E+09
        -0.17512E+09
        -0.17719E+09
        -0.13272E+09
         0.53402E+08
         0.52415E+08
        -0.17089E+09
         0.26106E+08
        -0.10244E+09
        -0.82829E+08
         0.13450E+09
         0.12378E+09
        -0.11548E+09
        -0.10764E+09
         0.17770E+09
         0.15813E+09
         0.14242E+09
        -0.90108E+08
        -0.21442E+08
        -0.61292E+08
        -0.15791E+09
        -0.17840E+09
        -0.17292E+09
        -0.15814E+09
        -0.13516E+09
        -0.58844E+08
         0.94605E+08
         0.13148E+09
        -0.18365E+08
         0.20910E+08
         0.13786E+09
         0.17298E+09
         0.19670E+09
         0.19392E+09
         0.16709E+09
         0.13891E+09
         0.97558E+08
         0.42233E+08
        -0.11145E+08
        -0.39776E+08
        -0.52402E+08
        -0.91035E+08
        -0.16496E+09
        -0.19703E+09
        -0.19651E+09
        -0.19575E+09
        -0.19808E+09
        -0.19157E+09
        -0.16883E+09
        -0.14753E+09
        -0.77619E+08
         0.19892E+08
         0.47559E+08
         0.50789E+08
         0.85075E+08
         0.15132E+09
         0.18879E+09
         0.18972E+09
        -0.57161E+08
         0.20169E+08
        -0.38081E+08
        -0.14577E+09
         0.12535E+09
         0.15214E+09
         0.81792E+08
        -0.68277E+08
        -0.51032E+08
        -0.68578E+08
        -0.19007E+08
         0.27953E+08
         0.11436E+09
        -0.16663E+09
        -0.65466E+08
         0.14992E+09
         0.14408E+09
        -0.79069E+08
        -0.47875E+08
        -0.95394E+08
        -0.17274E+09
        -0.17512E+09
        -0.17718E+09
        -0.13273E+09
         0.53344E+08
         0.52527E+08
        -0.17088E+09
         0.25444E+08
        -0.10310E+09
        -0.82801E+08
         0.13459E+09
         0.12377E+09
        -0.11493E+09
        -0.10767E+09
         0.17772E+09
         0.15810E+09
         0.14241E+09
        -0.90107E+08
        -0.21583E+08
        -0.61397E+08
        -0.15790E+09
        -0.17842E+09
        -0.17292E+09
        -0.15810E+09
        -0.13511E+09
        -0.58811E+08
         0.94560E+08
         0.13150E+09
        -0.18202E+08
         0.20888E+08
         0.13785E+09
         0.17298E+09
         0.19669E+09
         0.19391E+09
         0.16708E+09
         0.13891E+09
         0.97542E+08
         0.42234E+08
        -0.11161E+08
        -0.39809E+08
        -0.52370E+08
        -0.91026E+08
        -0.16496E+09
        -0.19702E+09
        -0.19651E+09
        -0.19575E+09
        -0.19808E+09
        -0.19157E+09
        -0.16881E+09
        -0.14752E+09
        -0.77601E+08
         0.19898E+08
         0.47526E+08
         0.50772E+08
         0.85042E+08
         0.15132E+09
         0.18879E+09
         0.18973E+09
        -0.57217E+08
         0.20266E+08
        -0.38101E+08
        -0.14585E+09
         0.12529E+09
         0.15209E+09
         0.82271E+08
        -0.68042E+08
        -0.50978E+08
        -0.68332E+08
        -0.18417E+08
         0.28019E+08
         0.11438E+09
        -0.16658E+09
        -0.65362E+08
         0.14996E+09
         0.14439E+09
        -0.78836E+08
        -0.47823E+08
        -0.95236E+08
        -0.17271E+09
        -0.17511E+09
        -0.17718E+09
        -0.13276E+09
         0.53278E+08
         0.52633E+08
        -0.17087E+09
         0.24763E+08
        -0.10375E+09
        -0.82774E+08
         0.13468E+09
         0.12376E+09
        -0.11438E+09
        -0.10769E+09
         0.17773E+09
         0.15807E+09
         0.14239E+09
        -0.90102E+08
        -0.21730E+08
        -0.61504E+08
        -0.15789E+09
        -0.17844E+09
        -0.17292E+09
        -0.15806E+09
        -0.13505E+09
        -0.58780E+08
         0.94512E+08
         0.13152E+09
        -0.18035E+08
         0.20867E+08
         0.13784E+09
         0.17297E+09
         0.19669E+09
         0.19391E+09
         0.16706E+09
         0.13891E+09
         0.97527E+08
         0.42234E+08
        -0.11177E+08
        -0.39841E+08
        -0.52339E+08
        -0.91016E+08
        -0.16495E+09
        -0.19702E+09
        -0.19651E+09
        -0.19574E+09
        -0.19809E+09
        -0.19157E+09
        -0.16880E+09
        -0.14752E+09
        -0.77583E+08
         0.19905E+08
         0.47492E+08
         0.50754E+08
         0.85008E+08
         0.15132E+09
         0.18879E+09
         0.18973E+09
        -0.57273E+08
         0.20363E+08
        -0.38121E+08
        -0.14594E+09
         0.12522E+09
         0.15203E+09
         0.82744E+08
        -0.67808E+08
        -0.50921E+08
        -0.68085E+08
        -0.17831E+08
         0.28084E+08
         0.11440E+09
        -0.16653E+09
        -0.65260E+08
         0.15000E+09
         0.14470E+09
        -0.78605E+08
        -0.47769E+08
        -0.95083E+08
        -0.17268E+09
        -0.17511E+09
        -0.17718E+09
        -0.13278E+09
         0.53209E+08
         0.52740E+08
        -0.17086E+09
         0.24079E+08
        -0.10440E+09
        -0.82748E+08
         0.13477E+09
         0.12375E+09
        -0.11383E+09
        -0.10772E+09
         0.17775E+09
         0.15804E+09
         0.14238E+09
        -0.90096E+08
        -0.21877E+08
        -0.61608E+08
        -0.15787E+09
        -0.17847E+09
        -0.17291E+09
        -0.15802E+09
        -0.13500E+09
        -0.58750E+08
         0.94467E+08
         0.13154E+09
        -0.17870E+08
         0.20844E+08
         0.13783E+09
         0.17296E+09
         0.19669E+09
         0.19390E+09
         0.16705E+09
         0.13891E+09
         0.97511E+08
         0.42234E+08
        -0.11192E+08
        -0.39873E+08
        -0.52308E+08
        -0.91006E+08
        -0.16495E+09
        -0.19702E+09
        -0.19651E+09
        -0.19574E+09
        -0.19809E+09
        -0.19157E+09
        -0.16878E+09
        -0.14751E+09
        -0.77564E+08
         0.19913E+08
         0.47459E+08
         0.50737E+08
         0.84975E+08
         0.15131E+09
         0.18879E+09
         0.18974E+09
        -0.55176E+08
         0.18329E+08
        -0.33913E+08
        -0.12818E+09
         0.11881E+09
         0.13863E+09
         0.75596E+08
        -0.64306E+08
        -0.46551E+08
        -0.64401E+08
        -0.13657E+08
         0.27525E+08
         0.11106E+09
        -0.14789E+09
        -0.63866E+08
         0.14075E+09
         0.12555E+09
        -0.78622E+08
        -0.40600E+08
        -0.95166E+08
        -0.16857E+09
        -0.17030E+09
        -0.17258E+09
        -0.12021E+09
         0.47451E+08
         0.52985E+08
        -0.15198E+09
         0.23502E+08
        -0.98033E+08
        -0.73843E+08
         0.12357E+09
         0.11915E+09
        -0.10118E+09
        -0.10017E+09
         0.17124E+09
         0.14554E+09
         0.13530E+09
        -0.87737E+08
        -0.21150E+08
        -0.58928E+08
        -0.15390E+09
        -0.17359E+09
        -0.16863E+09
        -0.15277E+09
        -0.12894E+09
        -0.56839E+08
         0.88914E+08
         0.12246E+09
        -0.15993E+08
         0.19179E+08
         0.13267E+09
         0.16159E+09
         0.19539E+09
         0.19272E+09
         0.16610E+09
         0.13817E+09
         0.97007E+08
         0.42025E+08
        -0.11151E+08
        -0.39636E+08
        -0.51910E+08
        -0.90407E+08
        -0.16391E+09
        -0.19589E+09
        -0.19519E+09
        -0.19444E+09
        -0.19699E+09
        -0.19061E+09
        -0.16796E+09
        -0.14681E+09
        -0.77084E+08
         0.19811E+08
         0.47152E+08
         0.50409E+08
         0.84450E+08
         0.15039E+09
         0.18773E+09
         0.18865E+09
        -0.27311E+08
         0.61094E+07
        -0.10952E+08
        -0.34653E+08
         0.52397E+08
         0.49247E+08
         0.16976E+08
        -0.28707E+08
        -0.16771E+08
        -0.28245E+08
        -0.33474E+07
         0.16406E+08
         0.59775E+08
        -0.47380E+08
        -0.39001E+08
         0.57345E+08
         0.31830E+08
        -0.19577E+08
        -0.11596E+08
        -0.19370E+08
        -0.97525E+08
        -0.93963E+08
        -0.96633E+08
        -0.29271E+08
         0.15513E+08
         0.12232E+08
        -0.48901E+08
         0.43253E+07
        -0.19678E+08
        -0.24153E+08
         0.44653E+08
         0.27536E+08
        -0.26681E+08
        -0.24546E+08
         0.85119E+08
         0.53821E+08
         0.60070E+08
        -0.49163E+08
        -0.10335E+08
        -0.27293E+08
        -0.87538E+08
        -0.95872E+08
        -0.96286E+08
        -0.78704E+08
        -0.59504E+08
        -0.29603E+08
         0.37010E+08
         0.47716E+08
        -0.53938E+07
         0.71043E+07
         0.65551E+08
         0.64418E+08
         0.15584E+09
         0.15652E+09
         0.13632E+09
         0.11446E+09
         0.81196E+08
         0.35430E+08
        -0.92854E+07
        -0.31793E+08
        -0.41061E+08
        -0.72575E+08
        -0.13220E+09
        -0.16072E+09
        -0.15581E+09
        -0.15563E+09
        -0.16224E+09
        -0.15939E+09
        -0.14155E+09
        -0.12379E+09
        -0.62601E+08
         0.16243E+08
         0.38369E+08
         0.40787E+08
         0.68899E+08
         0.12194E+09
         0.15426E+09
         0.15449E+09
  
SCALARS                      stress_xy  double 1
LOOKUP_TABLE default
        -0.63390E+00
        -0.14875E+01
        -0.12756E+02
         0.45055E+00
        -0.61689E-09
         0.60287E-10
         0.90642E-09
         0.13808E-09
        -0.13456E+03
         0.59123E+02
         0.40348E-08
         0.31995E-08
         0.50349E+01
        -0.10447E+01
         0.35613E-09
        -0.10696E-09
         0.14480E+01
         0.25264E+02
         0.17730E-10
         0.27018E-09
        -0.19219E+02
        -0.12192E+03
        -0.11998E+03
         0.27472E-08
         0.21878E-08
        -0.31948E-08
        -0.12694E+02
        -0.10605E+03
         0.36991E-08
         0.56926E-08
        -0.38720E+01
         0.75001E+01
         0.60919E+00
        -0.19524E-09
         0.77022E-09
        -0.98514E-11
        -0.34148E+02
        -0.15868E+02
         0.20614E-08
         0.17076E-08
        -0.66920E+02
        -0.60378E+02
         0.35140E-08
         0.23682E-08
        -0.64913E+02
        -0.11917E+02
        -0.12801E-09
         0.95306E-09
         0.17318E+02
         0.28167E-09
        -0.40604E+01
        -0.63503E-11
         0.10648E+01
         0.21289E-08
         0.52719E+01
         0.32760E-09
         0.75226E+02
        -0.36631E+01
         0.76134E-11
        -0.37351E-10
         0.50138E+00
        -0.50476E+02
         0.20747E-09
         0.53217E-09
         0.21690E+01
        -0.42125E-10
         0.31177E+02
         0.33754E-09
        -0.16666E+03
        -0.60497E+02
         0.26073E-09
        -0.24967E-08
        -0.13606E+03
        -0.39920E-08
         0.55655E+02
         0.26738E-08
         0.17577E+03
         0.39836E-09
         0.30695E+03
         0.51801E-09
         0.59555E+03
         0.32453E+03
         0.12178E-08
        -0.30880E-09
         0.40077E+02
        -0.37160E-10
        -0.12302E+03
        -0.33516E-08
        -0.18110E+03
        -0.37423E-08
        -0.39843E+03
        -0.18165E+03
        -0.23689E-08
         0.26295E-08
         0.29203E+02
         0.23942E-08
         0.71922E+02
         0.10285E-08
         0.16806E+03
         0.27308E-08
         0.41341E+03
         0.23577E+03
         0.58554E-08
         0.29277E-08
        -0.67944E+03
         0.28472E+03
        -0.38043E-08
         0.46589E-08
        -0.16544E+04
        -0.10812E-07
        -0.21581E+04
        -0.11819E-07
        -0.18959E+04
        -0.80214E-08
        -0.16162E+04
        -0.85084E-09
        -0.70624E+03
         0.23982E-08
         0.93031E+03
         0.14848E-08
         0.20905E+04
         0.13574E-08
         0.27640E+04
         0.29123E-08
         0.27109E+04
         0.35409E-08
         0.22237E+04
         0.13951E-08
         0.11852E+04
         0.85053E-09
        -0.81182E+02
         0.13902E-08
        -0.98660E+03
         0.93186E-09
        -0.15915E+04
        -0.33231E-08
        -0.21723E+04
        -0.87197E-08
        -0.19447E+04
        -0.11066E-07
        -0.12485E+04
        -0.68486E-08
        -0.13675E+03
         0.13066E-08
         0.92387E+03
         0.27693E-08
         0.13361E+04
         0.44133E-08
         0.16346E+04
         0.86909E-08
         0.14652E+04
         0.11277E-07
         0.13639E+04
         0.80121E-08
         0.11267E+04
         0.63364E-08
        -0.84413E+02
         0.22704E+02
         0.23256E+02
        -0.14566E+02
         0.18539E+03
         0.15279E+03
         0.24260E+01
        -0.54848E+02
        -0.24343E+02
        -0.63446E+02
        -0.18113E+02
        -0.33439E+03
        -0.47788E+03
         0.17732E+02
         0.27170E+03
        -0.36618E+02
         0.27214E+02
         0.81324E+01
         0.16466E+02
        -0.13397E+02
         0.67187E+02
         0.59018E+02
        -0.17891E+03
         0.46880E+01
         0.40336E+02
         0.44435E+01
         0.73781E+00
         0.14468E+01
         0.17937E+02
        -0.59658E+02
        -0.31905E+02
         0.67780E+01
         0.10933E+02
        -0.85989E+00
        -0.44627E+02
        -0.15444E+03
        -0.31373E+03
         0.47418E+03
         0.24677E+03
         0.44519E+03
         0.86128E+03
         0.20011E+03
        -0.16215E+03
        -0.32681E+03
        -0.38672E+03
        -0.49264E+03
         0.60873E+02
         0.18283E+03
         0.56399E+02
         0.18955E+03
         0.59258E+03
         0.22879E+03
        -0.20049E+04
         0.25371E+04
        -0.61385E+04
        -0.72196E+04
        -0.68510E+04
        -0.41371E+04
         0.24642E+03
         0.26774E+04
         0.38827E+04
         0.62988E+04
         0.66289E+04
         0.35559E+04
         0.14357E+04
         0.60741E+03
        -0.98353E+03
        -0.38896E+04
        -0.64935E+04
        -0.74105E+04
        -0.45250E+04
         0.82093E+03
         0.29766E+04
         0.31369E+04
         0.49406E+04
         0.54800E+04
         0.41605E+04
         0.38422E+04
        -0.26210E+06
         0.69171E+05
        -0.13084E+06
        -0.12355E+06
         0.43738E+06
         0.28832E+06
         0.12322E+06
        -0.32240E+06
        -0.18709E+06
        -0.31549E+06
         0.84459E+05
        -0.15545E+06
        -0.48890E+06
         0.15816E+06
         0.36870E+06
        -0.31080E+06
         0.98583E+05
         0.56372E+05
         0.14792E+06
         0.58057E+05
         0.25592E+06
         0.19303E+06
        -0.11548E+06
         0.12136E+06
         0.19090E+06
        -0.46405E+05
         0.35482E+05
        -0.15587E+05
        -0.62756E+05
        -0.28639E+06
        -0.31646E+06
        -0.82470E+05
         0.20283E+06
         0.15199E+06
         0.74324E+05
        -0.27782E+06
        -0.41383E+06
         0.44470E+06
         0.10244E+06
         0.29433E+06
         0.43983E+06
        -0.13243E+06
        -0.26362E+06
        -0.36519E+06
        -0.43387E+06
        -0.31038E+06
         0.38593E+06
         0.38272E+06
        -0.82852E+05
         0.93860E+05
         0.46679E+06
         0.55730E+05
        -0.23145E+06
         0.31965E+06
        -0.61628E+06
        -0.66561E+06
        -0.57098E+06
        -0.27748E+06
         0.72711E+05
         0.25447E+06
         0.33663E+06
         0.53993E+06
         0.62461E+06
         0.24896E+06
         0.11745E+06
         0.10495E+06
        -0.45160E+05
        -0.34835E+06
        -0.59561E+06
        -0.66854E+06
        -0.47561E+06
         0.13060E+06
         0.30670E+06
         0.32269E+06
         0.50906E+06
         0.64662E+06
         0.40822E+06
         0.39127E+06
        -0.26245E+06
         0.69421E+05
        -0.13107E+06
        -0.12454E+06
         0.43732E+06
         0.28850E+06
         0.12416E+06
        -0.32165E+06
        -0.18723E+06
        -0.31502E+06
         0.82800E+05
        -0.15583E+06
        -0.48899E+06
         0.15828E+06
         0.36829E+06
        -0.31081E+06
         0.99698E+05
         0.56132E+05
         0.14785E+06
         0.57631E+05
         0.25649E+06
         0.19322E+06
        -0.11551E+06
         0.12131E+06
         0.19118E+06
        -0.46397E+05
         0.35895E+05
        -0.15380E+05
        -0.62780E+05
        -0.28652E+06
        -0.31659E+06
        -0.82280E+05
         0.20243E+06
         0.15231E+06
         0.73608E+05
        -0.27799E+06
        -0.41383E+06
         0.44490E+06
         0.10326E+06
         0.29494E+06
         0.43994E+06
        -0.13203E+06
        -0.26385E+06
        -0.36534E+06
        -0.43387E+06
        -0.31025E+06
         0.38589E+06
         0.38266E+06
        -0.82290E+05
         0.93595E+05
         0.46672E+06
         0.54930E+05
        -0.23130E+06
         0.31973E+06
        -0.61635E+06
        -0.66561E+06
        -0.57090E+06
        -0.27747E+06
         0.72817E+05
         0.25467E+06
         0.33643E+06
         0.53986E+06
         0.62457E+06
         0.24906E+06
         0.11745E+06
         0.10517E+06
        -0.44788E+05
        -0.34846E+06
        -0.59571E+06
        -0.66857E+06
        -0.47551E+06
         0.13067E+06
         0.30652E+06
         0.32259E+06
         0.50888E+06
         0.64653E+06
         0.40799E+06
         0.39095E+06
        -0.26281E+06
         0.69667E+05
        -0.13129E+06
        -0.12554E+06
         0.43725E+06
         0.28870E+06
         0.12511E+06
        -0.32090E+06
        -0.18735E+06
        -0.31454E+06
         0.81143E+05
        -0.15620E+06
        -0.48908E+06
         0.15838E+06
         0.36789E+06
        -0.31081E+06
         0.10083E+06
         0.55889E+05
         0.14779E+06
         0.57205E+05
         0.25707E+06
         0.19340E+06
        -0.11556E+06
         0.12125E+06
         0.19148E+06
        -0.46384E+05
         0.36337E+05
        -0.15178E+05
        -0.62763E+05
        -0.28666E+06
        -0.31672E+06
        -0.82055E+05
         0.20203E+06
         0.15263E+06
         0.72889E+05
        -0.27816E+06
        -0.41382E+06
         0.44510E+06
         0.10408E+06
         0.29555E+06
         0.44005E+06
        -0.13160E+06
        -0.26406E+06
        -0.36551E+06
        -0.43388E+06
        -0.31012E+06
         0.38585E+06
         0.38258E+06
        -0.81714E+05
         0.93321E+05
         0.46665E+06
         0.54133E+05
        -0.23116E+06
         0.31980E+06
        -0.61641E+06
        -0.66561E+06
        -0.57083E+06
        -0.27746E+06
         0.72925E+05
         0.25487E+06
         0.33623E+06
         0.53979E+06
         0.62454E+06
         0.24918E+06
         0.11745E+06
         0.10539E+06
        -0.44414E+05
        -0.34857E+06
        -0.59581E+06
        -0.66860E+06
        -0.47542E+06
         0.13073E+06
         0.30633E+06
         0.32249E+06
         0.50869E+06
         0.64644E+06
         0.40775E+06
         0.39064E+06
        -0.26316E+06
         0.69922E+05
        -0.13151E+06
        -0.12654E+06
         0.43718E+06
         0.28889E+06
         0.12605E+06
        -0.32015E+06
        -0.18745E+06
        -0.31403E+06
         0.79486E+05
        -0.15658E+06
        -0.48917E+06
         0.15850E+06
         0.36749E+06
        -0.31082E+06
         0.10199E+06
         0.55645E+05
         0.14773E+06
         0.56756E+05
         0.25765E+06
         0.19356E+06
        -0.11566E+06
         0.12113E+06
         0.19186E+06
        -0.46360E+05
         0.36794E+05
        -0.15010E+05
        -0.62627E+05
        -0.28678E+06
        -0.31685E+06
        -0.81768E+05
         0.20161E+06
         0.15294E+06
         0.72174E+05
        -0.27833E+06
        -0.41381E+06
         0.44529E+06
         0.10489E+06
         0.29614E+06
         0.44020E+06
        -0.13106E+06
        -0.26422E+06
        -0.36577E+06
        -0.43392E+06
        -0.30997E+06
         0.38582E+06
         0.38252E+06
        -0.81135E+05
         0.93046E+05
         0.46658E+06
         0.53336E+05
        -0.23102E+06
         0.31987E+06
        -0.61647E+06
        -0.66561E+06
        -0.57075E+06
        -0.27745E+06
         0.73033E+05
         0.25508E+06
         0.33604E+06
         0.53972E+06
         0.62451E+06
         0.24931E+06
         0.11746E+06
         0.10560E+06
        -0.44037E+05
        -0.34869E+06
        -0.59593E+06
        -0.66863E+06
        -0.47533E+06
         0.13080E+06
         0.30614E+06
         0.32239E+06
         0.50850E+06
         0.64635E+06
         0.40752E+06
         0.39033E+06
        -0.26351E+06
         0.70176E+05
        -0.13173E+06
        -0.12754E+06
         0.43712E+06
         0.28907E+06
         0.12700E+06
        -0.31939E+06
        -0.18753E+06
        -0.31348E+06
         0.77823E+05
        -0.15695E+06
        -0.48926E+06
         0.15863E+06
         0.36708E+06
        -0.31082E+06
         0.10319E+06
         0.55400E+05
         0.14766E+06
         0.56288E+05
         0.25824E+06
         0.19370E+06
        -0.11580E+06
         0.12097E+06
         0.19232E+06
        -0.46317E+05
         0.37303E+05
        -0.14872E+05
        -0.62366E+05
        -0.28690E+06
        -0.31697E+06
        -0.81402E+05
         0.20119E+06
         0.15326E+06
         0.71453E+05
        -0.27850E+06
        -0.41381E+06
         0.44548E+06
         0.10569E+06
         0.29673E+06
         0.44038E+06
        -0.13040E+06
        -0.26433E+06
        -0.36611E+06
        -0.43399E+06
        -0.30981E+06
         0.38579E+06
         0.38246E+06
        -0.80559E+05
         0.92775E+05
         0.46651E+06
         0.52532E+05
        -0.23087E+06
         0.31995E+06
        -0.61654E+06
        -0.66561E+06
        -0.57068E+06
        -0.27744E+06
         0.73140E+05
         0.25528E+06
         0.33583E+06
         0.53965E+06
         0.62449E+06
         0.24946E+06
         0.11747E+06
         0.10581E+06
        -0.43659E+05
        -0.34881E+06
        -0.59607E+06
        -0.66867E+06
        -0.47523E+06
         0.13086E+06
         0.30596E+06
         0.32228E+06
         0.50831E+06
         0.64626E+06
         0.40728E+06
         0.39001E+06
        -0.26385E+06
         0.70453E+05
        -0.13192E+06
        -0.12855E+06
         0.43705E+06
         0.28926E+06
         0.12793E+06
        -0.31862E+06
        -0.18760E+06
        -0.31293E+06
         0.76155E+05
        -0.15733E+06
        -0.48935E+06
         0.15877E+06
         0.36668E+06
        -0.31083E+06
         0.10440E+06
         0.55157E+05
         0.14758E+06
         0.55818E+05
         0.25882E+06
         0.19384E+06
        -0.11597E+06
         0.12079E+06
         0.19278E+06
        -0.46266E+05
         0.37851E+05
        -0.14746E+05
        -0.62049E+05
        -0.28703E+06
        -0.31708E+06
        -0.80990E+05
         0.20076E+06
         0.15358E+06
         0.70728E+05
        -0.27868E+06
        -0.41381E+06
         0.44567E+06
         0.10648E+06
         0.29731E+06
         0.44056E+06
        -0.12971E+06
        -0.26442E+06
        -0.36648E+06
        -0.43408E+06
        -0.30966E+06
         0.38575E+06
         0.38242E+06
        -0.79963E+05
         0.92528E+05
         0.46644E+06
         0.51726E+05
        -0.23073E+06
         0.32002E+06
        -0.61660E+06
        -0.66561E+06
        -0.57060E+06
        -0.27744E+06
         0.73245E+05
         0.25548E+06
         0.33563E+06
         0.53959E+06
         0.62448E+06
         0.24963E+06
         0.11749E+06
         0.10602E+06
        -0.43281E+05
        -0.34893E+06
        -0.59622E+06
        -0.66870E+06
        -0.47514E+06
         0.13092E+06
         0.30577E+06
         0.32218E+06
         0.50812E+06
         0.64617E+06
         0.40705E+06
         0.38970E+06
        -0.26416E+06
         0.70788E+05
        -0.13207E+06
        -0.12959E+06
         0.43698E+06
         0.28945E+06
         0.12885E+06
        -0.31785E+06
        -0.18768E+06
        -0.31241E+06
         0.74477E+05
        -0.15770E+06
        -0.48945E+06
         0.15901E+06
         0.36627E+06
        -0.31085E+06
         0.10564E+06
         0.54913E+05
         0.14752E+06
         0.55352E+05
         0.25941E+06
         0.19397E+06
        -0.11613E+06
         0.12063E+06
         0.19317E+06
        -0.46198E+05
         0.38496E+05
        -0.14616E+05
        -0.61712E+05
        -0.28718E+06
        -0.31718E+06
        -0.80533E+05
         0.20033E+06
         0.15389E+06
         0.70001E+05
        -0.27886E+06
        -0.41382E+06
         0.44585E+06
         0.10728E+06
         0.29791E+06
         0.44075E+06
        -0.12901E+06
        -0.26449E+06
        -0.36685E+06
        -0.43418E+06
        -0.30951E+06
         0.38569E+06
         0.38241E+06
        -0.79308E+05
         0.92346E+05
         0.46637E+06
         0.50909E+05
        -0.23058E+06
         0.32009E+06
        -0.61666E+06
        -0.66562E+06
        -0.57053E+06
        -0.27743E+06
         0.73351E+05
         0.25569E+06
         0.33544E+06
         0.53952E+06
         0.62446E+06
         0.24979E+06
         0.11751E+06
         0.10623E+06
        -0.42903E+05
        -0.34906E+06
        -0.59636E+06
        -0.66874E+06
        -0.47505E+06
         0.13097E+06
         0.30557E+06
         0.32208E+06
         0.50795E+06
         0.64608E+06
         0.40681E+06
         0.38938E+06
        -0.26446E+06
         0.71142E+05
        -0.13220E+06
        -0.13063E+06
         0.43692E+06
         0.28964E+06
         0.12975E+06
        -0.31708E+06
        -0.18777E+06
        -0.31190E+06
         0.72792E+05
        -0.15807E+06
        -0.48954E+06
         0.15926E+06
         0.36586E+06
        -0.31088E+06
         0.10688E+06
         0.54666E+05
         0.14745E+06
         0.54893E+05
         0.25999E+06
         0.19411E+06
        -0.11630E+06
         0.12046E+06
         0.19352E+06
        -0.46125E+05
         0.39167E+05
        -0.14483E+05
        -0.61368E+05
        -0.28735E+06
        -0.31728E+06
        -0.80048E+05
         0.19988E+06
         0.15421E+06
         0.69266E+05
        -0.27906E+06
        -0.41384E+06
         0.44602E+06
         0.10808E+06
         0.29850E+06
         0.44094E+06
        -0.12830E+06
        -0.26457E+06
        -0.36721E+06
        -0.43428E+06
        -0.30938E+06
         0.38562E+06
         0.38242E+06
        -0.78629E+05
         0.92194E+05
         0.46631E+06
         0.50090E+05
        -0.23044E+06
         0.32017E+06
        -0.61673E+06
        -0.66562E+06
        -0.57045E+06
        -0.27742E+06
         0.73456E+05
         0.25589E+06
         0.33524E+06
         0.53945E+06
         0.62444E+06
         0.24995E+06
         0.11753E+06
         0.10644E+06
        -0.42524E+05
        -0.34918E+06
        -0.59650E+06
        -0.66877E+06
        -0.47495E+06
         0.13102E+06
         0.30536E+06
         0.32197E+06
         0.50777E+06
         0.64599E+06
         0.40658E+06
         0.38907E+06
        -0.26475E+06
         0.71499E+05
        -0.13232E+06
        -0.13168E+06
         0.43685E+06
         0.28982E+06
         0.13065E+06
        -0.31630E+06
        -0.18785E+06
        -0.31139E+06
         0.71110E+05
        -0.15844E+06
        -0.48963E+06
         0.15953E+06
         0.36544E+06
        -0.31091E+06
         0.10814E+06
         0.54421E+05
         0.14738E+06
         0.54428E+05
         0.26058E+06
         0.19425E+06
        -0.11646E+06
         0.12030E+06
         0.19388E+06
        -0.46050E+05
         0.39854E+05
        -0.14341E+05
        -0.61014E+05
        -0.28751E+06
        -0.31737E+06
        -0.79569E+05
         0.19944E+06
         0.15453E+06
         0.68528E+05
        -0.27924E+06
        -0.41385E+06
         0.44620E+06
         0.10888E+06
         0.29908E+06
         0.44113E+06
        -0.12760E+06
        -0.26464E+06
        -0.36758E+06
        -0.43438E+06
        -0.30925E+06
         0.38556E+06
         0.38243E+06
        -0.77949E+05
         0.92049E+05
         0.46625E+06
         0.49266E+05
        -0.23029E+06
         0.32024E+06
        -0.61679E+06
        -0.66562E+06
        -0.57038E+06
        -0.27741E+06
         0.73562E+05
         0.25609E+06
         0.33503E+06
         0.53939E+06
         0.62442E+06
         0.25012E+06
         0.11756E+06
         0.10666E+06
        -0.42146E+05
        -0.34930E+06
        -0.59664E+06
        -0.66881E+06
        -0.47486E+06
         0.13107E+06
         0.30516E+06
         0.32187E+06
         0.50759E+06
         0.64590E+06
         0.40634E+06
         0.38875E+06
        -0.26505E+06
         0.71860E+05
        -0.13244E+06
        -0.13272E+06
         0.43679E+06
         0.29001E+06
         0.13156E+06
        -0.31553E+06
        -0.18794E+06
        -0.31088E+06
         0.69424E+05
        -0.15881E+06
        -0.48973E+06
         0.15977E+06
         0.36503E+06
        -0.31093E+06
         0.10941E+06
         0.54177E+05
         0.14730E+06
         0.53965E+05
         0.26116E+06
         0.19439E+06
        -0.11661E+06
         0.12014E+06
         0.19423E+06
        -0.45976E+05
         0.40522E+05
        -0.14194E+05
        -0.60651E+05
        -0.28767E+06
        -0.31745E+06
        -0.79086E+05
         0.19898E+06
         0.15485E+06
         0.67793E+05
        -0.27944E+06
        -0.41387E+06
         0.44638E+06
         0.10967E+06
         0.29968E+06
         0.44132E+06
        -0.12689E+06
        -0.26472E+06
        -0.36795E+06
        -0.43448E+06
        -0.30911E+06
         0.38549E+06
         0.38245E+06
        -0.77273E+05
         0.91889E+05
         0.46618E+06
         0.48445E+05
        -0.23014E+06
         0.32031E+06
        -0.61685E+06
        -0.66562E+06
        -0.57030E+06
        -0.27740E+06
         0.73668E+05
         0.25629E+06
         0.33483E+06
         0.53932E+06
         0.62440E+06
         0.25028E+06
         0.11758E+06
         0.10687E+06
        -0.41770E+05
        -0.34943E+06
        -0.59678E+06
        -0.66885E+06
        -0.47477E+06
         0.13111E+06
         0.30495E+06
         0.32176E+06
         0.50741E+06
         0.64581E+06
         0.40611E+06
         0.38844E+06
        -0.26534E+06
         0.72217E+05
        -0.13257E+06
        -0.13376E+06
         0.43672E+06
         0.29019E+06
         0.13247E+06
        -0.31475E+06
        -0.18802E+06
        -0.31037E+06
         0.67733E+05
        -0.15919E+06
        -0.48982E+06
         0.16003E+06
         0.36461E+06
        -0.31096E+06
         0.11068E+06
         0.53935E+05
         0.14725E+06
         0.53498E+05
         0.26174E+06
         0.19452E+06
        -0.11678E+06
         0.11999E+06
         0.19458E+06
        -0.45899E+05
         0.41202E+05
        -0.14038E+05
        -0.60278E+05
        -0.28783E+06
        -0.31754E+06
        -0.78606E+05
         0.19853E+06
         0.15517E+06
         0.67053E+05
        -0.27963E+06
        -0.41389E+06
         0.44655E+06
         0.11047E+06
         0.30026E+06
         0.44151E+06
        -0.12619E+06
        -0.26480E+06
        -0.36831E+06
        -0.43458E+06
        -0.30899E+06
         0.38542E+06
         0.38246E+06
        -0.76590E+05
         0.91735E+05
         0.46611E+06
         0.47619E+05
        -0.23000E+06
         0.32038E+06
        -0.61691E+06
        -0.66562E+06
        -0.57023E+06
        -0.27739E+06
         0.73771E+05
         0.25649E+06
         0.33463E+06
         0.53925E+06
         0.62438E+06
         0.25044E+06
         0.11760E+06
         0.10708E+06
        -0.41391E+05
        -0.34955E+06
        -0.59693E+06
        -0.66888E+06
        -0.47467E+06
         0.13116E+06
         0.30475E+06
         0.32166E+06
         0.50723E+06
         0.64572E+06
         0.40587E+06
         0.38812E+06
        -0.26563E+06
         0.72574E+05
        -0.13269E+06
        -0.13482E+06
         0.43666E+06
         0.29038E+06
         0.13338E+06
        -0.31398E+06
        -0.18810E+06
        -0.30986E+06
         0.66045E+05
        -0.15956E+06
        -0.48991E+06
         0.16029E+06
         0.36420E+06
        -0.31098E+06
         0.11195E+06
         0.53689E+05
         0.14718E+06
         0.53038E+05
         0.26233E+06
         0.19465E+06
        -0.11694E+06
         0.11983E+06
         0.19492E+06
        -0.45827E+05
         0.41866E+05
        -0.13876E+05
        -0.59890E+05
        -0.28799E+06
        -0.31763E+06
        -0.78125E+05
         0.19806E+06
         0.15549E+06
         0.66310E+05
        -0.27982E+06
        -0.41390E+06
         0.44672E+06
         0.11126E+06
         0.30086E+06
         0.44170E+06
        -0.12550E+06
        -0.26487E+06
        -0.36867E+06
        -0.43469E+06
        -0.30886E+06
         0.38536E+06
         0.38248E+06
        -0.75905E+05
         0.91590E+05
         0.46605E+06
         0.46793E+05
        -0.22985E+06
         0.32045E+06
        -0.61697E+06
        -0.66562E+06
        -0.57015E+06
        -0.27738E+06
         0.73875E+05
         0.25670E+06
         0.33443E+06
         0.53918E+06
         0.62436E+06
         0.25060E+06
         0.11762E+06
         0.10729E+06
        -0.41012E+05
        -0.34967E+06
        -0.59707E+06
        -0.66892E+06
        -0.47458E+06
         0.13121E+06
         0.30454E+06
         0.32155E+06
         0.50706E+06
         0.64563E+06
         0.40564E+06
         0.38781E+06
        -0.26593E+06
         0.72935E+05
        -0.13281E+06
        -0.13587E+06
         0.43659E+06
         0.29056E+06
         0.13428E+06
        -0.31319E+06
        -0.18818E+06
        -0.30934E+06
         0.64358E+05
        -0.15993E+06
        -0.49001E+06
         0.16053E+06
         0.36378E+06
        -0.31101E+06
         0.11324E+06
         0.53443E+05
         0.14711E+06
         0.52579E+05
         0.26291E+06
         0.19478E+06
        -0.11710E+06
         0.11968E+06
         0.19526E+06
        -0.45748E+05
         0.42549E+05
        -0.13706E+05
        -0.59497E+05
        -0.28815E+06
        -0.31771E+06
        -0.77639E+05
         0.19759E+06
         0.15581E+06
         0.65569E+05
        -0.28002E+06
        -0.41392E+06
         0.44689E+06
         0.11206E+06
         0.30144E+06
         0.44189E+06
        -0.12480E+06
        -0.26494E+06
        -0.36903E+06
        -0.43479E+06
        -0.30872E+06
         0.38529E+06
         0.38249E+06
        -0.75216E+05
         0.91434E+05
         0.46598E+06
         0.45968E+05
        -0.22970E+06
         0.32052E+06
        -0.61703E+06
        -0.66562E+06
        -0.57008E+06
        -0.27737E+06
         0.73981E+05
         0.25690E+06
         0.33423E+06
         0.53912E+06
         0.62434E+06
         0.25076E+06
         0.11764E+06
         0.10751E+06
        -0.40633E+05
        -0.34980E+06
        -0.59721E+06
        -0.66895E+06
        -0.47448E+06
         0.13125E+06
         0.30434E+06
         0.32145E+06
         0.50688E+06
         0.64553E+06
         0.40541E+06
         0.38749E+06
        -0.26623E+06
         0.73289E+05
        -0.13293E+06
        -0.13693E+06
         0.43652E+06
         0.29074E+06
         0.13519E+06
        -0.31241E+06
        -0.18826E+06
        -0.30882E+06
         0.62672E+05
        -0.16030E+06
        -0.49010E+06
         0.16079E+06
         0.36337E+06
        -0.31103E+06
         0.11453E+06
         0.53200E+05
         0.14706E+06
         0.52124E+05
         0.26349E+06
         0.19491E+06
        -0.11726E+06
         0.11953E+06
         0.19559E+06
        -0.45669E+05
         0.43214E+05
        -0.13531E+05
        -0.59096E+05
        -0.28830E+06
        -0.31780E+06
        -0.77158E+05
         0.19711E+06
         0.15613E+06
         0.64823E+05
        -0.28021E+06
        -0.41393E+06
         0.44705E+06
         0.11285E+06
         0.30203E+06
         0.44208E+06
        -0.12410E+06
        -0.26502E+06
        -0.36939E+06
        -0.43489E+06
        -0.30859E+06
         0.38522E+06
         0.38250E+06
        -0.74529E+05
         0.91279E+05
         0.46592E+06
         0.45147E+05
        -0.22956E+06
         0.32059E+06
        -0.61709E+06
        -0.66562E+06
        -0.57000E+06
        -0.27736E+06
         0.74086E+05
         0.25709E+06
         0.33403E+06
         0.53905E+06
         0.62432E+06
         0.25092E+06
         0.11766E+06
         0.10772E+06
        -0.40257E+05
        -0.34992E+06
        -0.59735E+06
        -0.66899E+06
        -0.47439E+06
         0.13130E+06
         0.30413E+06
         0.32135E+06
         0.50670E+06
         0.64544E+06
         0.40518E+06
         0.38717E+06
        -0.26652E+06
         0.73641E+05
        -0.13305E+06
        -0.13798E+06
         0.43645E+06
         0.29092E+06
         0.13610E+06
        -0.31163E+06
        -0.18834E+06
        -0.30830E+06
         0.60984E+05
        -0.16068E+06
        -0.49019E+06
         0.16103E+06
         0.36295E+06
        -0.31105E+06
         0.11583E+06
         0.52959E+05
         0.14699E+06
         0.51663E+05
         0.26407E+06
         0.19504E+06
        -0.11742E+06
         0.11938E+06
         0.19592E+06
        -0.45590E+05
         0.43891E+05
        -0.13347E+05
        -0.58688E+05
        -0.28846E+06
        -0.31788E+06
        -0.76671E+05
         0.19663E+06
         0.15645E+06
         0.64079E+05
        -0.28041E+06
        -0.41395E+06
         0.44722E+06
         0.11363E+06
         0.30262E+06
         0.44227E+06
        -0.12341E+06
        -0.26509E+06
        -0.36975E+06
        -0.43499E+06
        -0.30846E+06
         0.38515E+06
         0.38252E+06
        -0.73830E+05
         0.91129E+05
         0.46585E+06
         0.44319E+05
        -0.22941E+06
         0.32066E+06
        -0.61715E+06
        -0.66562E+06
        -0.56993E+06
        -0.27735E+06
         0.74189E+05
         0.25729E+06
         0.33383E+06
         0.53899E+06
         0.62430E+06
         0.25109E+06
         0.11768E+06
         0.10793E+06
        -0.39879E+05
        -0.35004E+06
        -0.59750E+06
        -0.66902E+06
        -0.47430E+06
         0.13134E+06
         0.30393E+06
         0.32124E+06
         0.50652E+06
         0.64535E+06
         0.40495E+06
         0.38685E+06
        -0.26682E+06
         0.74002E+05
        -0.13317E+06
        -0.13903E+06
         0.43639E+06
         0.29111E+06
         0.13700E+06
        -0.31084E+06
        -0.18841E+06
        -0.30778E+06
         0.59293E+05
        -0.16105E+06
        -0.49028E+06
         0.16128E+06
         0.36253E+06
        -0.31108E+06
         0.11714E+06
         0.52718E+05
         0.14692E+06
         0.51209E+05
         0.26465E+06
         0.19517E+06
        -0.11757E+06
         0.11923E+06
         0.19623E+06
        -0.45510E+05
         0.44549E+05
        -0.13156E+05
        -0.58271E+05
        -0.28861E+06
        -0.31796E+06
        -0.76191E+05
         0.19615E+06
         0.15677E+06
         0.63329E+05
        -0.28060E+06
        -0.41397E+06
         0.44738E+06
         0.11442E+06
         0.30320E+06
         0.44246E+06
        -0.12271E+06
        -0.26517E+06
        -0.37011E+06
        -0.43509E+06
        -0.30832E+06
         0.38508E+06
         0.38253E+06
        -0.73138E+05
         0.90971E+05
         0.46578E+06
         0.43489E+05
        -0.22926E+06
         0.32073E+06
        -0.61721E+06
        -0.66562E+06
        -0.56985E+06
        -0.27734E+06
         0.74292E+05
         0.25749E+06
         0.33363E+06
         0.53892E+06
         0.62428E+06
         0.25125E+06
         0.11770E+06
         0.10815E+06
        -0.39501E+05
        -0.35016E+06
        -0.59764E+06
        -0.66906E+06
        -0.47420E+06
         0.13139E+06
         0.30372E+06
         0.32114E+06
         0.50635E+06
         0.64526E+06
         0.40472E+06
         0.38653E+06
        -0.26711E+06
         0.74357E+05
        -0.13329E+06
        -0.14009E+06
         0.43632E+06
         0.29129E+06
         0.13792E+06
        -0.31006E+06
        -0.18848E+06
        -0.30725E+06
         0.57601E+05
        -0.16142E+06
        -0.49038E+06
         0.16151E+06
         0.36211E+06
        -0.31110E+06
         0.11846E+06
         0.52475E+05
         0.14686E+06
         0.50757E+05
         0.26523E+06
         0.19529E+06
        -0.11773E+06
         0.11909E+06
         0.19654E+06
        -0.45428E+05
         0.45225E+05
        -0.12955E+05
        -0.57839E+05
        -0.28876E+06
        -0.31804E+06
        -0.75708E+05
         0.19566E+06
         0.15710E+06
         0.62578E+05
        -0.28079E+06
        -0.41398E+06
         0.44753E+06
         0.11522E+06
         0.30380E+06
         0.44265E+06
        -0.12202E+06
        -0.26525E+06
        -0.37047E+06
        -0.43519E+06
        -0.30819E+06
         0.38502E+06
         0.38255E+06
        -0.72448E+05
         0.90814E+05
         0.46572E+06
         0.42665E+05
        -0.22911E+06
         0.32079E+06
        -0.61727E+06
        -0.66562E+06
        -0.56977E+06
        -0.27734E+06
         0.74393E+05
         0.25768E+06
         0.33343E+06
         0.53886E+06
         0.62426E+06
         0.25141E+06
         0.11772E+06
         0.10835E+06
        -0.39125E+05
        -0.35028E+06
        -0.59778E+06
        -0.66909E+06
        -0.47411E+06
         0.13143E+06
         0.30352E+06
         0.32103E+06
         0.50617E+06
         0.64517E+06
         0.40449E+06
         0.38622E+06
        -0.26741E+06
         0.74711E+05
        -0.13341E+06
        -0.14115E+06
         0.43625E+06
         0.29147E+06
         0.13882E+06
        -0.30927E+06
        -0.18854E+06
        -0.30669E+06
         0.55909E+05
        -0.16180E+06
        -0.49047E+06
         0.16176E+06
         0.36169E+06
        -0.31112E+06
         0.11979E+06
         0.52232E+05
         0.14681E+06
         0.50327E+05
         0.26581E+06
         0.19541E+06
        -0.11789E+06
         0.11893E+06
         0.19682E+06
        -0.45351E+05
         0.45896E+05
        -0.12740E+05
        -0.57403E+05
        -0.28892E+06
        -0.31812E+06
        -0.75216E+05
         0.19516E+06
         0.15743E+06
         0.61827E+05
        -0.28098E+06
        -0.41400E+06
         0.44768E+06
         0.11604E+06
         0.30438E+06
         0.44284E+06
        -0.12133E+06
        -0.26534E+06
        -0.37082E+06
        -0.43529E+06
        -0.30805E+06
         0.38495E+06
         0.38256E+06
        -0.71759E+05
         0.90658E+05
         0.46566E+06
         0.41839E+05
        -0.22896E+06
         0.32086E+06
        -0.61733E+06
        -0.66562E+06
        -0.56970E+06
        -0.27733E+06
         0.74495E+05
         0.25788E+06
         0.33323E+06
         0.53879E+06
         0.62425E+06
         0.25157E+06
         0.11773E+06
         0.10856E+06
        -0.38750E+05
        -0.35040E+06
        -0.59792E+06
        -0.66913E+06
        -0.47401E+06
         0.13147E+06
         0.30331E+06
         0.32093E+06
         0.50599E+06
         0.64508E+06
         0.40427E+06
         0.38590E+06
        -0.26771E+06
         0.75064E+05
        -0.13352E+06
        -0.14221E+06
         0.43618E+06
         0.29164E+06
         0.13973E+06
        -0.30848E+06
        -0.18859E+06
        -0.30609E+06
         0.54219E+05
        -0.16217E+06
        -0.49056E+06
         0.16201E+06
         0.36126E+06
        -0.31114E+06
         0.12115E+06
         0.51989E+05
         0.14675E+06
         0.49910E+05
         0.26639E+06
         0.19553E+06
        -0.11805E+06
         0.11879E+06
         0.19707E+06
        -0.45266E+05
         0.46597E+05
        -0.12507E+05
        -0.56958E+05
        -0.28908E+06
        -0.31820E+06
        -0.74732E+05
         0.19465E+06
         0.15775E+06
         0.61071E+05
        -0.28117E+06
        -0.41401E+06
         0.44781E+06
         0.11689E+06
         0.30498E+06
         0.44303E+06
        -0.12065E+06
        -0.26544E+06
        -0.37118E+06
        -0.43540E+06
        -0.30793E+06
         0.38488E+06
         0.38258E+06
        -0.71060E+05
         0.90505E+05
         0.46559E+06
         0.41005E+05
        -0.22881E+06
         0.32093E+06
        -0.61739E+06
        -0.66562E+06
        -0.56962E+06
        -0.27732E+06
         0.74596E+05
         0.25807E+06
         0.33304E+06
         0.53873E+06
         0.62424E+06
         0.25172E+06
         0.11772E+06
         0.10877E+06
        -0.38373E+05
        -0.35052E+06
        -0.59806E+06
        -0.66916E+06
        -0.47392E+06
         0.13152E+06
         0.30311E+06
         0.32083E+06
         0.50582E+06
         0.64499E+06
         0.40404E+06
         0.38558E+06
        -0.26800E+06
         0.75419E+05
        -0.13365E+06
        -0.14327E+06
         0.43611E+06
         0.29182E+06
         0.14064E+06
        -0.30769E+06
        -0.18863E+06
        -0.30549E+06
         0.52540E+05
        -0.16254E+06
        -0.49065E+06
         0.16224E+06
         0.36083E+06
        -0.31117E+06
         0.12251E+06
         0.51750E+05
         0.14669E+06
         0.49506E+05
         0.26697E+06
         0.19564E+06
        -0.11820E+06
         0.11866E+06
         0.19730E+06
        -0.45188E+05
         0.47279E+05
        -0.12262E+05
        -0.56509E+05
        -0.28923E+06
        -0.31828E+06
        -0.74258E+05
         0.19415E+06
         0.15808E+06
         0.60322E+05
        -0.28136E+06
        -0.41402E+06
         0.44794E+06
         0.11775E+06
         0.30555E+06
         0.44322E+06
        -0.11998E+06
        -0.26555E+06
        -0.37152E+06
        -0.43549E+06
        -0.30780E+06
         0.38481E+06
         0.38259E+06
        -0.70370E+05
         0.90342E+05
         0.46553E+06
         0.40175E+05
        -0.22866E+06
         0.32100E+06
        -0.61744E+06
        -0.66562E+06
        -0.56955E+06
        -0.27731E+06
         0.74696E+05
         0.25826E+06
         0.33285E+06
         0.53866E+06
         0.62424E+06
         0.25187E+06
         0.11771E+06
         0.10898E+06
        -0.37995E+05
        -0.35064E+06
        -0.59820E+06
        -0.66920E+06
        -0.47382E+06
         0.13157E+06
         0.30291E+06
         0.32072E+06
         0.50564E+06
         0.64490E+06
         0.40382E+06
         0.38526E+06
        -0.25245E+06
         0.65649E+05
        -0.11515E+06
        -0.12621E+06
         0.40086E+06
         0.25637E+06
         0.12868E+06
        -0.28342E+06
        -0.16757E+06
        -0.28061E+06
         0.38820E+05
        -0.15636E+06
        -0.46540E+06
         0.13715E+06
         0.34715E+06
        -0.28418E+06
         0.10663E+06
         0.51934E+05
         0.12105E+06
         0.49520E+05
         0.25640E+06
         0.18644E+06
        -0.11297E+06
         0.10736E+06
         0.16929E+06
        -0.45514E+05
         0.40546E+05
        -0.12109E+05
        -0.52604E+05
        -0.24728E+06
        -0.28349E+06
        -0.71488E+05
         0.17267E+06
         0.14760E+06
         0.55886E+05
        -0.24894E+06
        -0.38114E+06
         0.42693E+06
         0.11056E+06
         0.28297E+06
         0.42331E+06
        -0.11368E+06
        -0.25410E+06
        -0.35137E+06
        -0.40425E+06
        -0.29041E+06
         0.34962E+06
         0.34356E+06
        -0.60596E+05
         0.79944E+05
         0.43593E+06
         0.35471E+05
        -0.22564E+06
         0.31749E+06
        -0.61099E+06
        -0.65896E+06
        -0.56415E+06
        -0.27479E+06
         0.74077E+05
         0.25523E+06
         0.32827E+06
         0.53206E+06
         0.61687E+06
         0.24928E+06
         0.11619E+06
         0.10781E+06
        -0.37245E+05
        -0.34742E+06
        -0.59297E+06
        -0.66331E+06
        -0.46843E+06
         0.13024E+06
         0.29937E+06
         0.31692E+06
         0.49994E+06
         0.63745E+06
         0.39935E+06
         0.38081E+06
        -0.70742E+05
         0.10118E+05
        -0.17112E+05
        -0.16203E+05
         0.88644E+05
         0.41711E+05
         0.11705E+05
        -0.64893E+05
        -0.29632E+05
        -0.62407E+05
         0.36191E+04
        -0.57132E+05
        -0.14241E+06
         0.17996E+05
         0.13277E+06
        -0.60232E+05
         0.11921E+05
         0.63675E+04
         0.15014E+05
         0.40631E+04
         0.90459E+05
         0.60306E+05
        -0.37737E+05
         0.11449E+05
         0.24241E+05
        -0.48001E+04
         0.54275E+04
        -0.83128E+03
        -0.38966E+04
        -0.34816E+05
        -0.50622E+05
        -0.72656E+04
         0.21403E+05
         0.16338E+05
         0.14594E+05
        -0.41774E+05
        -0.85190E+05
         0.13930E+06
         0.28235E+05
         0.66115E+05
         0.14241E+06
        -0.36382E+05
        -0.87173E+05
        -0.10229E+06
        -0.96949E+05
        -0.83412E+05
         0.70107E+05
         0.63666E+05
        -0.92337E+04
         0.13665E+05
         0.11511E+06
         0.66513E+04
        -0.14433E+06
         0.21078E+06
        -0.41399E+06
        -0.45479E+06
        -0.39746E+06
        -0.19640E+06
         0.51569E+05
         0.16520E+06
         0.20681E+06
         0.34503E+06
         0.40377E+06
         0.16881E+06
         0.74497E+05
         0.69633E+05
        -0.25259E+05
        -0.24439E+06
        -0.42357E+06
        -0.47421E+06
        -0.31084E+06
         0.87994E+05
         0.19949E+06
         0.20885E+06
         0.33487E+06
         0.42164E+06
         0.27117E+06
         0.25678E+06
  
SCALARS                      strain_xx  double 1
LOOKUP_TABLE default
        -0.34053E-07
        -0.21354E-05
        -0.20241E-04
        -0.68657E-07
        -0.21229E-19
        -0.26690E-20
        -0.29842E-19
        -0.11903E-20
        -0.18487E-03
        -0.77050E-04
        -0.26698E-18
        -0.21661E-18
        -0.42803E-06
        -0.71821E-05
        -0.40611E-20
        -0.89120E-19
        -0.15543E-06
        -0.65389E-05
        -0.46500E-19
        -0.10314E-18
        -0.16220E-04
        -0.50484E-04
        -0.38762E-04
        -0.45990E-19
        -0.97792E-20
        -0.29848E-19
        -0.56181E-04
        -0.41490E-04
        -0.16115E-18
        -0.10140E-18
        -0.86642E-06
        -0.60434E-05
        -0.22250E-07
        -0.16704E-20
        -0.24945E-19
        -0.94680E-20
        -0.94761E-05
        -0.30851E-05
        -0.54986E-19
        -0.62336E-19
        -0.43783E-04
        -0.11057E-03
        -0.27978E-18
        -0.15216E-18
        -0.38326E-04
        -0.93316E-05
        -0.33741E-18
        -0.78169E-19
        -0.59957E-05
        -0.30799E-19
        -0.15877E-04
        -0.23865E-20
        -0.76856E-05
        -0.11760E-18
        -0.44468E-05
        -0.82286E-20
        -0.85027E-04
        -0.55638E-05
        -0.60385E-20
        -0.35280E-19
        -0.99651E-08
        -0.87963E-05
        -0.24156E-19
        -0.11359E-19
        -0.45886E-06
        -0.24441E-21
        -0.62523E-05
        -0.10574E-19
        -0.38753E-03
        -0.18792E-03
        -0.41309E-18
        -0.21729E-18
        -0.82693E-04
        -0.11520E-18
        -0.73428E-05
        -0.55127E-19
        -0.73083E-04
        -0.21235E-20
        -0.32556E-03
        -0.51111E-20
        -0.54222E-03
        -0.25928E-03
        -0.68646E-19
        -0.89787E-19
        -0.17789E-03
        -0.10385E-18
        -0.56717E-04
        -0.21526E-18
        -0.25679E-04
        -0.87572E-19
        -0.70702E-04
        -0.40569E-04
        -0.15951E-19
        -0.29999E-19
        -0.19861E-05
        -0.41274E-19
        -0.14214E-04
        -0.72768E-20
        -0.85748E-04
        -0.44374E-19
        -0.18966E-03
        -0.85517E-04
        -0.23591E-18
        -0.25689E-18
        -0.13915E-02
        -0.15432E-02
        -0.80547E-18
        -0.78225E-18
        -0.13821E-02
        -0.58785E-18
        -0.10236E-02
        -0.32830E-18
        -0.58863E-03
        -0.99146E-19
        -0.37677E-03
        -0.11337E-20
        -0.59767E-04
        -0.14382E-19
        -0.10656E-03
        -0.92059E-20
        -0.61109E-03
        -0.88934E-20
        -0.13467E-02
        -0.45226E-19
        -0.22569E-02
        -0.16370E-18
        -0.27706E-02
        -0.23311E-18
        -0.23538E-02
        -0.20752E-18
        -0.16940E-02
        -0.24539E-18
        -0.10301E-02
        -0.41334E-18
        -0.61147E-03
        -0.57476E-18
        -0.47952E-03
        -0.49668E-18
        -0.56670E-03
        -0.32805E-18
        -0.25362E-03
        -0.73112E-19
        -0.19873E-05
        -0.26659E-20
        -0.75064E-04
        -0.15714E-19
        -0.17229E-03
        -0.42018E-19
        -0.43803E-03
        -0.16093E-18
        -0.76399E-03
        -0.43333E-18
        -0.12109E-02
        -0.62549E-18
        -0.14073E-02
        -0.65437E-18
        -0.22552E-05
        -0.61610E-06
        -0.84710E-06
        -0.33982E-05
        -0.51863E-04
        -0.30776E-04
        -0.70839E-06
        -0.15214E-05
        -0.39965E-06
        -0.12763E-05
        -0.38974E-06
        -0.73190E-05
        -0.31825E-04
        -0.32545E-05
        -0.47231E-05
        -0.60220E-05
        -0.42494E-05
        -0.90804E-06
        -0.22328E-05
        -0.25772E-05
        -0.77317E-04
        -0.87450E-04
        -0.71632E-04
        -0.69093E-05
        -0.11061E-05
        -0.61440E-06
        -0.63846E-05
        -0.80230E-07
        -0.84363E-05
        -0.39616E-05
        -0.48049E-05
        -0.18693E-06
        -0.10670E-05
        -0.11233E-06
        -0.11437E-03
        -0.46213E-04
        -0.37757E-04
        -0.18559E-04
        -0.60232E-05
        -0.27668E-04
        -0.11746E-03
        -0.10137E-03
        -0.97971E-04
        -0.53001E-04
        -0.27397E-04
        -0.16880E-04
        -0.59204E-06
        -0.10252E-04
        -0.85780E-06
        -0.86707E-05
        -0.62187E-04
        -0.43814E-04
        -0.98529E-03
        -0.10839E-02
        -0.86669E-03
        -0.62708E-03
        -0.34795E-03
        -0.90479E-04
        -0.31873E-06
        -0.45904E-04
        -0.10653E-03
        -0.31413E-03
        -0.83457E-03
        -0.12328E-02
        -0.10315E-02
        -0.94759E-03
        -0.10563E-02
        -0.10550E-02
        -0.87100E-03
        -0.66939E-03
        -0.17245E-03
        -0.43082E-05
        -0.63521E-04
        -0.78901E-04
        -0.22632E-03
        -0.57774E-03
        -0.97061E-03
        -0.10715E-02
        -0.88545E-05
        -0.37312E-06
        -0.13523E-05
        -0.11465E-04
        -0.48241E-04
        -0.35229E-04
        -0.29904E-05
        -0.14251E-04
        -0.30087E-05
        -0.12880E-04
        -0.52565E-06
        -0.69975E-05
        -0.75729E-04
        -0.44534E-04
        -0.47782E-04
        -0.34176E-04
        -0.10592E-04
        -0.37997E-05
        -0.17208E-05
        -0.53073E-05
        -0.18685E-03
        -0.16971E-03
        -0.16526E-03
        -0.96677E-05
        -0.31189E-05
        -0.14140E-05
        -0.41585E-04
        -0.73314E-06
        -0.46576E-05
        -0.86616E-05
        -0.20173E-04
        -0.84467E-05
        -0.84858E-05
        -0.63208E-05
        -0.15343E-03
        -0.46737E-04
        -0.61496E-04
        -0.58761E-04
        -0.16471E-05
        -0.13846E-04
        -0.18688E-03
        -0.19774E-03
        -0.18893E-03
        -0.98773E-04
        -0.58575E-04
        -0.20054E-04
        -0.23423E-04
        -0.32645E-04
        -0.57043E-06
        -0.82695E-06
        -0.86886E-04
        -0.67421E-04
        -0.26822E-02
        -0.27239E-02
        -0.21950E-02
        -0.14932E-02
        -0.83138E-03
        -0.17636E-03
        -0.10871E-04
        -0.11413E-03
        -0.19805E-03
        -0.66550E-03
        -0.20996E-02
        -0.29220E-02
        -0.20546E-02
        -0.18597E-02
        -0.22572E-02
        -0.23941E-02
        -0.19944E-02
        -0.17846E-02
        -0.46327E-03
        -0.31296E-04
        -0.15308E-03
        -0.15713E-03
        -0.49668E-03
        -0.14890E-02
        -0.24394E-02
        -0.24241E-02
        -0.88880E-05
        -0.37589E-06
        -0.13574E-05
        -0.11480E-04
        -0.48148E-04
        -0.35164E-04
        -0.30286E-05
        -0.14179E-04
        -0.30153E-05
        -0.12860E-04
        -0.50459E-06
        -0.70316E-05
        -0.75820E-04
        -0.44314E-04
        -0.47731E-04
        -0.34247E-04
        -0.10638E-04
        -0.37787E-05
        -0.17192E-05
        -0.52886E-05
        -0.18682E-03
        -0.16967E-03
        -0.16524E-03
        -0.96687E-05
        -0.31329E-05
        -0.14187E-05
        -0.41610E-04
        -0.70584E-06
        -0.47234E-05
        -0.86726E-05
        -0.20232E-04
        -0.84445E-05
        -0.84153E-05
        -0.63265E-05
        -0.15359E-03
        -0.46695E-04
        -0.61457E-04
        -0.58950E-04
        -0.16788E-05
        -0.13933E-04
        -0.18711E-03
        -0.19797E-03
        -0.18895E-03
        -0.98745E-04
        -0.58533E-04
        -0.20033E-04
        -0.23414E-04
        -0.32667E-04
        -0.56213E-06
        -0.82131E-06
        -0.86774E-04
        -0.67222E-04
        -0.26803E-02
        -0.27225E-02
        -0.21946E-02
        -0.14932E-02
        -0.83087E-03
        -0.17626E-03
        -0.10896E-04
        -0.11427E-03
        -0.19772E-03
        -0.66498E-03
        -0.20990E-02
        -0.29221E-02
        -0.20542E-02
        -0.18594E-02
        -0.22578E-02
        -0.23951E-02
        -0.19951E-02
        -0.17853E-02
        -0.46301E-03
        -0.31325E-04
        -0.15286E-03
        -0.15700E-03
        -0.49595E-03
        -0.14871E-02
        -0.24370E-02
        -0.24219E-02
        -0.89217E-05
        -0.37863E-06
        -0.13625E-05
        -0.11496E-04
        -0.48052E-04
        -0.35101E-04
        -0.30671E-05
        -0.14107E-04
        -0.30215E-05
        -0.12838E-04
        -0.48400E-06
        -0.70657E-05
        -0.75912E-04
        -0.44096E-04
        -0.47680E-04
        -0.34320E-04
        -0.10686E-04
        -0.37575E-05
        -0.17174E-05
        -0.52706E-05
        -0.18679E-03
        -0.16964E-03
        -0.16522E-03
        -0.96698E-05
        -0.31480E-05
        -0.14238E-05
        -0.41634E-04
        -0.67937E-06
        -0.47900E-05
        -0.86835E-05
        -0.20292E-04
        -0.84431E-05
        -0.83447E-05
        -0.63322E-05
        -0.15374E-03
        -0.46654E-04
        -0.61417E-04
        -0.59138E-04
        -0.17108E-05
        -0.14021E-04
        -0.18735E-03
        -0.19820E-03
        -0.18898E-03
        -0.98721E-04
        -0.58492E-04
        -0.20013E-04
        -0.23406E-04
        -0.32689E-04
        -0.55369E-06
        -0.81551E-06
        -0.86666E-04
        -0.67025E-04
        -0.26785E-02
        -0.27211E-02
        -0.21942E-02
        -0.14933E-02
        -0.83036E-03
        -0.17615E-03
        -0.10921E-04
        -0.11441E-03
        -0.19738E-03
        -0.66445E-03
        -0.20983E-02
        -0.29222E-02
        -0.20539E-02
        -0.18592E-02
        -0.22584E-02
        -0.23962E-02
        -0.19959E-02
        -0.17860E-02
        -0.46275E-03
        -0.31353E-04
        -0.15264E-03
        -0.15688E-03
        -0.49522E-03
        -0.14853E-02
        -0.24346E-02
        -0.24198E-02
        -0.89554E-05
        -0.38148E-06
        -0.13675E-05
        -0.11511E-04
        -0.47957E-04
        -0.35036E-04
        -0.31055E-05
        -0.14035E-04
        -0.30270E-05
        -0.12813E-04
        -0.46389E-06
        -0.71006E-05
        -0.76005E-04
        -0.43878E-04
        -0.47629E-04
        -0.34399E-04
        -0.10736E-04
        -0.37364E-05
        -0.17160E-05
        -0.52518E-05
        -0.18677E-03
        -0.16961E-03
        -0.16522E-03
        -0.96708E-05
        -0.31660E-05
        -0.14301E-05
        -0.41654E-04
        -0.65422E-06
        -0.48568E-05
        -0.86937E-05
        -0.20358E-04
        -0.84448E-05
        -0.82740E-05
        -0.63379E-05
        -0.15389E-03
        -0.46613E-04
        -0.61377E-04
        -0.59326E-04
        -0.17431E-05
        -0.14109E-04
        -0.18760E-03
        -0.19845E-03
        -0.18903E-03
        -0.98702E-04
        -0.58447E-04
        -0.19992E-04
        -0.23399E-04
        -0.32711E-04
        -0.54529E-06
        -0.80973E-06
        -0.86552E-04
        -0.66826E-04
        -0.26767E-02
        -0.27197E-02
        -0.21938E-02
        -0.14933E-02
        -0.82985E-03
        -0.17604E-03
        -0.10946E-04
        -0.11455E-03
        -0.19705E-03
        -0.66392E-03
        -0.20977E-02
        -0.29224E-02
        -0.20536E-02
        -0.18591E-02
        -0.22590E-02
        -0.23974E-02
        -0.19967E-02
        -0.17867E-02
        -0.46249E-03
        -0.31382E-04
        -0.15241E-03
        -0.15675E-03
        -0.49449E-03
        -0.14835E-02
        -0.24322E-02
        -0.24176E-02
        -0.89889E-05
        -0.38434E-06
        -0.13726E-05
        -0.11526E-04
        -0.47865E-04
        -0.34971E-04
        -0.31446E-05
        -0.13962E-04
        -0.30317E-05
        -0.12784E-04
        -0.44416E-06
        -0.71350E-05
        -0.76097E-04
        -0.43661E-04
        -0.47578E-04
        -0.34484E-04
        -0.10788E-04
        -0.37152E-05
        -0.17141E-05
        -0.52329E-05
        -0.18675E-03
        -0.16959E-03
        -0.16523E-03
        -0.96720E-05
        -0.31868E-05
        -0.14374E-05
        -0.41671E-04
        -0.63031E-06
        -0.49238E-05
        -0.87033E-05
        -0.20427E-04
        -0.84490E-05
        -0.82033E-05
        -0.63435E-05
        -0.15405E-03
        -0.46570E-04
        -0.61339E-04
        -0.59514E-04
        -0.17754E-05
        -0.14199E-04
        -0.18785E-03
        -0.19872E-03
        -0.18910E-03
        -0.98690E-04
        -0.58400E-04
        -0.19969E-04
        -0.23393E-04
        -0.32736E-04
        -0.53702E-06
        -0.80405E-06
        -0.86445E-04
        -0.66627E-04
        -0.26748E-02
        -0.27183E-02
        -0.21934E-02
        -0.14933E-02
        -0.82934E-03
        -0.17594E-03
        -0.10971E-04
        -0.11469E-03
        -0.19672E-03
        -0.66339E-03
        -0.20970E-02
        -0.29226E-02
        -0.20534E-02
        -0.18589E-02
        -0.22597E-02
        -0.23988E-02
        -0.19975E-02
        -0.17873E-02
        -0.46224E-03
        -0.31411E-04
        -0.15219E-03
        -0.15663E-03
        -0.49376E-03
        -0.14817E-02
        -0.24298E-02
        -0.24154E-02
        -0.90211E-05
        -0.38744E-06
        -0.13771E-05
        -0.11540E-04
        -0.47772E-04
        -0.34907E-04
        -0.31839E-05
        -0.13889E-04
        -0.30362E-05
        -0.12754E-04
        -0.42485E-06
        -0.71696E-05
        -0.76189E-04
        -0.43444E-04
        -0.47526E-04
        -0.34572E-04
        -0.10840E-04
        -0.36940E-05
        -0.17122E-05
        -0.52149E-05
        -0.18675E-03
        -0.16958E-03
        -0.16526E-03
        -0.96736E-05
        -0.32077E-05
        -0.14449E-05
        -0.41687E-04
        -0.60700E-06
        -0.49918E-05
        -0.87145E-05
        -0.20497E-04
        -0.84527E-05
        -0.81322E-05
        -0.63486E-05
        -0.15421E-03
        -0.46533E-04
        -0.61303E-04
        -0.59702E-04
        -0.18081E-05
        -0.14288E-04
        -0.18811E-03
        -0.19899E-03
        -0.18919E-03
        -0.98681E-04
        -0.58358E-04
        -0.19949E-04
        -0.23387E-04
        -0.32759E-04
        -0.52856E-06
        -0.79884E-06
        -0.86339E-04
        -0.66434E-04
        -0.26730E-02
        -0.27169E-02
        -0.21930E-02
        -0.14933E-02
        -0.82882E-03
        -0.17583E-03
        -0.10995E-04
        -0.11483E-03
        -0.19639E-03
        -0.66286E-03
        -0.20963E-02
        -0.29229E-02
        -0.20532E-02
        -0.18588E-02
        -0.22604E-02
        -0.24003E-02
        -0.19984E-02
        -0.17880E-02
        -0.46198E-03
        -0.31436E-04
        -0.15196E-03
        -0.15651E-03
        -0.49304E-03
        -0.14798E-02
        -0.24273E-02
        -0.24133E-02
        -0.90508E-05
        -0.39119E-06
        -0.13806E-05
        -0.11555E-04
        -0.47681E-04
        -0.34844E-04
        -0.32242E-05
        -0.13814E-04
        -0.30409E-05
        -0.12725E-04
        -0.40588E-06
        -0.72043E-05
        -0.76284E-04
        -0.43226E-04
        -0.47473E-04
        -0.34659E-04
        -0.10890E-04
        -0.36727E-05
        -0.17106E-05
        -0.51973E-05
        -0.18675E-03
        -0.16957E-03
        -0.16529E-03
        -0.96759E-05
        -0.32261E-05
        -0.14515E-05
        -0.41705E-04
        -0.58359E-06
        -0.50608E-05
        -0.87274E-05
        -0.20563E-04
        -0.84533E-05
        -0.80599E-05
        -0.63522E-05
        -0.15437E-03
        -0.46499E-04
        -0.61269E-04
        -0.59889E-04
        -0.18414E-05
        -0.14380E-04
        -0.18837E-03
        -0.19927E-03
        -0.18928E-03
        -0.98675E-04
        -0.58319E-04
        -0.19931E-04
        -0.23376E-04
        -0.32781E-04
        -0.51947E-06
        -0.79483E-06
        -0.86246E-04
        -0.66241E-04
        -0.26711E-02
        -0.27155E-02
        -0.21926E-02
        -0.14933E-02
        -0.82831E-03
        -0.17572E-03
        -0.11019E-04
        -0.11497E-03
        -0.19606E-03
        -0.66234E-03
        -0.20957E-02
        -0.29231E-02
        -0.20531E-02
        -0.18587E-02
        -0.22612E-02
        -0.24018E-02
        -0.19993E-02
        -0.17886E-02
        -0.46171E-03
        -0.31457E-04
        -0.15173E-03
        -0.15639E-03
        -0.49233E-03
        -0.14781E-02
        -0.24249E-02
        -0.24111E-02
        -0.90793E-05
        -0.39516E-06
        -0.13836E-05
        -0.11569E-04
        -0.47593E-04
        -0.34779E-04
        -0.32652E-05
        -0.13739E-04
        -0.30459E-05
        -0.12698E-04
        -0.38730E-06
        -0.72391E-05
        -0.76379E-04
        -0.43010E-04
        -0.47420E-04
        -0.34745E-04
        -0.10939E-04
        -0.36514E-05
        -0.17088E-05
        -0.51808E-05
        -0.18674E-03
        -0.16956E-03
        -0.16532E-03
        -0.96778E-05
        -0.32435E-05
        -0.14577E-05
        -0.41723E-04
        -0.56052E-06
        -0.51313E-05
        -0.87413E-05
        -0.20627E-04
        -0.84522E-05
        -0.79872E-05
        -0.63552E-05
        -0.15454E-03
        -0.46469E-04
        -0.61240E-04
        -0.60077E-04
        -0.18749E-05
        -0.14472E-04
        -0.18863E-03
        -0.19955E-03
        -0.18937E-03
        -0.98675E-04
        -0.58284E-04
        -0.19916E-04
        -0.23364E-04
        -0.32802E-04
        -0.51017E-06
        -0.79135E-06
        -0.86154E-04
        -0.66053E-04
        -0.26693E-02
        -0.27141E-02
        -0.21922E-02
        -0.14933E-02
        -0.82780E-03
        -0.17562E-03
        -0.11044E-04
        -0.11512E-03
        -0.19572E-03
        -0.66181E-03
        -0.20950E-02
        -0.29233E-02
        -0.20529E-02
        -0.18586E-02
        -0.22619E-02
        -0.24033E-02
        -0.20003E-02
        -0.17893E-02
        -0.46144E-03
        -0.31477E-04
        -0.15149E-03
        -0.15627E-03
        -0.49163E-03
        -0.14763E-02
        -0.24225E-02
        -0.24090E-02
        -0.91077E-05
        -0.39919E-06
        -0.13865E-05
        -0.11583E-04
        -0.47503E-04
        -0.34714E-04
        -0.33062E-05
        -0.13664E-04
        -0.30509E-05
        -0.12671E-04
        -0.36921E-06
        -0.72739E-05
        -0.76475E-04
        -0.42795E-04
        -0.47368E-04
        -0.34832E-04
        -0.10989E-04
        -0.36303E-05
        -0.17070E-05
        -0.51637E-05
        -0.18674E-03
        -0.16955E-03
        -0.16535E-03
        -0.96805E-05
        -0.32607E-05
        -0.14639E-05
        -0.41742E-04
        -0.53794E-06
        -0.52022E-05
        -0.87553E-05
        -0.20691E-04
        -0.84512E-05
        -0.79149E-05
        -0.63583E-05
        -0.15471E-03
        -0.46435E-04
        -0.61211E-04
        -0.60264E-04
        -0.19090E-05
        -0.14563E-04
        -0.18889E-03
        -0.19983E-03
        -0.18946E-03
        -0.98676E-04
        -0.58252E-04
        -0.19901E-04
        -0.23352E-04
        -0.32822E-04
        -0.50094E-06
        -0.78804E-06
        -0.86068E-04
        -0.65863E-04
        -0.26675E-02
        -0.27127E-02
        -0.21918E-02
        -0.14933E-02
        -0.82729E-03
        -0.17551E-03
        -0.11068E-04
        -0.11525E-03
        -0.19539E-03
        -0.66129E-03
        -0.20943E-02
        -0.29236E-02
        -0.20528E-02
        -0.18584E-02
        -0.22626E-02
        -0.24047E-02
        -0.20012E-02
        -0.17899E-02
        -0.46117E-03
        -0.31498E-04
        -0.15125E-03
        -0.15615E-03
        -0.49093E-03
        -0.14745E-02
        -0.24201E-02
        -0.24068E-02
        -0.91362E-05
        -0.40328E-06
        -0.13895E-05
        -0.11597E-04
        -0.47413E-04
        -0.34650E-04
        -0.33477E-05
        -0.13589E-04
        -0.30560E-05
        -0.12644E-04
        -0.35155E-06
        -0.73088E-05
        -0.76572E-04
        -0.42581E-04
        -0.47315E-04
        -0.34919E-04
        -0.11038E-04
        -0.36094E-05
        -0.17051E-05
        -0.51471E-05
        -0.18673E-03
        -0.16954E-03
        -0.16537E-03
        -0.96831E-05
        -0.32781E-05
        -0.14700E-05
        -0.41761E-04
        -0.51596E-06
        -0.52733E-05
        -0.87690E-05
        -0.20755E-04
        -0.84499E-05
        -0.78430E-05
        -0.63615E-05
        -0.15487E-03
        -0.46406E-04
        -0.61182E-04
        -0.60451E-04
        -0.19433E-05
        -0.14656E-04
        -0.18915E-03
        -0.20011E-03
        -0.18955E-03
        -0.98676E-04
        -0.58217E-04
        -0.19885E-04
        -0.23340E-04
        -0.32844E-04
        -0.49187E-06
        -0.78446E-06
        -0.85976E-04
        -0.65673E-04
        -0.26656E-02
        -0.27113E-02
        -0.21914E-02
        -0.14933E-02
        -0.82677E-03
        -0.17540E-03
        -0.11092E-04
        -0.11539E-03
        -0.19506E-03
        -0.66077E-03
        -0.20936E-02
        -0.29238E-02
        -0.20526E-02
        -0.18583E-02
        -0.22634E-02
        -0.24062E-02
        -0.20021E-02
        -0.17905E-02
        -0.46090E-03
        -0.31517E-04
        -0.15101E-03
        -0.15602E-03
        -0.49023E-03
        -0.14727E-02
        -0.24178E-02
        -0.24047E-02
        -0.91646E-05
        -0.40736E-06
        -0.13926E-05
        -0.11611E-04
        -0.47326E-04
        -0.34588E-04
        -0.33891E-05
        -0.13514E-04
        -0.30610E-05
        -0.12618E-04
        -0.33430E-06
        -0.73443E-05
        -0.76668E-04
        -0.42368E-04
        -0.47261E-04
        -0.35005E-04
        -0.11088E-04
        -0.35886E-05
        -0.17036E-05
        -0.51298E-05
        -0.18672E-03
        -0.16953E-03
        -0.16540E-03
        -0.96859E-05
        -0.32953E-05
        -0.14762E-05
        -0.41782E-04
        -0.49441E-06
        -0.53448E-05
        -0.87825E-05
        -0.20820E-04
        -0.84487E-05
        -0.77714E-05
        -0.63645E-05
        -0.15504E-03
        -0.46374E-04
        -0.61153E-04
        -0.60639E-04
        -0.19780E-05
        -0.14748E-04
        -0.18941E-03
        -0.20039E-03
        -0.18964E-03
        -0.98673E-04
        -0.58183E-04
        -0.19871E-04
        -0.23327E-04
        -0.32864E-04
        -0.48280E-06
        -0.78100E-06
        -0.85890E-04
        -0.65485E-04
        -0.26638E-02
        -0.27099E-02
        -0.21909E-02
        -0.14933E-02
        -0.82625E-03
        -0.17529E-03
        -0.11116E-04
        -0.11553E-03
        -0.19474E-03
        -0.66024E-03
        -0.20929E-02
        -0.29240E-02
        -0.20524E-02
        -0.18582E-02
        -0.22641E-02
        -0.24077E-02
        -0.20030E-02
        -0.17911E-02
        -0.46063E-03
        -0.31536E-04
        -0.15078E-03
        -0.15590E-03
        -0.48953E-03
        -0.14709E-02
        -0.24154E-02
        -0.24025E-02
        -0.91931E-05
        -0.41144E-06
        -0.13954E-05
        -0.11624E-04
        -0.47237E-04
        -0.34523E-04
        -0.34311E-05
        -0.13439E-04
        -0.30659E-05
        -0.12591E-04
        -0.31753E-06
        -0.73797E-05
        -0.76762E-04
        -0.42155E-04
        -0.47208E-04
        -0.35092E-04
        -0.11137E-04
        -0.35676E-05
        -0.17019E-05
        -0.51133E-05
        -0.18672E-03
        -0.16952E-03
        -0.16543E-03
        -0.96888E-05
        -0.33125E-05
        -0.14825E-05
        -0.41801E-04
        -0.47342E-06
        -0.54161E-05
        -0.87968E-05
        -0.20884E-04
        -0.84476E-05
        -0.76998E-05
        -0.63676E-05
        -0.15521E-03
        -0.46342E-04
        -0.61123E-04
        -0.60826E-04
        -0.20131E-05
        -0.14842E-04
        -0.18967E-03
        -0.20067E-03
        -0.18974E-03
        -0.98673E-04
        -0.58148E-04
        -0.19856E-04
        -0.23315E-04
        -0.32886E-04
        -0.47379E-06
        -0.77771E-06
        -0.85799E-04
        -0.65295E-04
        -0.26619E-02
        -0.27086E-02
        -0.21905E-02
        -0.14933E-02
        -0.82574E-03
        -0.17519E-03
        -0.11140E-04
        -0.11567E-03
        -0.19441E-03
        -0.65971E-03
        -0.20922E-02
        -0.29243E-02
        -0.20523E-02
        -0.18581E-02
        -0.22648E-02
        -0.24091E-02
        -0.20039E-02
        -0.17917E-02
        -0.46036E-03
        -0.31556E-04
        -0.15054E-03
        -0.15578E-03
        -0.48883E-03
        -0.14691E-02
        -0.24130E-02
        -0.24004E-02
        -0.92219E-05
        -0.41559E-06
        -0.13983E-05
        -0.11638E-04
        -0.47148E-04
        -0.34459E-04
        -0.34731E-05
        -0.13365E-04
        -0.30708E-05
        -0.12564E-04
        -0.30123E-06
        -0.74148E-05
        -0.76860E-04
        -0.41943E-04
        -0.47154E-04
        -0.35178E-04
        -0.11187E-04
        -0.35467E-05
        -0.17002E-05
        -0.50963E-05
        -0.18671E-03
        -0.16951E-03
        -0.16546E-03
        -0.96916E-05
        -0.33295E-05
        -0.14887E-05
        -0.41820E-04
        -0.45284E-06
        -0.54885E-05
        -0.88103E-05
        -0.20949E-04
        -0.84462E-05
        -0.76284E-05
        -0.63707E-05
        -0.15538E-03
        -0.46313E-04
        -0.61095E-04
        -0.61012E-04
        -0.20486E-05
        -0.14936E-04
        -0.18994E-03
        -0.20095E-03
        -0.18983E-03
        -0.98674E-04
        -0.58116E-04
        -0.19839E-04
        -0.23303E-04
        -0.32907E-04
        -0.46483E-06
        -0.77424E-06
        -0.85707E-04
        -0.65105E-04
        -0.26601E-02
        -0.27072E-02
        -0.21901E-02
        -0.14933E-02
        -0.82523E-03
        -0.17508E-03
        -0.11164E-04
        -0.11581E-03
        -0.19408E-03
        -0.65918E-03
        -0.20916E-02
        -0.29245E-02
        -0.20521E-02
        -0.18580E-02
        -0.22656E-02
        -0.24106E-02
        -0.20048E-02
        -0.17924E-02
        -0.46009E-03
        -0.31575E-04
        -0.15030E-03
        -0.15566E-03
        -0.48813E-03
        -0.14674E-02
        -0.24106E-02
        -0.23983E-02
        -0.92507E-05
        -0.41970E-06
        -0.14012E-05
        -0.11652E-04
        -0.47062E-04
        -0.34395E-04
        -0.35149E-05
        -0.13291E-04
        -0.30757E-05
        -0.12537E-04
        -0.28540E-06
        -0.74501E-05
        -0.76956E-04
        -0.41732E-04
        -0.47100E-04
        -0.35265E-04
        -0.11237E-04
        -0.35260E-05
        -0.16988E-05
        -0.50799E-05
        -0.18671E-03
        -0.16950E-03
        -0.16549E-03
        -0.96944E-05
        -0.33465E-05
        -0.14949E-05
        -0.41838E-04
        -0.43285E-06
        -0.55613E-05
        -0.88238E-05
        -0.21013E-04
        -0.84450E-05
        -0.75574E-05
        -0.63737E-05
        -0.15555E-03
        -0.46282E-04
        -0.61066E-04
        -0.61198E-04
        -0.20844E-05
        -0.15030E-04
        -0.19020E-03
        -0.20123E-03
        -0.18992E-03
        -0.98674E-04
        -0.58082E-04
        -0.19825E-04
        -0.23291E-04
        -0.32927E-04
        -0.45599E-06
        -0.77080E-06
        -0.85620E-04
        -0.64919E-04
        -0.26582E-02
        -0.27058E-02
        -0.21897E-02
        -0.14933E-02
        -0.82473E-03
        -0.17497E-03
        -0.11188E-04
        -0.11594E-03
        -0.19374E-03
        -0.65865E-03
        -0.20909E-02
        -0.29247E-02
        -0.20519E-02
        -0.18578E-02
        -0.22663E-02
        -0.24121E-02
        -0.20057E-02
        -0.17930E-02
        -0.45982E-03
        -0.31593E-04
        -0.15006E-03
        -0.15555E-03
        -0.48743E-03
        -0.14656E-02
        -0.24082E-02
        -0.23961E-02
        -0.92795E-05
        -0.42379E-06
        -0.14041E-05
        -0.11666E-04
        -0.46973E-04
        -0.34331E-04
        -0.35574E-05
        -0.13217E-04
        -0.30806E-05
        -0.12510E-04
        -0.26999E-06
        -0.74863E-05
        -0.77051E-04
        -0.41522E-04
        -0.47046E-04
        -0.35351E-04
        -0.11287E-04
        -0.35054E-05
        -0.16971E-05
        -0.50628E-05
        -0.18670E-03
        -0.16949E-03
        -0.16552E-03
        -0.96972E-05
        -0.33635E-05
        -0.15011E-05
        -0.41857E-04
        -0.41331E-06
        -0.56345E-05
        -0.88372E-05
        -0.21077E-04
        -0.84435E-05
        -0.74866E-05
        -0.63767E-05
        -0.15572E-03
        -0.46253E-04
        -0.61037E-04
        -0.61383E-04
        -0.21205E-05
        -0.15124E-04
        -0.19046E-03
        -0.20151E-03
        -0.19001E-03
        -0.98673E-04
        -0.58047E-04
        -0.19810E-04
        -0.23278E-04
        -0.32948E-04
        -0.44709E-06
        -0.76745E-06
        -0.85529E-04
        -0.64729E-04
        -0.26564E-02
        -0.27045E-02
        -0.21893E-02
        -0.14933E-02
        -0.82422E-03
        -0.17486E-03
        -0.11211E-04
        -0.11608E-03
        -0.19342E-03
        -0.65813E-03
        -0.20902E-02
        -0.29250E-02
        -0.20518E-02
        -0.18577E-02
        -0.22670E-02
        -0.24136E-02
        -0.20066E-02
        -0.17936E-02
        -0.45956E-03
        -0.31611E-04
        -0.14983E-03
        -0.15543E-03
        -0.48674E-03
        -0.14638E-02
        -0.24058E-02
        -0.23940E-02
        -0.93083E-05
        -0.42802E-06
        -0.14070E-05
        -0.11679E-04
        -0.46884E-04
        -0.34269E-04
        -0.35999E-05
        -0.13143E-04
        -0.30855E-05
        -0.12483E-04
        -0.25500E-06
        -0.75218E-05
        -0.77148E-04
        -0.41312E-04
        -0.46991E-04
        -0.35438E-04
        -0.11337E-04
        -0.34850E-05
        -0.16954E-05
        -0.50464E-05
        -0.18669E-03
        -0.16948E-03
        -0.16555E-03
        -0.97001E-05
        -0.33802E-05
        -0.15073E-05
        -0.41876E-04
        -0.39423E-06
        -0.57080E-05
        -0.88505E-05
        -0.21142E-04
        -0.84423E-05
        -0.74164E-05
        -0.63798E-05
        -0.15589E-03
        -0.46222E-04
        -0.61009E-04
        -0.61568E-04
        -0.21571E-05
        -0.15218E-04
        -0.19072E-03
        -0.20179E-03
        -0.19010E-03
        -0.98669E-04
        -0.58015E-04
        -0.19794E-04
        -0.23266E-04
        -0.32969E-04
        -0.43837E-06
        -0.76399E-06
        -0.85441E-04
        -0.64540E-04
        -0.26545E-02
        -0.27031E-02
        -0.21888E-02
        -0.14933E-02
        -0.82370E-03
        -0.17475E-03
        -0.11234E-04
        -0.11621E-03
        -0.19309E-03
        -0.65760E-03
        -0.20895E-02
        -0.29252E-02
        -0.20516E-02
        -0.18576E-02
        -0.22677E-02
        -0.24151E-02
        -0.20075E-02
        -0.17942E-02
        -0.45929E-03
        -0.31630E-04
        -0.14959E-03
        -0.15531E-03
        -0.48604E-03
        -0.14620E-02
        -0.24035E-02
        -0.23918E-02
        -0.93372E-05
        -0.43219E-06
        -0.14099E-05
        -0.11693E-04
        -0.46798E-04
        -0.34205E-04
        -0.36427E-05
        -0.13069E-04
        -0.30902E-05
        -0.12455E-04
        -0.24046E-06
        -0.75578E-05
        -0.77244E-04
        -0.41103E-04
        -0.46935E-04
        -0.35526E-04
        -0.11387E-04
        -0.34647E-05
        -0.16938E-05
        -0.50294E-05
        -0.18669E-03
        -0.16946E-03
        -0.16558E-03
        -0.97034E-05
        -0.33967E-05
        -0.15135E-05
        -0.41892E-04
        -0.37544E-06
        -0.57813E-05
        -0.88638E-05
        -0.21207E-04
        -0.84413E-05
        -0.73466E-05
        -0.63832E-05
        -0.15606E-03
        -0.46191E-04
        -0.60979E-04
        -0.61751E-04
        -0.21945E-05
        -0.15314E-04
        -0.19097E-03
        -0.20206E-03
        -0.19019E-03
        -0.98671E-04
        -0.57980E-04
        -0.19780E-04
        -0.23254E-04
        -0.32991E-04
        -0.42977E-06
        -0.76054E-06
        -0.85350E-04
        -0.64354E-04
        -0.26527E-02
        -0.27017E-02
        -0.21884E-02
        -0.14933E-02
        -0.82319E-03
        -0.17465E-03
        -0.11257E-04
        -0.11634E-03
        -0.19276E-03
        -0.65707E-03
        -0.20888E-02
        -0.29255E-02
        -0.20515E-02
        -0.18575E-02
        -0.22685E-02
        -0.24165E-02
        -0.20085E-02
        -0.17948E-02
        -0.45902E-03
        -0.31648E-04
        -0.14935E-03
        -0.15519E-03
        -0.48534E-03
        -0.14602E-02
        -0.24011E-02
        -0.23897E-02
        -0.93662E-05
        -0.43638E-06
        -0.14128E-05
        -0.11706E-04
        -0.46711E-04
        -0.34141E-04
        -0.36856E-05
        -0.12996E-04
        -0.30944E-05
        -0.12424E-04
        -0.22636E-06
        -0.75938E-05
        -0.77340E-04
        -0.40893E-04
        -0.46879E-04
        -0.35613E-04
        -0.11436E-04
        -0.34443E-05
        -0.16927E-05
        -0.50133E-05
        -0.18668E-03
        -0.16945E-03
        -0.16561E-03
        -0.97060E-05
        -0.34121E-05
        -0.15200E-05
        -0.41902E-04
        -0.35665E-06
        -0.58556E-05
        -0.88781E-05
        -0.21272E-04
        -0.84397E-05
        -0.72767E-05
        -0.63863E-05
        -0.15623E-03
        -0.46163E-04
        -0.60951E-04
        -0.61931E-04
        -0.22332E-05
        -0.15408E-04
        -0.19121E-03
        -0.20231E-03
        -0.19026E-03
        -0.98671E-04
        -0.57946E-04
        -0.19764E-04
        -0.23242E-04
        -0.33012E-04
        -0.42128E-06
        -0.75713E-06
        -0.85264E-04
        -0.64165E-04
        -0.26509E-02
        -0.27004E-02
        -0.21880E-02
        -0.14933E-02
        -0.82268E-03
        -0.17454E-03
        -0.11280E-04
        -0.11648E-03
        -0.19244E-03
        -0.65653E-03
        -0.20881E-02
        -0.29260E-02
        -0.20514E-02
        -0.18573E-02
        -0.22692E-02
        -0.24180E-02
        -0.20094E-02
        -0.17954E-02
        -0.45875E-03
        -0.31667E-04
        -0.14912E-03
        -0.15507E-03
        -0.48465E-03
        -0.14584E-02
        -0.23987E-02
        -0.23876E-02
        -0.93952E-05
        -0.44057E-06
        -0.14156E-05
        -0.11720E-04
        -0.46622E-04
        -0.34077E-04
        -0.37288E-05
        -0.12922E-04
        -0.30983E-05
        -0.12390E-04
        -0.21272E-06
        -0.76297E-05
        -0.77437E-04
        -0.40682E-04
        -0.46820E-04
        -0.35699E-04
        -0.11486E-04
        -0.34240E-05
        -0.16911E-05
        -0.49967E-05
        -0.18668E-03
        -0.16943E-03
        -0.16564E-03
        -0.97091E-05
        -0.34263E-05
        -0.15261E-05
        -0.41905E-04
        -0.33780E-06
        -0.59303E-05
        -0.88917E-05
        -0.21337E-04
        -0.84384E-05
        -0.72071E-05
        -0.63894E-05
        -0.15641E-03
        -0.46132E-04
        -0.60923E-04
        -0.62108E-04
        -0.22733E-05
        -0.15503E-04
        -0.19143E-03
        -0.20254E-03
        -0.19033E-03
        -0.98671E-04
        -0.57913E-04
        -0.19749E-04
        -0.23230E-04
        -0.33033E-04
        -0.41278E-06
        -0.75377E-06
        -0.85172E-04
        -0.63976E-04
        -0.26490E-02
        -0.26990E-02
        -0.21875E-02
        -0.14933E-02
        -0.82217E-03
        -0.17443E-03
        -0.11303E-04
        -0.11661E-03
        -0.19212E-03
        -0.65597E-03
        -0.20874E-02
        -0.29266E-02
        -0.20514E-02
        -0.18572E-02
        -0.22699E-02
        -0.24194E-02
        -0.20103E-02
        -0.17960E-02
        -0.45848E-03
        -0.31685E-04
        -0.14888E-03
        -0.15495E-03
        -0.48396E-03
        -0.14567E-02
        -0.23963E-02
        -0.23854E-02
        -0.94242E-05
        -0.44480E-06
        -0.14185E-05
        -0.11733E-04
        -0.46537E-04
        -0.34016E-04
        -0.37718E-05
        -0.12850E-04
        -0.31018E-05
        -0.12356E-04
        -0.19960E-06
        -0.76652E-05
        -0.77531E-04
        -0.40472E-04
        -0.46762E-04
        -0.35786E-04
        -0.11535E-04
        -0.34039E-05
        -0.16895E-05
        -0.49806E-05
        -0.18667E-03
        -0.16942E-03
        -0.16566E-03
        -0.97121E-05
        -0.34401E-05
        -0.15323E-05
        -0.41907E-04
        -0.31939E-06
        -0.60048E-05
        -0.89052E-05
        -0.21402E-04
        -0.84370E-05
        -0.71385E-05
        -0.63928E-05
        -0.15658E-03
        -0.46104E-04
        -0.60894E-04
        -0.62282E-04
        -0.23142E-05
        -0.15596E-04
        -0.19163E-03
        -0.20276E-03
        -0.19039E-03
        -0.98671E-04
        -0.57878E-04
        -0.19735E-04
        -0.23219E-04
        -0.33056E-04
        -0.40445E-06
        -0.75026E-06
        -0.85086E-04
        -0.63791E-04
        -0.26472E-02
        -0.26976E-02
        -0.21871E-02
        -0.14933E-02
        -0.82167E-03
        -0.17432E-03
        -0.11325E-04
        -0.11674E-03
        -0.19181E-03
        -0.65540E-03
        -0.20867E-02
        -0.29272E-02
        -0.20515E-02
        -0.18571E-02
        -0.22706E-02
        -0.24209E-02
        -0.20112E-02
        -0.17966E-02
        -0.45821E-03
        -0.31705E-04
        -0.14865E-03
        -0.15483E-03
        -0.48327E-03
        -0.14549E-02
        -0.23940E-02
        -0.23833E-02
        -0.95333E-05
        -0.45203E-06
        -0.14339E-05
        -0.11845E-04
        -0.46838E-04
        -0.34241E-04
        -0.38430E-05
        -0.12897E-04
        -0.31312E-05
        -0.12435E-04
        -0.19018E-06
        -0.77583E-05
        -0.78269E-04
        -0.40638E-04
        -0.47128E-04
        -0.36168E-04
        -0.11681E-04
        -0.34139E-05
        -0.17015E-05
        -0.50048E-05
        -0.18818E-03
        -0.17081E-03
        -0.16702E-03
        -0.97960E-05
        -0.34824E-05
        -0.15508E-05
        -0.42288E-04
        -0.30532E-06
        -0.61268E-05
        -0.89943E-05
        -0.21645E-04
        -0.85058E-05
        -0.71359E-05
        -0.64512E-05
        -0.15807E-03
        -0.46465E-04
        -0.61375E-04
        -0.63005E-04
        -0.23725E-05
        -0.15818E-04
        -0.19351E-03
        -0.20474E-03
        -0.19208E-03
        -0.99461E-04
        -0.58319E-04
        -0.19880E-04
        -0.23405E-04
        -0.33362E-04
        -0.40049E-06
        -0.75307E-06
        -0.85722E-04
        -0.64152E-04
        -0.26697E-02
        -0.27206E-02
        -0.22067E-02
        -0.15068E-02
        -0.82870E-03
        -0.17581E-03
        -0.11463E-04
        -0.11795E-03
        -0.19334E-03
        -0.66121E-03
        -0.21061E-02
        -0.29548E-02
        -0.20693E-02
        -0.18727E-02
        -0.22902E-02
        -0.24423E-02
        -0.20287E-02
        -0.18128E-02
        -0.46214E-03
        -0.32030E-04
        -0.14978E-03
        -0.15605E-03
        -0.48690E-03
        -0.14661E-02
        -0.24126E-02
        -0.24019E-02
        -0.21344E-04
        -0.10261E-05
        -0.31985E-05
        -0.26591E-04
        -0.97198E-04
        -0.72376E-04
        -0.86810E-05
        -0.28523E-04
        -0.69647E-05
        -0.27408E-04
        -0.40146E-06
        -0.15587E-04
        -0.16178E-03
        -0.87336E-04
        -0.95610E-04
        -0.81079E-04
        -0.26064E-04
        -0.76312E-05
        -0.37113E-05
        -0.10970E-04
        -0.38804E-03
        -0.36141E-03
        -0.34619E-03
        -0.21702E-04
        -0.78324E-05
        -0.34966E-05
        -0.92503E-04
        -0.66297E-06
        -0.13955E-04
        -0.20182E-04
        -0.48571E-04
        -0.18975E-04
        -0.15945E-04
        -0.14491E-04
        -0.31652E-03
        -0.98176E-04
        -0.12981E-03
        -0.13386E-03
        -0.52168E-05
        -0.34834E-04
        -0.41375E-03
        -0.44398E-03
        -0.41563E-03
        -0.20909E-03
        -0.12182E-03
        -0.39232E-04
        -0.48574E-04
        -0.71074E-04
        -0.84987E-06
        -0.16008E-05
        -0.17389E-03
        -0.13481E-03
        -0.42318E-02
        -0.42960E-02
        -0.34895E-02
        -0.23953E-02
        -0.13158E-02
        -0.28068E-03
        -0.18783E-04
        -0.19604E-03
        -0.31973E-03
        -0.10817E-02
        -0.34532E-02
        -0.48226E-02
        -0.34455E-02
        -0.31348E-02
        -0.37368E-02
        -0.38961E-02
        -0.32170E-02
        -0.28470E-02
        -0.72532E-03
        -0.50483E-04
        -0.24026E-03
        -0.25240E-03
        -0.78222E-03
        -0.23716E-02
        -0.38782E-02
        -0.38331E-02
  
SCALARS                      strain_yy  double 1
LOOKUP_TABLE default
        -0.12505E-05
        -0.17444E-06
        -0.10242E-05
        -0.19473E-06
        -0.19816E-19
        -0.15054E-20
        -0.30435E-19
        -0.17706E-19
        -0.16600E-04
        -0.67048E-05
        -0.67405E-19
        -0.52243E-19
        -0.16269E-04
        -0.42392E-07
        -0.34523E-19
        -0.14191E-21
        -0.99624E-06
        -0.26615E-04
        -0.74726E-23
        -0.78233E-21
        -0.82771E-05
        -0.12857E-03
        -0.11895E-03
        -0.18141E-18
        -0.54105E-18
        -0.37801E-18
        -0.12458E-05
        -0.14764E-03
        -0.93865E-19
        -0.35327E-18
        -0.13249E-05
        -0.14230E-05
        -0.41265E-06
        -0.25227E-19
        -0.26289E-19
        -0.11331E-22
        -0.14539E-04
        -0.18921E-04
        -0.85425E-19
        -0.51711E-19
        -0.16340E-04
        -0.83286E-05
        -0.48790E-19
        -0.40747E-19
        -0.10277E-04
        -0.10486E-05
        -0.53689E-22
        -0.12845E-19
        -0.16823E-04
        -0.28475E-20
        -0.76288E-07
        -0.18679E-22
        -0.68789E-07
        -0.42605E-19
        -0.31326E-05
        -0.14418E-19
        -0.33283E-04
        -0.91245E-06
        -0.10611E-22
        -0.43712E-22
        -0.19655E-05
        -0.30350E-04
        -0.19698E-20
        -0.27560E-19
        -0.64285E-06
        -0.80259E-20
        -0.14408E-04
        -0.11911E-19
        -0.13609E-04
        -0.39429E-05
        -0.18191E-21
        -0.31713E-19
        -0.51280E-04
        -0.15292E-18
        -0.24637E-03
        -0.14336E-18
        -0.25504E-03
        -0.82609E-19
        -0.17153E-03
        -0.58036E-19
        -0.35102E-03
        -0.19608E-03
        -0.23883E-19
        -0.11740E-20
        -0.33726E-05
        -0.14699E-22
        -0.25257E-04
        -0.57684E-19
        -0.16470E-03
        -0.17678E-18
        -0.35734E-03
        -0.14565E-03
        -0.38890E-18
        -0.25478E-18
        -0.67500E-04
        -0.15353E-18
        -0.51616E-04
        -0.16069E-18
        -0.51145E-04
        -0.18577E-18
        -0.14335E-03
        -0.94774E-04
        -0.16066E-18
        -0.36884E-19
        -0.78908E-04
        -0.10226E-04
        -0.19863E-19
        -0.30673E-19
        -0.48289E-03
        -0.21983E-18
        -0.88233E-03
        -0.47035E-18
        -0.14777E-02
        -0.71740E-18
        -0.24643E-02
        -0.70586E-18
        -0.39354E-02
        -0.44205E-18
        -0.44169E-02
        -0.26474E-18
        -0.39433E-02
        -0.22902E-18
        -0.31168E-02
        -0.20731E-18
        -0.15354E-02
        -0.84669E-19
        -0.58216E-03
        -0.92292E-20
        -0.11015E-03
        -0.38535E-20
        -0.45213E-06
        -0.87059E-20
        -0.57593E-04
        -0.23224E-20
        -0.13603E-03
        -0.21240E-19
        -0.32844E-03
        -0.16922E-18
        -0.77712E-03
        -0.41263E-18
        -0.12087E-02
        -0.70917E-18
        -0.21034E-02
        -0.70794E-18
        -0.20030E-02
        -0.53950E-18
        -0.16027E-02
        -0.51243E-18
        -0.11915E-02
        -0.51883E-18
        -0.55260E-03
        -0.32443E-18
        -0.25435E-03
        -0.11345E-18
        -0.11582E-03
        -0.67826E-19
        -0.23516E-04
        -0.63403E-05
        -0.48270E-05
        -0.46066E-06
        -0.51020E-05
        -0.57255E-05
        -0.64197E-07
        -0.15102E-04
        -0.10986E-04
        -0.23835E-04
        -0.65776E-05
        -0.11988E-03
        -0.55808E-04
        -0.75032E-06
        -0.12222E-03
        -0.16448E-05
        -0.12937E-05
        -0.53316E-06
        -0.92188E-06
        -0.52555E-06
        -0.44466E-06
        -0.30172E-06
        -0.34186E-05
        -0.24256E-07
        -0.11107E-04
        -0.24281E-06
        -0.65485E-09
        -0.20008E-06
        -0.29568E-06
        -0.68496E-05
        -0.15687E-05
        -0.18628E-05
        -0.82967E-06
        -0.49523E-07
        -0.13690E-06
        -0.40086E-05
        -0.20121E-04
        -0.94248E-04
        -0.78698E-04
        -0.56342E-04
        -0.50042E-04
        -0.30739E-05
        -0.20438E-05
        -0.15391E-04
        -0.42164E-04
        -0.11301E-03
        -0.48468E-04
        -0.24788E-04
        -0.28229E-04
        -0.32000E-04
        -0.44186E-04
        -0.91829E-05
        -0.33010E-04
        -0.47678E-04
        -0.34993E-03
        -0.66794E-03
        -0.10862E-02
        -0.15338E-02
        -0.15506E-02
        -0.12697E-02
        -0.11493E-02
        -0.10270E-02
        -0.42848E-03
        -0.82531E-04
        -0.15944E-04
        -0.30959E-05
        -0.72570E-05
        -0.11336E-03
        -0.38304E-03
        -0.65350E-03
        -0.95922E-03
        -0.12613E-02
        -0.11178E-02
        -0.99851E-03
        -0.86444E-03
        -0.41829E-03
        -0.14260E-03
        -0.10989E-03
        -0.76795E-04
        -0.30549E-04
        -0.26159E-04
        -0.14717E-05
        -0.44129E-04
        -0.89264E-05
        -0.56129E-05
        -0.68598E-04
        -0.29500E-04
        -0.60682E-04
        -0.16962E-04
        -0.31771E-03
        -0.11151E-03
        -0.23027E-05
        -0.30840E-03
        -0.11045E-04
        -0.10143E-05
        -0.92451E-06
        -0.18782E-04
        -0.70205E-06
        -0.13954E-04
        -0.70339E-05
        -0.23641E-05
        -0.16842E-05
        -0.27517E-04
        -0.16835E-05
        -0.10601E-06
        -0.36633E-06
        -0.93470E-06
        -0.27381E-04
        -0.12828E-04
        -0.89011E-06
        -0.53592E-05
        -0.40404E-05
        -0.91860E-06
        -0.85356E-05
        -0.31116E-04
        -0.17813E-03
        -0.13852E-03
        -0.10758E-03
        -0.58063E-04
        -0.35452E-05
        -0.15041E-04
        -0.23468E-04
        -0.38913E-04
        -0.16238E-03
        -0.54979E-04
        -0.24043E-04
        -0.37978E-04
        -0.52928E-04
        -0.56825E-04
        -0.31990E-06
        -0.88330E-04
        -0.18074E-03
        -0.97878E-03
        -0.16347E-02
        -0.27231E-02
        -0.39213E-02
        -0.37622E-02
        -0.28690E-02
        -0.26349E-02
        -0.25794E-02
        -0.10171E-02
        -0.11049E-03
        -0.17542E-04
        -0.12880E-04
        -0.27628E-05
        -0.19882E-03
        -0.79797E-03
        -0.15457E-02
        -0.26181E-02
        -0.32191E-02
        -0.24823E-02
        -0.22187E-02
        -0.22054E-02
        -0.10934E-02
        -0.29506E-03
        -0.26454E-03
        -0.76891E-04
        -0.30560E-04
        -0.26185E-04
        -0.14934E-05
        -0.44139E-04
        -0.89403E-05
        -0.56270E-05
        -0.68830E-04
        -0.29606E-04
        -0.61136E-04
        -0.16982E-04
        -0.31766E-03
        -0.11156E-03
        -0.23028E-05
        -0.30919E-03
        -0.11046E-04
        -0.10328E-05
        -0.92174E-06
        -0.18807E-04
        -0.69424E-06
        -0.14023E-04
        -0.70473E-05
        -0.23652E-05
        -0.16826E-05
        -0.27767E-04
        -0.16774E-05
        -0.10852E-06
        -0.37044E-06
        -0.92241E-06
        -0.27497E-04
        -0.12832E-04
        -0.88622E-06
        -0.53829E-05
        -0.40536E-05
        -0.90143E-06
        -0.85468E-05
        -0.31113E-04
        -0.17868E-03
        -0.13912E-03
        -0.10783E-03
        -0.58153E-04
        -0.35262E-05
        -0.15072E-04
        -0.23492E-04
        -0.38916E-04
        -0.16238E-03
        -0.54991E-04
        -0.24014E-04
        -0.37876E-04
        -0.52786E-04
        -0.56776E-04
        -0.31029E-06
        -0.88165E-04
        -0.18076E-03
        -0.97915E-03
        -0.16347E-02
        -0.27224E-02
        -0.39186E-02
        -0.37590E-02
        -0.28673E-02
        -0.26338E-02
        -0.25780E-02
        -0.10167E-02
        -0.11059E-03
        -0.17539E-04
        -0.12933E-04
        -0.27180E-05
        -0.19903E-03
        -0.79869E-03
        -0.15464E-02
        -0.26180E-02
        -0.32187E-02
        -0.24819E-02
        -0.22185E-02
        -0.22043E-02
        -0.10918E-02
        -0.29441E-03
        -0.26384E-03
        -0.76988E-04
        -0.30572E-04
        -0.26212E-04
        -0.15155E-05
        -0.44149E-04
        -0.89551E-05
        -0.56411E-05
        -0.69063E-04
        -0.29713E-04
        -0.61589E-04
        -0.17002E-04
        -0.31760E-03
        -0.11162E-03
        -0.23024E-05
        -0.30998E-03
        -0.11047E-04
        -0.10517E-05
        -0.91895E-06
        -0.18834E-04
        -0.68634E-06
        -0.14093E-04
        -0.70605E-05
        -0.23670E-05
        -0.16805E-05
        -0.28015E-04
        -0.16704E-05
        -0.11124E-06
        -0.37483E-06
        -0.90909E-06
        -0.27610E-04
        -0.12836E-04
        -0.88153E-06
        -0.54069E-05
        -0.40666E-05
        -0.88432E-06
        -0.85585E-05
        -0.31109E-04
        -0.17923E-03
        -0.13972E-03
        -0.10808E-03
        -0.58247E-04
        -0.35052E-05
        -0.15101E-04
        -0.23523E-04
        -0.38925E-04
        -0.16239E-03
        -0.55001E-04
        -0.23984E-04
        -0.37776E-04
        -0.52644E-04
        -0.56729E-04
        -0.30086E-06
        -0.88001E-04
        -0.18078E-03
        -0.97952E-03
        -0.16347E-02
        -0.27218E-02
        -0.39160E-02
        -0.37559E-02
        -0.28656E-02
        -0.26327E-02
        -0.25766E-02
        -0.10163E-02
        -0.11070E-03
        -0.17537E-04
        -0.12986E-04
        -0.26733E-05
        -0.19925E-03
        -0.79944E-03
        -0.15471E-02
        -0.26179E-02
        -0.32183E-02
        -0.24816E-02
        -0.22183E-02
        -0.22032E-02
        -0.10902E-02
        -0.29376E-03
        -0.26314E-03
        -0.77084E-04
        -0.30583E-04
        -0.26238E-04
        -0.15378E-05
        -0.44159E-04
        -0.89695E-05
        -0.56560E-05
        -0.69293E-04
        -0.29821E-04
        -0.62039E-04
        -0.17023E-04
        -0.31755E-03
        -0.11168E-03
        -0.23025E-05
        -0.31077E-03
        -0.11049E-04
        -0.10712E-05
        -0.91609E-06
        -0.18861E-04
        -0.67802E-06
        -0.14164E-04
        -0.70725E-05
        -0.23711E-05
        -0.16772E-05
        -0.28256E-04
        -0.16613E-05
        -0.11408E-06
        -0.38069E-06
        -0.89270E-06
        -0.27711E-04
        -0.12838E-04
        -0.87520E-06
        -0.54306E-05
        -0.40798E-05
        -0.86746E-06
        -0.85696E-05
        -0.31105E-04
        -0.17979E-03
        -0.14034E-03
        -0.10835E-03
        -0.58355E-04
        -0.34786E-05
        -0.15125E-04
        -0.23569E-04
        -0.38948E-04
        -0.16241E-03
        -0.55020E-04
        -0.23955E-04
        -0.37676E-04
        -0.52502E-04
        -0.56678E-04
        -0.29160E-06
        -0.87836E-04
        -0.18080E-03
        -0.97988E-03
        -0.16347E-02
        -0.27211E-02
        -0.39133E-02
        -0.37527E-02
        -0.28639E-02
        -0.26316E-02
        -0.25751E-02
        -0.10159E-02
        -0.11083E-03
        -0.17538E-04
        -0.13038E-04
        -0.26286E-05
        -0.19949E-03
        -0.80031E-03
        -0.15480E-02
        -0.26178E-02
        -0.32179E-02
        -0.24812E-02
        -0.22181E-02
        -0.22021E-02
        -0.10887E-02
        -0.29312E-03
        -0.26245E-03
        -0.77179E-04
        -0.30594E-04
        -0.26265E-04
        -0.15602E-05
        -0.44170E-04
        -0.89838E-05
        -0.56699E-05
        -0.69523E-04
        -0.29928E-04
        -0.62484E-04
        -0.17043E-04
        -0.31750E-03
        -0.11174E-03
        -0.23027E-05
        -0.31156E-03
        -0.11051E-04
        -0.10910E-05
        -0.91322E-06
        -0.18890E-04
        -0.66929E-06
        -0.14237E-04
        -0.70830E-05
        -0.23773E-05
        -0.16725E-05
        -0.28489E-04
        -0.16498E-05
        -0.11729E-06
        -0.38792E-06
        -0.87322E-06
        -0.27802E-04
        -0.12838E-04
        -0.86696E-06
        -0.54544E-05
        -0.40931E-05
        -0.85063E-06
        -0.85809E-05
        -0.31102E-04
        -0.18035E-03
        -0.14096E-03
        -0.10864E-03
        -0.58479E-04
        -0.34461E-05
        -0.15143E-04
        -0.23632E-04
        -0.38987E-04
        -0.16245E-03
        -0.55044E-04
        -0.23929E-04
        -0.37577E-04
        -0.52359E-04
        -0.56631E-04
        -0.28242E-06
        -0.87671E-04
        -0.18082E-03
        -0.98024E-03
        -0.16348E-02
        -0.27204E-02
        -0.39107E-02
        -0.37495E-02
        -0.28621E-02
        -0.26305E-02
        -0.25737E-02
        -0.10156E-02
        -0.11099E-03
        -0.17541E-04
        -0.13090E-04
        -0.25842E-05
        -0.19974E-03
        -0.80129E-03
        -0.15489E-02
        -0.26178E-02
        -0.32175E-02
        -0.24809E-02
        -0.22179E-02
        -0.22009E-02
        -0.10871E-02
        -0.29248E-03
        -0.26176E-03
        -0.77270E-04
        -0.30601E-04
        -0.26290E-04
        -0.15830E-05
        -0.44180E-04
        -0.89980E-05
        -0.56824E-05
        -0.69742E-04
        -0.30036E-04
        -0.62919E-04
        -0.17066E-04
        -0.31745E-03
        -0.11180E-03
        -0.23035E-05
        -0.31235E-03
        -0.11054E-04
        -0.11115E-05
        -0.91042E-06
        -0.18919E-04
        -0.66045E-06
        -0.14310E-04
        -0.70931E-05
        -0.23846E-05
        -0.16674E-05
        -0.28717E-04
        -0.16377E-05
        -0.12079E-06
        -0.39599E-06
        -0.85260E-06
        -0.27889E-04
        -0.12837E-04
        -0.85783E-06
        -0.54788E-05
        -0.41070E-05
        -0.83387E-06
        -0.85933E-05
        -0.31101E-04
        -0.18091E-03
        -0.14160E-03
        -0.10894E-03
        -0.58607E-04
        -0.34119E-05
        -0.15159E-04
        -0.23700E-04
        -0.39035E-04
        -0.16250E-03
        -0.55073E-04
        -0.23908E-04
        -0.37483E-04
        -0.52221E-04
        -0.56583E-04
        -0.27340E-06
        -0.87506E-04
        -0.18084E-03
        -0.98060E-03
        -0.16348E-02
        -0.27198E-02
        -0.39080E-02
        -0.37464E-02
        -0.28604E-02
        -0.26294E-02
        -0.25723E-02
        -0.10153E-02
        -0.11115E-03
        -0.17546E-04
        -0.13141E-04
        -0.25403E-05
        -0.20000E-03
        -0.80231E-03
        -0.15499E-02
        -0.26177E-02
        -0.32171E-02
        -0.24806E-02
        -0.22178E-02
        -0.21998E-02
        -0.10856E-02
        -0.29183E-03
        -0.26107E-03
        -0.77353E-04
        -0.30599E-04
        -0.26316E-04
        -0.16065E-05
        -0.44191E-04
        -0.90128E-05
        -0.56922E-05
        -0.69943E-04
        -0.30147E-04
        -0.63336E-04
        -0.17094E-04
        -0.31742E-03
        -0.11187E-03
        -0.23071E-05
        -0.31315E-03
        -0.11058E-04
        -0.11327E-05
        -0.90760E-06
        -0.18948E-04
        -0.65166E-06
        -0.14384E-04
        -0.71036E-05
        -0.23918E-05
        -0.16623E-05
        -0.28941E-04
        -0.16255E-05
        -0.12498E-06
        -0.40466E-06
        -0.83187E-06
        -0.27973E-04
        -0.12835E-04
        -0.84812E-06
        -0.55040E-05
        -0.41215E-05
        -0.81722E-06
        -0.86064E-05
        -0.31103E-04
        -0.18148E-03
        -0.14224E-03
        -0.10923E-03
        -0.58739E-04
        -0.33770E-05
        -0.15174E-04
        -0.23769E-04
        -0.39086E-04
        -0.16257E-03
        -0.55118E-04
        -0.23900E-04
        -0.37405E-04
        -0.52088E-04
        -0.56535E-04
        -0.26442E-06
        -0.87341E-04
        -0.18086E-03
        -0.98094E-03
        -0.16348E-02
        -0.27191E-02
        -0.39053E-02
        -0.37432E-02
        -0.28587E-02
        -0.26283E-02
        -0.25708E-02
        -0.10149E-02
        -0.11132E-03
        -0.17551E-04
        -0.13193E-04
        -0.24966E-05
        -0.20026E-03
        -0.80334E-03
        -0.15508E-02
        -0.26175E-02
        -0.32167E-02
        -0.24803E-02
        -0.22177E-02
        -0.21987E-02
        -0.10840E-02
        -0.29119E-03
        -0.26038E-03
        -0.77433E-04
        -0.30596E-04
        -0.26342E-04
        -0.16306E-05
        -0.44203E-04
        -0.90273E-05
        -0.56998E-05
        -0.70132E-04
        -0.30259E-04
        -0.63745E-04
        -0.17125E-04
        -0.31738E-03
        -0.11194E-03
        -0.23112E-05
        -0.31396E-03
        -0.11062E-04
        -0.11544E-05
        -0.90473E-06
        -0.18978E-04
        -0.64293E-06
        -0.14458E-04
        -0.71142E-05
        -0.23989E-05
        -0.16575E-05
        -0.29163E-04
        -0.16134E-05
        -0.12941E-06
        -0.41365E-06
        -0.81131E-06
        -0.28057E-04
        -0.12832E-04
        -0.83804E-06
        -0.55296E-05
        -0.41367E-05
        -0.80060E-06
        -0.86207E-05
        -0.31108E-04
        -0.18207E-03
        -0.14288E-03
        -0.10953E-03
        -0.58871E-04
        -0.33424E-05
        -0.15189E-04
        -0.23839E-04
        -0.39139E-04
        -0.16264E-03
        -0.55169E-04
        -0.23896E-04
        -0.37334E-04
        -0.51957E-04
        -0.56489E-04
        -0.25559E-06
        -0.87176E-04
        -0.18088E-03
        -0.98129E-03
        -0.16348E-02
        -0.27184E-02
        -0.39027E-02
        -0.37400E-02
        -0.28569E-02
        -0.26272E-02
        -0.25693E-02
        -0.10146E-02
        -0.11148E-03
        -0.17556E-04
        -0.13246E-04
        -0.24532E-05
        -0.20052E-03
        -0.80435E-03
        -0.15518E-02
        -0.26174E-02
        -0.32163E-02
        -0.24801E-02
        -0.22176E-02
        -0.21975E-02
        -0.10825E-02
        -0.29055E-03
        -0.25969E-03
        -0.77512E-04
        -0.30592E-04
        -0.26367E-04
        -0.16548E-05
        -0.44214E-04
        -0.90416E-05
        -0.57076E-05
        -0.70322E-04
        -0.30372E-04
        -0.64154E-04
        -0.17154E-04
        -0.31735E-03
        -0.11202E-03
        -0.23160E-05
        -0.31477E-03
        -0.11066E-04
        -0.11764E-05
        -0.90183E-06
        -0.19007E-04
        -0.63419E-06
        -0.14532E-04
        -0.71249E-05
        -0.24061E-05
        -0.16526E-05
        -0.29386E-04
        -0.16014E-05
        -0.13403E-06
        -0.42265E-06
        -0.79106E-06
        -0.28141E-04
        -0.12829E-04
        -0.82814E-06
        -0.55553E-05
        -0.41517E-05
        -0.78406E-06
        -0.86338E-05
        -0.31111E-04
        -0.18265E-03
        -0.14354E-03
        -0.10983E-03
        -0.59004E-04
        -0.33081E-05
        -0.15203E-04
        -0.23909E-04
        -0.39194E-04
        -0.16271E-03
        -0.55217E-04
        -0.23893E-04
        -0.37263E-04
        -0.51828E-04
        -0.56445E-04
        -0.24687E-06
        -0.87012E-04
        -0.18090E-03
        -0.98163E-03
        -0.16349E-02
        -0.27178E-02
        -0.39000E-02
        -0.37367E-02
        -0.28552E-02
        -0.26262E-02
        -0.25679E-02
        -0.10143E-02
        -0.11164E-03
        -0.17562E-04
        -0.13300E-04
        -0.24104E-05
        -0.20078E-03
        -0.80537E-03
        -0.15527E-02
        -0.26172E-02
        -0.32159E-02
        -0.24798E-02
        -0.22175E-02
        -0.21964E-02
        -0.10809E-02
        -0.28992E-03
        -0.25900E-03
        -0.77590E-04
        -0.30587E-04
        -0.26392E-04
        -0.16791E-05
        -0.44225E-04
        -0.90558E-05
        -0.57153E-05
        -0.70512E-04
        -0.30484E-04
        -0.64564E-04
        -0.17185E-04
        -0.31732E-03
        -0.11210E-03
        -0.23200E-05
        -0.31558E-03
        -0.11070E-04
        -0.11987E-05
        -0.89895E-06
        -0.19036E-04
        -0.62546E-06
        -0.14606E-04
        -0.71353E-05
        -0.24130E-05
        -0.16478E-05
        -0.29609E-04
        -0.15895E-05
        -0.13860E-06
        -0.43165E-06
        -0.77112E-06
        -0.28225E-04
        -0.12826E-04
        -0.81825E-06
        -0.55807E-05
        -0.41668E-05
        -0.76773E-06
        -0.86481E-05
        -0.31116E-04
        -0.18323E-03
        -0.14419E-03
        -0.11013E-03
        -0.59136E-04
        -0.32741E-05
        -0.15219E-04
        -0.23978E-04
        -0.39247E-04
        -0.16279E-03
        -0.55268E-04
        -0.23892E-04
        -0.37191E-04
        -0.51696E-04
        -0.56397E-04
        -0.23833E-06
        -0.86847E-04
        -0.18091E-03
        -0.98196E-03
        -0.16349E-02
        -0.27171E-02
        -0.38973E-02
        -0.37335E-02
        -0.28534E-02
        -0.26251E-02
        -0.25664E-02
        -0.10139E-02
        -0.11180E-03
        -0.17567E-04
        -0.13353E-04
        -0.23680E-05
        -0.20104E-03
        -0.80640E-03
        -0.15536E-02
        -0.26171E-02
        -0.32154E-02
        -0.24796E-02
        -0.22174E-02
        -0.21952E-02
        -0.10794E-02
        -0.28929E-03
        -0.25831E-03
        -0.77668E-04
        -0.30581E-04
        -0.26417E-04
        -0.17036E-05
        -0.44237E-04
        -0.90702E-05
        -0.57238E-05
        -0.70701E-04
        -0.30598E-04
        -0.64974E-04
        -0.17216E-04
        -0.31729E-03
        -0.11217E-03
        -0.23245E-05
        -0.31639E-03
        -0.11075E-04
        -0.12212E-05
        -0.89608E-06
        -0.19065E-04
        -0.61674E-06
        -0.14680E-04
        -0.71454E-05
        -0.24202E-05
        -0.16431E-05
        -0.29833E-04
        -0.15776E-05
        -0.14333E-06
        -0.44060E-06
        -0.75147E-06
        -0.28309E-04
        -0.12823E-04
        -0.80846E-06
        -0.56064E-05
        -0.41819E-05
        -0.75149E-06
        -0.86618E-05
        -0.31121E-04
        -0.18382E-03
        -0.14484E-03
        -0.11043E-03
        -0.59268E-04
        -0.32402E-05
        -0.15233E-04
        -0.24047E-04
        -0.39301E-04
        -0.16286E-03
        -0.55320E-04
        -0.23888E-04
        -0.37121E-04
        -0.51567E-04
        -0.56353E-04
        -0.22992E-06
        -0.86681E-04
        -0.18093E-03
        -0.98229E-03
        -0.16349E-02
        -0.27165E-02
        -0.38946E-02
        -0.37303E-02
        -0.28517E-02
        -0.26240E-02
        -0.25649E-02
        -0.10136E-02
        -0.11197E-03
        -0.17573E-04
        -0.13406E-04
        -0.23259E-05
        -0.20131E-03
        -0.80742E-03
        -0.15546E-02
        -0.26169E-02
        -0.32150E-02
        -0.24794E-02
        -0.22173E-02
        -0.21940E-02
        -0.10778E-02
        -0.28866E-03
        -0.25762E-03
        -0.77746E-04
        -0.30577E-04
        -0.26442E-04
        -0.17284E-05
        -0.44248E-04
        -0.90846E-05
        -0.57314E-05
        -0.70890E-04
        -0.30711E-04
        -0.65385E-04
        -0.17246E-04
        -0.31725E-03
        -0.11224E-03
        -0.23290E-05
        -0.31720E-03
        -0.11079E-04
        -0.12440E-05
        -0.89316E-06
        -0.19094E-04
        -0.60815E-06
        -0.14755E-04
        -0.71554E-05
        -0.24274E-05
        -0.16384E-05
        -0.30057E-04
        -0.15659E-05
        -0.14804E-06
        -0.44961E-06
        -0.73205E-06
        -0.28392E-04
        -0.12820E-04
        -0.79870E-06
        -0.56320E-05
        -0.41972E-05
        -0.73534E-06
        -0.86757E-05
        -0.31125E-04
        -0.18441E-03
        -0.14549E-03
        -0.11072E-03
        -0.59400E-04
        -0.32069E-05
        -0.15248E-04
        -0.24116E-04
        -0.39355E-04
        -0.16294E-03
        -0.55368E-04
        -0.23887E-04
        -0.37050E-04
        -0.51438E-04
        -0.56308E-04
        -0.22168E-06
        -0.86516E-04
        -0.18095E-03
        -0.98263E-03
        -0.16349E-02
        -0.27158E-02
        -0.38920E-02
        -0.37271E-02
        -0.28500E-02
        -0.26229E-02
        -0.25634E-02
        -0.10133E-02
        -0.11213E-03
        -0.17578E-04
        -0.13459E-04
        -0.22839E-05
        -0.20157E-03
        -0.80845E-03
        -0.15555E-02
        -0.26168E-02
        -0.32146E-02
        -0.24791E-02
        -0.22172E-02
        -0.21928E-02
        -0.10763E-02
        -0.28803E-03
        -0.25694E-03
        -0.77824E-04
        -0.30572E-04
        -0.26467E-04
        -0.17535E-05
        -0.44259E-04
        -0.90990E-05
        -0.57392E-05
        -0.71079E-04
        -0.30825E-04
        -0.65796E-04
        -0.17277E-04
        -0.31722E-03
        -0.11232E-03
        -0.23330E-05
        -0.31802E-03
        -0.11083E-04
        -0.12670E-05
        -0.89021E-06
        -0.19123E-04
        -0.59966E-06
        -0.14830E-04
        -0.71656E-05
        -0.24344E-05
        -0.16337E-05
        -0.30281E-04
        -0.15541E-05
        -0.15296E-06
        -0.45860E-06
        -0.71296E-06
        -0.28476E-04
        -0.12817E-04
        -0.78890E-06
        -0.56575E-05
        -0.42124E-05
        -0.71937E-06
        -0.86900E-05
        -0.31129E-04
        -0.18500E-03
        -0.14615E-03
        -0.11102E-03
        -0.59533E-04
        -0.31734E-05
        -0.15263E-04
        -0.24186E-04
        -0.39410E-04
        -0.16300E-03
        -0.55421E-04
        -0.23885E-04
        -0.36980E-04
        -0.51309E-04
        -0.56260E-04
        -0.21360E-06
        -0.86350E-04
        -0.18097E-03
        -0.98296E-03
        -0.16350E-02
        -0.27152E-02
        -0.38893E-02
        -0.37238E-02
        -0.28482E-02
        -0.26218E-02
        -0.25619E-02
        -0.10129E-02
        -0.11229E-03
        -0.17584E-04
        -0.13513E-04
        -0.22425E-05
        -0.20183E-03
        -0.80947E-03
        -0.15564E-02
        -0.26167E-02
        -0.32142E-02
        -0.24789E-02
        -0.22171E-02
        -0.21917E-02
        -0.10747E-02
        -0.28740E-03
        -0.25625E-03
        -0.77901E-04
        -0.30568E-04
        -0.26492E-04
        -0.17787E-05
        -0.44271E-04
        -0.91134E-05
        -0.57479E-05
        -0.71267E-04
        -0.30939E-04
        -0.66208E-04
        -0.17308E-04
        -0.31719E-03
        -0.11240E-03
        -0.23374E-05
        -0.31883E-03
        -0.11087E-04
        -0.12903E-05
        -0.88731E-06
        -0.19152E-04
        -0.59123E-06
        -0.14905E-04
        -0.71757E-05
        -0.24416E-05
        -0.16291E-05
        -0.30507E-04
        -0.15423E-05
        -0.15782E-06
        -0.46757E-06
        -0.69418E-06
        -0.28560E-04
        -0.12814E-04
        -0.77927E-06
        -0.56832E-05
        -0.42278E-05
        -0.70349E-06
        -0.87038E-05
        -0.31132E-04
        -0.18559E-03
        -0.14681E-03
        -0.11132E-03
        -0.59666E-04
        -0.31401E-05
        -0.15277E-04
        -0.24255E-04
        -0.39464E-04
        -0.16308E-03
        -0.55473E-04
        -0.23882E-04
        -0.36908E-04
        -0.51180E-04
        -0.56216E-04
        -0.20573E-06
        -0.86185E-04
        -0.18098E-03
        -0.98329E-03
        -0.16350E-02
        -0.27145E-02
        -0.38866E-02
        -0.37206E-02
        -0.28464E-02
        -0.26208E-02
        -0.25604E-02
        -0.10126E-02
        -0.11245E-03
        -0.17589E-04
        -0.13567E-04
        -0.22016E-05
        -0.20209E-03
        -0.81050E-03
        -0.15574E-02
        -0.26165E-02
        -0.32138E-02
        -0.24787E-02
        -0.22170E-02
        -0.21905E-02
        -0.10732E-02
        -0.28678E-03
        -0.25557E-03
        -0.77979E-04
        -0.30564E-04
        -0.26517E-04
        -0.18041E-05
        -0.44282E-04
        -0.91276E-05
        -0.57558E-05
        -0.71456E-04
        -0.31054E-04
        -0.66620E-04
        -0.17339E-04
        -0.31716E-03
        -0.11247E-03
        -0.23413E-05
        -0.31965E-03
        -0.11092E-04
        -0.13140E-05
        -0.88444E-06
        -0.19181E-04
        -0.58278E-06
        -0.14980E-04
        -0.71857E-05
        -0.24486E-05
        -0.16245E-05
        -0.30734E-04
        -0.15306E-05
        -0.16285E-06
        -0.47645E-06
        -0.67573E-06
        -0.28644E-04
        -0.12811E-04
        -0.76962E-06
        -0.57090E-05
        -0.42431E-05
        -0.68782E-06
        -0.87181E-05
        -0.31136E-04
        -0.18619E-03
        -0.14747E-03
        -0.11162E-03
        -0.59799E-04
        -0.31070E-05
        -0.15292E-04
        -0.24325E-04
        -0.39518E-04
        -0.16316E-03
        -0.55521E-04
        -0.23881E-04
        -0.36838E-04
        -0.51050E-04
        -0.56171E-04
        -0.19794E-06
        -0.86019E-04
        -0.18100E-03
        -0.98361E-03
        -0.16350E-02
        -0.27139E-02
        -0.38840E-02
        -0.37173E-02
        -0.28447E-02
        -0.26197E-02
        -0.25589E-02
        -0.10123E-02
        -0.11262E-03
        -0.17594E-04
        -0.13620E-04
        -0.21610E-05
        -0.20235E-03
        -0.81153E-03
        -0.15583E-02
        -0.26164E-02
        -0.32133E-02
        -0.24784E-02
        -0.22169E-02
        -0.21893E-02
        -0.10716E-02
        -0.28616E-03
        -0.25488E-03
        -0.78055E-04
        -0.30558E-04
        -0.26542E-04
        -0.18296E-05
        -0.44293E-04
        -0.91420E-05
        -0.57638E-05
        -0.71644E-04
        -0.31170E-04
        -0.67034E-04
        -0.17370E-04
        -0.31713E-03
        -0.11255E-03
        -0.23456E-05
        -0.32046E-03
        -0.11096E-04
        -0.13380E-05
        -0.88153E-06
        -0.19210E-04
        -0.57443E-06
        -0.15055E-04
        -0.71953E-05
        -0.24557E-05
        -0.16201E-05
        -0.30961E-04
        -0.15190E-05
        -0.16783E-06
        -0.48532E-06
        -0.65758E-06
        -0.28728E-04
        -0.12808E-04
        -0.76010E-06
        -0.57346E-05
        -0.42587E-05
        -0.67218E-06
        -0.87318E-05
        -0.31141E-04
        -0.18679E-03
        -0.14813E-03
        -0.11191E-03
        -0.59932E-04
        -0.30742E-05
        -0.15307E-04
        -0.24393E-04
        -0.39574E-04
        -0.16323E-03
        -0.55573E-04
        -0.23878E-04
        -0.36768E-04
        -0.50921E-04
        -0.56125E-04
        -0.19031E-06
        -0.85853E-04
        -0.18101E-03
        -0.98393E-03
        -0.16350E-02
        -0.27132E-02
        -0.38813E-02
        -0.37141E-02
        -0.28429E-02
        -0.26186E-02
        -0.25574E-02
        -0.10119E-02
        -0.11278E-03
        -0.17599E-04
        -0.13674E-04
        -0.21207E-05
        -0.20261E-03
        -0.81256E-03
        -0.15592E-02
        -0.26163E-02
        -0.32129E-02
        -0.24782E-02
        -0.22168E-02
        -0.21881E-02
        -0.10701E-02
        -0.28554E-03
        -0.25420E-03
        -0.78131E-04
        -0.30553E-04
        -0.26568E-04
        -0.18553E-05
        -0.44304E-04
        -0.91563E-05
        -0.57723E-05
        -0.71832E-04
        -0.31286E-04
        -0.67448E-04
        -0.17401E-04
        -0.31710E-03
        -0.11262E-03
        -0.23493E-05
        -0.32128E-03
        -0.11100E-04
        -0.13623E-05
        -0.87857E-06
        -0.19239E-04
        -0.56624E-06
        -0.15130E-04
        -0.72046E-05
        -0.24627E-05
        -0.16156E-05
        -0.31189E-04
        -0.15073E-05
        -0.17301E-06
        -0.49416E-06
        -0.63966E-06
        -0.28810E-04
        -0.12805E-04
        -0.75060E-06
        -0.57603E-05
        -0.42742E-05
        -0.65670E-06
        -0.87457E-05
        -0.31144E-04
        -0.18739E-03
        -0.14880E-03
        -0.11220E-03
        -0.60065E-04
        -0.30418E-05
        -0.15323E-04
        -0.24464E-04
        -0.39629E-04
        -0.16331E-03
        -0.55626E-04
        -0.23877E-04
        -0.36699E-04
        -0.50793E-04
        -0.56080E-04
        -0.18289E-06
        -0.85687E-04
        -0.18103E-03
        -0.98426E-03
        -0.16351E-02
        -0.27125E-02
        -0.38786E-02
        -0.37108E-02
        -0.28412E-02
        -0.26175E-02
        -0.25558E-02
        -0.10116E-02
        -0.11294E-03
        -0.17603E-04
        -0.13726E-04
        -0.20810E-05
        -0.20286E-03
        -0.81359E-03
        -0.15601E-02
        -0.26161E-02
        -0.32125E-02
        -0.24780E-02
        -0.22167E-02
        -0.21870E-02
        -0.10685E-02
        -0.28493E-03
        -0.25352E-03
        -0.78208E-04
        -0.30548E-04
        -0.26593E-04
        -0.18814E-05
        -0.44315E-04
        -0.91705E-05
        -0.57803E-05
        -0.72018E-04
        -0.31403E-04
        -0.67863E-04
        -0.17432E-04
        -0.31707E-03
        -0.11270E-03
        -0.23535E-05
        -0.32209E-03
        -0.11104E-04
        -0.13871E-05
        -0.87561E-06
        -0.19268E-04
        -0.55848E-06
        -0.15206E-04
        -0.72136E-05
        -0.24699E-05
        -0.16110E-05
        -0.31417E-04
        -0.14958E-05
        -0.17822E-06
        -0.50303E-06
        -0.62204E-06
        -0.28887E-04
        -0.12801E-04
        -0.74102E-06
        -0.57859E-05
        -0.42898E-05
        -0.64140E-06
        -0.87602E-05
        -0.31148E-04
        -0.18800E-03
        -0.14946E-03
        -0.11248E-03
        -0.60195E-04
        -0.30092E-05
        -0.15338E-04
        -0.24533E-04
        -0.39684E-04
        -0.16338E-03
        -0.55675E-04
        -0.23874E-04
        -0.36628E-04
        -0.50664E-04
        -0.56037E-04
        -0.17561E-06
        -0.85522E-04
        -0.18104E-03
        -0.98458E-03
        -0.16351E-02
        -0.27119E-02
        -0.38759E-02
        -0.37075E-02
        -0.28394E-02
        -0.26164E-02
        -0.25542E-02
        -0.10113E-02
        -0.11311E-03
        -0.17604E-04
        -0.13780E-04
        -0.20418E-05
        -0.20312E-03
        -0.81462E-03
        -0.15611E-02
        -0.26160E-02
        -0.32121E-02
        -0.24778E-02
        -0.22166E-02
        -0.21858E-02
        -0.10670E-02
        -0.28432E-03
        -0.25284E-03
        -0.78285E-04
        -0.30544E-04
        -0.26618E-04
        -0.19076E-05
        -0.44326E-04
        -0.91844E-05
        -0.57883E-05
        -0.72204E-04
        -0.31521E-04
        -0.68279E-04
        -0.17463E-04
        -0.31704E-03
        -0.11277E-03
        -0.23576E-05
        -0.32292E-03
        -0.11109E-04
        -0.14125E-05
        -0.87263E-06
        -0.19297E-04
        -0.55109E-06
        -0.15282E-04
        -0.72224E-05
        -0.24770E-05
        -0.16066E-05
        -0.31647E-04
        -0.14842E-05
        -0.18374E-06
        -0.51187E-06
        -0.60472E-06
        -0.28960E-04
        -0.12798E-04
        -0.73163E-06
        -0.58115E-05
        -0.43053E-05
        -0.62616E-06
        -0.87740E-05
        -0.31152E-04
        -0.18862E-03
        -0.15012E-03
        -0.11275E-03
        -0.60324E-04
        -0.29769E-05
        -0.15355E-04
        -0.24603E-04
        -0.39740E-04
        -0.16346E-03
        -0.55727E-04
        -0.23872E-04
        -0.36558E-04
        -0.50535E-04
        -0.55989E-04
        -0.16842E-06
        -0.85356E-04
        -0.18105E-03
        -0.98489E-03
        -0.16351E-02
        -0.27112E-02
        -0.38732E-02
        -0.37043E-02
        -0.28377E-02
        -0.26153E-02
        -0.25525E-02
        -0.10111E-02
        -0.11328E-03
        -0.17603E-04
        -0.13833E-04
        -0.20026E-05
        -0.20338E-03
        -0.81565E-03
        -0.15620E-02
        -0.26159E-02
        -0.32116E-02
        -0.24775E-02
        -0.22165E-02
        -0.21846E-02
        -0.10655E-02
        -0.28372E-03
        -0.25216E-03
        -0.78362E-04
        -0.30539E-04
        -0.26645E-04
        -0.19339E-05
        -0.44339E-04
        -0.91989E-05
        -0.57972E-05
        -0.72390E-04
        -0.31640E-04
        -0.68695E-04
        -0.17494E-04
        -0.31701E-03
        -0.11285E-03
        -0.23613E-05
        -0.32374E-03
        -0.11113E-04
        -0.14384E-05
        -0.86970E-06
        -0.19327E-04
        -0.54396E-06
        -0.15358E-04
        -0.72312E-05
        -0.24837E-05
        -0.16025E-05
        -0.31878E-04
        -0.14730E-05
        -0.18920E-06
        -0.52042E-06
        -0.58786E-06
        -0.29031E-04
        -0.12795E-04
        -0.72249E-06
        -0.58373E-05
        -0.43213E-05
        -0.61126E-06
        -0.87876E-05
        -0.31154E-04
        -0.18924E-03
        -0.15077E-03
        -0.11301E-03
        -0.60450E-04
        -0.29454E-05
        -0.15373E-04
        -0.24671E-04
        -0.39793E-04
        -0.16353E-03
        -0.55778E-04
        -0.23870E-04
        -0.36489E-04
        -0.50407E-04
        -0.55947E-04
        -0.16144E-06
        -0.85188E-04
        -0.18107E-03
        -0.98521E-03
        -0.16351E-02
        -0.27106E-02
        -0.38705E-02
        -0.37010E-02
        -0.28360E-02
        -0.26142E-02
        -0.25507E-02
        -0.10108E-02
        -0.11344E-03
        -0.17600E-04
        -0.13886E-04
        -0.19639E-05
        -0.20363E-03
        -0.81667E-03
        -0.15629E-02
        -0.26157E-02
        -0.32112E-02
        -0.24773E-02
        -0.22164E-02
        -0.21834E-02
        -0.10639E-02
        -0.28311E-03
        -0.25148E-03
        -0.79114E-04
        -0.30809E-04
        -0.26911E-04
        -0.19762E-05
        -0.44740E-04
        -0.92915E-05
        -0.58583E-05
        -0.73190E-04
        -0.32025E-04
        -0.69679E-04
        -0.17676E-04
        -0.31970E-03
        -0.11387E-03
        -0.23855E-05
        -0.32738E-03
        -0.11215E-04
        -0.14755E-05
        -0.87422E-06
        -0.19522E-04
        -0.54232E-06
        -0.15558E-04
        -0.73008E-05
        -0.25070E-05
        -0.16143E-05
        -0.32378E-04
        -0.14782E-05
        -0.19597E-06
        -0.53162E-06
        -0.57943E-06
        -0.29363E-04
        -0.12907E-04
        -0.72229E-06
        -0.59123E-05
        -0.43741E-05
        -0.60315E-06
        -0.88691E-05
        -0.31409E-04
        -0.19148E-03
        -0.15272E-03
        -0.11425E-03
        -0.61092E-04
        -0.29470E-05
        -0.15530E-04
        -0.24919E-04
        -0.40153E-04
        -0.16492E-03
        -0.56270E-04
        -0.24053E-04
        -0.36722E-04
        -0.50710E-04
        -0.56379E-04
        -0.15601E-06
        -0.85777E-04
        -0.18277E-03
        -0.99443E-03
        -0.16498E-02
        -0.27348E-02
        -0.39045E-02
        -0.37335E-02
        -0.28616E-02
        -0.26384E-02
        -0.25741E-02
        -0.10203E-02
        -0.11460E-03
        -0.17740E-04
        -0.14052E-04
        -0.19436E-05
        -0.20552E-03
        -0.82431E-03
        -0.15773E-02
        -0.26396E-02
        -0.32403E-02
        -0.24987E-02
        -0.22353E-02
        -0.22013E-02
        -0.10718E-02
        -0.28501E-03
        -0.25302E-03
        -0.17695E-03
        -0.69496E-04
        -0.60022E-04
        -0.44813E-05
        -0.93052E-04
        -0.19704E-04
        -0.13173E-04
        -0.16246E-03
        -0.71396E-04
        -0.15407E-03
        -0.38427E-04
        -0.64191E-03
        -0.23539E-03
        -0.51454E-05
        -0.66531E-03
        -0.25129E-04
        -0.33290E-05
        -0.19550E-05
        -0.42626E-04
        -0.11840E-05
        -0.32198E-04
        -0.15464E-04
        -0.51922E-05
        -0.35760E-05
        -0.73036E-04
        -0.33266E-05
        -0.43687E-06
        -0.12010E-05
        -0.12964E-05
        -0.66008E-04
        -0.28926E-04
        -0.16082E-05
        -0.13339E-04
        -0.98438E-05
        -0.11765E-05
        -0.18756E-04
        -0.66425E-04
        -0.40643E-03
        -0.33351E-03
        -0.25116E-03
        -0.13067E-03
        -0.63673E-05
        -0.33669E-04
        -0.52420E-04
        -0.83907E-04
        -0.32557E-03
        -0.11683E-03
        -0.51120E-04
        -0.78814E-04
        -0.10790E-03
        -0.11443E-03
        -0.31840E-06
        -0.13576E-03
        -0.28887E-03
        -0.15728E-02
        -0.26225E-02
        -0.43433E-02
        -0.62372E-02
        -0.60992E-02
        -0.47537E-02
        -0.43673E-02
        -0.42127E-02
        -0.16730E-02
        -0.18706E-03
        -0.29508E-04
        -0.23576E-04
        -0.31306E-05
        -0.32789E-03
        -0.13075E-02
        -0.24775E-02
        -0.41443E-02
        -0.50999E-02
        -0.40094E-02
        -0.36167E-02
        -0.35377E-02
        -0.17335E-02
        -0.45783E-03
        -0.40336E-03
  
SCALARS                      strain_zz  double 1
LOOKUP_TABLE default
         0.57269E+01
         0.56422E+01
         0.56959E+01
         0.57922E+01
        -0.25777E-08
        -0.28905E-08
        -0.27678E-08
        -0.25144E-08
         0.56394E+01
         0.56680E+01
        -0.25993E-08
        -0.25155E-08
         0.55195E+01
         0.55149E+01
        -0.30885E-08
        -0.29040E-08
         0.57781E+01
         0.55216E+01
        -0.22821E-08
        -0.25312E-08
         0.54273E+01
         0.53541E+01
         0.54707E+01
        -0.30611E-08
        -0.26733E-08
        -0.27605E-08
         0.53569E+01
         0.52500E+01
        -0.29367E-08
        -0.24766E-08
         0.57735E+01
         0.56619E+01
         0.58816E+01
        -0.25060E-08
        -0.23297E-08
        -0.22651E-08
         0.57089E+01
         0.55667E+01
        -0.26513E-08
        -0.24193E-08
         0.56527E+01
         0.55430E+01
        -0.22914E-08
        -0.20286E-08
         0.57455E+01
         0.57867E+01
        -0.25111E-08
        -0.28058E-08
         0.54548E+01
        -0.24531E-08
         0.57786E+01
        -0.28826E-08
         0.53260E+01
        -0.25906E-08
         0.52923E+01
        -0.24849E-08
         0.52930E+01
         0.54124E+01
        -0.25318E-08
        -0.24657E-08
         0.57712E+01
         0.57283E+01
        -0.25388E-08
        -0.28701E-08
         0.57980E+01
        -0.24498E-08
         0.57470E+01
        -0.26736E-08
         0.56132E+01
         0.55996E+01
        -0.25736E-08
        -0.26967E-08
         0.55692E+01
        -0.27193E-08
         0.52120E+01
        -0.21484E-08
         0.51933E+01
        -0.20854E-08
         0.52028E+01
        -0.21988E-08
         0.52550E+01
         0.53083E+01
        -0.20950E-08
        -0.21842E-08
         0.54164E+01
        -0.20342E-08
         0.57434E+01
        -0.26676E-08
         0.56925E+01
        -0.27303E-08
         0.56509E+01
         0.56277E+01
        -0.26219E-08
        -0.26525E-08
         0.56559E+01
        -0.24093E-08
         0.56760E+01
        -0.23749E-08
         0.56579E+01
        -0.25424E-08
         0.56516E+01
         0.56699E+01
        -0.24932E-08
        -0.25663E-08
         0.55518E+01
         0.56003E+01
        -0.19357E-08
        -0.18206E-08
         0.55430E+01
        -0.18483E-08
         0.55989E+01
        -0.17722E-08
         0.55439E+01
        -0.17476E-08
         0.54225E+01
        -0.16515E-08
         0.53050E+01
        -0.14671E-08
         0.52345E+01
        -0.13211E-08
         0.52273E+01
        -0.13119E-08
         0.52295E+01
        -0.14227E-08
         0.53059E+01
        -0.14952E-08
         0.54493E+01
        -0.13653E-08
         0.56063E+01
        -0.12307E-08
         0.56980E+01
        -0.12292E-08
         0.57887E+01
        -0.13740E-08
         0.58486E+01
        -0.15667E-08
         0.58465E+01
        -0.16831E-08
         0.57005E+01
        -0.18177E-08
         0.55985E+01
        -0.19474E-08
         0.55640E+01
        -0.17840E-08
         0.56188E+01
        -0.15650E-08
         0.56471E+01
        -0.15602E-08
         0.55990E+01
        -0.17070E-08
         0.55994E+01
        -0.18198E-08
         0.56357E+01
        -0.17270E-08
         0.56828E+01
        -0.16696E-08
        -0.48649E+00
        -0.48889E+00
        -0.48858E+00
        -0.48540E+00
        -0.49085E+00
        -0.48829E+00
        -0.49146E+00
        -0.48989E+00
        -0.48593E+00
        -0.48848E+00
        -0.49291E+00
        -0.49320E+00
        -0.49211E+00
        -0.49212E+00
        -0.49274E+00
        -0.48556E+00
        -0.48619E+00
        -0.48439E+00
        -0.48913E+00
        -0.48835E+00
        -0.48938E+00
        -0.48864E+00
        -0.48997E+00
        -0.48971E+00
        -0.48840E+00
        -0.48851E+00
        -0.49065E+00
        -0.49047E+00
        -0.49188E+00
        -0.48967E+00
        -0.48587E+00
        -0.48892E+00
        -0.48590E+00
        -0.48795E+00
        -0.49348E+00
        -0.49201E+00
        -0.49118E+00
        -0.49208E+00
        -0.49223E+00
        -0.49361E+00
        -0.49440E+00
        -0.49214E+00
        -0.48931E+00
        -0.48977E+00
        -0.49125E+00
        -0.49341E+00
        -0.49163E+00
        -0.48924E+00
        -0.48943E+00
        -0.49129E+00
        -0.49288E+00
        -0.49064E+00
        -0.49522E+00
        -0.49391E+00
        -0.49405E+00
        -0.49365E+00
        -0.49360E+00
        -0.49410E+00
        -0.49478E+00
        -0.49519E+00
        -0.49517E+00
        -0.49514E+00
        -0.49543E+00
        -0.49379E+00
        -0.49327E+00
        -0.49304E+00
        -0.49233E+00
        -0.49174E+00
        -0.49168E+00
        -0.49241E+00
        -0.49475E+00
        -0.49418E+00
        -0.49355E+00
        -0.49366E+00
        -0.49378E+00
        -0.49454E+00
        -0.49341E+00
        -0.49292E+00
         0.10174E-03
         0.38159E-04
         0.37113E-04
         0.30554E-04
         0.10391E-03
         0.63517E-04
         0.40982E-05
         0.73338E-04
         0.53495E-04
         0.62801E-04
         0.11538E-05
         0.32449E-03
         0.19184E-03
         0.12191E-04
         0.34510E-03
         0.50694E-04
         0.22918E-04
         0.19516E-04
         0.21059E-04
         0.82946E-05
         0.19870E-03
         0.18270E-03
         0.15962E-03
         0.80801E-05
         0.16369E-04
         0.15820E-05
        -0.58141E-05
        -0.37110E-04
        -0.13894E-04
         0.23882E-04
         0.37865E-04
         0.89866E-05
         0.28756E-04
         0.33368E-04
         0.15521E-03
         0.56361E-04
         0.97029E-04
         0.22369E-03
         0.12924E-03
         0.11594E-03
         0.24603E-03
         0.19800E-03
         0.20250E-03
         0.11524E-03
         0.91797E-04
         0.17820E-03
         0.79488E-04
         0.60504E-04
         0.47103E-04
         0.67465E-04
         0.15670E-03
         0.86811E-04
         0.27530E-02
         0.29137E-02
         0.31659E-02
         0.31407E-02
         0.35838E-02
         0.41385E-02
         0.38063E-02
         0.30200E-02
         0.28629E-02
         0.32636E-02
         0.31319E-02
         0.30435E-02
         0.20749E-02
         0.18859E-02
         0.22551E-02
         0.25749E-02
         0.27765E-02
         0.33150E-02
         0.30708E-02
         0.32577E-02
         0.26434E-02
         0.23775E-02
         0.26944E-02
         0.25746E-02
         0.27381E-02
         0.27029E-02
         0.10096E-03
         0.37231E-04
         0.36213E-04
         0.29755E-04
         0.10275E-03
         0.62458E-04
         0.31210E-05
         0.72453E-04
         0.52641E-04
         0.62094E-04
        -0.30937E-08
         0.32311E-03
         0.19080E-03
         0.10825E-04
         0.34449E-03
         0.49780E-04
         0.21901E-04
         0.18659E-04
         0.19980E-04
         0.71135E-05
         0.19756E-03
         0.18153E-03
         0.15838E-03
         0.69550E-05
         0.15381E-04
         0.50876E-06
        -0.68955E-05
        -0.38293E-04
        -0.15081E-04
         0.22718E-04
         0.36975E-04
         0.79655E-05
         0.27847E-04
         0.32534E-04
         0.15414E-03
         0.55266E-04
         0.95922E-04
         0.22307E-03
         0.12859E-03
         0.11501E-03
         0.24501E-03
         0.19689E-03
         0.20129E-03
         0.11405E-03
         0.90639E-04
         0.17697E-03
         0.78362E-04
         0.59428E-04
         0.46013E-04
         0.66338E-04
         0.15542E-03
         0.85571E-04
         0.27489E-02
         0.29103E-02
         0.31639E-02
         0.31388E-02
         0.35806E-02
         0.41334E-02
         0.38009E-02
         0.30161E-02
         0.28591E-02
         0.32593E-02
         0.31285E-02
         0.30415E-02
         0.20726E-02
         0.18841E-02
         0.22538E-02
         0.25743E-02
         0.27760E-02
         0.33144E-02
         0.30684E-02
         0.32551E-02
         0.26407E-02
         0.23754E-02
         0.26907E-02
         0.25693E-02
         0.27332E-02
         0.26981E-02
         0.10130E-03
         0.37431E-04
         0.36443E-04
         0.30017E-04
         0.10295E-03
         0.62682E-04
         0.33850E-05
         0.72848E-04
         0.52914E-04
         0.62570E-04
         0.23112E-06
         0.32335E-03
         0.19117E-03
         0.10891E-04
         0.34555E-03
         0.49656E-04
         0.21911E-04
         0.18860E-04
         0.19733E-04
         0.68684E-05
         0.19740E-03
         0.18143E-03
         0.15757E-03
         0.61427E-05
         0.15106E-04
        -0.24393E-06
        -0.66492E-05
        -0.38468E-04
        -0.15526E-04
         0.21938E-04
         0.37040E-04
         0.77292E-05
         0.28032E-04
         0.32833E-04
         0.15459E-03
         0.55507E-04
         0.96114E-04
         0.22404E-03
         0.12943E-03
         0.11541E-03
         0.24531E-03
         0.19662E-03
         0.20067E-03
         0.11327E-03
         0.90417E-04
         0.17713E-03
         0.78568E-04
         0.59661E-04
         0.46174E-04
         0.66494E-04
         0.15558E-03
         0.85658E-04
         0.27475E-02
         0.29095E-02
         0.31645E-02
         0.31393E-02
         0.35798E-02
         0.41310E-02
         0.37982E-02
         0.30149E-02
         0.28581E-02
         0.32579E-02
         0.31277E-02
         0.30417E-02
         0.20723E-02
         0.18842E-02
         0.22546E-02
         0.25752E-02
         0.27771E-02
         0.33159E-02
         0.30686E-02
         0.32554E-02
         0.26407E-02
         0.23756E-02
         0.26895E-02
         0.25665E-02
         0.27305E-02
         0.26957E-02
         0.10131E-03
         0.37366E-04
         0.36397E-04
         0.29923E-04
         0.10276E-03
         0.62546E-04
         0.33502E-05
         0.72869E-04
         0.52748E-04
         0.62503E-04
         0.11212E-06
         0.32319E-03
         0.19123E-03
         0.10539E-04
         0.34613E-03
         0.48953E-04
         0.21343E-04
         0.18686E-04
         0.18795E-04
         0.58695E-05
         0.19656E-03
         0.18063E-03
         0.15572E-03
         0.43260E-05
         0.13878E-04
        -0.19573E-05
        -0.69277E-05
        -0.39426E-04
        -0.17000E-04
         0.19888E-04
         0.36644E-04
         0.68101E-05
         0.27853E-04
         0.32714E-04
         0.15456E-03
         0.55369E-04
         0.95986E-04
         0.22453E-03
         0.12976E-03
         0.11520E-03
         0.24490E-03
         0.19535E-03
         0.19892E-03
         0.11145E-03
         0.89469E-04
         0.17663E-03
         0.78217E-04
         0.59456E-04
         0.45899E-04
         0.66162E-04
         0.15525E-03
         0.85338E-04
         0.27452E-02
         0.29079E-02
         0.31642E-02
         0.31391E-02
         0.35785E-02
         0.41281E-02
         0.37947E-02
         0.30130E-02
         0.28563E-02
         0.32554E-02
         0.31260E-02
         0.30409E-02
         0.20709E-02
         0.18836E-02
         0.22546E-02
         0.25750E-02
         0.27770E-02
         0.33166E-02
         0.30679E-02
         0.32547E-02
         0.26399E-02
         0.23750E-02
         0.26873E-02
         0.25629E-02
         0.27273E-02
         0.26926E-02
         0.10120E-03
         0.37218E-04
         0.36293E-04
         0.29825E-04
         0.10257E-03
         0.62377E-04
         0.32656E-05
         0.72799E-04
         0.52525E-04
         0.62407E-04
        -0.14270E-07
         0.32309E-03
         0.19127E-03
         0.10174E-04
         0.34679E-03
         0.48509E-04
         0.20910E-04
         0.18524E-04
         0.18188E-04
         0.51419E-05
         0.19605E-03
         0.18005E-03
         0.15460E-03
         0.31986E-05
         0.13061E-04
        -0.30562E-05
        -0.71700E-05
        -0.40118E-04
        -0.18003E-04
         0.18551E-04
         0.36230E-04
         0.61420E-05
         0.27546E-04
         0.32540E-04
         0.15454E-03
         0.55202E-04
         0.95817E-04
         0.22509E-03
         0.13015E-03
         0.11513E-03
         0.24474E-03
         0.19458E-03
         0.19781E-03
         0.11032E-03
         0.88851E-04
         0.17633E-03
         0.77914E-04
         0.59137E-04
         0.45503E-04
         0.65740E-04
         0.15483E-03
         0.84948E-04
         0.27430E-02
         0.29063E-02
         0.31638E-02
         0.31389E-02
         0.35772E-02
         0.41252E-02
         0.37914E-02
         0.30111E-02
         0.28546E-02
         0.32532E-02
         0.31245E-02
         0.30404E-02
         0.20699E-02
         0.18831E-02
         0.22548E-02
         0.25756E-02
         0.27776E-02
         0.33177E-02
         0.30674E-02
         0.32540E-02
         0.26390E-02
         0.23743E-02
         0.26850E-02
         0.25591E-02
         0.27240E-02
         0.26896E-02
         0.10075E-03
         0.36917E-04
         0.36189E-04
         0.29980E-04
         0.10263E-03
         0.62517E-04
         0.32217E-05
         0.72549E-04
         0.52169E-04
         0.62123E-04
         0.88295E-07
         0.32337E-03
         0.19154E-03
         0.10007E-04
         0.34790E-03
         0.48694E-04
         0.20864E-04
         0.18730E-04
         0.18344E-04
         0.52172E-05
         0.19628E-03
         0.18025E-03
         0.15466E-03
         0.31733E-05
         0.12853E-04
        -0.32130E-05
        -0.72110E-05
        -0.40208E-04
        -0.17895E-04
         0.18597E-04
         0.35720E-04
         0.57872E-05
         0.27064E-04
         0.32513E-04
         0.15482E-03
         0.55192E-04
         0.95757E-04
         0.22608E-03
         0.13103E-03
         0.11575E-03
         0.24539E-03
         0.19498E-03
         0.19804E-03
         0.11030E-03
         0.88778E-04
         0.17631E-03
         0.77657E-04
         0.58498E-04
         0.44690E-04
         0.65224E-04
         0.15459E-03
         0.84834E-04
         0.27415E-02
         0.29055E-02
         0.31642E-02
         0.31392E-02
         0.35763E-02
         0.41229E-02
         0.37887E-02
         0.30100E-02
         0.28537E-02
         0.32519E-02
         0.31241E-02
         0.30412E-02
         0.20702E-02
         0.18834E-02
         0.22559E-02
         0.25777E-02
         0.27798E-02
         0.33195E-02
         0.30674E-02
         0.32538E-02
         0.26384E-02
         0.23738E-02
         0.26830E-02
         0.25559E-02
         0.27212E-02
         0.26871E-02
         0.10000E-03
         0.36370E-04
         0.35898E-04
         0.29936E-04
         0.10243E-03
         0.62459E-04
         0.28559E-05
         0.71902E-04
         0.51493E-04
         0.61496E-04
        -0.17993E-06
         0.32326E-03
         0.19152E-03
         0.94281E-05
         0.34857E-03
         0.48624E-04
         0.20521E-04
         0.18663E-04
         0.18261E-04
         0.50287E-05
         0.19627E-03
         0.18019E-03
         0.15461E-03
         0.30348E-05
         0.12449E-04
        -0.34939E-05
        -0.76372E-05
        -0.40567E-04
        -0.17958E-04
         0.18522E-04
         0.34976E-04
         0.52046E-05
         0.26352E-04
         0.32272E-04
         0.15478E-03
         0.54949E-04
         0.95475E-04
         0.22664E-03
         0.13151E-03
         0.11604E-03
         0.24573E-03
         0.19520E-03
         0.19813E-03
         0.11018E-03
         0.88454E-04
         0.17590E-03
         0.77048E-04
         0.57547E-04
         0.43588E-04
         0.64436E-04
         0.15410E-03
         0.84509E-04
         0.27393E-02
         0.29039E-02
         0.31640E-02
         0.31391E-02
         0.35749E-02
         0.41198E-02
         0.37853E-02
         0.30082E-02
         0.28520E-02
         0.32498E-02
         0.31230E-02
         0.30415E-02
         0.20700E-02
         0.18833E-02
         0.22565E-02
         0.25794E-02
         0.27816E-02
         0.33207E-02
         0.30664E-02
         0.32528E-02
         0.26372E-02
         0.23727E-02
         0.26804E-02
         0.25521E-02
         0.27180E-02
         0.26841E-02
         0.99857E-04
         0.36166E-04
         0.35794E-04
         0.29863E-04
         0.10223E-03
         0.62293E-04
         0.26931E-05
         0.71749E-04
         0.51377E-04
         0.61571E-04
        -0.36541E-06
         0.32310E-03
         0.19150E-03
         0.90155E-05
         0.34918E-03
         0.48571E-04
         0.20424E-04
         0.18532E-04
         0.18186E-04
         0.48768E-05
         0.19621E-03
         0.18006E-03
         0.15453E-03
         0.29281E-05
         0.12458E-04
        -0.36556E-05
        -0.78051E-05
        -0.40762E-04
        -0.18101E-04
         0.18456E-04
         0.34773E-04
         0.49671E-05
         0.26092E-04
         0.32146E-04
         0.15477E-03
         0.54813E-04
         0.95298E-04
         0.22716E-03
         0.13197E-03
         0.11621E-03
         0.24590E-03
         0.19527E-03
         0.19812E-03
         0.11009E-03
         0.88270E-04
         0.17574E-03
         0.76874E-04
         0.57324E-04
         0.43256E-04
         0.64076E-04
         0.15375E-03
         0.84158E-04
         0.27370E-02
         0.29023E-02
         0.31638E-02
         0.31390E-02
         0.35735E-02
         0.41169E-02
         0.37819E-02
         0.30063E-02
         0.28502E-02
         0.32474E-02
         0.31216E-02
         0.30417E-02
         0.20697E-02
         0.18830E-02
         0.22569E-02
         0.25808E-02
         0.27832E-02
         0.33219E-02
         0.30657E-02
         0.32521E-02
         0.26365E-02
         0.23722E-02
         0.26782E-02
         0.25484E-02
         0.27146E-02
         0.26810E-02
         0.10013E-03
         0.36305E-04
         0.35923E-04
         0.29939E-04
         0.10229E-03
         0.62280E-04
         0.28841E-05
         0.72059E-04
         0.51646E-04
         0.62142E-04
        -0.21559E-06
         0.32327E-03
         0.19179E-03
         0.90168E-05
         0.35020E-03
         0.48846E-04
         0.20654E-04
         0.18613E-04
         0.18404E-04
         0.50171E-05
         0.19645E-03
         0.18022E-03
         0.15474E-03
         0.31122E-05
         0.12861E-04
        -0.34859E-05
        -0.75054E-05
        -0.40556E-04
        -0.17892E-04
         0.18709E-04
         0.34987E-04
         0.50881E-05
         0.26153E-04
         0.32215E-04
         0.15511E-03
         0.54931E-04
         0.95391E-04
         0.22810E-03
         0.13279E-03
         0.11672E-03
         0.24644E-03
         0.19568E-03
         0.19840E-03
         0.11032E-03
         0.88422E-04
         0.17594E-03
         0.77048E-04
         0.57508E-04
         0.43342E-04
         0.64073E-04
         0.15371E-03
         0.83998E-04
         0.27354E-02
         0.29013E-02
         0.31639E-02
         0.31391E-02
         0.35726E-02
         0.41144E-02
         0.37791E-02
         0.30050E-02
         0.28489E-02
         0.32455E-02
         0.31209E-02
         0.30425E-02
         0.20699E-02
         0.18831E-02
         0.22578E-02
         0.25828E-02
         0.27853E-02
         0.33238E-02
         0.30656E-02
         0.32521E-02
         0.26364E-02
         0.23723E-02
         0.26766E-02
         0.25453E-02
         0.27118E-02
         0.26784E-02
         0.10019E-03
         0.36292E-04
         0.35925E-04
         0.29904E-04
         0.10219E-03
         0.62168E-04
         0.29061E-05
         0.72103E-04
         0.51648E-04
         0.62404E-04
        -0.28692E-06
         0.32317E-03
         0.19193E-03
         0.87082E-05
         0.35080E-03
         0.48847E-04
         0.20617E-04
         0.18474E-04
         0.18346E-04
         0.48932E-05
         0.19646E-03
         0.18014E-03
         0.15471E-03
         0.30422E-05
         0.13033E-04
        -0.35550E-05
        -0.75414E-05
        -0.40586E-04
        -0.17891E-04
         0.18730E-04
         0.34965E-04
         0.50085E-05
         0.25991E-04
         0.32128E-04
         0.15519E-03
         0.54862E-04
         0.95332E-04
         0.22866E-03
         0.13335E-03
         0.11701E-03
         0.24673E-03
         0.19586E-03
         0.19841E-03
         0.11034E-03
         0.88394E-04
         0.17593E-03
         0.76988E-04
         0.57418E-04
         0.43163E-04
         0.63850E-04
         0.15348E-03
         0.83711E-04
         0.27332E-02
         0.28999E-02
         0.31637E-02
         0.31390E-02
         0.35714E-02
         0.41115E-02
         0.37756E-02
         0.30030E-02
         0.28473E-02
         0.32433E-02
         0.31195E-02
         0.30427E-02
         0.20696E-02
         0.18830E-02
         0.22584E-02
         0.25844E-02
         0.27873E-02
         0.33253E-02
         0.30651E-02
         0.32514E-02
         0.26356E-02
         0.23719E-02
         0.26746E-02
         0.25419E-02
         0.27087E-02
         0.26754E-02
         0.10018E-03
         0.36187E-04
         0.35877E-04
         0.29901E-04
         0.10202E-03
         0.62082E-04
         0.28686E-05
         0.72111E-04
         0.51661E-04
         0.62667E-04
        -0.36833E-06
         0.32305E-03
         0.19202E-03
         0.84237E-05
         0.35142E-03
         0.48813E-04
         0.20602E-04
         0.18384E-04
         0.18270E-04
         0.47929E-05
         0.19644E-03
         0.18005E-03
         0.15465E-03
         0.29338E-05
         0.13207E-04
        -0.36822E-05
        -0.75594E-05
        -0.40642E-04
        -0.17897E-04
         0.18771E-04
         0.34908E-04
         0.48845E-05
         0.25880E-04
         0.32128E-04
         0.15521E-03
         0.54750E-04
         0.95226E-04
         0.22922E-03
         0.13390E-03
         0.11730E-03
         0.24706E-03
         0.19605E-03
         0.19842E-03
         0.11032E-03
         0.88329E-04
         0.17589E-03
         0.76934E-04
         0.57340E-04
         0.42989E-04
         0.63641E-04
         0.15327E-03
         0.83476E-04
         0.27310E-02
         0.28983E-02
         0.31634E-02
         0.31389E-02
         0.35701E-02
         0.41085E-02
         0.37720E-02
         0.30011E-02
         0.28457E-02
         0.32411E-02
         0.31184E-02
         0.30430E-02
         0.20692E-02
         0.18827E-02
         0.22589E-02
         0.25860E-02
         0.27891E-02
         0.33267E-02
         0.30645E-02
         0.32508E-02
         0.26349E-02
         0.23714E-02
         0.26726E-02
         0.25384E-02
         0.27055E-02
         0.26724E-02
         0.10036E-03
         0.36230E-04
         0.35942E-04
         0.30007E-04
         0.10204E-03
         0.62121E-04
         0.30092E-05
         0.72362E-04
         0.51849E-04
         0.63128E-04
        -0.22342E-06
         0.32316E-03
         0.19222E-03
         0.84104E-05
         0.35241E-03
         0.49007E-04
         0.20737E-04
         0.18465E-04
         0.18412E-04
         0.49009E-05
         0.19664E-03
         0.18019E-03
         0.15481E-03
         0.30468E-05
         0.13524E-04
        -0.35756E-05
        -0.73580E-05
        -0.40513E-04
        -0.17667E-04
         0.19039E-04
         0.35090E-04
         0.49638E-05
         0.25964E-04
         0.32270E-04
         0.15547E-03
         0.54821E-04
         0.95249E-04
         0.23014E-03
         0.13473E-03
         0.11788E-03
         0.24762E-03
         0.19642E-03
         0.19867E-03
         0.11048E-03
         0.88427E-04
         0.17603E-03
         0.77054E-04
         0.57461E-04
         0.43020E-04
         0.63619E-04
         0.15324E-03
         0.83385E-04
         0.27293E-02
         0.28973E-02
         0.31636E-02
         0.31391E-02
         0.35689E-02
         0.41057E-02
         0.37691E-02
         0.29998E-02
         0.28445E-02
         0.32393E-02
         0.31177E-02
         0.30435E-02
         0.20693E-02
         0.18829E-02
         0.22598E-02
         0.25879E-02
         0.27911E-02
         0.33284E-02
         0.30642E-02
         0.32506E-02
         0.26347E-02
         0.23715E-02
         0.26709E-02
         0.25353E-02
         0.27027E-02
         0.26698E-02
         0.10042E-03
         0.36146E-04
         0.35897E-04
         0.29962E-04
         0.10187E-03
         0.61983E-04
         0.29489E-05
         0.72381E-04
         0.51884E-04
         0.63365E-04
        -0.34521E-06
         0.32300E-03
         0.19222E-03
         0.80743E-05
         0.35306E-03
         0.48997E-04
         0.20698E-04
         0.18319E-04
         0.18312E-04
         0.47592E-05
         0.19656E-03
         0.18004E-03
         0.15468E-03
         0.29220E-05
         0.13628E-04
        -0.36875E-05
        -0.74970E-05
        -0.40697E-04
        -0.17758E-04
         0.19036E-04
         0.35041E-04
         0.48459E-05
         0.25778E-04
         0.32192E-04
         0.15549E-03
         0.54696E-04
         0.95090E-04
         0.23069E-03
         0.13520E-03
         0.11808E-03
         0.24781E-03
         0.19647E-03
         0.19862E-03
         0.11038E-03
         0.88297E-04
         0.17595E-03
         0.76963E-04
         0.57330E-04
         0.42819E-04
         0.63400E-04
         0.15299E-03
         0.83086E-04
         0.27270E-02
         0.28957E-02
         0.31633E-02
         0.31389E-02
         0.35674E-02
         0.41026E-02
         0.37657E-02
         0.29980E-02
         0.28428E-02
         0.32370E-02
         0.31162E-02
         0.30435E-02
         0.20689E-02
         0.18826E-02
         0.22603E-02
         0.25893E-02
         0.27926E-02
         0.33296E-02
         0.30636E-02
         0.32500E-02
         0.26340E-02
         0.23711E-02
         0.26689E-02
         0.25318E-02
         0.26995E-02
         0.26668E-02
         0.10051E-03
         0.36119E-04
         0.35903E-04
         0.29977E-04
         0.10179E-03
         0.61909E-04
         0.29794E-05
         0.72488E-04
         0.52008E-04
         0.63742E-04
        -0.35159E-06
         0.32298E-03
         0.19237E-03
         0.78839E-05
         0.35383E-03
         0.49067E-04
         0.20775E-04
         0.18269E-04
         0.18327E-04
         0.47252E-05
         0.19659E-03
         0.18002E-03
         0.15469E-03
         0.28978E-05
         0.13857E-04
        -0.37223E-05
        -0.74378E-05
        -0.40728E-04
        -0.17742E-04
         0.19111E-04
         0.35043E-04
         0.47938E-05
         0.25677E-04
         0.32192E-04
         0.15561E-03
         0.54644E-04
         0.95024E-04
         0.23136E-03
         0.13577E-03
         0.11839E-03
         0.24818E-03
         0.19670E-03
         0.19871E-03
         0.11042E-03
         0.88287E-04
         0.17598E-03
         0.76959E-04
         0.57290E-04
         0.42692E-04
         0.63251E-04
         0.15284E-03
         0.82868E-04
         0.27250E-02
         0.28943E-02
         0.31631E-02
         0.31388E-02
         0.35662E-02
         0.40998E-02
         0.37624E-02
         0.29961E-02
         0.28411E-02
         0.32348E-02
         0.31152E-02
         0.30439E-02
         0.20686E-02
         0.18824E-02
         0.22608E-02
         0.25910E-02
         0.27945E-02
         0.33311E-02
         0.30632E-02
         0.32495E-02
         0.26334E-02
         0.23708E-02
         0.26671E-02
         0.25284E-02
         0.26963E-02
         0.26638E-02
         0.10086E-03
         0.36381E-04
         0.36151E-04
         0.30186E-04
         0.10198E-03
         0.62062E-04
         0.33355E-05
         0.72888E-04
         0.52308E-04
         0.64345E-04
        -0.22019E-07
         0.32334E-03
         0.19285E-03
         0.80063E-05
         0.35495E-03
         0.49381E-04
         0.21065E-04
         0.18442E-04
         0.18606E-04
         0.49733E-05
         0.19696E-03
         0.18030E-03
         0.15500E-03
         0.31437E-05
         0.14370E-04
        -0.34810E-05
        -0.70662E-05
        -0.40367E-04
        -0.17338E-04
         0.19523E-04
         0.35348E-04
         0.50338E-05
         0.25832E-04
         0.32375E-04
         0.15606E-03
         0.54887E-04
         0.95261E-04
         0.23236E-03
         0.13675E-03
         0.11908E-03
         0.24886E-03
         0.19723E-03
         0.19907E-03
         0.11078E-03
         0.88605E-04
         0.17634E-03
         0.77264E-04
         0.57565E-04
         0.42833E-04
         0.63315E-04
         0.15290E-03
         0.82856E-04
         0.27236E-02
         0.28936E-02
         0.31635E-02
         0.31392E-02
         0.35655E-02
         0.40976E-02
         0.37596E-02
         0.29948E-02
         0.28401E-02
         0.32332E-02
         0.31146E-02
         0.30447E-02
         0.20688E-02
         0.18827E-02
         0.22620E-02
         0.25932E-02
         0.27970E-02
         0.33332E-02
         0.30632E-02
         0.32496E-02
         0.26334E-02
         0.23709E-02
         0.26655E-02
         0.25255E-02
         0.26938E-02
         0.26615E-02
         0.10086E-03
         0.36305E-04
         0.36111E-04
         0.30123E-04
         0.10179E-03
         0.61924E-04
         0.32877E-05
         0.72879E-04
         0.52308E-04
         0.64549E-04
        -0.13998E-06
         0.32322E-03
         0.19294E-03
         0.76651E-05
         0.35555E-03
         0.49343E-04
         0.20999E-04
         0.18318E-04
         0.18466E-04
         0.48057E-05
         0.19693E-03
         0.18016E-03
         0.15494E-03
         0.29935E-05
         0.14453E-04
        -0.36375E-05
        -0.71880E-05
        -0.40495E-04
        -0.17311E-04
         0.19550E-04
         0.35328E-04
         0.49018E-05
         0.25691E-04
         0.32276E-04
         0.15604E-03
         0.54770E-04
         0.95171E-04
         0.23289E-03
         0.13727E-03
         0.11939E-03
         0.24912E-03
         0.19732E-03
         0.19900E-03
         0.11071E-03
         0.88493E-04
         0.17627E-03
         0.77194E-04
         0.57500E-04
         0.42653E-04
         0.63053E-04
         0.15264E-03
         0.82555E-04
         0.27212E-02
         0.28919E-02
         0.31632E-02
         0.31390E-02
         0.35643E-02
         0.40946E-02
         0.37561E-02
         0.29928E-02
         0.28383E-02
         0.32308E-02
         0.31132E-02
         0.30447E-02
         0.20684E-02
         0.18825E-02
         0.22626E-02
         0.25949E-02
         0.27988E-02
         0.33345E-02
         0.30626E-02
         0.32490E-02
         0.26327E-02
         0.23705E-02
         0.26634E-02
         0.25220E-02
         0.26907E-02
         0.26584E-02
         0.10080E-03
         0.36113E-04
         0.35952E-04
         0.30024E-04
         0.10154E-03
         0.61702E-04
         0.31764E-05
         0.72845E-04
         0.52256E-04
         0.64614E-04
        -0.28613E-06
         0.32303E-03
         0.19294E-03
         0.73200E-05
         0.35612E-03
         0.49276E-04
         0.20861E-04
         0.18179E-04
         0.18356E-04
         0.47125E-05
         0.19687E-03
         0.17999E-03
         0.15486E-03
         0.28649E-05
         0.14411E-04
        -0.37912E-05
        -0.75045E-05
        -0.40698E-04
        -0.16846E-04
         0.19869E-04
         0.35244E-04
         0.47202E-05
         0.25552E-04
         0.32215E-04
         0.15601E-03
         0.54588E-04
         0.94985E-04
         0.23330E-03
         0.13779E-03
         0.12006E-03
         0.24949E-03
         0.19740E-03
         0.19886E-03
         0.11064E-03
         0.88343E-04
         0.17613E-03
         0.77043E-04
         0.57371E-04
         0.42457E-04
         0.62816E-04
         0.15239E-03
         0.82234E-04
         0.27190E-02
         0.28903E-02
         0.31629E-02
         0.31389E-02
         0.35629E-02
         0.40914E-02
         0.37524E-02
         0.29908E-02
         0.28366E-02
         0.32286E-02
         0.31115E-02
         0.30441E-02
         0.20678E-02
         0.18822E-02
         0.22630E-02
         0.25964E-02
         0.28005E-02
         0.33357E-02
         0.30619E-02
         0.32482E-02
         0.26320E-02
         0.23700E-02
         0.26613E-02
         0.25185E-02
         0.26874E-02
         0.26552E-02
         0.10114E-03
         0.36354E-04
         0.36219E-04
         0.30269E-04
         0.10175E-03
         0.61872E-04
         0.34953E-05
         0.73238E-04
         0.52501E-04
         0.64942E-04
         0.12978E-07
         0.32330E-03
         0.19334E-03
         0.74257E-05
         0.35720E-03
         0.49593E-04
         0.21084E-04
         0.18340E-04
         0.18674E-04
         0.51377E-05
         0.19719E-03
         0.18024E-03
         0.15513E-03
         0.31300E-05
         0.14721E-04
        -0.35277E-05
        -0.75441E-05
        -0.40474E-04
        -0.15515E-04
         0.20932E-04
         0.35514E-04
         0.49643E-05
         0.25704E-04
         0.32451E-04
         0.15648E-03
         0.54860E-04
         0.95209E-04
         0.23410E-03
         0.13881E-03
         0.12149E-03
         0.25041E-03
         0.19791E-03
         0.19911E-03
         0.11097E-03
         0.88655E-04
         0.17652E-03
         0.77360E-04
         0.57624E-04
         0.42620E-04
         0.62951E-04
         0.15253E-03
         0.82257E-04
         0.27175E-02
         0.28896E-02
         0.31634E-02
         0.31393E-02
         0.35620E-02
         0.40890E-02
         0.37496E-02
         0.29896E-02
         0.28356E-02
         0.32274E-02
         0.31103E-02
         0.30439E-02
         0.20678E-02
         0.18825E-02
         0.22640E-02
         0.25984E-02
         0.28027E-02
         0.33378E-02
         0.30621E-02
         0.32484E-02
         0.26320E-02
         0.23703E-02
         0.26599E-02
         0.25157E-02
         0.26848E-02
         0.26529E-02
         0.10039E-03
         0.35467E-04
         0.35387E-04
         0.29486E-04
         0.10065E-03
         0.60862E-04
         0.25729E-05
         0.72359E-04
         0.51690E-04
         0.64088E-04
        -0.10620E-05
         0.32205E-03
         0.19234E-03
         0.60879E-05
         0.35668E-03
         0.48827E-04
         0.20160E-04
         0.17487E-04
         0.17726E-04
         0.41919E-05
         0.19616E-03
         0.17914E-03
         0.15410E-03
         0.21897E-05
         0.13791E-04
        -0.44227E-05
        -0.88800E-05
        -0.41598E-04
        -0.15960E-04
         0.20359E-04
         0.34722E-04
         0.40298E-05
         0.24791E-04
         0.31555E-04
         0.15546E-03
         0.53795E-04
         0.94094E-04
         0.23342E-03
         0.13833E-03
         0.12116E-03
         0.24968E-03
         0.19694E-03
         0.19802E-03
         0.10999E-03
         0.87576E-04
         0.17533E-03
         0.76307E-04
         0.56651E-04
         0.41568E-04
         0.61767E-04
         0.15119E-03
         0.81000E-04
         0.27134E-02
         0.28862E-02
         0.31611E-02
         0.31372E-02
         0.35587E-02
         0.40841E-02
         0.37442E-02
         0.29858E-02
         0.28321E-02
         0.32232E-02
         0.31067E-02
         0.30417E-02
         0.20657E-02
         0.18807E-02
         0.22629E-02
         0.25982E-02
         0.28027E-02
         0.33371E-02
         0.30595E-02
         0.32458E-02
         0.26296E-02
         0.23682E-02
         0.26561E-02
         0.25104E-02
         0.26799E-02
         0.26482E-02
         0.10099E-03
         0.35529E-04
         0.35577E-04
         0.29842E-04
         0.10092E-03
         0.61130E-04
         0.27632E-05
         0.73077E-04
         0.52421E-04
         0.65353E-04
        -0.74503E-06
         0.32208E-03
         0.19220E-03
         0.66157E-05
         0.35802E-03
         0.49583E-04
         0.20883E-04
         0.17914E-04
         0.18280E-04
         0.47168E-05
         0.19673E-03
         0.17951E-03
         0.15490E-03
         0.28935E-05
         0.15059E-04
        -0.37703E-05
        -0.77224E-05
        -0.40321E-04
        -0.14839E-04
         0.21425E-04
         0.35309E-04
         0.44281E-05
         0.24995E-04
         0.31442E-04
         0.15580E-03
         0.53701E-04
         0.93758E-04
         0.23489E-03
         0.13987E-03
         0.12225E-03
         0.25050E-03
         0.19779E-03
         0.19880E-03
         0.11077E-03
         0.87995E-04
         0.17558E-03
         0.76511E-04
         0.57096E-04
         0.41818E-04
         0.61656E-04
         0.15114E-03
         0.80830E-04
         0.27122E-02
         0.28859E-02
         0.31613E-02
         0.31368E-02
         0.35566E-02
         0.40807E-02
         0.37420E-02
         0.29851E-02
         0.28314E-02
         0.32213E-02
         0.31058E-02
         0.30429E-02
         0.20665E-02
         0.18810E-02
         0.22644E-02
         0.26011E-02
         0.28057E-02
         0.33394E-02
         0.30594E-02
         0.32454E-02
         0.26295E-02
         0.23685E-02
         0.26552E-02
         0.25083E-02
         0.26779E-02
         0.26463E-02
         0.34103E-02
         0.34869E-02
         0.34605E-02
         0.31550E-02
         0.40631E-02
         0.37590E-02
         0.37387E-02
         0.38567E-02
         0.33047E-02
         0.38603E-02
         0.41600E-02
         0.51314E-02
         0.45055E-02
         0.43028E-02
         0.53080E-02
         0.32290E-02
         0.34415E-02
         0.30065E-02
         0.35842E-02
         0.37349E-02
         0.41629E-02
         0.41770E-02
         0.39615E-02
         0.34148E-02
         0.38220E-02
         0.32646E-02
         0.42467E-02
         0.40840E-02
         0.41131E-02
         0.39593E-02
         0.32485E-02
         0.33850E-02
         0.31708E-02
         0.33155E-02
         0.45633E-02
         0.40040E-02
         0.40499E-02
         0.49331E-02
         0.46625E-02
         0.45741E-02
         0.48336E-02
         0.45294E-02
         0.43047E-02
         0.38062E-02
         0.39435E-02
         0.46100E-02
         0.40895E-02
         0.37940E-02
         0.36894E-02
         0.38521E-02
         0.43514E-02
         0.39031E-02
         0.10441E-01
         0.10430E-01
         0.10857E-01
         0.10570E-01
         0.11205E-01
         0.12088E-01
         0.11791E-01
         0.10952E-01
         0.10870E-01
         0.11487E-01
         0.11131E-01
         0.10617E-01
         0.88049E-02
         0.82356E-02
         0.87219E-02
         0.92177E-02
         0.95037E-02
         0.10626E-01
         0.10856E-01
         0.11059E-01
         0.98026E-02
         0.92974E-02
         0.98331E-02
         0.96118E-02
         0.97210E-02
         0.96941E-02
         0.35897E-01
         0.37481E-01
         0.36956E-01
         0.33821E-01
         0.41424E-01
         0.38935E-01
         0.40417E-01
         0.40814E-01
         0.35077E-01
         0.40788E-01
         0.44258E-01
         0.49862E-01
         0.45167E-01
         0.45534E-01
         0.51626E-01
         0.34407E-01
         0.36855E-01
         0.32318E-01
         0.38027E-01
         0.39925E-01
         0.41501E-01
         0.42349E-01
         0.39848E-01
         0.36614E-01
         0.41192E-01
         0.35369E-01
         0.45375E-01
         0.44579E-01
         0.44781E-01
         0.42604E-01
         0.34753E-01
         0.36459E-01
         0.34079E-01
         0.35580E-01
         0.45307E-01
         0.41566E-01
         0.41745E-01
         0.49878E-01
         0.48495E-01
         0.47896E-01
         0.48901E-01
         0.46450E-01
         0.44007E-01
         0.38878E-01
         0.40396E-01
         0.45321E-01
         0.41894E-01
         0.39450E-01
         0.38672E-01
         0.40063E-01
         0.43491E-01
         0.40192E-01
         0.74515E-01
         0.72936E-01
         0.74796E-01
         0.72591E-01
         0.75187E-01
         0.79536E-01
         0.80322E-01
         0.79058E-01
         0.79330E-01
         0.81590E-01
         0.79248E-01
         0.74746E-01
         0.66160E-01
         0.62465E-01
         0.63160E-01
         0.64362E-01
         0.65220E-01
         0.71045E-01
         0.75273E-01
         0.75820E-01
         0.69760E-01
         0.67401E-01
         0.69898E-01
         0.69236E-01
         0.68720E-01
         0.68448E-01
  
SCALARS                      strain_yz  double 1
LOOKUP_TABLE default
        -0.30661E-02
         0.95582E-03
         0.25888E-02
         0.14301E-02
        -0.19941E-09
        -0.54960E-10
        -0.24712E-09
        -0.18849E-09
         0.92946E-02
        -0.62482E-02
        -0.36777E-09
        -0.32378E-09
         0.73934E-02
         0.37451E-03
         0.26320E-09
        -0.16874E-10
        -0.31112E-02
        -0.94915E-02
         0.38723E-11
         0.39621E-10
         0.45410E-02
         0.16004E-01
         0.18463E-01
         0.60333E-09
         0.10419E-08
         0.87093E-09
         0.15810E-02
         0.14681E-01
         0.43399E-09
         0.84194E-09
        -0.35436E-02
        -0.28399E-02
         0.28340E-02
         0.22499E-09
         0.22968E-09
        -0.47683E-11
        -0.10038E-01
        -0.86511E-02
         0.41402E-09
         0.32212E-09
        -0.94520E-02
        -0.55105E-02
         0.31289E-09
         0.28594E-09
        -0.91991E-02
        -0.32684E-02
        -0.10379E-10
         0.16055E-09
        -0.67630E-02
         0.75589E-10
        -0.86247E-03
        -0.61222E-11
        -0.35450E-03
         0.29239E-09
         0.22751E-02
         0.17009E-09
         0.74265E-02
        -0.14730E-02
         0.46143E-11
        -0.93654E-11
        -0.42901E-02
        -0.15167E-01
        -0.62870E-10
        -0.23516E-09
        -0.26416E-02
        -0.12690E-09
        -0.10926E-01
        -0.15460E-09
         0.80174E-02
         0.41978E-02
        -0.19106E-10
         0.25226E-09
         0.14318E-01
         0.55393E-09
         0.17937E-01
         0.53634E-09
         0.17759E-01
         0.40714E-09
         0.14779E-01
         0.34125E-09
         0.22869E-01
         0.18471E-01
         0.21891E-09
        -0.48537E-10
         0.28524E-02
        -0.54310E-11
        -0.14355E-01
        -0.34022E-09
        -0.32666E-01
        -0.59559E-09
        -0.44241E-01
        -0.26904E-01
        -0.88337E-09
        -0.71501E-09
        -0.19337E-01
        -0.55503E-09
        -0.17623E-01
        -0.56783E-09
        -0.16915E-01
        -0.61054E-09
        -0.28031E-01
        -0.23614E-01
        -0.56777E-09
        -0.27205E-09
         0.17415E-01
        -0.68616E-02
         0.19964E-09
        -0.24809E-09
         0.42553E-01
         0.66415E-09
         0.63803E-01
         0.97149E-09
         0.74686E-01
         0.11998E-08
         0.79024E-01
         0.11901E-08
         0.83648E-01
         0.94181E-09
         0.79848E-01
         0.72885E-09
         0.74642E-01
         0.67789E-09
         0.66552E-01
         0.64497E-09
         0.52266E-01
         0.41218E-09
         0.40248E-01
         0.13608E-09
         0.23007E-01
         0.87933E-10
        -0.17753E-02
         0.13217E-09
        -0.25169E-01
         0.68264E-10
        -0.47115E-01
        -0.20644E-09
        -0.72833E-01
        -0.58271E-09
        -0.73596E-01
        -0.90993E-09
        -0.74280E-01
        -0.11929E-08
        -0.92444E-01
        -0.11919E-08
        -0.10013E+00
        -0.10405E-08
        -0.94551E-01
        -0.10140E-08
        -0.73946E-01
        -0.10203E-08
        -0.50238E-01
        -0.80685E-09
        -0.36655E-01
        -0.47712E-09
        -0.27366E-01
        -0.36891E-09
        -0.74101E-02
        -0.38491E-02
        -0.33583E-02
        -0.10369E-02
        -0.34538E-02
        -0.36573E-02
        -0.38746E-03
        -0.59414E-02
        -0.50643E-02
        -0.74624E-02
         0.39229E-02
         0.16748E-01
         0.11425E-01
         0.13248E-02
         0.16909E-01
         0.19595E-02
        -0.17379E-02
         0.11154E-02
         0.14678E-02
        -0.11081E-02
         0.10194E-02
         0.83962E-03
        -0.28268E-02
         0.23810E-03
        -0.50940E-02
         0.75319E-03
         0.39128E-04
         0.68393E-03
         0.83159E-03
        -0.40012E-02
         0.19137E-02
        -0.20863E-02
         0.13917E-02
        -0.34013E-03
         0.56600E-03
         0.30620E-02
         0.68593E-02
         0.14847E-01
         0.13568E-01
         0.11482E-01
         0.10823E-01
         0.26814E-02
        -0.21855E-02
        -0.59977E-02
        -0.99295E-02
        -0.16261E-01
        -0.10647E-01
        -0.76110E-02
        -0.81223E-02
        -0.86504E-02
        -0.10167E-01
        -0.46335E-02
         0.87909E-02
        -0.10563E-01
         0.28616E-01
         0.39533E-01
         0.50412E-01
         0.59911E-01
         0.60245E-01
         0.54519E-01
         0.51870E-01
         0.49032E-01
         0.31673E-01
         0.13897E-01
         0.61075E-02
         0.26912E-02
        -0.41199E-02
        -0.16281E-01
        -0.29928E-01
        -0.39095E-01
        -0.47384E-01
        -0.54330E-01
        -0.51141E-01
        -0.48336E-01
        -0.44975E-01
        -0.31290E-01
        -0.18266E-01
        -0.16033E-01
        -0.12413E-01
        -0.78293E-02
        -0.72450E-02
        -0.17185E-02
        -0.94098E-02
        -0.42321E-02
        -0.33560E-02
        -0.11732E-01
        -0.76937E-02
        -0.11034E-01
         0.58340E-02
         0.25247E-01
         0.14958E-01
         0.21495E-02
         0.24874E-01
         0.47076E-02
        -0.14266E-02
         0.13620E-02
         0.61390E-02
         0.11869E-02
         0.52912E-02
         0.37567E-02
        -0.21779E-02
         0.18383E-02
        -0.74306E-02
         0.18379E-02
         0.46120E-03
         0.85737E-03
        -0.13695E-02
        -0.74123E-02
         0.50734E-02
         0.13364E-02
         0.32793E-02
         0.28473E-02
        -0.13576E-02
         0.41385E-02
         0.79015E-02
         0.18905E-01
         0.16671E-01
         0.14692E-01
         0.10793E-01
        -0.26670E-02
        -0.54935E-02
        -0.68621E-02
        -0.88362E-02
        -0.18050E-01
        -0.10503E-01
        -0.69456E-02
        -0.87295E-02
        -0.10305E-01
        -0.10678E-01
        -0.80118E-03
         0.13304E-01
        -0.19030E-01
         0.44282E-01
         0.57227E-01
         0.73853E-01
         0.88612E-01
         0.86804E-01
         0.75818E-01
         0.72661E-01
         0.71884E-01
         0.45142E-01
         0.14879E-01
         0.59298E-02
         0.50813E-02
        -0.23532E-02
        -0.19961E-01
        -0.39987E-01
        -0.55646E-01
        -0.72424E-01
        -0.80306E-01
        -0.70529E-01
        -0.66683E-01
        -0.66479E-01
        -0.46809E-01
        -0.24316E-01
        -0.23024E-01
        -0.12421E-01
        -0.78307E-02
        -0.72486E-02
        -0.17311E-02
        -0.94109E-02
        -0.42354E-02
        -0.33602E-02
        -0.11752E-01
        -0.77075E-02
        -0.11076E-01
         0.58374E-02
         0.25245E-01
         0.14961E-01
         0.21496E-02
         0.24906E-01
         0.47078E-02
        -0.14396E-02
         0.13600E-02
         0.61431E-02
         0.11803E-02
         0.53042E-02
         0.37603E-02
        -0.21784E-02
         0.18374E-02
        -0.74643E-02
         0.18346E-02
         0.46664E-03
         0.86217E-03
        -0.13605E-02
        -0.74280E-02
         0.50743E-02
         0.13335E-02
         0.32865E-02
         0.28520E-02
        -0.13449E-02
         0.41412E-02
         0.79011E-02
         0.18934E-01
         0.16707E-01
         0.14709E-01
         0.10802E-01
        -0.26599E-02
        -0.54991E-02
        -0.68656E-02
        -0.88365E-02
        -0.18050E-01
        -0.10504E-01
        -0.69415E-02
        -0.87178E-02
        -0.10292E-01
        -0.10673E-01
        -0.78905E-03
         0.13292E-01
        -0.19031E-01
         0.44290E-01
         0.57228E-01
         0.73844E-01
         0.88583E-01
         0.86767E-01
         0.75795E-01
         0.72646E-01
         0.71865E-01
         0.45132E-01
         0.14886E-01
         0.59294E-02
         0.50917E-02
        -0.23340E-02
        -0.19972E-01
        -0.40005E-01
        -0.55658E-01
        -0.72423E-01
        -0.80300E-01
        -0.70524E-01
        -0.66681E-01
        -0.66462E-01
        -0.46776E-01
        -0.24289E-01
        -0.22994E-01
        -0.12429E-01
        -0.78322E-02
        -0.72523E-02
        -0.17438E-02
        -0.94119E-02
        -0.42389E-02
        -0.33644E-02
        -0.11772E-01
        -0.77214E-02
        -0.11117E-01
         0.58409E-02
         0.25243E-01
         0.14965E-01
         0.21494E-02
         0.24938E-01
         0.47082E-02
        -0.14527E-02
         0.13579E-02
         0.61474E-02
         0.11735E-02
         0.53174E-02
         0.37638E-02
        -0.21793E-02
         0.18363E-02
        -0.74976E-02
         0.18308E-02
         0.47244E-03
         0.86726E-03
        -0.13506E-02
        -0.74431E-02
         0.50751E-02
         0.13300E-02
         0.32938E-02
         0.28566E-02
        -0.13320E-02
         0.41440E-02
         0.79006E-02
         0.18963E-01
         0.16743E-01
         0.14726E-01
         0.10810E-01
        -0.26519E-02
        -0.55044E-02
        -0.68700E-02
        -0.88376E-02
        -0.18051E-01
        -0.10505E-01
        -0.69372E-02
        -0.87062E-02
        -0.10278E-01
        -0.10669E-01
        -0.77696E-03
         0.13279E-01
        -0.19032E-01
         0.44299E-01
         0.57228E-01
         0.73835E-01
         0.88553E-01
         0.86731E-01
         0.75772E-01
         0.72631E-01
         0.71845E-01
         0.45123E-01
         0.14893E-01
         0.59290E-02
         0.51022E-02
        -0.23148E-02
        -0.19982E-01
        -0.40024E-01
        -0.55672E-01
        -0.72422E-01
        -0.80295E-01
        -0.70519E-01
        -0.66678E-01
        -0.66445E-01
        -0.46742E-01
        -0.24262E-01
        -0.22963E-01
        -0.12437E-01
        -0.78336E-02
        -0.72559E-02
        -0.17566E-02
        -0.94130E-02
        -0.42423E-02
        -0.33689E-02
        -0.11791E-01
        -0.77354E-02
        -0.11157E-01
         0.58444E-02
         0.25241E-01
         0.14969E-01
         0.21494E-02
         0.24969E-01
         0.47085E-02
        -0.14661E-02
         0.13558E-02
         0.61519E-02
         0.11664E-02
         0.53310E-02
         0.37670E-02
        -0.21812E-02
         0.18345E-02
        -0.75298E-02
         0.18258E-02
         0.47844E-03
         0.87401E-03
        -0.13384E-02
        -0.74568E-02
         0.50755E-02
         0.13252E-02
         0.33010E-02
         0.28612E-02
        -0.13193E-02
         0.41467E-02
         0.79001E-02
         0.18992E-01
         0.16780E-01
         0.14745E-01
         0.10820E-01
        -0.26418E-02
        -0.55088E-02
        -0.68768E-02
        -0.88402E-02
        -0.18051E-01
        -0.10507E-01
        -0.69330E-02
        -0.86947E-02
        -0.10264E-01
        -0.10664E-01
        -0.76491E-03
         0.13267E-01
        -0.19033E-01
         0.44307E-01
         0.57229E-01
         0.73827E-01
         0.88523E-01
         0.86694E-01
         0.75749E-01
         0.72616E-01
         0.71825E-01
         0.45115E-01
         0.14902E-01
         0.59291E-02
         0.51125E-02
        -0.22953E-02
        -0.19994E-01
        -0.40046E-01
        -0.55687E-01
        -0.72421E-01
        -0.80290E-01
        -0.70514E-01
        -0.66675E-01
        -0.66428E-01
        -0.46709E-01
        -0.24236E-01
        -0.22933E-01
        -0.12444E-01
        -0.78351E-02
        -0.72596E-02
        -0.17693E-02
        -0.94141E-02
        -0.42457E-02
        -0.33730E-02
        -0.11811E-01
        -0.77493E-02
        -0.11197E-01
         0.58479E-02
         0.25238E-01
         0.14973E-01
         0.21496E-02
         0.25001E-01
         0.47090E-02
        -0.14796E-02
         0.13537E-02
         0.61566E-02
         0.11589E-02
         0.53446E-02
         0.37698E-02
        -0.21840E-02
         0.18319E-02
        -0.75607E-02
         0.18195E-02
         0.48512E-03
         0.88227E-03
        -0.13237E-02
        -0.74691E-02
         0.50755E-02
         0.13189E-02
         0.33083E-02
         0.28658E-02
        -0.13064E-02
         0.41494E-02
         0.78997E-02
         0.19022E-01
         0.16818E-01
         0.14764E-01
         0.10832E-01
        -0.26295E-02
        -0.55121E-02
        -0.68860E-02
        -0.88446E-02
        -0.18054E-01
        -0.10509E-01
        -0.69292E-02
        -0.86833E-02
        -0.10250E-01
        -0.10660E-01
        -0.75278E-03
         0.13254E-01
        -0.19034E-01
         0.44315E-01
         0.57229E-01
         0.73818E-01
         0.88493E-01
         0.86658E-01
         0.75727E-01
         0.72601E-01
         0.71805E-01
         0.45107E-01
         0.14912E-01
         0.59297E-02
         0.51226E-02
        -0.22759E-02
        -0.20007E-01
        -0.40070E-01
        -0.55704E-01
        -0.72420E-01
        -0.80285E-01
        -0.70509E-01
        -0.66672E-01
        -0.66411E-01
        -0.46676E-01
        -0.24209E-01
        -0.22903E-01
        -0.12452E-01
        -0.78360E-02
        -0.72631E-02
        -0.17822E-02
        -0.94152E-02
        -0.42491E-02
        -0.33767E-02
        -0.11830E-01
        -0.77633E-02
        -0.11236E-01
         0.58519E-02
         0.25236E-01
         0.14977E-01
         0.21499E-02
         0.25033E-01
         0.47096E-02
        -0.14934E-02
         0.13516E-02
         0.61614E-02
         0.11512E-02
         0.53584E-02
         0.37725E-02
        -0.21873E-02
         0.18291E-02
        -0.75909E-02
         0.18128E-02
         0.49231E-03
         0.89140E-03
        -0.13080E-02
        -0.74807E-02
         0.50752E-02
         0.13120E-02
         0.33156E-02
         0.28707E-02
        -0.12935E-02
         0.41524E-02
         0.78997E-02
         0.19052E-01
         0.16855E-01
         0.14784E-01
         0.10844E-01
        -0.26164E-02
        -0.55149E-02
        -0.68959E-02
        -0.88500E-02
        -0.18057E-01
        -0.10512E-01
        -0.69261E-02
        -0.86725E-02
        -0.10236E-01
        -0.10655E-01
        -0.74066E-03
         0.13242E-01
        -0.19035E-01
         0.44323E-01
         0.57230E-01
         0.73809E-01
         0.88463E-01
         0.86621E-01
         0.75704E-01
         0.72585E-01
         0.71785E-01
         0.45100E-01
         0.14923E-01
         0.59305E-02
         0.51327E-02
        -0.22564E-02
        -0.20020E-01
        -0.40096E-01
        -0.55721E-01
        -0.72419E-01
        -0.80280E-01
        -0.70504E-01
        -0.66670E-01
        -0.66394E-01
        -0.46643E-01
        -0.24182E-01
        -0.22873E-01
        -0.12458E-01
        -0.78358E-02
        -0.72667E-02
        -0.17954E-02
        -0.94164E-02
        -0.42526E-02
        -0.33796E-02
        -0.11847E-01
        -0.77776E-02
        -0.11273E-01
         0.58567E-02
         0.25235E-01
         0.14982E-01
         0.21516E-02
         0.25065E-01
         0.47103E-02
        -0.15076E-02
         0.13495E-02
         0.61661E-02
         0.11435E-02
         0.53721E-02
         0.37753E-02
        -0.21907E-02
         0.18264E-02
        -0.76205E-02
         0.18060E-02
         0.50077E-03
         0.90111E-03
        -0.12920E-02
        -0.74920E-02
         0.50748E-02
         0.13045E-02
         0.33233E-02
         0.28758E-02
        -0.12805E-02
         0.41556E-02
         0.78999E-02
         0.19082E-01
         0.16894E-01
         0.14804E-01
         0.10856E-01
        -0.26030E-02
        -0.55177E-02
        -0.69060E-02
        -0.88558E-02
        -0.18060E-01
        -0.10516E-01
        -0.69250E-02
        -0.86634E-02
        -0.10223E-01
        -0.10651E-01
        -0.72839E-03
         0.13229E-01
        -0.19036E-01
         0.44331E-01
         0.57230E-01
         0.73800E-01
         0.88432E-01
         0.86584E-01
         0.75681E-01
         0.72570E-01
         0.71765E-01
         0.45093E-01
         0.14934E-01
         0.59314E-02
         0.51428E-02
        -0.22370E-02
        -0.20033E-01
        -0.40121E-01
        -0.55738E-01
        -0.72417E-01
        -0.80275E-01
        -0.70501E-01
        -0.66668E-01
        -0.66377E-01
        -0.46609E-01
        -0.24156E-01
        -0.22842E-01
        -0.12465E-01
        -0.78353E-02
        -0.72702E-02
        -0.18088E-02
        -0.94177E-02
        -0.42560E-02
        -0.33819E-02
        -0.11863E-01
        -0.77921E-02
        -0.11310E-01
         0.58619E-02
         0.25234E-01
         0.14987E-01
         0.21535E-02
         0.25097E-01
         0.47113E-02
        -0.15220E-02
         0.13474E-02
         0.61709E-02
         0.11358E-02
         0.53859E-02
         0.37781E-02
        -0.21939E-02
         0.18237E-02
        -0.76497E-02
         0.17993E-02
         0.50957E-03
         0.91107E-03
        -0.12759E-02
        -0.75032E-02
         0.50743E-02
         0.12968E-02
         0.33310E-02
         0.28811E-02
        -0.12674E-02
         0.41590E-02
         0.79005E-02
         0.19112E-01
         0.16932E-01
         0.14825E-01
         0.10868E-01
        -0.25896E-02
        -0.55204E-02
        -0.69160E-02
        -0.88618E-02
        -0.18064E-01
        -0.10521E-01
        -0.69245E-02
        -0.86551E-02
        -0.10210E-01
        -0.10646E-01
        -0.71613E-03
         0.13217E-01
        -0.19037E-01
         0.44339E-01
         0.57230E-01
         0.73791E-01
         0.88402E-01
         0.86547E-01
         0.75658E-01
         0.72555E-01
         0.71744E-01
         0.45086E-01
         0.14945E-01
         0.59322E-02
         0.51531E-02
        -0.22174E-02
        -0.20046E-01
        -0.40147E-01
        -0.55755E-01
        -0.72415E-01
        -0.80270E-01
        -0.70498E-01
        -0.66667E-01
        -0.66359E-01
        -0.46576E-01
        -0.24129E-01
        -0.22812E-01
        -0.12471E-01
        -0.78348E-02
        -0.72736E-02
        -0.18222E-02
        -0.94189E-02
        -0.42594E-02
        -0.33842E-02
        -0.11879E-01
        -0.78065E-02
        -0.11346E-01
         0.58669E-02
         0.25233E-01
         0.14992E-01
         0.21557E-02
         0.25130E-01
         0.47122E-02
        -0.15364E-02
         0.13452E-02
         0.61756E-02
         0.11281E-02
         0.53997E-02
         0.37809E-02
        -0.21972E-02
         0.18210E-02
        -0.76788E-02
         0.17926E-02
         0.51859E-03
         0.92092E-03
        -0.12599E-02
        -0.75144E-02
         0.50737E-02
         0.12891E-02
         0.33387E-02
         0.28863E-02
        -0.12543E-02
         0.41622E-02
         0.79009E-02
         0.19143E-01
         0.16970E-01
         0.14845E-01
         0.10880E-01
        -0.25763E-02
        -0.55230E-02
        -0.69262E-02
        -0.88680E-02
        -0.18069E-01
        -0.10526E-01
        -0.69240E-02
        -0.86469E-02
        -0.10198E-01
        -0.10642E-01
        -0.70380E-03
         0.13204E-01
        -0.19038E-01
         0.44346E-01
         0.57231E-01
         0.73782E-01
         0.88372E-01
         0.86510E-01
         0.75635E-01
         0.72541E-01
         0.71724E-01
         0.45078E-01
         0.14956E-01
         0.59332E-02
         0.51635E-02
        -0.21980E-02
        -0.20059E-01
        -0.40172E-01
        -0.55771E-01
        -0.72413E-01
        -0.80265E-01
        -0.70494E-01
        -0.66666E-01
        -0.66342E-01
        -0.46542E-01
        -0.24103E-01
        -0.22782E-01
        -0.12477E-01
        -0.78341E-02
        -0.72771E-02
        -0.18355E-02
        -0.94200E-02
        -0.42627E-02
        -0.33865E-02
        -0.11895E-01
        -0.78210E-02
        -0.11382E-01
         0.58722E-02
         0.25231E-01
         0.14997E-01
         0.21576E-02
         0.25162E-01
         0.47131E-02
        -0.15509E-02
         0.13431E-02
         0.61803E-02
         0.11203E-02
         0.54134E-02
         0.37837E-02
        -0.22003E-02
         0.18184E-02
        -0.77080E-02
         0.17859E-02
         0.52736E-03
         0.93067E-03
        -0.12439E-02
        -0.75256E-02
         0.50731E-02
         0.12814E-02
         0.33463E-02
         0.28915E-02
        -0.12411E-02
         0.41656E-02
         0.79015E-02
         0.19174E-01
         0.17009E-01
         0.14865E-01
         0.10892E-01
        -0.25630E-02
        -0.55258E-02
        -0.69362E-02
        -0.88740E-02
        -0.18073E-01
        -0.10531E-01
        -0.69238E-02
        -0.86386E-02
        -0.10185E-01
        -0.10638E-01
        -0.69153E-03
         0.13192E-01
        -0.19039E-01
         0.44354E-01
         0.57231E-01
         0.73773E-01
         0.88342E-01
         0.86473E-01
         0.75612E-01
         0.72526E-01
         0.71703E-01
         0.45071E-01
         0.14967E-01
         0.59341E-02
         0.51739E-02
        -0.21786E-02
        -0.20072E-01
        -0.40198E-01
        -0.55788E-01
        -0.72411E-01
        -0.80259E-01
        -0.70491E-01
        -0.66664E-01
        -0.66324E-01
        -0.46509E-01
        -0.24077E-01
        -0.22751E-01
        -0.12484E-01
        -0.78335E-02
        -0.72805E-02
        -0.18489E-02
        -0.94212E-02
        -0.42661E-02
        -0.33890E-02
        -0.11911E-01
        -0.78355E-02
        -0.11418E-01
         0.58775E-02
         0.25230E-01
         0.15002E-01
         0.21597E-02
         0.25194E-01
         0.47140E-02
        -0.15654E-02
         0.13409E-02
         0.61850E-02
         0.11124E-02
         0.54272E-02
         0.37863E-02
        -0.22036E-02
         0.18157E-02
        -0.77370E-02
         0.17792E-02
         0.53629E-03
         0.94027E-03
        -0.12280E-02
        -0.75368E-02
         0.50725E-02
         0.12737E-02
         0.33540E-02
         0.28968E-02
        -0.12279E-02
         0.41689E-02
         0.79022E-02
         0.19204E-01
         0.17047E-01
         0.14885E-01
         0.10905E-01
        -0.25497E-02
        -0.55285E-02
        -0.69461E-02
        -0.88801E-02
        -0.18077E-01
        -0.10536E-01
        -0.69233E-02
        -0.86304E-02
        -0.10172E-01
        -0.10633E-01
        -0.67922E-03
         0.13179E-01
        -0.19040E-01
         0.44361E-01
         0.57232E-01
         0.73764E-01
         0.88312E-01
         0.86435E-01
         0.75588E-01
         0.72511E-01
         0.71683E-01
         0.45064E-01
         0.14978E-01
         0.59351E-02
         0.51842E-02
        -0.21591E-02
        -0.20085E-01
        -0.40223E-01
        -0.55805E-01
        -0.72409E-01
        -0.80254E-01
        -0.70487E-01
        -0.66663E-01
        -0.66307E-01
        -0.46476E-01
        -0.24051E-01
        -0.22721E-01
        -0.12490E-01
        -0.78329E-02
        -0.72840E-02
        -0.18623E-02
        -0.94224E-02
        -0.42695E-02
        -0.33912E-02
        -0.11927E-01
        -0.78501E-02
        -0.11454E-01
         0.58827E-02
         0.25229E-01
         0.15007E-01
         0.21618E-02
         0.25226E-01
         0.47149E-02
        -0.15799E-02
         0.13387E-02
         0.61898E-02
         0.11047E-02
         0.54409E-02
         0.37890E-02
        -0.22069E-02
         0.18132E-02
        -0.77660E-02
         0.17726E-02
         0.54502E-03
         0.94983E-03
        -0.12120E-02
        -0.75479E-02
         0.50719E-02
         0.12660E-02
         0.33617E-02
         0.29021E-02
        -0.12147E-02
         0.41723E-02
         0.79026E-02
         0.19235E-01
         0.17086E-01
         0.14905E-01
         0.10917E-01
        -0.25366E-02
        -0.55311E-02
        -0.69561E-02
        -0.88862E-02
        -0.18081E-01
        -0.10540E-01
        -0.69232E-02
        -0.86222E-02
        -0.10159E-01
        -0.10629E-01
        -0.66693E-03
         0.13167E-01
        -0.19041E-01
         0.44369E-01
         0.57232E-01
         0.73755E-01
         0.88281E-01
         0.86398E-01
         0.75565E-01
         0.72496E-01
         0.71662E-01
         0.45056E-01
         0.14988E-01
         0.59360E-02
         0.51944E-02
        -0.21396E-02
        -0.20098E-01
        -0.40249E-01
        -0.55821E-01
        -0.72407E-01
        -0.80249E-01
        -0.70484E-01
        -0.66661E-01
        -0.66289E-01
        -0.46442E-01
        -0.24024E-01
        -0.22691E-01
        -0.12496E-01
        -0.78323E-02
        -0.72875E-02
        -0.18758E-02
        -0.94236E-02
        -0.42729E-02
        -0.33935E-02
        -0.11942E-01
        -0.78646E-02
        -0.11490E-01
         0.58880E-02
         0.25228E-01
         0.15012E-01
         0.21636E-02
         0.25259E-01
         0.47158E-02
        -0.15945E-02
         0.13365E-02
         0.61945E-02
         0.10969E-02
         0.54547E-02
         0.37917E-02
        -0.22101E-02
         0.18106E-02
        -0.77950E-02
         0.17659E-02
         0.55400E-03
         0.95928E-03
        -0.11961E-02
        -0.75590E-02
         0.50713E-02
         0.12582E-02
         0.33693E-02
         0.29073E-02
        -0.12014E-02
         0.41757E-02
         0.79032E-02
         0.19266E-01
         0.17124E-01
         0.14925E-01
         0.10929E-01
        -0.25233E-02
        -0.55338E-02
        -0.69662E-02
        -0.88924E-02
        -0.18085E-01
        -0.10545E-01
        -0.69228E-02
        -0.86141E-02
        -0.10147E-01
        -0.10625E-01
        -0.65467E-03
         0.13154E-01
        -0.19042E-01
         0.44376E-01
         0.57233E-01
         0.73746E-01
         0.88251E-01
         0.86361E-01
         0.75542E-01
         0.72481E-01
         0.71641E-01
         0.45049E-01
         0.14999E-01
         0.59369E-02
         0.52047E-02
        -0.21201E-02
        -0.20111E-01
        -0.40274E-01
        -0.55838E-01
        -0.72405E-01
        -0.80244E-01
        -0.70481E-01
        -0.66660E-01
        -0.66271E-01
        -0.46409E-01
        -0.23998E-01
        -0.22661E-01
        -0.12502E-01
        -0.78318E-02
        -0.72910E-02
        -0.18892E-02
        -0.94249E-02
        -0.42762E-02
        -0.33961E-02
        -0.11958E-01
        -0.78791E-02
        -0.11526E-01
         0.58932E-02
         0.25226E-01
         0.15017E-01
         0.21657E-02
         0.25291E-01
         0.47167E-02
        -0.16091E-02
         0.13343E-02
         0.61991E-02
         0.10892E-02
         0.54685E-02
         0.37944E-02
        -0.22133E-02
         0.18080E-02
        -0.78240E-02
         0.17592E-02
         0.56274E-03
         0.96862E-03
        -0.11802E-02
        -0.75701E-02
         0.50707E-02
         0.12505E-02
         0.33769E-02
         0.29126E-02
        -0.11881E-02
         0.41790E-02
         0.79036E-02
         0.19297E-01
         0.17163E-01
         0.14945E-01
         0.10941E-01
        -0.25100E-02
        -0.55364E-02
        -0.69762E-02
        -0.88986E-02
        -0.18089E-01
        -0.10550E-01
        -0.69224E-02
        -0.86057E-02
        -0.10134E-01
        -0.10620E-01
        -0.64249E-03
         0.13142E-01
        -0.19043E-01
         0.44384E-01
         0.57233E-01
         0.73738E-01
         0.88221E-01
         0.86323E-01
         0.75519E-01
         0.72466E-01
         0.71620E-01
         0.45041E-01
         0.15010E-01
         0.59378E-02
         0.52151E-02
        -0.21007E-02
        -0.20124E-01
        -0.40300E-01
        -0.55855E-01
        -0.72403E-01
        -0.80238E-01
        -0.70478E-01
        -0.66658E-01
        -0.66254E-01
        -0.46376E-01
        -0.23972E-01
        -0.22630E-01
        -0.12509E-01
        -0.78312E-02
        -0.72944E-02
        -0.19026E-02
        -0.94260E-02
        -0.42796E-02
        -0.33984E-02
        -0.11974E-01
        -0.78937E-02
        -0.11562E-01
         0.58985E-02
         0.25225E-01
         0.15022E-01
         0.21675E-02
         0.25324E-01
         0.47176E-02
        -0.16238E-02
         0.13322E-02
         0.62038E-02
         0.10814E-02
         0.54822E-02
         0.37970E-02
        -0.22165E-02
         0.18055E-02
        -0.78530E-02
         0.17525E-02
         0.57164E-03
         0.97778E-03
        -0.11644E-02
        -0.75812E-02
         0.50701E-02
         0.12427E-02
         0.33846E-02
         0.29179E-02
        -0.11748E-02
         0.41825E-02
         0.79041E-02
         0.19328E-01
         0.17202E-01
         0.14965E-01
         0.10953E-01
        -0.24968E-02
        -0.55391E-02
        -0.69862E-02
        -0.89047E-02
        -0.18093E-01
        -0.10555E-01
        -0.69222E-02
        -0.85975E-02
        -0.10121E-01
        -0.10616E-01
        -0.63022E-03
         0.13129E-01
        -0.19044E-01
         0.44391E-01
         0.57233E-01
         0.73729E-01
         0.88191E-01
         0.86286E-01
         0.75496E-01
         0.72451E-01
         0.71599E-01
         0.45034E-01
         0.15021E-01
         0.59387E-02
         0.52254E-02
        -0.20812E-02
        -0.20137E-01
        -0.40325E-01
        -0.55871E-01
        -0.72402E-01
        -0.80233E-01
        -0.70474E-01
        -0.66657E-01
        -0.66236E-01
        -0.46342E-01
        -0.23946E-01
        -0.22600E-01
        -0.12515E-01
        -0.78304E-02
        -0.72978E-02
        -0.19160E-02
        -0.94272E-02
        -0.42830E-02
        -0.34008E-02
        -0.11990E-01
        -0.79084E-02
        -0.11598E-01
         0.59037E-02
         0.25224E-01
         0.15027E-01
         0.21695E-02
         0.25356E-01
         0.47185E-02
        -0.16385E-02
         0.13300E-02
         0.62085E-02
         0.10736E-02
         0.54960E-02
         0.37996E-02
        -0.22197E-02
         0.18030E-02
        -0.78819E-02
         0.17458E-02
         0.58031E-03
         0.98683E-03
        -0.11487E-02
        -0.75923E-02
         0.50695E-02
         0.12350E-02
         0.33922E-02
         0.29232E-02
        -0.11613E-02
         0.41858E-02
         0.79046E-02
         0.19359E-01
         0.17240E-01
         0.14985E-01
         0.10966E-01
        -0.24835E-02
        -0.55419E-02
        -0.69960E-02
        -0.89109E-02
        -0.18097E-01
        -0.10560E-01
        -0.69218E-02
        -0.85893E-02
        -0.10108E-01
        -0.10612E-01
        -0.61795E-03
         0.13116E-01
        -0.19044E-01
         0.44398E-01
         0.57234E-01
         0.73720E-01
         0.88160E-01
         0.86248E-01
         0.75472E-01
         0.72436E-01
         0.71577E-01
         0.45027E-01
         0.15032E-01
         0.59395E-02
         0.52356E-02
        -0.20617E-02
        -0.20150E-01
        -0.40351E-01
        -0.55888E-01
        -0.72400E-01
        -0.80228E-01
        -0.70471E-01
        -0.66655E-01
        -0.66218E-01
        -0.46309E-01
        -0.23921E-01
        -0.22570E-01
        -0.12521E-01
        -0.78298E-02
        -0.73013E-02
        -0.19295E-02
        -0.94284E-02
        -0.42863E-02
        -0.34033E-02
        -0.12005E-01
        -0.79231E-02
        -0.11633E-01
         0.59090E-02
         0.25223E-01
         0.15032E-01
         0.21712E-02
         0.25388E-01
         0.47194E-02
        -0.16533E-02
         0.13277E-02
         0.62132E-02
         0.10659E-02
         0.55098E-02
         0.38020E-02
        -0.22229E-02
         0.18005E-02
        -0.79109E-02
         0.17391E-02
         0.58920E-03
         0.99579E-03
        -0.11329E-02
        -0.76032E-02
         0.50688E-02
         0.12272E-02
         0.33998E-02
         0.29285E-02
        -0.11479E-02
         0.41891E-02
         0.79050E-02
         0.19390E-01
         0.17279E-01
         0.15004E-01
         0.10978E-01
        -0.24704E-02
        -0.55446E-02
        -0.70061E-02
        -0.89171E-02
        -0.18101E-01
        -0.10565E-01
        -0.69217E-02
        -0.85812E-02
        -0.10095E-01
        -0.10608E-01
        -0.60578E-03
         0.13104E-01
        -0.19045E-01
         0.44406E-01
         0.57234E-01
         0.73711E-01
         0.88129E-01
         0.86210E-01
         0.75449E-01
         0.72422E-01
         0.71555E-01
         0.45020E-01
         0.15043E-01
         0.59401E-02
         0.52457E-02
        -0.20423E-02
        -0.20163E-01
        -0.40376E-01
        -0.55905E-01
        -0.72398E-01
        -0.80223E-01
        -0.70468E-01
        -0.66653E-01
        -0.66200E-01
        -0.46275E-01
        -0.23895E-01
        -0.22540E-01
        -0.12527E-01
        -0.78292E-02
        -0.73048E-02
        -0.19430E-02
        -0.94296E-02
        -0.42896E-02
        -0.34057E-02
        -0.12021E-01
        -0.79379E-02
        -0.11669E-01
         0.59143E-02
         0.25221E-01
         0.15037E-01
         0.21731E-02
         0.25420E-01
         0.47203E-02
        -0.16683E-02
         0.13255E-02
         0.62179E-02
         0.10586E-02
         0.55235E-02
         0.38044E-02
        -0.22261E-02
         0.17979E-02
        -0.79398E-02
         0.17324E-02
         0.59801E-03
         0.10047E-02
        -0.11172E-02
        -0.76134E-02
         0.50682E-02
         0.12194E-02
         0.34073E-02
         0.29339E-02
        -0.11344E-02
         0.41926E-02
         0.79056E-02
         0.19422E-01
         0.17317E-01
         0.15023E-01
         0.10990E-01
        -0.24572E-02
        -0.55475E-02
        -0.70160E-02
        -0.89233E-02
        -0.18105E-01
        -0.10569E-01
        -0.69213E-02
        -0.85729E-02
        -0.10083E-01
        -0.10603E-01
        -0.59360E-03
         0.13091E-01
        -0.19046E-01
         0.44413E-01
         0.57235E-01
         0.73702E-01
         0.88099E-01
         0.86172E-01
         0.75426E-01
         0.72406E-01
         0.71533E-01
         0.45013E-01
         0.15054E-01
         0.59404E-02
         0.52558E-02
        -0.20230E-02
        -0.20175E-01
        -0.40402E-01
        -0.55921E-01
        -0.72396E-01
        -0.80217E-01
        -0.70465E-01
        -0.66652E-01
        -0.66182E-01
        -0.46242E-01
        -0.23869E-01
        -0.22509E-01
        -0.12533E-01
        -0.78287E-02
        -0.73082E-02
        -0.19565E-02
        -0.94308E-02
        -0.42929E-02
        -0.34080E-02
        -0.12036E-01
        -0.79528E-02
        -0.11705E-01
         0.59195E-02
         0.25220E-01
         0.15042E-01
         0.21750E-02
         0.25453E-01
         0.47212E-02
        -0.16836E-02
         0.13233E-02
         0.62226E-02
         0.10516E-02
         0.55372E-02
         0.38067E-02
        -0.22293E-02
         0.17955E-02
        -0.79688E-02
         0.17257E-02
         0.60720E-03
         0.10135E-02
        -0.11016E-02
        -0.76229E-02
         0.50675E-02
         0.12116E-02
         0.34148E-02
         0.29392E-02
        -0.11209E-02
         0.41959E-02
         0.79061E-02
         0.19454E-01
         0.17355E-01
         0.15041E-01
         0.11001E-01
        -0.24439E-02
        -0.55505E-02
        -0.70260E-02
        -0.89296E-02
        -0.18110E-01
        -0.10574E-01
        -0.69209E-02
        -0.85648E-02
        -0.10070E-01
        -0.10599E-01
        -0.58133E-03
         0.13078E-01
        -0.19047E-01
         0.44420E-01
         0.57235E-01
         0.73693E-01
         0.88069E-01
         0.86134E-01
         0.75403E-01
         0.72391E-01
         0.71509E-01
         0.45008E-01
         0.15065E-01
         0.59402E-02
         0.52660E-02
        -0.20035E-02
        -0.20188E-01
        -0.40427E-01
        -0.55938E-01
        -0.72394E-01
        -0.80212E-01
        -0.70461E-01
        -0.66650E-01
        -0.66164E-01
        -0.46209E-01
        -0.23844E-01
        -0.22479E-01
        -0.12539E-01
        -0.78281E-02
        -0.73119E-02
        -0.19699E-02
        -0.94322E-02
        -0.42963E-02
        -0.34107E-02
        -0.12052E-01
        -0.79679E-02
        -0.11740E-01
         0.59248E-02
         0.25219E-01
         0.15047E-01
         0.21767E-02
         0.25485E-01
         0.47221E-02
        -0.16989E-02
         0.13210E-02
         0.62274E-02
         0.10447E-02
         0.55510E-02
         0.38090E-02
        -0.22323E-02
         0.17932E-02
        -0.79978E-02
         0.17192E-02
         0.61616E-03
         0.10219E-02
        -0.10861E-02
        -0.76324E-02
         0.50669E-02
         0.12040E-02
         0.34224E-02
         0.29446E-02
        -0.11074E-02
         0.41991E-02
         0.79063E-02
         0.19486E-01
         0.17393E-01
         0.15058E-01
         0.11013E-01
        -0.24310E-02
        -0.55538E-02
        -0.70357E-02
        -0.89356E-02
        -0.18114E-01
        -0.10579E-01
        -0.69207E-02
        -0.85567E-02
        -0.10057E-01
        -0.10595E-01
        -0.56914E-03
         0.13065E-01
        -0.19048E-01
         0.44427E-01
         0.57236E-01
         0.73684E-01
         0.88038E-01
         0.86096E-01
         0.75380E-01
         0.72376E-01
         0.71484E-01
         0.45002E-01
         0.15076E-01
         0.59396E-02
         0.52760E-02
        -0.19840E-02
        -0.20201E-01
        -0.40453E-01
        -0.55955E-01
        -0.72392E-01
        -0.80207E-01
        -0.70458E-01
        -0.66649E-01
        -0.66146E-01
        -0.46176E-01
        -0.23819E-01
        -0.22449E-01
        -0.12592E-01
        -0.78581E-02
        -0.73441E-02
        -0.19903E-02
        -0.94685E-02
        -0.43152E-02
        -0.34265E-02
        -0.12111E-01
        -0.80118E-02
        -0.11817E-01
         0.59515E-02
         0.25306E-01
         0.15105E-01
         0.21863E-02
         0.25607E-01
         0.47412E-02
        -0.17197E-02
         0.13238E-02
         0.62550E-02
         0.10425E-02
         0.55833E-02
         0.38248E-02
        -0.22414E-02
         0.17988E-02
        -0.80552E-02
         0.17213E-02
         0.62663E-03
         0.10321E-02
        -0.10775E-02
        -0.76708E-02
         0.50863E-02
         0.12032E-02
         0.34425E-02
         0.29610E-02
        -0.10993E-02
         0.42158E-02
         0.79334E-02
         0.19585E-01
         0.17492E-01
         0.15130E-01
         0.11063E-01
        -0.24299E-02
        -0.55783E-02
        -0.70667E-02
        -0.89702E-02
        -0.18177E-01
        -0.10619E-01
        -0.69429E-02
        -0.85788E-02
        -0.10081E-01
        -0.10628E-01
        -0.55914E-03
         0.13094E-01
        -0.19113E-01
         0.44578E-01
         0.57421E-01
         0.73918E-01
         0.88306E-01
         0.86357E-01
         0.75620E-01
         0.72613E-01
         0.71712E-01
         0.45152E-01
         0.15134E-01
         0.59566E-02
         0.53019E-02
        -0.19716E-02
        -0.20272E-01
        -0.40596E-01
        -0.56144E-01
        -0.72627E-01
        -0.80464E-01
        -0.70678E-01
        -0.66855E-01
        -0.66338E-01
        -0.46292E-01
        -0.23870E-01
        -0.22491E-01
        -0.18730E-01
        -0.11735E-01
        -0.10907E-01
        -0.29818E-02
        -0.13570E-01
        -0.62470E-02
        -0.51067E-02
        -0.17932E-01
        -0.11899E-01
        -0.17463E-01
         0.87163E-02
         0.35589E-01
         0.21569E-01
         0.31888E-02
         0.36221E-01
         0.70602E-02
        -0.25687E-02
         0.19700E-02
         0.91899E-02
         0.15311E-02
         0.79821E-02
         0.55310E-02
        -0.32063E-02
         0.26624E-02
        -0.12023E-01
         0.25684E-02
         0.92920E-03
         0.15409E-02
        -0.16008E-02
        -0.11427E-01
         0.75745E-02
         0.17855E-02
         0.51442E-02
         0.44180E-02
        -0.15248E-02
         0.60922E-02
         0.11465E-01
         0.28319E-01
         0.25660E-01
         0.22270E-01
         0.16060E-01
        -0.35466E-02
        -0.81589E-02
        -0.10189E-01
        -0.12888E-01
        -0.25366E-01
        -0.15204E-01
        -0.10061E-01
        -0.12495E-01
        -0.14616E-01
        -0.15043E-01
        -0.79395E-03
         0.16294E-01
        -0.23774E-01
         0.55452E-01
         0.71633E-01
         0.92140E-01
         0.11033E+00
         0.10909E+00
         0.96337E-01
         0.92336E-01
         0.90648E-01
         0.57149E-01
         0.19124E-01
         0.76077E-02
         0.68046E-02
        -0.24792E-02
        -0.25366E-01
        -0.50646E-01
        -0.69641E-01
        -0.90009E-01
        -0.99837E-01
        -0.88619E-01
        -0.84204E-01
        -0.83241E-01
        -0.58276E-01
        -0.29951E-01
        -0.28115E-01
  
SCALARS                      strain_xz  double 1
LOOKUP_TABLE default
        -0.50596E-03
         0.33441E-02
         0.11509E-01
        -0.84917E-03
        -0.20639E-09
         0.73181E-10
         0.24470E-09
         0.48871E-10
         0.31018E-01
         0.21181E-01
         0.73192E-09
         0.65927E-09
        -0.11992E-02
         0.48747E-02
        -0.90271E-10
        -0.42288E-09
         0.12289E-02
         0.47046E-02
        -0.30546E-09
        -0.45493E-09
         0.63568E-02
         0.10028E-01
         0.10539E-01
        -0.30378E-09
        -0.14008E-09
         0.24473E-09
         0.10617E-01
         0.77825E-02
        -0.56864E-09
        -0.45108E-09
        -0.28656E-02
         0.58526E-02
        -0.65807E-03
         0.57895E-10
        -0.22373E-09
        -0.13783E-09
        -0.81041E-02
        -0.34933E-02
        -0.33217E-09
        -0.35367E-09
        -0.15472E-01
        -0.20079E-01
        -0.74927E-09
        -0.55255E-09
        -0.17765E-01
        -0.97498E-02
        -0.82283E-09
        -0.39605E-09
         0.40374E-02
        -0.24860E-09
        -0.12442E-01
        -0.69201E-10
         0.37471E-02
        -0.48576E-09
        -0.27107E-02
        -0.12850E-09
        -0.11870E-01
        -0.36374E-02
        -0.11008E-09
        -0.26607E-09
         0.30548E-03
        -0.81652E-02
         0.22016E-09
         0.15098E-09
         0.22318E-02
        -0.22145E-10
         0.71978E-02
         0.14566E-09
         0.42783E-01
         0.28980E-01
         0.91043E-09
         0.66031E-09
         0.18183E-01
         0.48079E-09
        -0.30965E-02
        -0.33259E-09
        -0.95066E-02
        -0.65276E-10
        -0.20360E-01
        -0.10127E-09
        -0.28423E-01
        -0.21240E-01
        -0.37114E-09
        -0.42446E-09
        -0.20716E-01
        -0.45648E-09
        -0.21512E-01
        -0.65722E-09
        -0.12898E-01
        -0.41919E-09
        -0.19679E-01
        -0.14199E-01
        -0.17891E-09
         0.24535E-09
         0.33170E-02
         0.28778E-09
         0.92479E-02
         0.12084E-09
         0.21902E-01
         0.29840E-09
         0.32242E-01
         0.22431E-01
         0.68803E-09
         0.71796E-09
         0.73134E-01
         0.84291E-01
         0.12713E-08
         0.12529E-08
         0.71991E-01
         0.10861E-08
         0.68721E-01
         0.81164E-09
         0.47138E-01
         0.44603E-09
         0.30899E-01
         0.47696E-10
         0.10308E-01
        -0.16988E-09
        -0.12403E-01
        -0.13591E-09
        -0.29384E-01
        -0.13359E-09
        -0.43747E-01
        -0.30125E-09
        -0.63368E-01
        -0.57312E-09
        -0.87803E-01
        -0.68392E-09
        -0.10635E+00
        -0.64529E-09
        -0.10867E+00
        -0.70171E-09
        -0.10644E+00
        -0.91071E-09
        -0.99891E-01
        -0.10739E-08
        -0.88004E-01
        -0.99832E-09
        -0.62847E-01
        -0.81134E-09
        -0.34025E-01
        -0.38302E-09
        -0.28415E-02
         0.73138E-10
         0.19384E-01
         0.17757E-09
         0.31001E-01
         0.29037E-09
         0.44834E-01
         0.56826E-09
         0.59071E-01
         0.93247E-09
         0.79979E-01
         0.11203E-08
         0.95395E-01
         0.11459E-08
        -0.22947E-02
         0.11998E-02
         0.14068E-02
        -0.28164E-02
         0.11012E-01
         0.84795E-02
         0.12871E-02
        -0.18857E-02
        -0.96593E-03
        -0.17268E-02
         0.95490E-03
         0.41382E-02
         0.86278E-02
        -0.27591E-02
        -0.33241E-02
         0.37493E-02
         0.31498E-02
        -0.14556E-02
        -0.22843E-02
        -0.24538E-02
        -0.13442E-01
        -0.14294E-01
        -0.12940E-01
        -0.40186E-02
         0.16076E-02
        -0.11981E-02
        -0.38635E-02
        -0.43309E-03
        -0.44420E-02
        -0.30429E-02
         0.33492E-02
         0.66091E-03
        -0.15783E-02
        -0.51224E-03
         0.16359E-01
         0.10397E-01
         0.93962E-02
        -0.65885E-02
        -0.37535E-02
        -0.80465E-02
        -0.16581E-01
        -0.15398E-01
        -0.15131E-01
        -0.11130E-01
        -0.80041E-02
        -0.62848E-02
         0.11767E-02
         0.48947E-02
         0.14159E-02
         0.45028E-02
         0.12062E-01
         0.10121E-01
         0.48028E-01
         0.50363E-01
         0.45035E-01
         0.38305E-01
         0.28533E-01
         0.14551E-01
        -0.86373E-03
        -0.10366E-01
        -0.15792E-01
        -0.27118E-01
        -0.44203E-01
        -0.53709E-01
        -0.49125E-01
        -0.47083E-01
        -0.49705E-01
        -0.49668E-01
        -0.45130E-01
        -0.39568E-01
        -0.20091E-01
         0.31753E-02
         0.12191E-01
         0.13587E-01
         0.23013E-01
         0.36773E-01
         0.47654E-01
         0.50064E-01
        -0.42150E-02
         0.86526E-03
        -0.16473E-02
        -0.47963E-02
         0.98384E-02
         0.84077E-02
         0.24496E-02
        -0.53474E-02
        -0.24570E-02
        -0.50837E-02
        -0.10270E-02
         0.37468E-02
         0.12326E-01
        -0.94530E-02
        -0.97909E-02
         0.82810E-02
         0.46101E-02
        -0.27612E-02
        -0.18582E-02
        -0.32633E-02
        -0.19362E-01
        -0.18453E-01
        -0.18209E-01
        -0.44044E-02
         0.25016E-02
         0.16844E-02
        -0.91347E-02
         0.12129E-02
        -0.30571E-02
        -0.41689E-02
         0.63622E-02
         0.41169E-02
        -0.41264E-02
        -0.35613E-02
         0.17546E-01
         0.96840E-02
         0.11108E-01
        -0.10858E-01
        -0.18179E-02
        -0.52707E-02
        -0.19363E-01
        -0.19918E-01
        -0.19470E-01
        -0.14078E-01
        -0.10841E-01
        -0.63431E-02
         0.68555E-02
         0.80934E-02
        -0.10699E-02
         0.12881E-02
         0.13203E-01
         0.11631E-01
         0.73312E-01
         0.73877E-01
         0.66313E-01
         0.54695E-01
         0.40808E-01
         0.18792E-01
        -0.46662E-02
        -0.15122E-01
        -0.19921E-01
        -0.36513E-01
        -0.64857E-01
        -0.76513E-01
        -0.64176E-01
        -0.61058E-01
        -0.67262E-01
        -0.69266E-01
        -0.63217E-01
        -0.59791E-01
        -0.30466E-01
         0.79181E-02
         0.17515E-01
         0.17746E-01
         0.31548E-01
         0.54625E-01
         0.69916E-01
         0.69696E-01
        -0.42230E-02
         0.86847E-03
        -0.16504E-02
        -0.47996E-02
         0.98289E-02
         0.83999E-02
         0.24652E-02
        -0.53339E-02
        -0.24597E-02
        -0.50797E-02
        -0.10062E-02
         0.37559E-02
         0.12334E-01
        -0.94297E-02
        -0.97857E-02
         0.82896E-02
         0.46202E-02
        -0.27536E-02
        -0.18573E-02
        -0.32576E-02
        -0.19360E-01
        -0.18451E-01
        -0.18208E-01
        -0.44047E-02
         0.25073E-02
         0.16872E-02
        -0.91375E-02
         0.11901E-02
        -0.30786E-02
        -0.41716E-02
         0.63715E-02
         0.41164E-02
        -0.41092E-02
        -0.35629E-02
         0.17555E-01
         0.96795E-02
         0.11105E-01
        -0.10875E-01
        -0.18353E-02
        -0.52873E-02
        -0.19376E-01
        -0.19930E-01
        -0.19471E-01
        -0.14076E-01
        -0.10837E-01
        -0.63399E-02
         0.68542E-02
         0.80961E-02
        -0.10620E-02
         0.12837E-02
         0.13195E-01
         0.11614E-01
         0.73286E-01
         0.73858E-01
         0.66308E-01
         0.54696E-01
         0.40795E-01
         0.18787E-01
        -0.46715E-02
        -0.15131E-01
        -0.19904E-01
        -0.36499E-01
        -0.64847E-01
        -0.76515E-01
        -0.64169E-01
        -0.61054E-01
        -0.67270E-01
        -0.69281E-01
        -0.63228E-01
        -0.59803E-01
        -0.30457E-01
         0.79218E-02
         0.17502E-01
         0.17739E-01
         0.31525E-01
         0.54591E-01
         0.69881E-01
         0.69665E-01
        -0.42310E-02
         0.87163E-03
        -0.16535E-02
        -0.48028E-02
         0.98192E-02
         0.83923E-02
         0.24808E-02
        -0.53203E-02
        -0.24623E-02
        -0.50754E-02
        -0.98548E-03
         0.37650E-02
         0.12341E-01
        -0.94065E-02
        -0.97804E-02
         0.82984E-02
         0.46305E-02
        -0.27459E-02
        -0.18564E-02
        -0.32521E-02
        -0.19359E-01
        -0.18449E-01
        -0.18207E-01
        -0.44049E-02
         0.25133E-02
         0.16903E-02
        -0.91401E-02
         0.11676E-02
        -0.31002E-02
        -0.41742E-02
         0.63810E-02
         0.41160E-02
        -0.40919E-02
        -0.35645E-02
         0.17563E-01
         0.96754E-02
         0.11101E-01
        -0.10893E-01
        -0.18528E-02
        -0.53041E-02
        -0.19388E-01
        -0.19942E-01
        -0.19472E-01
        -0.14074E-01
        -0.10833E-01
        -0.63368E-02
         0.68530E-02
         0.80988E-02
        -0.10540E-02
         0.12792E-02
         0.13187E-01
         0.11597E-01
         0.73261E-01
         0.73839E-01
         0.66302E-01
         0.54696E-01
         0.40783E-01
         0.18781E-01
        -0.46768E-02
        -0.15140E-01
        -0.19887E-01
        -0.36484E-01
        -0.64838E-01
        -0.76516E-01
        -0.64164E-01
        -0.61051E-01
        -0.67279E-01
        -0.69296E-01
        -0.63240E-01
        -0.59814E-01
        -0.30449E-01
         0.79253E-02
         0.17489E-01
         0.17732E-01
         0.31502E-01
         0.54558E-01
         0.69847E-01
         0.69634E-01
        -0.42390E-02
         0.87490E-03
        -0.16565E-02
        -0.48059E-02
         0.98095E-02
         0.83846E-02
         0.24963E-02
        -0.53067E-02
        -0.24645E-02
        -0.50704E-02
        -0.96479E-03
         0.37743E-02
         0.12349E-01
        -0.93832E-02
        -0.97752E-02
         0.83080E-02
         0.46413E-02
        -0.27381E-02
        -0.18556E-02
        -0.32463E-02
        -0.19358E-01
        -0.18447E-01
        -0.18207E-01
        -0.44051E-02
         0.25205E-02
         0.16940E-02
        -0.91423E-02
         0.11458E-02
        -0.31218E-02
        -0.41767E-02
         0.63913E-02
         0.41164E-02
        -0.40746E-02
        -0.35661E-02
         0.17572E-01
         0.96710E-02
         0.11097E-01
        -0.10910E-01
        -0.18701E-02
        -0.53207E-02
        -0.19401E-01
        -0.19954E-01
        -0.19475E-01
        -0.14073E-01
        -0.10829E-01
        -0.63334E-02
         0.68520E-02
         0.81016E-02
        -0.10460E-02
         0.12747E-02
         0.13178E-01
         0.11580E-01
         0.73236E-01
         0.73820E-01
         0.66296E-01
         0.54696E-01
         0.40770E-01
         0.18775E-01
        -0.46822E-02
        -0.15150E-01
        -0.19871E-01
        -0.36470E-01
        -0.64828E-01
        -0.76519E-01
        -0.64159E-01
        -0.61048E-01
        -0.67289E-01
        -0.69314E-01
        -0.63252E-01
        -0.59826E-01
        -0.30440E-01
         0.79290E-02
         0.17476E-01
         0.17725E-01
         0.31479E-01
         0.54524E-01
         0.69812E-01
         0.69603E-01
        -0.42469E-02
         0.87817E-03
        -0.16596E-02
        -0.48091E-02
         0.98000E-02
         0.83768E-02
         0.25119E-02
        -0.52930E-02
        -0.24664E-02
        -0.50646E-02
        -0.94406E-03
         0.37835E-02
         0.12356E-01
        -0.93599E-02
        -0.97699E-02
         0.83183E-02
         0.46525E-02
        -0.27303E-02
        -0.18546E-02
        -0.32404E-02
        -0.19357E-01
        -0.18446E-01
        -0.18208E-01
        -0.44054E-02
         0.25287E-02
         0.16983E-02
        -0.91442E-02
         0.11246E-02
        -0.31433E-02
        -0.41789E-02
         0.64022E-02
         0.41175E-02
        -0.40572E-02
        -0.35677E-02
         0.17581E-01
         0.96667E-02
         0.11094E-01
        -0.10927E-01
        -0.18874E-02
        -0.53375E-02
        -0.19414E-01
        -0.19968E-01
        -0.19479E-01
        -0.14072E-01
        -0.10825E-01
        -0.63297E-02
         0.68512E-02
         0.81046E-02
        -0.10380E-02
         0.12702E-02
         0.13170E-01
         0.11562E-01
         0.73211E-01
         0.73801E-01
         0.66290E-01
         0.54696E-01
         0.40757E-01
         0.18770E-01
        -0.46875E-02
        -0.15159E-01
        -0.19854E-01
        -0.36455E-01
        -0.64817E-01
        -0.76522E-01
        -0.64156E-01
        -0.61046E-01
        -0.67299E-01
        -0.69334E-01
        -0.63266E-01
        -0.59837E-01
        -0.30432E-01
         0.79326E-02
         0.17464E-01
         0.17718E-01
         0.31455E-01
         0.54491E-01
         0.69777E-01
         0.69572E-01
        -0.42545E-02
         0.88172E-03
        -0.16623E-02
        -0.48121E-02
         0.97904E-02
         0.83691E-02
         0.25276E-02
        -0.52791E-02
        -0.24682E-02
        -0.50587E-02
        -0.92331E-03
         0.37926E-02
         0.12364E-01
        -0.93366E-02
        -0.97646E-02
         0.83288E-02
         0.46638E-02
        -0.27225E-02
        -0.18535E-02
        -0.32348E-02
        -0.19357E-01
        -0.18446E-01
        -0.18209E-01
        -0.44058E-02
         0.25370E-02
         0.17027E-02
        -0.91459E-02
         0.11036E-02
        -0.31649E-02
        -0.41816E-02
         0.64131E-02
         0.41184E-02
        -0.40395E-02
        -0.35691E-02
         0.17590E-01
         0.96628E-02
         0.11091E-01
        -0.10945E-01
        -0.19047E-02
        -0.53544E-02
        -0.19427E-01
        -0.19981E-01
        -0.19483E-01
        -0.14071E-01
        -0.10821E-01
        -0.63266E-02
         0.68502E-02
         0.81075E-02
        -0.10298E-02
         0.12660E-02
         0.13162E-01
         0.11546E-01
         0.73186E-01
         0.73782E-01
         0.66284E-01
         0.54697E-01
         0.40745E-01
         0.18764E-01
        -0.46926E-02
        -0.15168E-01
        -0.19837E-01
        -0.36441E-01
        -0.64807E-01
        -0.76525E-01
        -0.64154E-01
        -0.61044E-01
        -0.67310E-01
        -0.69356E-01
        -0.63281E-01
        -0.59848E-01
        -0.30423E-01
         0.79358E-02
         0.17451E-01
         0.17711E-01
         0.31432E-01
         0.54458E-01
         0.69743E-01
         0.69541E-01
        -0.42615E-02
         0.88597E-03
        -0.16644E-02
        -0.48151E-02
         0.97811E-02
         0.83615E-02
         0.25435E-02
        -0.52648E-02
        -0.24702E-02
        -0.50530E-02
        -0.90246E-03
         0.38018E-02
         0.12372E-01
        -0.93132E-02
        -0.97592E-02
         0.83393E-02
         0.46746E-02
        -0.27147E-02
        -0.18527E-02
        -0.32294E-02
        -0.19357E-01
        -0.18445E-01
        -0.18211E-01
        -0.44063E-02
         0.25443E-02
         0.17066E-02
        -0.91478E-02
         0.10821E-02
        -0.31867E-02
        -0.41847E-02
         0.64234E-02
         0.41185E-02
        -0.40215E-02
        -0.35702E-02
         0.17599E-01
         0.96592E-02
         0.11088E-01
        -0.10962E-01
        -0.19222E-02
        -0.53715E-02
        -0.19440E-01
        -0.19995E-01
        -0.19488E-01
        -0.14071E-01
        -0.10817E-01
        -0.63237E-02
         0.68487E-02
         0.81102E-02
        -0.10209E-02
         0.12629E-02
         0.13155E-01
         0.11529E-01
         0.73161E-01
         0.73763E-01
         0.66278E-01
         0.54697E-01
         0.40732E-01
         0.18758E-01
        -0.46978E-02
        -0.15178E-01
        -0.19820E-01
        -0.36426E-01
        -0.64796E-01
        -0.76528E-01
        -0.64152E-01
        -0.61042E-01
        -0.67321E-01
        -0.69377E-01
        -0.63295E-01
        -0.59859E-01
        -0.30414E-01
         0.79385E-02
         0.17437E-01
         0.17704E-01
         0.31410E-01
         0.54425E-01
         0.69708E-01
         0.69510E-01
        -0.42682E-02
         0.89045E-03
        -0.16662E-02
        -0.48180E-02
         0.97721E-02
         0.83537E-02
         0.25597E-02
        -0.52504E-02
        -0.24722E-02
        -0.50476E-02
        -0.88155E-03
         0.38110E-02
         0.12379E-01
        -0.92899E-02
        -0.97538E-02
         0.83497E-02
         0.46851E-02
        -0.27068E-02
        -0.18517E-02
        -0.32242E-02
        -0.19357E-01
        -0.18445E-01
        -0.18213E-01
        -0.44067E-02
         0.25511E-02
         0.17103E-02
        -0.91499E-02
         0.10605E-02
        -0.32088E-02
        -0.41881E-02
         0.64334E-02
         0.41183E-02
        -0.40033E-02
        -0.35710E-02
         0.17609E-01
         0.96561E-02
         0.11085E-01
        -0.10979E-01
        -0.19396E-02
        -0.53886E-02
        -0.19454E-01
        -0.20010E-01
        -0.19492E-01
        -0.14071E-01
        -0.10814E-01
        -0.63213E-02
         0.68469E-02
         0.81128E-02
        -0.10118E-02
         0.12601E-02
         0.13148E-01
         0.11512E-01
         0.73136E-01
         0.73744E-01
         0.66271E-01
         0.54697E-01
         0.40720E-01
         0.18753E-01
        -0.47030E-02
        -0.15187E-01
        -0.19804E-01
        -0.36412E-01
        -0.64786E-01
        -0.76531E-01
        -0.64149E-01
        -0.61040E-01
        -0.67332E-01
        -0.69398E-01
        -0.63309E-01
        -0.59869E-01
        -0.30405E-01
         0.79410E-02
         0.17423E-01
         0.17697E-01
         0.31388E-01
         0.54392E-01
         0.69674E-01
         0.69479E-01
        -0.42749E-02
         0.89498E-03
        -0.16680E-02
        -0.48209E-02
         0.97629E-02
         0.83460E-02
         0.25757E-02
        -0.52360E-02
        -0.24742E-02
        -0.50423E-02
        -0.86073E-03
         0.38201E-02
         0.12387E-01
        -0.92666E-02
        -0.97483E-02
         0.83601E-02
         0.46957E-02
        -0.26990E-02
        -0.18507E-02
        -0.32189E-02
        -0.19356E-01
        -0.18444E-01
        -0.18214E-01
        -0.44073E-02
         0.25579E-02
         0.17139E-02
        -0.91520E-02
         0.10390E-02
        -0.32309E-02
        -0.41914E-02
         0.64435E-02
         0.41180E-02
        -0.39852E-02
        -0.35719E-02
         0.17618E-01
         0.96527E-02
         0.11082E-01
        -0.10996E-01
        -0.19571E-02
        -0.54056E-02
        -0.19467E-01
        -0.20024E-01
        -0.19497E-01
        -0.14071E-01
        -0.10811E-01
        -0.63190E-02
         0.68451E-02
         0.81153E-02
        -0.10026E-02
         0.12575E-02
         0.13141E-01
         0.11496E-01
         0.73110E-01
         0.73725E-01
         0.66265E-01
         0.54697E-01
         0.40707E-01
         0.18747E-01
        -0.47082E-02
        -0.15196E-01
        -0.19787E-01
        -0.36398E-01
        -0.64775E-01
        -0.76534E-01
        -0.64147E-01
        -0.61038E-01
        -0.67343E-01
        -0.69419E-01
        -0.63324E-01
        -0.59879E-01
        -0.30397E-01
         0.79436E-02
         0.17410E-01
         0.17690E-01
         0.31365E-01
         0.54359E-01
         0.69639E-01
         0.69448E-01
        -0.42815E-02
         0.89955E-03
        -0.16698E-02
        -0.48239E-02
         0.97537E-02
         0.83382E-02
         0.25918E-02
        -0.52217E-02
        -0.24763E-02
        -0.50370E-02
        -0.83989E-03
         0.38293E-02
         0.12395E-01
        -0.92434E-02
        -0.97429E-02
         0.83705E-02
         0.47063E-02
        -0.26912E-02
        -0.18497E-02
        -0.32137E-02
        -0.19356E-01
        -0.18444E-01
        -0.18216E-01
        -0.44079E-02
         0.25647E-02
         0.17175E-02
        -0.91541E-02
         0.10175E-02
        -0.32529E-02
        -0.41947E-02
         0.64534E-02
         0.41177E-02
        -0.39670E-02
        -0.35728E-02
         0.17628E-01
         0.96496E-02
         0.11080E-01
        -0.11013E-01
        -0.19746E-02
        -0.54228E-02
        -0.19481E-01
        -0.20038E-01
        -0.19502E-01
        -0.14071E-01
        -0.10808E-01
        -0.63164E-02
         0.68433E-02
         0.81180E-02
        -0.99346E-03
         0.12546E-02
         0.13134E-01
         0.11479E-01
         0.73085E-01
         0.73706E-01
         0.66259E-01
         0.54697E-01
         0.40694E-01
         0.18741E-01
        -0.47133E-02
        -0.15205E-01
        -0.19770E-01
        -0.36383E-01
        -0.64765E-01
        -0.76537E-01
        -0.64144E-01
        -0.61036E-01
        -0.67353E-01
        -0.69441E-01
        -0.63338E-01
        -0.59890E-01
        -0.30388E-01
         0.79460E-02
         0.17396E-01
         0.17683E-01
         0.31343E-01
         0.54326E-01
         0.69605E-01
         0.69417E-01
        -0.42882E-02
         0.90409E-03
        -0.16716E-02
        -0.48267E-02
         0.97447E-02
         0.83307E-02
         0.26078E-02
        -0.52073E-02
        -0.24783E-02
        -0.50317E-02
        -0.81902E-03
         0.38386E-02
         0.12403E-01
        -0.92202E-02
        -0.97374E-02
         0.83809E-02
         0.47168E-02
        -0.26834E-02
        -0.18489E-02
        -0.32083E-02
        -0.19356E-01
        -0.18443E-01
        -0.18217E-01
        -0.44086E-02
         0.25714E-02
         0.17211E-02
        -0.91563E-02
         0.99603E-03
        -0.32749E-02
        -0.41979E-02
         0.64634E-02
         0.41174E-02
        -0.39489E-02
        -0.35736E-02
         0.17637E-01
         0.96462E-02
         0.11077E-01
        -0.11030E-01
        -0.19922E-02
        -0.54398E-02
        -0.19494E-01
        -0.20052E-01
        -0.19506E-01
        -0.14071E-01
        -0.10805E-01
        -0.63141E-02
         0.68415E-02
         0.81205E-02
        -0.98425E-03
         0.12518E-02
         0.13128E-01
         0.11463E-01
         0.73060E-01
         0.73688E-01
         0.66252E-01
         0.54697E-01
         0.40682E-01
         0.18736E-01
        -0.47183E-02
        -0.15214E-01
        -0.19753E-01
        -0.36369E-01
        -0.64754E-01
        -0.76540E-01
        -0.64141E-01
        -0.61034E-01
        -0.67364E-01
        -0.69462E-01
        -0.63352E-01
        -0.59900E-01
        -0.30379E-01
         0.79484E-02
         0.17382E-01
         0.17677E-01
         0.31320E-01
         0.54293E-01
         0.69571E-01
         0.69386E-01
        -0.42949E-02
         0.90861E-03
        -0.16733E-02
        -0.48296E-02
         0.97355E-02
         0.83230E-02
         0.26239E-02
        -0.51929E-02
        -0.24803E-02
        -0.50264E-02
        -0.79821E-03
         0.38478E-02
         0.12410E-01
        -0.91971E-02
        -0.97319E-02
         0.83912E-02
         0.47274E-02
        -0.26756E-02
        -0.18479E-02
        -0.32031E-02
        -0.19355E-01
        -0.18442E-01
        -0.18219E-01
        -0.44092E-02
         0.25781E-02
         0.17248E-02
        -0.91584E-02
         0.97466E-03
        -0.32967E-02
        -0.42013E-02
         0.64734E-02
         0.41171E-02
        -0.39307E-02
        -0.35745E-02
         0.17647E-01
         0.96430E-02
         0.11074E-01
        -0.11047E-01
        -0.20098E-02
        -0.54571E-02
        -0.19507E-01
        -0.20066E-01
        -0.19511E-01
        -0.14071E-01
        -0.10802E-01
        -0.63118E-02
         0.68398E-02
         0.81232E-02
        -0.97503E-03
         0.12492E-02
         0.13121E-01
         0.11446E-01
         0.73035E-01
         0.73669E-01
         0.66246E-01
         0.54697E-01
         0.40669E-01
         0.18730E-01
        -0.47234E-02
        -0.15224E-01
        -0.19737E-01
        -0.36354E-01
        -0.64744E-01
        -0.76543E-01
        -0.64139E-01
        -0.61032E-01
        -0.67375E-01
        -0.69483E-01
        -0.63367E-01
        -0.59911E-01
        -0.30370E-01
         0.79509E-02
         0.17369E-01
         0.17670E-01
         0.31298E-01
         0.54260E-01
         0.69536E-01
         0.69355E-01
        -0.43016E-02
         0.91319E-03
        -0.16750E-02
        -0.48324E-02
         0.97263E-02
         0.83152E-02
         0.26399E-02
        -0.51785E-02
        -0.24823E-02
        -0.50209E-02
        -0.77746E-03
         0.38570E-02
         0.12418E-01
        -0.91740E-02
        -0.97263E-02
         0.84016E-02
         0.47379E-02
        -0.26677E-02
        -0.18470E-02
        -0.31978E-02
        -0.19355E-01
        -0.18442E-01
        -0.18220E-01
        -0.44099E-02
         0.25847E-02
         0.17283E-02
        -0.91605E-02
         0.95324E-03
        -0.33186E-02
        -0.42046E-02
         0.64834E-02
         0.41168E-02
        -0.39124E-02
        -0.35754E-02
         0.17657E-01
         0.96400E-02
         0.11072E-01
        -0.11064E-01
        -0.20274E-02
        -0.54743E-02
        -0.19521E-01
        -0.20079E-01
        -0.19516E-01
        -0.14071E-01
        -0.10799E-01
        -0.63091E-02
         0.68380E-02
         0.81257E-02
        -0.96576E-03
         0.12464E-02
         0.13114E-01
         0.11430E-01
         0.73009E-01
         0.73650E-01
         0.66239E-01
         0.54697E-01
         0.40657E-01
         0.18724E-01
        -0.47286E-02
        -0.15233E-01
        -0.19720E-01
        -0.36340E-01
        -0.64733E-01
        -0.76546E-01
        -0.64136E-01
        -0.61030E-01
        -0.67386E-01
        -0.69504E-01
        -0.63381E-01
        -0.59921E-01
        -0.30361E-01
         0.79533E-02
         0.17355E-01
         0.17663E-01
         0.31276E-01
         0.54228E-01
         0.69502E-01
         0.69325E-01
        -0.43083E-02
         0.91768E-03
        -0.16768E-02
        -0.48353E-02
         0.97174E-02
         0.83075E-02
         0.26557E-02
        -0.51641E-02
        -0.24842E-02
        -0.50155E-02
        -0.75675E-03
         0.38661E-02
         0.12426E-01
        -0.91509E-02
        -0.97208E-02
         0.84119E-02
         0.47484E-02
        -0.26599E-02
        -0.18463E-02
        -0.31927E-02
        -0.19355E-01
        -0.18441E-01
        -0.18222E-01
        -0.44105E-02
         0.25913E-02
         0.17319E-02
        -0.91625E-02
         0.93196E-03
        -0.33405E-02
        -0.42078E-02
         0.64933E-02
         0.41165E-02
        -0.38942E-02
        -0.35762E-02
         0.17666E-01
         0.96367E-02
         0.11069E-01
        -0.11081E-01
        -0.20450E-02
        -0.54916E-02
        -0.19535E-01
        -0.20093E-01
        -0.19520E-01
        -0.14071E-01
        -0.10795E-01
        -0.63068E-02
         0.68362E-02
         0.81283E-02
        -0.95653E-03
         0.12436E-02
         0.13107E-01
         0.11413E-01
         0.72984E-01
         0.73632E-01
         0.66233E-01
         0.54697E-01
         0.40644E-01
         0.18718E-01
        -0.47336E-02
        -0.15241E-01
        -0.19703E-01
        -0.36325E-01
        -0.64722E-01
        -0.76549E-01
        -0.64134E-01
        -0.61028E-01
        -0.67397E-01
        -0.69525E-01
        -0.63396E-01
        -0.59931E-01
        -0.30352E-01
         0.79556E-02
         0.17341E-01
         0.17656E-01
         0.31253E-01
         0.54195E-01
         0.69468E-01
         0.69294E-01
        -0.43150E-02
         0.92215E-03
        -0.16785E-02
        -0.48381E-02
         0.97083E-02
         0.82997E-02
         0.26717E-02
        -0.51497E-02
        -0.24862E-02
        -0.50102E-02
        -0.73604E-03
         0.38755E-02
         0.12434E-01
        -0.91278E-02
        -0.97151E-02
         0.84222E-02
         0.47589E-02
        -0.26521E-02
        -0.18453E-02
        -0.31873E-02
        -0.19354E-01
        -0.18441E-01
        -0.18224E-01
        -0.44111E-02
         0.25979E-02
         0.17355E-02
        -0.91645E-02
         0.91068E-03
        -0.33624E-02
        -0.42110E-02
         0.65033E-02
         0.41161E-02
        -0.38759E-02
        -0.35770E-02
         0.17676E-01
         0.96337E-02
         0.11067E-01
        -0.11097E-01
        -0.20627E-02
        -0.55087E-02
        -0.19548E-01
        -0.20107E-01
        -0.19525E-01
        -0.14071E-01
        -0.10792E-01
        -0.63046E-02
         0.68343E-02
         0.81309E-02
        -0.94715E-03
         0.12409E-02
         0.13100E-01
         0.11396E-01
         0.72959E-01
         0.73613E-01
         0.66227E-01
         0.54697E-01
         0.40632E-01
         0.18713E-01
        -0.47386E-02
        -0.15250E-01
        -0.19686E-01
        -0.36311E-01
        -0.64712E-01
        -0.76553E-01
        -0.64131E-01
        -0.61026E-01
        -0.67408E-01
        -0.69547E-01
        -0.63410E-01
        -0.59941E-01
        -0.30343E-01
         0.79579E-02
         0.17328E-01
         0.17650E-01
         0.31231E-01
         0.54162E-01
         0.69434E-01
         0.69263E-01
        -0.43217E-02
         0.92673E-03
        -0.16802E-02
        -0.48409E-02
         0.96991E-02
         0.82922E-02
         0.26876E-02
        -0.51353E-02
        -0.24882E-02
        -0.50048E-02
        -0.71532E-03
         0.38847E-02
         0.12441E-01
        -0.91047E-02
        -0.97095E-02
         0.84326E-02
         0.47694E-02
        -0.26444E-02
        -0.18444E-02
        -0.31821E-02
        -0.19354E-01
        -0.18440E-01
        -0.18225E-01
        -0.44118E-02
         0.26044E-02
         0.17391E-02
        -0.91666E-02
         0.88942E-03
        -0.33843E-02
        -0.42141E-02
         0.65132E-02
         0.41158E-02
        -0.38576E-02
        -0.35779E-02
         0.17686E-01
         0.96305E-02
         0.11064E-01
        -0.11114E-01
        -0.20804E-02
        -0.55259E-02
        -0.19561E-01
        -0.20121E-01
        -0.19530E-01
        -0.14070E-01
        -0.10789E-01
        -0.63020E-02
         0.68326E-02
         0.81335E-02
        -0.93788E-03
         0.12381E-02
         0.13093E-01
         0.11380E-01
         0.72934E-01
         0.73594E-01
         0.66220E-01
         0.54697E-01
         0.40619E-01
         0.18707E-01
        -0.47435E-02
        -0.15259E-01
        -0.19670E-01
        -0.36296E-01
        -0.64702E-01
        -0.76556E-01
        -0.64129E-01
        -0.61024E-01
        -0.67419E-01
        -0.69568E-01
        -0.63424E-01
        -0.59952E-01
        -0.30335E-01
         0.79602E-02
         0.17314E-01
         0.17643E-01
         0.31209E-01
         0.54129E-01
         0.69399E-01
         0.69232E-01
        -0.43284E-02
         0.93124E-03
        -0.16820E-02
        -0.48437E-02
         0.96902E-02
         0.82845E-02
         0.27036E-02
        -0.51209E-02
        -0.24901E-02
        -0.49991E-02
        -0.69462E-03
         0.38939E-02
         0.12449E-01
        -0.90816E-02
        -0.97037E-02
         0.84429E-02
         0.47800E-02
        -0.26367E-02
        -0.18436E-02
        -0.31768E-02
        -0.19354E-01
        -0.18439E-01
        -0.18227E-01
        -0.44126E-02
         0.26107E-02
         0.17427E-02
        -0.91684E-02
         0.86796E-03
        -0.34060E-02
        -0.42173E-02
         0.65232E-02
         0.41156E-02
        -0.38394E-02
        -0.35789E-02
         0.17696E-01
         0.96272E-02
         0.11061E-01
        -0.11131E-01
        -0.20984E-02
        -0.55432E-02
        -0.19574E-01
        -0.20135E-01
        -0.19534E-01
        -0.14071E-01
        -0.10786E-01
        -0.62997E-02
         0.68308E-02
         0.81361E-02
        -0.92863E-03
         0.12353E-02
         0.13086E-01
         0.11363E-01
         0.72908E-01
         0.73576E-01
         0.66214E-01
         0.54697E-01
         0.40606E-01
         0.18701E-01
        -0.47483E-02
        -0.15268E-01
        -0.19653E-01
        -0.36281E-01
        -0.64691E-01
        -0.76560E-01
        -0.64126E-01
        -0.61022E-01
        -0.67429E-01
        -0.69589E-01
        -0.63439E-01
        -0.59962E-01
        -0.30326E-01
         0.79625E-02
         0.17300E-01
         0.17636E-01
         0.31186E-01
         0.54096E-01
         0.69365E-01
         0.69201E-01
        -0.43351E-02
         0.93574E-03
        -0.16837E-02
        -0.48465E-02
         0.96811E-02
         0.82768E-02
         0.27194E-02
        -0.51065E-02
        -0.24918E-02
        -0.49929E-02
        -0.67394E-03
         0.39032E-02
         0.12457E-01
        -0.90584E-02
        -0.96979E-02
         0.84533E-02
         0.47904E-02
        -0.26289E-02
        -0.18430E-02
        -0.31717E-02
        -0.19353E-01
        -0.18439E-01
        -0.18229E-01
        -0.44131E-02
         0.26166E-02
         0.17464E-02
        -0.91694E-02
         0.84596E-03
        -0.34278E-02
        -0.42207E-02
         0.65332E-02
         0.41152E-02
        -0.38211E-02
        -0.35797E-02
         0.17705E-01
         0.96243E-02
         0.11059E-01
        -0.11147E-01
        -0.21168E-02
        -0.55602E-02
        -0.19586E-01
        -0.20147E-01
        -0.19538E-01
        -0.14071E-01
        -0.10783E-01
        -0.62971E-02
         0.68290E-02
         0.81388E-02
        -0.91941E-03
         0.12326E-02
         0.13080E-01
         0.11347E-01
         0.72883E-01
         0.73557E-01
         0.66207E-01
         0.54697E-01
         0.40594E-01
         0.18695E-01
        -0.47532E-02
        -0.15277E-01
        -0.19637E-01
        -0.36267E-01
        -0.64680E-01
        -0.76565E-01
        -0.64126E-01
        -0.61020E-01
        -0.67440E-01
        -0.69610E-01
        -0.63453E-01
        -0.59972E-01
        -0.30317E-01
         0.79648E-02
         0.17287E-01
         0.17629E-01
         0.31164E-01
         0.54063E-01
         0.69331E-01
         0.69170E-01
        -0.43418E-02
         0.94022E-03
        -0.16854E-02
        -0.48493E-02
         0.96720E-02
         0.82690E-02
         0.27354E-02
        -0.50920E-02
        -0.24933E-02
        -0.49861E-02
        -0.65333E-03
         0.39124E-02
         0.12465E-01
        -0.90350E-02
        -0.96918E-02
         0.84635E-02
         0.48007E-02
        -0.26212E-02
        -0.18421E-02
        -0.31664E-02
        -0.19353E-01
        -0.18438E-01
        -0.18230E-01
        -0.44138E-02
         0.26220E-02
         0.17500E-02
        -0.91698E-02
         0.82330E-03
        -0.34496E-02
        -0.42240E-02
         0.65432E-02
         0.41149E-02
        -0.38028E-02
        -0.35806E-02
         0.17715E-01
         0.96211E-02
         0.11056E-01
        -0.11163E-01
        -0.21357E-02
        -0.55774E-02
        -0.19598E-01
        -0.20159E-01
        -0.19542E-01
        -0.14070E-01
        -0.10780E-01
        -0.62948E-02
         0.68272E-02
         0.81414E-02
        -0.91008E-03
         0.12298E-02
         0.13073E-01
         0.11330E-01
         0.72858E-01
         0.73539E-01
         0.66201E-01
         0.54697E-01
         0.40581E-01
         0.18690E-01
        -0.47580E-02
        -0.15285E-01
        -0.19621E-01
        -0.36251E-01
        -0.64669E-01
        -0.76573E-01
        -0.64126E-01
        -0.61018E-01
        -0.67451E-01
        -0.69631E-01
        -0.63467E-01
        -0.59982E-01
        -0.30308E-01
         0.79671E-02
         0.17273E-01
         0.17622E-01
         0.31142E-01
         0.54030E-01
         0.69297E-01
         0.69139E-01
        -0.43485E-02
         0.94473E-03
        -0.16871E-02
        -0.48521E-02
         0.96631E-02
         0.82615E-02
         0.27511E-02
        -0.50777E-02
        -0.24948E-02
        -0.49791E-02
        -0.63286E-03
         0.39215E-02
         0.12472E-01
        -0.90117E-02
        -0.96858E-02
         0.84738E-02
         0.48111E-02
        -0.26135E-02
        -0.18412E-02
        -0.31613E-02
        -0.19353E-01
        -0.18437E-01
        -0.18232E-01
        -0.44145E-02
         0.26273E-02
         0.17535E-02
        -0.91701E-02
         0.80056E-03
        -0.34712E-02
        -0.42271E-02
         0.65532E-02
         0.41145E-02
        -0.37847E-02
        -0.35815E-02
         0.17725E-01
         0.96181E-02
         0.11054E-01
        -0.11178E-01
        -0.21548E-02
        -0.55940E-02
        -0.19608E-01
        -0.20170E-01
        -0.19545E-01
        -0.14071E-01
        -0.10776E-01
        -0.62925E-02
         0.68256E-02
         0.81442E-02
        -0.90086E-03
         0.12270E-02
         0.13066E-01
         0.11314E-01
         0.72832E-01
         0.73520E-01
         0.66195E-01
         0.54698E-01
         0.40569E-01
         0.18684E-01
        -0.47627E-02
        -0.15294E-01
        -0.19604E-01
        -0.36235E-01
        -0.64658E-01
        -0.76582E-01
        -0.64126E-01
        -0.61017E-01
        -0.67461E-01
        -0.69652E-01
        -0.63482E-01
        -0.59992E-01
        -0.30299E-01
         0.79696E-02
         0.17259E-01
         0.17616E-01
         0.31120E-01
         0.53998E-01
         0.69263E-01
         0.69109E-01
        -0.43712E-02
         0.95183E-03
        -0.16953E-02
        -0.48726E-02
         0.96880E-02
         0.82838E-02
         0.27752E-02
        -0.50838E-02
        -0.25052E-02
        -0.49919E-02
        -0.61732E-03
         0.39421E-02
         0.12522E-01
        -0.90236E-02
        -0.97157E-02
         0.85145E-02
         0.48386E-02
        -0.26160E-02
        -0.18466E-02
        -0.31670E-02
        -0.19418E-01
        -0.18500E-01
        -0.18294E-01
        -0.44310E-02
         0.26418E-02
         0.17631E-02
        -0.92051E-02
         0.78219E-03
        -0.35039E-02
        -0.42455E-02
         0.65867E-02
         0.41290E-02
        -0.37820E-02
        -0.35959E-02
         0.17796E-01
         0.96494E-02
         0.11090E-01
        -0.11234E-01
        -0.21802E-02
        -0.56295E-02
        -0.19689E-01
        -0.20253E-01
        -0.19618E-01
        -0.14118E-01
        -0.10810E-01
        -0.63110E-02
         0.68483E-02
         0.81767E-02
        -0.89590E-03
         0.12285E-02
         0.13106E-01
         0.11338E-01
         0.73047E-01
         0.73739E-01
         0.66406E-01
         0.54875E-01
         0.40690E-01
         0.18738E-01
        -0.47851E-02
        -0.15352E-01
        -0.19656E-01
        -0.36346E-01
        -0.64871E-01
        -0.76844E-01
        -0.64333E-01
        -0.61207E-01
        -0.67679E-01
        -0.69882E-01
        -0.63686E-01
        -0.60188E-01
        -0.30389E-01
         0.79999E-02
         0.17304E-01
         0.17665E-01
         0.31199E-01
         0.54141E-01
         0.69449E-01
         0.69296E-01
        -0.65052E-02
         0.14259E-02
        -0.25178E-02
        -0.72634E-02
         0.13869E-01
         0.11973E-01
         0.41456E-02
        -0.75138E-02
        -0.37165E-02
        -0.73655E-02
        -0.89091E-03
         0.55458E-02
         0.17881E-01
        -0.13138E-01
        -0.13731E-01
         0.12682E-01
         0.71875E-02
        -0.38921E-02
        -0.27117E-02
        -0.46606E-02
        -0.27710E-01
        -0.26739E-01
        -0.26181E-01
        -0.65588E-02
         0.39372E-02
         0.26332E-02
        -0.13521E-01
         0.11448E-02
        -0.52522E-02
        -0.63186E-02
         0.98151E-02
         0.61331E-02
        -0.56242E-02
        -0.53604E-02
         0.25011E-01
         0.13938E-01
         0.16027E-01
        -0.16252E-01
        -0.32092E-02
        -0.82936E-02
        -0.28578E-01
        -0.29616E-01
        -0.28666E-01
        -0.20350E-01
        -0.15529E-01
        -0.88053E-02
         0.98036E-02
         0.11864E-01
        -0.12975E-02
         0.17803E-02
         0.18544E-01
         0.16337E-01
         0.90970E-01
         0.91680E-01
         0.82599E-01
         0.68459E-01
         0.50715E-01
         0.23404E-01
        -0.60538E-02
        -0.19564E-01
        -0.24984E-01
        -0.45935E-01
        -0.82105E-01
        -0.97103E-01
        -0.82207E-01
        -0.78465E-01
        -0.85654E-01
        -0.87438E-01
        -0.79440E-01
        -0.74654E-01
        -0.37655E-01
         0.99330E-02
         0.21693E-01
         0.22245E-01
         0.39142E-01
         0.68164E-01
         0.87172E-01
         0.86669E-01
  
SCALARS                      strain_xy  double 1
LOOKUP_TABLE default
        -0.20636E-06
        -0.61033E-06
        -0.45532E-05
         0.11563E-06
        -0.20510E-19
         0.20044E-20
         0.30137E-19
         0.45908E-20
        -0.55396E-04
         0.22729E-04
         0.13415E-18
         0.10638E-18
         0.26389E-05
        -0.55178E-06
         0.11841E-19
        -0.35562E-20
         0.39350E-06
         0.13192E-04
         0.58947E-21
         0.89828E-20
        -0.11587E-04
        -0.80564E-04
        -0.67903E-04
         0.91340E-19
         0.72739E-19
        -0.10622E-18
        -0.83661E-05
        -0.78266E-04
         0.12299E-18
         0.18927E-18
        -0.10714E-05
         0.29325E-05
         0.95819E-07
        -0.64915E-20
         0.25608E-19
        -0.32754E-21
        -0.11738E-04
        -0.76402E-05
         0.68536E-19
         0.56776E-19
        -0.26747E-04
        -0.30347E-04
         0.11684E-18
         0.78740E-19
        -0.19847E-04
        -0.31282E-05
        -0.42562E-20
         0.31687E-19
         0.10043E-04
         0.93649E-20
        -0.11006E-05
        -0.21114E-21
         0.72711E-06
         0.70783E-19
         0.37323E-05
         0.10892E-19
         0.53197E-04
        -0.22532E-05
         0.25313E-21
        -0.12418E-20
         0.13995E-06
        -0.16339E-04
         0.68981E-20
         0.17694E-19
         0.54312E-06
        -0.14006E-20
         0.94911E-05
         0.11223E-19
        -0.72621E-04
        -0.27220E-04
         0.86686E-20
        -0.83012E-19
        -0.65119E-04
        -0.13273E-18
         0.42533E-04
         0.88899E-19
         0.13652E-03
         0.13245E-19
         0.23631E-03
         0.17223E-19
         0.43627E-03
         0.22548E-03
         0.40491E-19
        -0.10267E-19
         0.24494E-04
        -0.12355E-20
        -0.37848E-04
        -0.11143E-18
        -0.65034E-04
        -0.12442E-18
        -0.15895E-03
        -0.76870E-04
        -0.78762E-19
         0.87425E-19
         0.11579E-04
         0.79603E-19
         0.27087E-04
         0.34195E-19
         0.66224E-04
         0.90793E-19
         0.16488E-03
         0.90027E-04
         0.19468E-18
         0.97340E-19
        -0.33136E-03
         0.12562E-03
        -0.12649E-18
         0.15490E-18
        -0.81695E-03
        -0.35948E-18
        -0.95035E-03
        -0.39296E-18
        -0.93263E-03
        -0.26670E-18
        -0.96358E-03
        -0.28289E-19
        -0.48498E-03
         0.79734E-19
         0.68607E-03
         0.49368E-19
         0.15523E-02
         0.45130E-19
         0.20488E-02
         0.96829E-19
         0.18615E-02
         0.11773E-18
         0.12700E-02
         0.46383E-19
         0.50917E-03
         0.28278E-19
        -0.27675E-04
         0.46221E-19
        -0.24357E-03
         0.30983E-19
        -0.28841E-03
        -0.11049E-18
        -0.39686E-03
        -0.28991E-18
        -0.66362E-03
        -0.36792E-18
        -0.55368E-03
        -0.22770E-18
        -0.64654E-04
         0.43443E-19
         0.38775E-03
         0.92073E-19
         0.52548E-03
         0.14674E-18
         0.72245E-03
         0.28896E-18
         0.64975E-03
         0.37495E-18
         0.55497E-03
         0.26639E-18
         0.40372E-03
         0.21067E-18
        -0.72824E-05
         0.19764E-05
         0.20221E-05
        -0.12512E-05
         0.16267E-04
         0.13274E-04
         0.21325E-06
        -0.47933E-05
        -0.20953E-05
        -0.55155E-05
        -0.16011E-05
        -0.29621E-04
        -0.42144E-04
         0.15627E-05
         0.24026E-04
        -0.31472E-05
         0.23446E-05
         0.69580E-06
         0.14347E-05
        -0.11638E-05
         0.58634E-05
         0.51366E-05
        -0.15649E-04
         0.40938E-06
         0.35051E-05
         0.38624E-06
         0.64660E-07
         0.12670E-06
         0.15794E-05
        -0.52091E-05
        -0.27454E-05
         0.59009E-06
         0.94088E-06
        -0.74583E-07
        -0.39570E-05
        -0.13611E-04
        -0.27563E-04
         0.41822E-04
         0.21772E-04
         0.39483E-04
         0.76668E-04
         0.17652E-04
        -0.14150E-04
        -0.28561E-04
        -0.33988E-04
        -0.43676E-04
         0.53567E-05
         0.15941E-04
         0.49208E-05
         0.16657E-04
         0.52419E-04
         0.20058E-04
        -0.18035E-03
         0.22733E-03
        -0.55071E-03
        -0.64719E-03
        -0.61476E-03
        -0.37253E-03
         0.22231E-04
         0.24142E-03
         0.34991E-03
         0.56799E-03
         0.59800E-03
         0.31898E-03
         0.12824E-03
         0.54163E-04
        -0.87554E-04
        -0.34581E-03
        -0.57761E-03
        -0.66140E-03
        -0.40671E-03
         0.73716E-04
         0.26647E-03
         0.28068E-03
         0.44232E-03
         0.49159E-03
         0.37204E-03
         0.34314E-03
        -0.26077E-04
         0.33761E-05
        -0.59477E-05
        -0.41077E-05
         0.46139E-04
         0.17733E-04
         0.40969E-05
        -0.31267E-04
        -0.94212E-05
        -0.27957E-04
         0.29860E-05
        -0.47151E-04
        -0.91894E-04
         0.10127E-04
         0.12139E-03
        -0.19428E-04
         0.32777E-05
         0.18743E-05
         0.56851E-05
         0.19303E-05
         0.51062E-04
         0.34550E-04
        -0.19766E-04
         0.40351E-05
         0.92640E-05
        -0.15429E-05
         0.20996E-05
        -0.51824E-06
        -0.20865E-05
        -0.15400E-04
        -0.16087E-04
        -0.27420E-05
         0.67437E-05
         0.50536E-05
         0.11872E-04
        -0.19973E-04
        -0.43744E-04
         0.10231E-03
         0.15105E-04
         0.38595E-04
         0.10417E-03
        -0.26477E-04
        -0.53308E-04
        -0.48146E-04
        -0.47742E-04
        -0.57064E-04
         0.35886E-04
         0.28016E-04
        -0.46544E-05
         0.66158E-05
         0.70266E-04
         0.46442E-05
        -0.48674E-03
         0.70165E-03
        -0.14658E-02
        -0.15623E-02
        -0.15046E-02
        -0.83160E-03
         0.20224E-03
         0.57222E-03
         0.72239E-03
         0.13102E-02
         0.14614E-02
         0.56820E-03
         0.18985E-03
         0.15476E-03
        -0.78970E-04
        -0.68993E-03
        -0.12615E-02
        -0.16608E-02
        -0.11013E-02
         0.31741E-03
         0.61643E-03
         0.59043E-03
         0.10466E-02
         0.12759E-02
         0.84840E-03
         0.80079E-03
        -0.26142E-04
         0.33893E-05
        -0.59619E-05
        -0.41406E-05
         0.46100E-04
         0.17731E-04
         0.41282E-05
        -0.31240E-04
        -0.94484E-05
        -0.28039E-04
         0.29273E-05
        -0.47261E-04
        -0.91972E-04
         0.10102E-04
         0.12148E-03
        -0.19449E-04
         0.33148E-05
         0.18663E-05
         0.56862E-05
         0.19161E-05
         0.51183E-04
         0.34580E-04
        -0.19769E-04
         0.40334E-05
         0.93270E-05
        -0.15426E-05
         0.21250E-05
        -0.51134E-06
        -0.20873E-05
        -0.15443E-04
        -0.16113E-04
        -0.27356E-05
         0.67305E-05
         0.50641E-05
         0.11766E-04
        -0.19977E-04
        -0.43728E-04
         0.10263E-03
         0.15283E-04
         0.38761E-04
         0.10431E-03
        -0.26421E-04
        -0.53366E-04
        -0.48164E-04
        -0.47727E-04
        -0.57035E-04
         0.35882E-04
         0.28008E-04
        -0.46142E-05
         0.65844E-05
         0.70191E-04
         0.45671E-05
        -0.48612E-03
         0.70150E-03
        -0.14659E-02
        -0.15624E-02
        -0.15040E-02
        -0.83107E-03
         0.20238E-03
         0.57240E-03
         0.72163E-03
         0.13093E-02
         0.14608E-02
         0.56848E-03
         0.18981E-03
         0.15507E-03
        -0.78336E-04
        -0.69044E-03
        -0.12623E-02
        -0.16616E-02
        -0.11010E-02
         0.31753E-03
         0.61594E-03
         0.59017E-03
         0.10456E-02
         0.12742E-02
         0.84704E-03
         0.79937E-03
        -0.26208E-04
         0.34023E-05
        -0.59761E-05
        -0.41739E-05
         0.46059E-04
         0.17729E-04
         0.41596E-05
        -0.31213E-04
        -0.94752E-05
        -0.28119E-04
         0.28686E-05
        -0.47372E-04
        -0.92051E-04
         0.10076E-04
         0.12157E-03
        -0.19472E-04
         0.33524E-05
         0.18582E-05
         0.56873E-05
         0.19020E-05
         0.51306E-04
         0.34608E-04
        -0.19776E-04
         0.40312E-05
         0.93910E-05
        -0.15422E-05
         0.21520E-05
        -0.50463E-06
        -0.20867E-05
        -0.15484E-04
        -0.16139E-04
        -0.27282E-05
         0.67170E-05
         0.50745E-05
         0.11660E-04
        -0.19982E-04
        -0.43710E-04
         0.10295E-03
         0.15461E-04
         0.38929E-04
         0.10446E-03
        -0.26358E-04
        -0.53421E-04
        -0.48189E-04
        -0.47716E-04
        -0.57009E-04
         0.35879E-04
         0.28000E-04
        -0.45734E-05
         0.65522E-05
         0.70118E-04
         0.44905E-05
        -0.48550E-03
         0.70136E-03
        -0.14660E-02
        -0.15624E-02
        -0.15033E-02
        -0.83054E-03
         0.20253E-03
         0.57258E-03
         0.72087E-03
         0.13084E-02
         0.14603E-02
         0.56877E-03
         0.18979E-03
         0.15538E-03
        -0.77700E-04
        -0.69097E-03
        -0.12632E-02
        -0.16623E-02
        -0.11006E-02
         0.31766E-03
         0.61545E-03
         0.58992E-03
         0.10445E-02
         0.12725E-02
         0.84569E-03
         0.79796E-03
        -0.26274E-04
         0.34157E-05
        -0.59901E-05
        -0.42073E-05
         0.46019E-04
         0.17727E-04
         0.41910E-05
        -0.31185E-04
        -0.95009E-05
        -0.28194E-04
         0.28101E-05
        -0.47485E-04
        -0.92132E-04
         0.10051E-04
         0.12166E-03
        -0.19496E-04
         0.33911E-05
         0.18501E-05
         0.56891E-05
         0.18870E-05
         0.51434E-04
         0.34635E-04
        -0.19793E-04
         0.40274E-05
         0.94582E-05
        -0.15414E-05
         0.21799E-05
        -0.49905E-06
        -0.20822E-05
        -0.15521E-04
        -0.16167E-04
        -0.27186E-05
         0.67032E-05
         0.50850E-05
         0.11554E-04
        -0.19986E-04
        -0.43693E-04
         0.10328E-03
         0.15640E-04
         0.39100E-04
         0.10463E-03
        -0.26274E-04
        -0.53470E-04
        -0.48232E-04
        -0.47712E-04
        -0.56981E-04
         0.35880E-04
         0.27993E-04
        -0.45326E-05
         0.65202E-05
         0.70040E-04
         0.44143E-05
        -0.48488E-03
         0.70122E-03
        -0.14662E-02
        -0.15624E-02
        -0.15027E-02
        -0.83001E-03
         0.20268E-03
         0.57276E-03
         0.72011E-03
         0.13075E-02
         0.14598E-02
         0.56912E-03
         0.18978E-03
         0.15569E-03
        -0.77059E-04
        -0.69156E-03
        -0.12641E-02
        -0.16630E-02
        -0.11003E-02
         0.31778E-03
         0.61495E-03
         0.58966E-03
         0.10435E-02
         0.12708E-02
         0.84434E-03
         0.79656E-03
        -0.26339E-04
         0.34290E-05
        -0.60043E-05
        -0.42405E-05
         0.45980E-04
         0.17725E-04
         0.42225E-05
        -0.31156E-04
        -0.95253E-05
        -0.28262E-04
         0.27513E-05
        -0.47596E-04
        -0.92211E-04
         0.10027E-04
         0.12175E-03
        -0.19522E-04
         0.34307E-05
         0.18419E-05
         0.56903E-05
         0.18715E-05
         0.51564E-04
         0.34659E-04
        -0.19820E-04
         0.40220E-05
         0.95283E-05
        -0.15399E-05
         0.22108E-05
        -0.49448E-06
        -0.20735E-05
        -0.15555E-04
        -0.16194E-04
        -0.27065E-05
         0.66891E-05
         0.50955E-05
         0.11447E-04
        -0.19990E-04
        -0.43678E-04
         0.10360E-03
         0.15820E-04
         0.39275E-04
         0.10481E-03
        -0.26169E-04
        -0.53513E-04
        -0.48293E-04
        -0.47716E-04
        -0.56955E-04
         0.35884E-04
         0.27988E-04
        -0.44922E-05
         0.64884E-05
         0.69968E-04
         0.43379E-05
        -0.48426E-03
         0.70108E-03
        -0.14663E-02
        -0.15624E-02
        -0.15020E-02
        -0.82948E-03
         0.20282E-03
         0.57295E-03
         0.71935E-03
         0.13067E-02
         0.14593E-02
         0.56954E-03
         0.18979E-03
         0.15599E-03
        -0.76417E-04
        -0.69220E-03
        -0.12651E-02
        -0.16639E-02
        -0.11000E-02
         0.31791E-03
         0.61446E-03
         0.58941E-03
         0.10425E-02
         0.12692E-02
         0.84300E-03
         0.79515E-03
        -0.26402E-04
         0.34433E-05
        -0.60171E-05
        -0.42741E-05
         0.45941E-04
         0.17723E-04
         0.42535E-05
        -0.31123E-04
        -0.95496E-05
        -0.28327E-04
         0.26927E-05
        -0.47707E-04
        -0.92291E-04
         0.10004E-04
         0.12184E-03
        -0.19549E-04
         0.34711E-05
         0.18339E-05
         0.56914E-05
         0.18559E-05
         0.51696E-04
         0.34682E-04
        -0.19851E-04
         0.40161E-05
         0.95976E-05
        -0.15382E-05
         0.22439E-05
        -0.49027E-06
        -0.20630E-05
        -0.15590E-04
        -0.16221E-04
        -0.26928E-05
         0.66749E-05
         0.51062E-05
         0.11340E-04
        -0.19997E-04
        -0.43665E-04
         0.10393E-03
         0.16001E-04
         0.39453E-04
         0.10500E-03
        -0.26056E-04
        -0.53553E-04
        -0.48361E-04
        -0.47728E-04
        -0.56936E-04
         0.35888E-04
         0.27986E-04
        -0.44511E-05
         0.64588E-05
         0.69895E-04
         0.42618E-05
        -0.48363E-03
         0.70094E-03
        -0.14664E-02
        -0.15624E-02
        -0.15014E-02
        -0.82894E-03
         0.20296E-03
         0.57312E-03
         0.71860E-03
         0.13058E-02
         0.14589E-02
         0.56999E-03
         0.18981E-03
         0.15629E-03
        -0.75777E-04
        -0.69286E-03
        -0.12662E-02
        -0.16647E-02
        -0.10997E-02
         0.31802E-03
         0.61396E-03
         0.58915E-03
         0.10414E-02
         0.12675E-02
         0.84165E-03
         0.79374E-03
        -0.26460E-04
         0.34598E-05
        -0.60276E-05
        -0.43085E-05
         0.45903E-04
         0.17721E-04
         0.42840E-05
        -0.31084E-04
        -0.95747E-05
        -0.28389E-04
         0.26340E-05
        -0.47820E-04
        -0.92379E-04
         0.99864E-05
         0.12193E-03
        -0.19577E-04
         0.35122E-05
         0.18258E-05
         0.56933E-05
         0.18403E-05
         0.51828E-04
         0.34707E-04
        -0.19883E-04
         0.40105E-05
         0.96627E-05
        -0.15360E-05
         0.22830E-05
        -0.48596E-06
        -0.20518E-05
        -0.15625E-04
        -0.16246E-04
        -0.26776E-05
         0.66605E-05
         0.51167E-05
         0.11232E-04
        -0.20005E-04
        -0.43654E-04
         0.10425E-03
         0.16184E-04
         0.39633E-04
         0.10519E-03
        -0.25941E-04
        -0.53592E-04
        -0.48430E-04
        -0.47744E-04
        -0.56922E-04
         0.35895E-04
         0.27990E-04
        -0.44080E-05
         0.64343E-05
         0.69828E-04
         0.41851E-05
        -0.48301E-03
         0.70080E-03
        -0.14666E-02
        -0.15625E-02
        -0.15008E-02
        -0.82841E-03
         0.20309E-03
         0.57330E-03
         0.71784E-03
         0.13049E-02
         0.14584E-02
         0.57043E-03
         0.18983E-03
         0.15660E-03
        -0.75135E-04
        -0.69353E-03
        -0.12673E-02
        -0.16655E-02
        -0.10993E-02
         0.31810E-03
         0.61346E-03
         0.58891E-03
         0.10404E-02
         0.12658E-02
         0.84031E-03
         0.79234E-03
        -0.26515E-04
         0.34771E-05
        -0.60371E-05
        -0.43433E-05
         0.45867E-04
         0.17719E-04
         0.43140E-05
        -0.31041E-04
        -0.96003E-05
        -0.28451E-04
         0.25753E-05
        -0.47933E-04
        -0.92467E-04
         0.99702E-05
         0.12202E-03
        -0.19605E-04
         0.35537E-05
         0.18176E-05
         0.56947E-05
         0.18251E-05
         0.51961E-04
         0.34732E-04
        -0.19915E-04
         0.40051E-05
         0.97257E-05
        -0.15336E-05
         0.23236E-05
        -0.48152E-06
        -0.20404E-05
        -0.15661E-04
        -0.16269E-04
        -0.26614E-05
         0.66457E-05
         0.51273E-05
         0.11123E-04
        -0.20015E-04
        -0.43647E-04
         0.10458E-03
         0.16368E-04
         0.39814E-04
         0.10538E-03
        -0.25826E-04
        -0.53631E-04
        -0.48500E-04
        -0.47762E-04
        -0.56913E-04
         0.35902E-04
         0.27997E-04
        -0.43642E-05
         0.64122E-05
         0.69762E-04
         0.41088E-05
        -0.48239E-03
         0.70066E-03
        -0.14667E-02
        -0.15625E-02
        -0.15001E-02
        -0.82787E-03
         0.20323E-03
         0.57348E-03
         0.71709E-03
         0.13040E-02
         0.14579E-02
         0.57087E-03
         0.18985E-03
         0.15690E-03
        -0.74492E-04
        -0.69419E-03
        -0.12684E-02
        -0.16663E-02
        -0.10990E-02
         0.31818E-03
         0.61295E-03
         0.58867E-03
         0.10394E-02
         0.12641E-02
         0.83897E-03
         0.79093E-03
        -0.26570E-04
         0.34945E-05
        -0.60464E-05
        -0.43780E-05
         0.45829E-04
         0.17717E-04
         0.43440E-05
        -0.30998E-04
        -0.96261E-05
        -0.28512E-04
         0.25166E-05
        -0.48046E-04
        -0.92556E-04
         0.99555E-05
         0.12211E-03
        -0.19633E-04
         0.35954E-05
         0.18094E-05
         0.56960E-05
         0.18096E-05
         0.52093E-04
         0.34757E-04
        -0.19946E-04
         0.39998E-05
         0.97888E-05
        -0.15311E-05
         0.23653E-05
        -0.47682E-06
        -0.20286E-05
        -0.15696E-04
        -0.16293E-04
        -0.26455E-05
         0.66309E-05
         0.51378E-05
         0.11014E-04
        -0.20023E-04
        -0.43639E-04
         0.10492E-03
         0.16553E-04
         0.39994E-04
         0.10557E-03
        -0.25711E-04
        -0.53670E-04
        -0.48572E-04
        -0.47782E-04
        -0.56905E-04
         0.35909E-04
         0.28004E-04
        -0.43205E-05
         0.63908E-05
         0.69700E-04
         0.40323E-05
        -0.48177E-03
         0.70052E-03
        -0.14668E-02
        -0.15625E-02
        -0.14995E-02
        -0.82733E-03
         0.20337E-03
         0.57365E-03
         0.71634E-03
         0.13031E-02
         0.14575E-02
         0.57131E-03
         0.18987E-03
         0.15722E-03
        -0.73850E-04
        -0.69486E-03
        -0.12695E-02
        -0.16671E-02
        -0.10986E-02
         0.31826E-03
         0.61244E-03
         0.58843E-03
         0.10384E-02
         0.12625E-02
         0.83764E-03
         0.78953E-03
        -0.26625E-04
         0.35121E-05
        -0.60557E-05
        -0.44128E-05
         0.45792E-04
         0.17714E-04
         0.43742E-05
        -0.30954E-04
        -0.96519E-05
        -0.28572E-04
         0.24579E-05
        -0.48159E-04
        -0.92647E-04
         0.99393E-05
         0.12219E-03
        -0.19661E-04
         0.36375E-05
         0.18013E-05
         0.56971E-05
         0.17942E-05
         0.52225E-04
         0.34781E-04
        -0.19976E-04
         0.39945E-05
         0.98520E-05
        -0.15286E-05
         0.24058E-05
        -0.47192E-06
        -0.20165E-05
        -0.15732E-04
        -0.16316E-04
        -0.26295E-05
         0.66158E-05
         0.51485E-05
         0.10904E-04
        -0.20033E-04
        -0.43632E-04
         0.10525E-03
         0.16739E-04
         0.40176E-04
         0.10576E-03
        -0.25597E-04
        -0.53710E-04
        -0.48642E-04
        -0.47800E-04
        -0.56895E-04
         0.35916E-04
         0.28012E-04
        -0.42770E-05
         0.63682E-05
         0.69633E-04
         0.39563E-05
        -0.48114E-03
         0.70037E-03
        -0.14669E-02
        -0.15625E-02
        -0.14988E-02
        -0.82679E-03
         0.20350E-03
         0.57382E-03
         0.71558E-03
         0.13022E-02
         0.14570E-02
         0.57175E-03
         0.18989E-03
         0.15753E-03
        -0.73210E-04
        -0.69552E-03
        -0.12706E-02
        -0.16679E-02
        -0.10983E-02
         0.31834E-03
         0.61193E-03
         0.58819E-03
         0.10374E-02
         0.12608E-02
         0.83631E-03
         0.78813E-03
        -0.26680E-04
         0.35295E-05
        -0.60652E-05
        -0.44474E-05
         0.45755E-04
         0.17712E-04
         0.44044E-05
        -0.30910E-04
        -0.96777E-05
        -0.28633E-04
         0.23990E-05
        -0.48273E-04
        -0.92735E-04
         0.99240E-05
         0.12228E-03
        -0.19689E-04
         0.36798E-05
         0.17932E-05
         0.56990E-05
         0.17787E-05
         0.52356E-04
         0.34805E-04
        -0.20008E-04
         0.39893E-05
         0.99151E-05
        -0.15261E-05
         0.24472E-05
        -0.46673E-06
        -0.20041E-05
        -0.15768E-04
        -0.16339E-04
        -0.26135E-05
         0.66007E-05
         0.51590E-05
         0.10794E-04
        -0.20042E-04
        -0.43625E-04
         0.10558E-03
         0.16926E-04
         0.40356E-04
         0.10595E-03
        -0.25482E-04
        -0.53749E-04
        -0.48711E-04
        -0.47819E-04
        -0.56887E-04
         0.35923E-04
         0.28019E-04
        -0.42334E-05
         0.63462E-05
         0.69571E-04
         0.38803E-05
        -0.48052E-03
         0.70022E-03
        -0.14670E-02
        -0.15625E-02
        -0.14982E-02
        -0.82626E-03
         0.20363E-03
         0.57399E-03
         0.71483E-03
         0.13013E-02
         0.14565E-02
         0.57218E-03
         0.18991E-03
         0.15783E-03
        -0.72567E-04
        -0.69619E-03
        -0.12717E-02
        -0.16687E-02
        -0.10979E-02
         0.31842E-03
         0.61141E-03
         0.58795E-03
         0.10364E-02
         0.12591E-02
         0.83499E-03
         0.78673E-03
        -0.26734E-04
         0.35469E-05
        -0.60744E-05
        -0.44824E-05
         0.45718E-04
         0.17710E-04
         0.44345E-05
        -0.30866E-04
        -0.97036E-05
        -0.28693E-04
         0.23401E-05
        -0.48386E-04
        -0.92823E-04
         0.99086E-05
         0.12237E-03
        -0.19718E-04
         0.37223E-05
         0.17851E-05
         0.57005E-05
         0.17634E-05
         0.52488E-04
         0.34828E-04
        -0.20039E-04
         0.39842E-05
         0.99782E-05
        -0.15236E-05
         0.24876E-05
        -0.46136E-06
        -0.19912E-05
        -0.15804E-04
        -0.16363E-04
        -0.25975E-05
         0.65852E-05
         0.51698E-05
         0.10683E-04
        -0.20051E-04
        -0.43617E-04
         0.10591E-03
         0.17114E-04
         0.40539E-04
         0.10614E-03
        -0.25368E-04
        -0.53787E-04
        -0.48781E-04
        -0.47837E-04
        -0.56880E-04
         0.35930E-04
         0.28028E-04
        -0.41897E-05
         0.63249E-05
         0.69507E-04
         0.38045E-05
        -0.47989E-03
         0.70008E-03
        -0.14671E-02
        -0.15625E-02
        -0.14975E-02
        -0.82573E-03
         0.20376E-03
         0.57416E-03
         0.71408E-03
         0.13004E-02
         0.14560E-02
         0.57262E-03
         0.18994E-03
         0.15814E-03
        -0.71922E-04
        -0.69685E-03
        -0.12728E-02
        -0.16694E-02
        -0.10976E-02
         0.31849E-03
         0.61090E-03
         0.58771E-03
         0.10353E-02
         0.12574E-02
         0.83367E-03
         0.78533E-03
        -0.26790E-04
         0.35645E-05
        -0.60835E-05
        -0.45175E-05
         0.45681E-04
         0.17707E-04
         0.44646E-05
        -0.30822E-04
        -0.97292E-05
        -0.28752E-04
         0.22813E-05
        -0.48499E-04
        -0.92914E-04
         0.98920E-05
         0.12246E-03
        -0.19746E-04
         0.37649E-05
         0.17769E-05
         0.57020E-05
         0.17482E-05
         0.52620E-04
         0.34852E-04
        -0.20070E-04
         0.39791E-05
         0.10041E-04
        -0.15210E-05
         0.25292E-05
        -0.45571E-06
        -0.19781E-05
        -0.15839E-04
        -0.16386E-04
        -0.25813E-05
         0.65695E-05
         0.51803E-05
         0.10572E-04
        -0.20062E-04
        -0.43610E-04
         0.10624E-03
         0.17303E-04
         0.40721E-04
         0.10634E-03
        -0.25253E-04
        -0.53826E-04
        -0.48852E-04
        -0.47858E-04
        -0.56867E-04
         0.35937E-04
         0.28035E-04
        -0.41460E-05
         0.63028E-05
         0.69440E-04
         0.37292E-05
        -0.47927E-03
         0.69994E-03
        -0.14672E-02
        -0.15625E-02
        -0.14969E-02
        -0.82519E-03
         0.20389E-03
         0.57432E-03
         0.71333E-03
         0.12995E-02
         0.14555E-02
         0.57306E-03
         0.18996E-03
         0.15845E-03
        -0.71278E-04
        -0.69751E-03
        -0.12739E-02
        -0.16702E-02
        -0.10972E-02
         0.31857E-03
         0.61039E-03
         0.58747E-03
         0.10343E-02
         0.12558E-02
         0.83236E-03
         0.78394E-03
        -0.26845E-04
         0.35818E-05
        -0.60927E-05
        -0.45525E-05
         0.45645E-04
         0.17705E-04
         0.44948E-05
        -0.30776E-04
        -0.97550E-05
        -0.28810E-04
         0.22225E-05
        -0.48612E-04
        -0.93003E-04
         0.98766E-05
         0.12254E-03
        -0.19774E-04
         0.38078E-05
         0.17688E-05
         0.57040E-05
         0.17330E-05
         0.52752E-04
         0.34875E-04
        -0.20101E-04
         0.39740E-05
         0.10104E-04
        -0.15184E-05
         0.25696E-05
        -0.44987E-06
        -0.19648E-05
        -0.15875E-04
        -0.16409E-04
        -0.25653E-05
         0.65537E-05
         0.51910E-05
         0.10461E-04
        -0.20071E-04
        -0.43602E-04
         0.10657E-03
         0.17493E-04
         0.40904E-04
         0.10653E-03
        -0.25137E-04
        -0.53865E-04
        -0.48922E-04
        -0.47876E-04
        -0.56860E-04
         0.35945E-04
         0.28042E-04
        -0.41024E-05
         0.62809E-05
         0.69377E-04
         0.36545E-05
        -0.47864E-03
         0.69979E-03
        -0.14673E-02
        -0.15626E-02
        -0.14962E-02
        -0.82465E-03
         0.20402E-03
         0.57448E-03
         0.71257E-03
         0.12986E-02
         0.14551E-02
         0.57349E-03
         0.18998E-03
         0.15876E-03
        -0.70636E-04
        -0.69818E-03
        -0.12750E-02
        -0.16710E-02
        -0.10969E-02
         0.31864E-03
         0.60988E-03
         0.58723E-03
         0.10333E-02
         0.12541E-02
         0.83104E-03
         0.78254E-03
        -0.26900E-04
         0.35990E-05
        -0.61019E-05
        -0.45876E-05
         0.45607E-04
         0.17702E-04
         0.45250E-05
        -0.30731E-04
        -0.97808E-05
        -0.28869E-04
         0.21636E-05
        -0.48727E-04
        -0.93091E-04
         0.98597E-05
         0.12263E-03
        -0.19802E-04
         0.38511E-05
         0.17608E-05
         0.57054E-05
         0.17177E-05
         0.52884E-04
         0.34898E-04
        -0.20132E-04
         0.39691E-05
         0.10167E-04
        -0.15158E-05
         0.26108E-05
        -0.44376E-06
        -0.19512E-05
        -0.15910E-04
        -0.16432E-04
        -0.25492E-05
         0.65377E-05
         0.52016E-05
         0.10349E-04
        -0.20081E-04
        -0.43595E-04
         0.10691E-03
         0.17684E-04
         0.41087E-04
         0.10672E-03
        -0.25022E-04
        -0.53904E-04
        -0.48992E-04
        -0.47895E-04
        -0.56852E-04
         0.35951E-04
         0.28051E-04
        -0.40583E-05
         0.62593E-05
         0.69313E-04
         0.35795E-05
        -0.47802E-03
         0.69964E-03
        -0.14674E-02
        -0.15626E-02
        -0.14956E-02
        -0.82411E-03
         0.20415E-03
         0.57463E-03
         0.71182E-03
         0.12977E-02
         0.14546E-02
         0.57393E-03
         0.19000E-03
         0.15907E-03
        -0.69993E-04
        -0.69884E-03
        -0.12761E-02
        -0.16718E-02
        -0.10965E-02
         0.31871E-03
         0.60937E-03
         0.58700E-03
         0.10323E-02
         0.12525E-02
         0.82973E-03
         0.78114E-03
        -0.26955E-04
         0.36165E-05
        -0.61111E-05
        -0.46225E-05
         0.45570E-04
         0.17700E-04
         0.45551E-05
        -0.30686E-04
        -0.98068E-05
        -0.28927E-04
         0.21046E-05
        -0.48841E-04
        -0.93182E-04
         0.98439E-05
         0.12271E-03
        -0.19830E-04
         0.38946E-05
         0.17528E-05
         0.57069E-05
         0.17026E-05
         0.53016E-04
         0.34920E-04
        -0.20163E-04
         0.39642E-05
         0.10230E-04
        -0.15131E-05
         0.26510E-05
        -0.43741E-06
        -0.19374E-05
        -0.15945E-04
        -0.16456E-04
        -0.25332E-05
         0.65215E-05
         0.52124E-05
         0.10237E-04
        -0.20090E-04
        -0.43587E-04
         0.10724E-03
         0.17876E-04
         0.41268E-04
         0.10691E-03
        -0.24906E-04
        -0.53944E-04
        -0.49060E-04
        -0.47915E-04
        -0.56842E-04
         0.35958E-04
         0.28058E-04
        -0.40147E-05
         0.62373E-05
         0.69249E-04
         0.35047E-05
        -0.47739E-03
         0.69949E-03
        -0.14675E-02
        -0.15626E-02
        -0.14950E-02
        -0.82356E-03
         0.20427E-03
         0.57478E-03
         0.71107E-03
         0.12968E-02
         0.14541E-02
         0.57437E-03
         0.19002E-03
         0.15937E-03
        -0.69349E-04
        -0.69950E-03
        -0.12772E-02
        -0.16726E-02
        -0.10962E-02
         0.31878E-03
         0.60886E-03
         0.58676E-03
         0.10313E-02
         0.12508E-02
         0.82843E-03
         0.77975E-03
        -0.27010E-04
         0.36338E-05
        -0.61204E-05
        -0.46577E-05
         0.45534E-04
         0.17697E-04
         0.45855E-05
        -0.30640E-04
        -0.98325E-05
        -0.28984E-04
         0.20455E-05
        -0.48955E-04
        -0.93271E-04
         0.98266E-05
         0.12280E-03
        -0.19858E-04
         0.39385E-05
         0.17447E-05
         0.57086E-05
         0.16876E-05
         0.53148E-04
         0.34942E-04
        -0.20193E-04
         0.39594E-05
         0.10293E-04
        -0.15104E-05
         0.26922E-05
        -0.43073E-06
        -0.19230E-05
        -0.15980E-04
        -0.16479E-04
        -0.25171E-05
         0.65053E-05
         0.52233E-05
         0.10124E-04
        -0.20099E-04
        -0.43579E-04
         0.10757E-03
         0.18070E-04
         0.41452E-04
         0.10710E-03
        -0.24792E-04
        -0.53983E-04
        -0.49131E-04
        -0.47934E-04
        -0.56834E-04
         0.35966E-04
         0.28066E-04
        -0.39714E-05
         0.62153E-05
         0.69184E-04
         0.34307E-05
        -0.47676E-03
         0.69934E-03
        -0.14676E-02
        -0.15626E-02
        -0.14943E-02
        -0.82303E-03
         0.20438E-03
         0.57493E-03
         0.71033E-03
         0.12959E-02
         0.14537E-02
         0.57482E-03
         0.19003E-03
         0.15968E-03
        -0.68707E-04
        -0.70016E-03
        -0.12783E-02
        -0.16734E-02
        -0.10958E-02
         0.31886E-03
         0.60835E-03
         0.58652E-03
         0.10303E-02
         0.12491E-02
         0.82713E-03
         0.77835E-03
        -0.27065E-04
         0.36511E-05
        -0.61294E-05
        -0.46930E-05
         0.45497E-04
         0.17694E-04
         0.46156E-05
        -0.30593E-04
        -0.98576E-05
        -0.29037E-04
         0.19864E-05
        -0.49069E-04
        -0.93359E-04
         0.98102E-05
         0.12288E-03
        -0.19886E-04
         0.39829E-05
         0.17366E-05
         0.57109E-05
         0.16733E-05
         0.53279E-04
         0.34962E-04
        -0.20225E-04
         0.39543E-05
         0.10354E-04
        -0.15078E-05
         0.27327E-05
        -0.42356E-06
        -0.19085E-05
        -0.16014E-04
        -0.16502E-04
        -0.25008E-05
         0.64886E-05
         0.52341E-05
         0.10010E-04
        -0.20110E-04
        -0.43572E-04
         0.10790E-03
         0.18269E-04
         0.41630E-04
         0.10728E-03
        -0.24674E-04
        -0.54022E-04
        -0.49201E-04
        -0.47953E-04
        -0.56824E-04
         0.35972E-04
         0.28074E-04
        -0.39282E-05
         0.61935E-05
         0.69122E-04
         0.33568E-05
        -0.47614E-03
         0.69919E-03
        -0.14677E-02
        -0.15626E-02
        -0.14937E-02
        -0.82249E-03
         0.20450E-03
         0.57509E-03
         0.70959E-03
         0.12950E-02
         0.14532E-02
         0.57529E-03
         0.19004E-03
         0.15998E-03
        -0.68067E-04
        -0.70082E-03
        -0.12794E-02
        -0.16742E-02
        -0.10955E-02
         0.31893E-03
         0.60785E-03
         0.58628E-03
         0.10292E-02
         0.12475E-02
         0.82584E-03
         0.77696E-03
        -0.27120E-04
         0.36683E-05
        -0.61384E-05
        -0.47282E-05
         0.45460E-04
         0.17691E-04
         0.46458E-05
        -0.30546E-04
        -0.98823E-05
        -0.29086E-04
         0.19274E-05
        -0.49182E-04
        -0.93450E-04
         0.97936E-05
         0.12296E-03
        -0.19914E-04
         0.40279E-05
         0.17285E-05
         0.57126E-05
         0.16594E-05
         0.53411E-04
         0.34982E-04
        -0.20256E-04
         0.39495E-05
         0.10413E-04
        -0.15050E-05
         0.27749E-05
        -0.41582E-06
        -0.18937E-05
        -0.16047E-04
        -0.16525E-04
        -0.24847E-05
         0.64718E-05
         0.52449E-05
         0.98962E-05
        -0.20119E-04
        -0.43565E-04
         0.10824E-03
         0.18473E-04
         0.41809E-04
         0.10746E-03
        -0.24555E-04
        -0.54061E-04
        -0.49270E-04
        -0.47974E-04
        -0.56817E-04
         0.35980E-04
         0.28081E-04
        -0.38846E-05
         0.61718E-05
         0.69056E-04
         0.32825E-05
        -0.47551E-03
         0.69904E-03
        -0.14678E-02
        -0.15626E-02
        -0.14930E-02
        -0.82196E-03
         0.20462E-03
         0.57524E-03
         0.70885E-03
         0.12940E-02
         0.14528E-02
         0.57577E-03
         0.19003E-03
         0.16028E-03
        -0.67422E-04
        -0.70148E-03
        -0.12805E-02
        -0.16749E-02
        -0.10951E-02
         0.31900E-03
         0.60734E-03
         0.58604E-03
         0.10282E-02
         0.12458E-02
         0.82455E-03
         0.77557E-03
        -0.27175E-04
         0.36856E-05
        -0.61478E-05
        -0.47635E-05
         0.45425E-04
         0.17689E-04
         0.46761E-05
        -0.30499E-04
        -0.99067E-05
        -0.29134E-04
         0.18686E-05
        -0.49294E-04
        -0.93538E-04
         0.97758E-05
         0.12304E-03
        -0.19942E-04
         0.40733E-05
         0.17206E-05
         0.57143E-05
         0.16460E-05
         0.53543E-04
         0.35001E-04
        -0.20284E-04
         0.39450E-05
         0.10472E-04
        -0.15024E-05
         0.28158E-05
        -0.40770E-06
        -0.18788E-05
        -0.16079E-04
        -0.16548E-04
        -0.24689E-05
         0.64552E-05
         0.52559E-05
         0.97832E-05
        -0.20128E-04
        -0.43555E-04
         0.10857E-03
         0.18680E-04
         0.41982E-04
         0.10763E-03
        -0.24438E-04
        -0.54101E-04
        -0.49339E-04
        -0.47991E-04
        -0.56809E-04
         0.35987E-04
         0.28090E-04
        -0.38416E-05
         0.61497E-05
         0.68995E-04
         0.32091E-05
        -0.47488E-03
         0.69890E-03
        -0.14679E-02
        -0.15626E-02
        -0.14924E-02
        -0.82141E-03
         0.20473E-03
         0.57538E-03
         0.70811E-03
         0.12930E-02
         0.14523E-02
         0.57625E-03
         0.19001E-03
         0.16059E-03
        -0.66778E-04
        -0.70213E-03
        -0.12816E-02
        -0.16757E-02
        -0.10948E-02
         0.31908E-03
         0.60683E-03
         0.58579E-03
         0.10272E-02
         0.12442E-02
         0.82327E-03
         0.77418E-03
        -0.27463E-04
         0.37318E-05
        -0.62119E-05
        -0.48381E-05
         0.45777E-04
         0.17837E-04
         0.47448E-05
        -0.30723E-04
        -0.10014E-04
        -0.29435E-04
         0.18335E-05
        -0.49803E-04
        -0.94408E-04
         0.98460E-05
         0.12421E-03
        -0.20140E-04
         0.41515E-05
         0.17276E-05
         0.57633E-05
         0.16475E-05
         0.54108E-04
         0.35314E-04
        -0.20463E-04
         0.39766E-05
         0.10619E-04
        -0.15141E-05
         0.28787E-05
        -0.40289E-06
        -0.18842E-05
        -0.16251E-04
        -0.16714E-04
        -0.24786E-05
         0.64953E-05
         0.53121E-05
         0.97641E-05
        -0.20300E-04
        -0.43906E-04
         0.10984E-03
         0.19035E-04
         0.42512E-04
         0.10873E-03
        -0.24564E-04
        -0.54617E-04
        -0.49785E-04
        -0.48391E-04
        -0.57259E-04
         0.36290E-04
         0.28328E-04
        -0.38350E-05
         0.61797E-05
         0.69519E-04
         0.31636E-05
        -0.47854E-03
         0.70514E-03
        -0.14814E-02
        -0.15767E-02
        -0.15054E-02
        -0.82852E-03
         0.20687E-03
         0.58098E-03
         0.71422E-03
         0.13046E-02
         0.14659E-02
         0.58191E-03
         0.19160E-03
         0.16222E-03
        -0.66718E-04
        -0.70847E-03
        -0.12932E-02
        -0.16910E-02
        -0.11045E-02
         0.32216E-03
         0.61176E-03
         0.59060E-03
         0.10353E-02
         0.12536E-02
         0.82922E-03
         0.77957E-03
        -0.61457E-04
         0.84444E-05
        -0.13856E-04
        -0.10916E-04
         0.95102E-04
         0.37763E-04
         0.10694E-04
        -0.68072E-04
        -0.22299E-04
        -0.64983E-04
         0.39277E-05
        -0.10003E-03
        -0.19515E-03
         0.21198E-04
         0.25221E-03
        -0.45137E-04
         0.93149E-05
         0.38625E-05
         0.12578E-04
         0.36040E-05
         0.11178E-03
         0.74758E-04
        -0.42397E-04
         0.88094E-05
         0.23918E-04
        -0.34105E-05
         0.63570E-05
        -0.89232E-06
        -0.42534E-05
        -0.36499E-04
        -0.37483E-04
        -0.55242E-05
         0.14584E-04
         0.11943E-04
         0.19297E-04
        -0.42911E-04
        -0.92857E-04
         0.23324E-03
         0.41712E-04
         0.93536E-04
         0.23251E-03
        -0.53169E-04
        -0.11830E-03
        -0.10469E-03
        -0.10110E-03
        -0.11302E-03
         0.75333E-04
         0.60277E-04
        -0.81842E-05
         0.13142E-04
         0.14106E-03
         0.65515E-05
        -0.75796E-03
         0.11140E-02
        -0.23427E-02
        -0.25063E-02
        -0.23906E-02
        -0.13231E-02
         0.33847E-03
         0.96536E-03
         0.11817E-02
         0.21347E-02
         0.24036E-02
         0.94981E-03
         0.31886E-03
         0.27186E-03
        -0.10816E-03
        -0.11303E-02
        -0.20509E-02
        -0.26559E-02
        -0.17338E-02
         0.50740E-03
         0.98147E-03
         0.95544E-03
         0.16635E-02
         0.20276E-02
         0.13325E-02
         0.12434E-02
  
SCALARS                      strain_eq  double 1
LOOKUP_TABLE default
         0.46760E+01
         0.46068E+01
         0.46507E+01
         0.47293E+01
         0.21306E-08
         0.23625E-08
         0.22953E-08
         0.20653E-08
         0.46047E+01
         0.46280E+01
         0.23236E-08
         0.22221E-08
         0.45067E+01
         0.45029E+01
         0.25422E-08
         0.24209E-08
         0.47178E+01
         0.45084E+01
         0.18964E-08
         0.21329E-08
         0.44313E+01
         0.43717E+01
         0.44669E+01
         0.26182E-08
         0.24976E-08
         0.24842E-08
         0.43739E+01
         0.42866E+01
         0.25361E-08
         0.23033E-08
         0.47140E+01
         0.46229E+01
         0.48023E+01
         0.20637E-08
         0.19379E-08
         0.18563E-08
         0.46614E+01
         0.45452E+01
         0.22499E-08
         0.20511E-08
         0.46154E+01
         0.45259E+01
         0.20927E-08
         0.18054E-08
         0.46913E+01
         0.47248E+01
         0.22598E-08
         0.23435E-08
         0.44539E+01
         0.20253E-08
         0.47182E+01
         0.23550E-08
         0.43486E+01
         0.22142E-08
         0.43212E+01
         0.20438E-08
         0.43217E+01
         0.44192E+01
         0.20711E-08
         0.20366E-08
         0.47122E+01
         0.46772E+01
         0.20897E-08
         0.23655E-08
         0.47340E+01
         0.20057E-08
         0.46925E+01
         0.21967E-08
         0.45835E+01
         0.45722E+01
         0.23498E-08
         0.23482E-08
         0.45473E+01
         0.23764E-08
         0.42556E+01
         0.18995E-08
         0.42404E+01
         0.17680E-08
         0.42482E+01
         0.18418E-08
         0.42909E+01
         0.43344E+01
         0.17814E-08
         0.18503E-08
         0.44226E+01
         0.17426E-08
         0.46895E+01
         0.23398E-08
         0.46481E+01
         0.23826E-08
         0.46143E+01
         0.45951E+01
         0.23804E-08
         0.23351E-08
         0.46181E+01
         0.20955E-08
         0.46345E+01
         0.20517E-08
         0.46198E+01
         0.22192E-08
         0.46148E+01
         0.46296E+01
         0.22814E-08
         0.22752E-08
         0.45338E+01
         0.45736E+01
         0.21694E-08
         0.20940E-08
         0.45268E+01
         0.21068E-08
         0.45728E+01
         0.20569E-08
         0.45277E+01
         0.20544E-08
         0.44285E+01
         0.19261E-08
         0.43326E+01
         0.16298E-08
         0.42750E+01
         0.13771E-08
         0.42691E+01
         0.13356E-08
         0.42709E+01
         0.14230E-08
         0.43333E+01
         0.14680E-08
         0.44507E+01
         0.13751E-08
         0.45793E+01
         0.12551E-08
         0.46541E+01
         0.12989E-08
         0.47281E+01
         0.15397E-08
         0.47771E+01
         0.17975E-08
         0.47754E+01
         0.19157E-08
         0.46558E+01
         0.20456E-08
         0.45721E+01
         0.21497E-08
         0.45443E+01
         0.20057E-08
         0.45892E+01
         0.17659E-08
         0.46122E+01
         0.17624E-08
         0.45727E+01
         0.19394E-08
         0.45728E+01
         0.20579E-08
         0.46027E+01
         0.19913E-08
         0.46414E+01
         0.19469E-08
         0.39732E+00
         0.39920E+00
         0.39895E+00
         0.39634E+00
         0.40100E+00
         0.39883E+00
         0.40128E+00
         0.40006E+00
         0.39680E+00
         0.39894E+00
         0.40249E+00
         0.40319E+00
         0.40215E+00
         0.40183E+00
         0.40281E+00
         0.39649E+00
         0.39699E+00
         0.39551E+00
         0.39938E+00
         0.39875E+00
         0.39988E+00
         0.39932E+00
         0.40035E+00
         0.39987E+00
         0.39883E+00
         0.39887E+00
         0.40064E+00
         0.40047E+00
         0.40165E+00
         0.39986E+00
         0.39674E+00
         0.39921E+00
         0.39674E+00
         0.39841E+00
         0.40337E+00
         0.40192E+00
         0.40127E+00
         0.40222E+00
         0.40223E+00
         0.40336E+00
         0.40432E+00
         0.40224E+00
         0.39991E+00
         0.40016E+00
         0.40138E+00
         0.40337E+00
         0.40161E+00
         0.39960E+00
         0.39973E+00
         0.40129E+00
         0.40285E+00
         0.40081E+00
         0.40826E+00
         0.40763E+00
         0.40807E+00
         0.40805E+00
         0.40853E+00
         0.40966E+00
         0.40993E+00
         0.40937E+00
         0.40913E+00
         0.40943E+00
         0.40936E+00
         0.40823E+00
         0.40679E+00
         0.40623E+00
         0.40609E+00
         0.40602E+00
         0.40629E+00
         0.40715E+00
         0.40831E+00
         0.40836E+00
         0.40753E+00
         0.40722E+00
         0.40737E+00
         0.40762E+00
         0.40716E+00
         0.40702E+00
         0.15138E-01
         0.90956E-02
         0.85794E-02
         0.58832E-02
         0.15720E-01
         0.10869E-01
         0.47977E-02
         0.14888E-01
         0.93261E-02
         0.14029E-01
         0.68401E-02
         0.29474E-01
         0.22382E-01
         0.11194E-01
         0.30870E-01
         0.10999E-01
         0.55724E-02
         0.35552E-02
         0.74064E-02
         0.40097E-02
         0.23179E-01
         0.21746E-01
         0.21177E-01
         0.55110E-02
         0.90534E-02
         0.28787E-02
         0.10561E-01
         0.17154E-02
         0.38681E-02
         0.98199E-02
         0.93964E-02
         0.49980E-02
         0.60862E-02
         0.52651E-02
         0.20321E-01
         0.12161E-01
         0.15741E-01
         0.25175E-01
         0.19365E-01
         0.18024E-01
         0.25599E-01
         0.23206E-01
         0.23361E-01
         0.18085E-01
         0.16150E-01
         0.22093E-01
         0.14483E-01
         0.12315E-01
         0.10155E-01
         0.11992E-01
         0.19608E-01
         0.13462E-01
         0.86095E-01
         0.88154E-01
         0.92148E-01
         0.91479E-01
         0.97518E-01
         0.10470E+00
         0.10047E+00
         0.89338E-01
         0.87060E-01
         0.93175E-01
         0.91316E-01
         0.90073E-01
         0.74458E-01
         0.70780E-01
         0.77759E-01
         0.83290E-01
         0.86434E-01
         0.94392E-01
         0.90796E-01
         0.93254E-01
         0.83968E-01
         0.79726E-01
         0.85025E-01
         0.83119E-01
         0.85534E-01
         0.84813E-01
         0.15149E-01
         0.90976E-02
         0.85842E-02
         0.58916E-02
         0.15713E-01
         0.10863E-01
         0.48122E-02
         0.14903E-01
         0.93423E-02
         0.14070E-01
         0.68399E-02
         0.29473E-01
         0.22391E-01
         0.11168E-01
         0.30902E-01
         0.11008E-01
         0.55880E-02
         0.35463E-02
         0.74106E-02
         0.40008E-02
         0.23181E-01
         0.21744E-01
         0.21176E-01
         0.55109E-02
         0.90924E-02
         0.28781E-02
         0.10565E-01
         0.16972E-02
         0.38865E-02
         0.98372E-02
         0.94054E-02
         0.49964E-02
         0.60759E-02
         0.52699E-02
         0.20330E-01
         0.12157E-01
         0.15737E-01
         0.25214E-01
         0.19409E-01
         0.18049E-01
         0.25616E-01
         0.23218E-01
         0.23363E-01
         0.18084E-01
         0.16147E-01
         0.22092E-01
         0.14483E-01
         0.12314E-01
         0.10141E-01
         0.11976E-01
         0.19597E-01
         0.13442E-01
         0.86063E-01
         0.88133E-01
         0.92148E-01
         0.91480E-01
         0.97502E-01
         0.10467E+00
         0.10043E+00
         0.89314E-01
         0.87038E-01
         0.93147E-01
         0.91301E-01
         0.90076E-01
         0.74451E-01
         0.70777E-01
         0.77767E-01
         0.83309E-01
         0.86456E-01
         0.94412E-01
         0.90790E-01
         0.93249E-01
         0.83959E-01
         0.79721E-01
         0.84996E-01
         0.83065E-01
         0.85485E-01
         0.84768E-01
         0.15161E-01
         0.90998E-02
         0.85892E-02
         0.59001E-02
         0.15706E-01
         0.10857E-01
         0.48268E-02
         0.14917E-01
         0.93584E-02
         0.14111E-01
         0.68399E-02
         0.29473E-01
         0.22399E-01
         0.11142E-01
         0.30934E-01
         0.11017E-01
         0.56039E-02
         0.35372E-02
         0.74150E-02
         0.39922E-02
         0.23183E-01
         0.21743E-01
         0.21175E-01
         0.55106E-02
         0.91310E-02
         0.28772E-02
         0.10568E-01
         0.16797E-02
         0.39048E-02
         0.98539E-02
         0.94146E-02
         0.49948E-02
         0.60656E-02
         0.52746E-02
         0.20340E-01
         0.12154E-01
         0.15734E-01
         0.25254E-01
         0.19452E-01
         0.18074E-01
         0.25634E-01
         0.23231E-01
         0.23367E-01
         0.18085E-01
         0.16144E-01
         0.22091E-01
         0.14483E-01
         0.12314E-01
         0.10127E-01
         0.11959E-01
         0.19587E-01
         0.13421E-01
         0.86032E-01
         0.88112E-01
         0.92147E-01
         0.91481E-01
         0.97486E-01
         0.10463E+00
         0.10039E+00
         0.89291E-01
         0.87016E-01
         0.93119E-01
         0.91285E-01
         0.90080E-01
         0.74444E-01
         0.70775E-01
         0.77777E-01
         0.83330E-01
         0.86479E-01
         0.94433E-01
         0.90785E-01
         0.93243E-01
         0.83950E-01
         0.79716E-01
         0.84967E-01
         0.83010E-01
         0.85437E-01
         0.84723E-01
         0.15172E-01
         0.91018E-02
         0.85941E-02
         0.59085E-02
         0.15699E-01
         0.10851E-01
         0.48416E-02
         0.14931E-01
         0.93746E-02
         0.14151E-01
         0.68399E-02
         0.29472E-01
         0.22409E-01
         0.11115E-01
         0.30966E-01
         0.11027E-01
         0.56204E-02
         0.35281E-02
         0.74198E-02
         0.39831E-02
         0.23186E-01
         0.21742E-01
         0.21175E-01
         0.55101E-02
         0.91688E-02
         0.28759E-02
         0.10571E-01
         0.16643E-02
         0.39221E-02
         0.98691E-02
         0.94241E-02
         0.49935E-02
         0.60553E-02
         0.52794E-02
         0.20348E-01
         0.12151E-01
         0.15730E-01
         0.25293E-01
         0.19497E-01
         0.18101E-01
         0.25652E-01
         0.23243E-01
         0.23371E-01
         0.18087E-01
         0.16142E-01
         0.22091E-01
         0.14485E-01
         0.12313E-01
         0.10112E-01
         0.11943E-01
         0.19576E-01
         0.13400E-01
         0.86001E-01
         0.88091E-01
         0.92147E-01
         0.91481E-01
         0.97470E-01
         0.10460E+00
         0.10035E+00
         0.89267E-01
         0.86994E-01
         0.93091E-01
         0.91270E-01
         0.90084E-01
         0.74439E-01
         0.70772E-01
         0.77787E-01
         0.83354E-01
         0.86505E-01
         0.94454E-01
         0.90781E-01
         0.93238E-01
         0.83941E-01
         0.79711E-01
         0.84938E-01
         0.82956E-01
         0.85389E-01
         0.84678E-01
         0.15184E-01
         0.91039E-02
         0.85990E-02
         0.59170E-02
         0.15692E-01
         0.10844E-01
         0.48562E-02
         0.14945E-01
         0.93905E-02
         0.14191E-01
         0.68400E-02
         0.29471E-01
         0.22417E-01
         0.11089E-01
         0.30998E-01
         0.11038E-01
         0.56374E-02
         0.35190E-02
         0.74246E-02
         0.39738E-02
         0.23189E-01
         0.21741E-01
         0.21176E-01
         0.55092E-02
         0.92058E-02
         0.28740E-02
         0.10574E-01
         0.16509E-02
         0.39383E-02
         0.98828E-02
         0.94340E-02
         0.49924E-02
         0.60449E-02
         0.52842E-02
         0.20357E-01
         0.12147E-01
         0.15726E-01
         0.25332E-01
         0.19542E-01
         0.18129E-01
         0.25672E-01
         0.23257E-01
         0.23376E-01
         0.18090E-01
         0.16142E-01
         0.22092E-01
         0.14486E-01
         0.12313E-01
         0.10098E-01
         0.11926E-01
         0.19565E-01
         0.13380E-01
         0.85970E-01
         0.88070E-01
         0.92146E-01
         0.91482E-01
         0.97454E-01
         0.10456E+00
         0.10030E+00
         0.89243E-01
         0.86972E-01
         0.93063E-01
         0.91256E-01
         0.90090E-01
         0.74436E-01
         0.70771E-01
         0.77799E-01
         0.83381E-01
         0.86533E-01
         0.94477E-01
         0.90776E-01
         0.93233E-01
         0.83932E-01
         0.79706E-01
         0.84909E-01
         0.82901E-01
         0.85341E-01
         0.84633E-01
         0.15194E-01
         0.91054E-02
         0.86037E-02
         0.59255E-02
         0.15685E-01
         0.10838E-01
         0.48704E-02
         0.14958E-01
         0.94066E-02
         0.14229E-01
         0.68408E-02
         0.29470E-01
         0.22426E-01
         0.11063E-01
         0.31029E-01
         0.11048E-01
         0.56547E-02
         0.35098E-02
         0.74295E-02
         0.39647E-02
         0.23193E-01
         0.21741E-01
         0.21178E-01
         0.55084E-02
         0.92419E-02
         0.28718E-02
         0.10576E-01
         0.16385E-02
         0.39543E-02
         0.98960E-02
         0.94437E-02
         0.49910E-02
         0.60345E-02
         0.52890E-02
         0.20367E-01
         0.12144E-01
         0.15723E-01
         0.25372E-01
         0.19588E-01
         0.18157E-01
         0.25692E-01
         0.23271E-01
         0.23382E-01
         0.18095E-01
         0.16142E-01
         0.22094E-01
         0.14488E-01
         0.12313E-01
         0.10085E-01
         0.11910E-01
         0.19555E-01
         0.13359E-01
         0.85939E-01
         0.88049E-01
         0.92146E-01
         0.91482E-01
         0.97437E-01
         0.10453E+00
         0.10026E+00
         0.89219E-01
         0.86950E-01
         0.93034E-01
         0.91241E-01
         0.90096E-01
         0.74433E-01
         0.70769E-01
         0.77810E-01
         0.83408E-01
         0.86563E-01
         0.94500E-01
         0.90771E-01
         0.93227E-01
         0.83923E-01
         0.79701E-01
         0.84880E-01
         0.82847E-01
         0.85293E-01
         0.84588E-01
         0.15204E-01
         0.91057E-02
         0.86082E-02
         0.59340E-02
         0.15678E-01
         0.10832E-01
         0.48842E-02
         0.14969E-01
         0.94230E-02
         0.14265E-01
         0.68426E-02
         0.29470E-01
         0.22436E-01
         0.11037E-01
         0.31062E-01
         0.11059E-01
         0.56715E-02
         0.35007E-02
         0.74345E-02
         0.39558E-02
         0.23197E-01
         0.21741E-01
         0.21181E-01
         0.55077E-02
         0.92769E-02
         0.28692E-02
         0.10579E-01
         0.16264E-02
         0.39706E-02
         0.99091E-02
         0.94527E-02
         0.49885E-02
         0.60241E-02
         0.52936E-02
         0.20376E-01
         0.12142E-01
         0.15721E-01
         0.25412E-01
         0.19634E-01
         0.18186E-01
         0.25712E-01
         0.23285E-01
         0.23388E-01
         0.18099E-01
         0.16143E-01
         0.22097E-01
         0.14492E-01
         0.12314E-01
         0.10073E-01
         0.11895E-01
         0.19545E-01
         0.13339E-01
         0.85908E-01
         0.88028E-01
         0.92145E-01
         0.91483E-01
         0.97421E-01
         0.10449E+00
         0.10022E+00
         0.89195E-01
         0.86928E-01
         0.93006E-01
         0.91226E-01
         0.90102E-01
         0.74430E-01
         0.70768E-01
         0.77822E-01
         0.83436E-01
         0.86593E-01
         0.94523E-01
         0.90765E-01
         0.93221E-01
         0.83915E-01
         0.79697E-01
         0.84850E-01
         0.82793E-01
         0.85246E-01
         0.84543E-01
         0.15214E-01
         0.91057E-02
         0.86126E-02
         0.59426E-02
         0.15671E-01
         0.10826E-01
         0.48975E-02
         0.14980E-01
         0.94396E-02
         0.14301E-01
         0.68449E-02
         0.29470E-01
         0.22447E-01
         0.11012E-01
         0.31094E-01
         0.11070E-01
         0.56883E-02
         0.34914E-02
         0.74395E-02
         0.39473E-02
         0.23201E-01
         0.21741E-01
         0.21183E-01
         0.55070E-02
         0.93114E-02
         0.28664E-02
         0.10582E-01
         0.16148E-02
         0.39874E-02
         0.99223E-02
         0.94614E-02
         0.49855E-02
         0.60136E-02
         0.52982E-02
         0.20386E-01
         0.12140E-01
         0.15719E-01
         0.25453E-01
         0.19680E-01
         0.18215E-01
         0.25733E-01
         0.23299E-01
         0.23394E-01
         0.18105E-01
         0.16145E-01
         0.22100E-01
         0.14495E-01
         0.12316E-01
         0.10062E-01
         0.11880E-01
         0.19535E-01
         0.13319E-01
         0.85876E-01
         0.88008E-01
         0.92144E-01
         0.91483E-01
         0.97405E-01
         0.10446E+00
         0.10018E+00
         0.89171E-01
         0.86906E-01
         0.92977E-01
         0.91211E-01
         0.90108E-01
         0.74428E-01
         0.70767E-01
         0.77834E-01
         0.83464E-01
         0.86623E-01
         0.94544E-01
         0.90759E-01
         0.93216E-01
         0.83908E-01
         0.79694E-01
         0.84821E-01
         0.82739E-01
         0.85198E-01
         0.84498E-01
         0.15223E-01
         0.91057E-02
         0.86170E-02
         0.59512E-02
         0.15665E-01
         0.10820E-01
         0.49108E-02
         0.14990E-01
         0.94563E-02
         0.14337E-01
         0.68471E-02
         0.29471E-01
         0.22457E-01
         0.10986E-01
         0.31127E-01
         0.11081E-01
         0.57050E-02
         0.34822E-02
         0.74444E-02
         0.39385E-02
         0.23205E-01
         0.21741E-01
         0.21185E-01
         0.55065E-02
         0.93458E-02
         0.28637E-02
         0.10585E-01
         0.16035E-02
         0.40044E-02
         0.99354E-02
         0.94701E-02
         0.49826E-02
         0.60032E-02
         0.53027E-02
         0.20396E-01
         0.12138E-01
         0.15716E-01
         0.25493E-01
         0.19726E-01
         0.18243E-01
         0.25753E-01
         0.23313E-01
         0.23400E-01
         0.18110E-01
         0.16146E-01
         0.22104E-01
         0.14498E-01
         0.12318E-01
         0.10052E-01
         0.11865E-01
         0.19527E-01
         0.13299E-01
         0.85845E-01
         0.87987E-01
         0.92142E-01
         0.91484E-01
         0.97389E-01
         0.10442E+00
         0.10014E+00
         0.89147E-01
         0.86885E-01
         0.92949E-01
         0.91196E-01
         0.90114E-01
         0.74425E-01
         0.70765E-01
         0.77846E-01
         0.83492E-01
         0.86653E-01
         0.94566E-01
         0.90753E-01
         0.93210E-01
         0.83901E-01
         0.79690E-01
         0.84792E-01
         0.82685E-01
         0.85150E-01
         0.84453E-01
         0.15233E-01
         0.91056E-02
         0.86213E-02
         0.59598E-02
         0.15658E-01
         0.10814E-01
         0.49242E-02
         0.15000E-01
         0.94729E-02
         0.14372E-01
         0.68497E-02
         0.29471E-01
         0.22467E-01
         0.10960E-01
         0.31159E-01
         0.11092E-01
         0.57218E-02
         0.34730E-02
         0.74492E-02
         0.39299E-02
         0.23209E-01
         0.21741E-01
         0.21187E-01
         0.55059E-02
         0.93802E-02
         0.28610E-02
         0.10588E-01
         0.15926E-02
         0.40214E-02
         0.99486E-02
         0.94787E-02
         0.49796E-02
         0.59929E-02
         0.53074E-02
         0.20406E-01
         0.12136E-01
         0.15714E-01
         0.25534E-01
         0.19773E-01
         0.18272E-01
         0.25773E-01
         0.23327E-01
         0.23406E-01
         0.18115E-01
         0.16148E-01
         0.22107E-01
         0.14502E-01
         0.12320E-01
         0.10041E-01
         0.11849E-01
         0.19517E-01
         0.13279E-01
         0.85814E-01
         0.87966E-01
         0.92141E-01
         0.91484E-01
         0.97373E-01
         0.10439E+00
         0.10009E+00
         0.89123E-01
         0.86863E-01
         0.92920E-01
         0.91181E-01
         0.90120E-01
         0.74422E-01
         0.70764E-01
         0.77858E-01
         0.83519E-01
         0.86683E-01
         0.94588E-01
         0.90747E-01
         0.93204E-01
         0.83893E-01
         0.79686E-01
         0.84762E-01
         0.82631E-01
         0.85103E-01
         0.84408E-01
         0.15242E-01
         0.91054E-02
         0.86257E-02
         0.59684E-02
         0.15652E-01
         0.10808E-01
         0.49377E-02
         0.15010E-01
         0.94896E-02
         0.14408E-01
         0.68523E-02
         0.29471E-01
         0.22477E-01
         0.10935E-01
         0.31192E-01
         0.11103E-01
         0.57387E-02
         0.34639E-02
         0.74542E-02
         0.39210E-02
         0.23213E-01
         0.21741E-01
         0.21190E-01
         0.55054E-02
         0.94145E-02
         0.28584E-02
         0.10591E-01
         0.15820E-02
         0.40386E-02
         0.99617E-02
         0.94873E-02
         0.49767E-02
         0.59826E-02
         0.53119E-02
         0.20416E-01
         0.12134E-01
         0.15712E-01
         0.25574E-01
         0.19819E-01
         0.18300E-01
         0.25794E-01
         0.23341E-01
         0.23412E-01
         0.18120E-01
         0.16150E-01
         0.22111E-01
         0.14506E-01
         0.12322E-01
         0.10030E-01
         0.11834E-01
         0.19508E-01
         0.13260E-01
         0.85782E-01
         0.87945E-01
         0.92140E-01
         0.91484E-01
         0.97357E-01
         0.10435E+00
         0.10005E+00
         0.89099E-01
         0.86841E-01
         0.92891E-01
         0.91167E-01
         0.90126E-01
         0.74419E-01
         0.70763E-01
         0.77869E-01
         0.83547E-01
         0.86712E-01
         0.94610E-01
         0.90740E-01
         0.93198E-01
         0.83885E-01
         0.79683E-01
         0.84733E-01
         0.82577E-01
         0.85055E-01
         0.84363E-01
         0.15251E-01
         0.91054E-02
         0.86300E-02
         0.59770E-02
         0.15645E-01
         0.10801E-01
         0.49511E-02
         0.15021E-01
         0.95063E-02
         0.14444E-01
         0.68550E-02
         0.29471E-01
         0.22487E-01
         0.10909E-01
         0.31224E-01
         0.11114E-01
         0.57555E-02
         0.34547E-02
         0.74591E-02
         0.39125E-02
         0.23217E-01
         0.21741E-01
         0.21192E-01
         0.55050E-02
         0.94487E-02
         0.28559E-02
         0.10594E-01
         0.15718E-02
         0.40558E-02
         0.99748E-02
         0.94960E-02
         0.49737E-02
         0.59723E-02
         0.53166E-02
         0.20426E-01
         0.12132E-01
         0.15710E-01
         0.25615E-01
         0.19866E-01
         0.18329E-01
         0.25814E-01
         0.23355E-01
         0.23418E-01
         0.18125E-01
         0.16151E-01
         0.22115E-01
         0.14509E-01
         0.12324E-01
         0.10020E-01
         0.11819E-01
         0.19499E-01
         0.13240E-01
         0.85751E-01
         0.87925E-01
         0.92139E-01
         0.91485E-01
         0.97341E-01
         0.10431E+00
         0.10001E+00
         0.89075E-01
         0.86819E-01
         0.92862E-01
         0.91152E-01
         0.90131E-01
         0.74416E-01
         0.70761E-01
         0.77881E-01
         0.83575E-01
         0.86742E-01
         0.94632E-01
         0.90734E-01
         0.93192E-01
         0.83878E-01
         0.79679E-01
         0.84703E-01
         0.82523E-01
         0.85008E-01
         0.84318E-01
         0.15261E-01
         0.91053E-02
         0.86344E-02
         0.59857E-02
         0.15638E-01
         0.10795E-01
         0.49646E-02
         0.15031E-01
         0.95230E-02
         0.14479E-01
         0.68579E-02
         0.29471E-01
         0.22498E-01
         0.10884E-01
         0.31257E-01
         0.11125E-01
         0.57724E-02
         0.34454E-02
         0.74640E-02
         0.39037E-02
         0.23221E-01
         0.21741E-01
         0.21194E-01
         0.55046E-02
         0.94828E-02
         0.28532E-02
         0.10597E-01
         0.15619E-02
         0.40733E-02
         0.99878E-02
         0.95047E-02
         0.49707E-02
         0.59620E-02
         0.53212E-02
         0.20436E-01
         0.12131E-01
         0.15708E-01
         0.25655E-01
         0.19912E-01
         0.18357E-01
         0.25835E-01
         0.23369E-01
         0.23424E-01
         0.18130E-01
         0.16153E-01
         0.22118E-01
         0.14513E-01
         0.12326E-01
         0.10009E-01
         0.11804E-01
         0.19489E-01
         0.13220E-01
         0.85720E-01
         0.87904E-01
         0.92137E-01
         0.91485E-01
         0.97325E-01
         0.10428E+00
         0.99964E-01
         0.89051E-01
         0.86798E-01
         0.92833E-01
         0.91137E-01
         0.90137E-01
         0.74413E-01
         0.70760E-01
         0.77893E-01
         0.83603E-01
         0.86772E-01
         0.94654E-01
         0.90729E-01
         0.93187E-01
         0.83870E-01
         0.79675E-01
         0.84674E-01
         0.82469E-01
         0.84961E-01
         0.84273E-01
         0.15270E-01
         0.91053E-02
         0.86387E-02
         0.59944E-02
         0.15632E-01
         0.10789E-01
         0.49782E-02
         0.15041E-01
         0.95397E-02
         0.14515E-01
         0.68608E-02
         0.29471E-01
         0.22508E-01
         0.10858E-01
         0.31289E-01
         0.11136E-01
         0.57893E-02
         0.34362E-02
         0.74689E-02
         0.38952E-02
         0.23225E-01
         0.21741E-01
         0.21197E-01
         0.55041E-02
         0.95170E-02
         0.28506E-02
         0.10600E-01
         0.15525E-02
         0.40910E-02
         0.10001E-01
         0.95133E-02
         0.49678E-02
         0.59519E-02
         0.53258E-02
         0.20446E-01
         0.12129E-01
         0.15706E-01
         0.25696E-01
         0.19959E-01
         0.18386E-01
         0.25855E-01
         0.23383E-01
         0.23431E-01
         0.18135E-01
         0.16155E-01
         0.22121E-01
         0.14516E-01
         0.12328E-01
         0.99983E-02
         0.11789E-01
         0.19480E-01
         0.13200E-01
         0.85688E-01
         0.87883E-01
         0.92136E-01
         0.91486E-01
         0.97309E-01
         0.10424E+00
         0.99921E-01
         0.89027E-01
         0.86776E-01
         0.92803E-01
         0.91122E-01
         0.90143E-01
         0.74410E-01
         0.70759E-01
         0.77905E-01
         0.83631E-01
         0.86802E-01
         0.94676E-01
         0.90723E-01
         0.93181E-01
         0.83863E-01
         0.79672E-01
         0.84644E-01
         0.82415E-01
         0.84914E-01
         0.84228E-01
         0.15279E-01
         0.91053E-02
         0.86431E-02
         0.60031E-02
         0.15625E-01
         0.10783E-01
         0.49917E-02
         0.15051E-01
         0.95565E-02
         0.14550E-01
         0.68638E-02
         0.29472E-01
         0.22518E-01
         0.10833E-01
         0.31322E-01
         0.11147E-01
         0.58062E-02
         0.34271E-02
         0.74738E-02
         0.38864E-02
         0.23229E-01
         0.21741E-01
         0.21199E-01
         0.55037E-02
         0.95512E-02
         0.28480E-02
         0.10603E-01
         0.15432E-02
         0.41089E-02
         0.10014E-01
         0.95219E-02
         0.49648E-02
         0.59417E-02
         0.53304E-02
         0.20456E-01
         0.12127E-01
         0.15704E-01
         0.25737E-01
         0.20006E-01
         0.18414E-01
         0.25876E-01
         0.23397E-01
         0.23437E-01
         0.18140E-01
         0.16156E-01
         0.22125E-01
         0.14520E-01
         0.12331E-01
         0.99877E-02
         0.11774E-01
         0.19471E-01
         0.13180E-01
         0.85657E-01
         0.87863E-01
         0.92135E-01
         0.91486E-01
         0.97293E-01
         0.10421E+00
         0.99878E-01
         0.89002E-01
         0.86754E-01
         0.92774E-01
         0.91107E-01
         0.90149E-01
         0.74407E-01
         0.70758E-01
         0.77917E-01
         0.83658E-01
         0.86832E-01
         0.94698E-01
         0.90717E-01
         0.93175E-01
         0.83856E-01
         0.79668E-01
         0.84615E-01
         0.82361E-01
         0.84866E-01
         0.84184E-01
         0.15288E-01
         0.91050E-02
         0.86474E-02
         0.60118E-02
         0.15619E-01
         0.10777E-01
         0.50052E-02
         0.15061E-01
         0.95733E-02
         0.14586E-01
         0.68669E-02
         0.29472E-01
         0.22528E-01
         0.10808E-01
         0.31354E-01
         0.11158E-01
         0.58232E-02
         0.34180E-02
         0.74787E-02
         0.38779E-02
         0.23233E-01
         0.21741E-01
         0.21201E-01
         0.55033E-02
         0.95853E-02
         0.28455E-02
         0.10606E-01
         0.15344E-02
         0.41269E-02
         0.10027E-01
         0.95305E-02
         0.49619E-02
         0.59317E-02
         0.53351E-02
         0.20466E-01
         0.12125E-01
         0.15702E-01
         0.25777E-01
         0.20052E-01
         0.18442E-01
         0.25896E-01
         0.23411E-01
         0.23443E-01
         0.18145E-01
         0.16158E-01
         0.22128E-01
         0.14523E-01
         0.12333E-01
         0.99772E-02
         0.11759E-01
         0.19462E-01
         0.13160E-01
         0.85625E-01
         0.87842E-01
         0.92133E-01
         0.91487E-01
         0.97277E-01
         0.10417E+00
         0.99834E-01
         0.88978E-01
         0.86733E-01
         0.92744E-01
         0.91092E-01
         0.90155E-01
         0.74405E-01
         0.70756E-01
         0.77929E-01
         0.83686E-01
         0.86862E-01
         0.94720E-01
         0.90711E-01
         0.93169E-01
         0.83848E-01
         0.79664E-01
         0.84585E-01
         0.82307E-01
         0.84819E-01
         0.84139E-01
         0.15298E-01
         0.91049E-02
         0.86517E-02
         0.60206E-02
         0.15612E-01
         0.10771E-01
         0.50189E-02
         0.15071E-01
         0.95901E-02
         0.14621E-01
         0.68702E-02
         0.29472E-01
         0.22538E-01
         0.10782E-01
         0.31387E-01
         0.11169E-01
         0.58403E-02
         0.34089E-02
         0.74836E-02
         0.38692E-02
         0.23237E-01
         0.21741E-01
         0.21203E-01
         0.55030E-02
         0.96193E-02
         0.28429E-02
         0.10609E-01
         0.15257E-02
         0.41448E-02
         0.10040E-01
         0.95392E-02
         0.49591E-02
         0.59217E-02
         0.53398E-02
         0.20477E-01
         0.12124E-01
         0.15699E-01
         0.25818E-01
         0.20099E-01
         0.18470E-01
         0.25916E-01
         0.23425E-01
         0.23448E-01
         0.18150E-01
         0.16160E-01
         0.22132E-01
         0.14527E-01
         0.12335E-01
         0.99667E-02
         0.11744E-01
         0.19452E-01
         0.13140E-01
         0.85594E-01
         0.87821E-01
         0.92132E-01
         0.91487E-01
         0.97261E-01
         0.10414E+00
         0.99791E-01
         0.88953E-01
         0.86711E-01
         0.92714E-01
         0.91078E-01
         0.90162E-01
         0.74402E-01
         0.70755E-01
         0.77940E-01
         0.83713E-01
         0.86892E-01
         0.94741E-01
         0.90705E-01
         0.93164E-01
         0.83841E-01
         0.79660E-01
         0.84555E-01
         0.82253E-01
         0.84772E-01
         0.84094E-01
         0.15307E-01
         0.91048E-02
         0.86561E-02
         0.60293E-02
         0.15606E-01
         0.10765E-01
         0.50324E-02
         0.15081E-01
         0.96070E-02
         0.14656E-01
         0.68734E-02
         0.29472E-01
         0.22548E-01
         0.10757E-01
         0.31419E-01
         0.11180E-01
         0.58574E-02
         0.33997E-02
         0.74886E-02
         0.38610E-02
         0.23241E-01
         0.21741E-01
         0.21206E-01
         0.55025E-02
         0.96532E-02
         0.28405E-02
         0.10611E-01
         0.15169E-02
         0.41630E-02
         0.10052E-01
         0.95478E-02
         0.49561E-02
         0.59117E-02
         0.53445E-02
         0.20487E-01
         0.12122E-01
         0.15697E-01
         0.25859E-01
         0.20146E-01
         0.18497E-01
         0.25935E-01
         0.23438E-01
         0.23454E-01
         0.18156E-01
         0.16162E-01
         0.22136E-01
         0.14531E-01
         0.12337E-01
         0.99560E-02
         0.11729E-01
         0.19443E-01
         0.13120E-01
         0.85563E-01
         0.87801E-01
         0.92130E-01
         0.91487E-01
         0.97245E-01
         0.10410E+00
         0.99747E-01
         0.88929E-01
         0.86689E-01
         0.92683E-01
         0.91063E-01
         0.90171E-01
         0.74401E-01
         0.70754E-01
         0.77952E-01
         0.83741E-01
         0.86921E-01
         0.94763E-01
         0.90699E-01
         0.93158E-01
         0.83833E-01
         0.79657E-01
         0.84525E-01
         0.82199E-01
         0.84725E-01
         0.84049E-01
         0.15316E-01
         0.91048E-02
         0.86604E-02
         0.60381E-02
         0.15599E-01
         0.10758E-01
         0.50460E-02
         0.15091E-01
         0.96240E-02
         0.14691E-01
         0.68768E-02
         0.29473E-01
         0.22559E-01
         0.10731E-01
         0.31452E-01
         0.11191E-01
         0.58744E-02
         0.33905E-02
         0.74935E-02
         0.38526E-02
         0.23245E-01
         0.21740E-01
         0.21208E-01
         0.55022E-02
         0.96869E-02
         0.28380E-02
         0.10612E-01
         0.15081E-02
         0.41814E-02
         0.10063E-01
         0.95564E-02
         0.49532E-02
         0.59018E-02
         0.53492E-02
         0.20497E-01
         0.12120E-01
         0.15695E-01
         0.25900E-01
         0.20192E-01
         0.18524E-01
         0.25953E-01
         0.23449E-01
         0.23458E-01
         0.18161E-01
         0.16164E-01
         0.22139E-01
         0.14534E-01
         0.12339E-01
         0.99456E-02
         0.11714E-01
         0.19434E-01
         0.13100E-01
         0.85531E-01
         0.87780E-01
         0.92128E-01
         0.91487E-01
         0.97229E-01
         0.10406E+00
         0.99704E-01
         0.88905E-01
         0.86667E-01
         0.92650E-01
         0.91049E-01
         0.90182E-01
         0.74401E-01
         0.70753E-01
         0.77964E-01
         0.83769E-01
         0.86951E-01
         0.94785E-01
         0.90693E-01
         0.93152E-01
         0.83826E-01
         0.79653E-01
         0.84495E-01
         0.82145E-01
         0.84678E-01
         0.84004E-01
         0.15325E-01
         0.91048E-02
         0.86650E-02
         0.60470E-02
         0.15593E-01
         0.10753E-01
         0.50598E-02
         0.15101E-01
         0.96411E-02
         0.14726E-01
         0.68803E-02
         0.29473E-01
         0.22569E-01
         0.10705E-01
         0.31484E-01
         0.11202E-01
         0.58916E-02
         0.33814E-02
         0.74986E-02
         0.38445E-02
         0.23249E-01
         0.21740E-01
         0.21210E-01
         0.55019E-02
         0.97206E-02
         0.28356E-02
         0.10613E-01
         0.14993E-02
         0.41998E-02
         0.10075E-01
         0.95651E-02
         0.49503E-02
         0.58920E-02
         0.53540E-02
         0.20508E-01
         0.12119E-01
         0.15693E-01
         0.25941E-01
         0.20238E-01
         0.18549E-01
         0.25970E-01
         0.23460E-01
         0.23463E-01
         0.18166E-01
         0.16165E-01
         0.22143E-01
         0.14538E-01
         0.12341E-01
         0.99351E-02
         0.11699E-01
         0.19425E-01
         0.13081E-01
         0.85500E-01
         0.87760E-01
         0.92127E-01
         0.91488E-01
         0.97213E-01
         0.10403E+00
         0.99660E-01
         0.88881E-01
         0.86645E-01
         0.92616E-01
         0.91034E-01
         0.90194E-01
         0.74402E-01
         0.70752E-01
         0.77975E-01
         0.83796E-01
         0.86981E-01
         0.94806E-01
         0.90687E-01
         0.93146E-01
         0.83818E-01
         0.79649E-01
         0.84466E-01
         0.82092E-01
         0.84631E-01
         0.83960E-01
         0.15641E-01
         0.95732E-02
         0.91505E-02
         0.66011E-02
         0.15990E-01
         0.11214E-01
         0.59364E-02
         0.15490E-01
         0.10062E-01
         0.15144E-01
         0.76988E-02
         0.29870E-01
         0.22953E-01
         0.11282E-01
         0.31922E-01
         0.11558E-01
         0.65617E-02
         0.41818E-02
         0.80795E-02
         0.49114E-02
         0.23577E-01
         0.22080E-01
         0.21527E-01
         0.61860E-02
         0.10274E-01
         0.38987E-02
         0.11204E-01
         0.36546E-02
         0.54033E-02
         0.10627E-01
         0.99687E-02
         0.56833E-02
         0.64479E-02
         0.60215E-02
         0.20923E-01
         0.12591E-01
         0.16089E-01
         0.26382E-01
         0.20708E-01
         0.19011E-01
         0.26376E-01
         0.23843E-01
         0.23812E-01
         0.18494E-01
         0.16537E-01
         0.22535E-01
         0.14967E-01
         0.12768E-01
         0.10405E-01
         0.12141E-01
         0.19806E-01
         0.13490E-01
         0.86145E-01
         0.88404E-01
         0.92815E-01
         0.92154E-01
         0.97903E-01
         0.10476E+00
         0.10038E+00
         0.89580E-01
         0.87347E-01
         0.93344E-01
         0.91751E-01
         0.90886E-01
         0.74968E-01
         0.71275E-01
         0.78528E-01
         0.84383E-01
         0.87584E-01
         0.95478E-01
         0.91374E-01
         0.93844E-01
         0.84430E-01
         0.80231E-01
         0.85057E-01
         0.82652E-01
         0.85197E-01
         0.84525E-01
         0.37193E-01
         0.33510E-01
         0.32826E-01
         0.29065E-01
         0.40571E-01
         0.35409E-01
         0.33863E-01
         0.40182E-01
         0.32054E-01
         0.39851E-01
         0.37526E-01
         0.58203E-01
         0.49059E-01
         0.40323E-01
         0.61464E-01
         0.32713E-01
         0.31356E-01
         0.26864E-01
         0.32962E-01
         0.33087E-01
         0.47509E-01
         0.46795E-01
         0.44568E-01
         0.30993E-01
         0.36669E-01
         0.29189E-01
         0.40218E-01
         0.36466E-01
         0.37109E-01
         0.37913E-01
         0.31782E-01
         0.30669E-01
         0.29184E-01
         0.30138E-01
         0.46965E-01
         0.38215E-01
         0.40982E-01
         0.55499E-01
         0.49594E-01
         0.47774E-01
         0.55020E-01
         0.51232E-01
         0.49756E-01
         0.41211E-01
         0.40385E-01
         0.48277E-01
         0.40081E-01
         0.36881E-01
         0.34748E-01
         0.36866E-01
         0.44958E-01
         0.37863E-01
         0.12289E+00
         0.12458E+00
         0.13017E+00
         0.12892E+00
         0.13616E+00
         0.14562E+00
         0.14227E+00
         0.13064E+00
         0.12810E+00
         0.13500E+00
         0.13247E+00
         0.12962E+00
         0.10961E+00
         0.10430E+00
         0.11162E+00
         0.11758E+00
         0.12118E+00
         0.13146E+00
         0.12840E+00
         0.13142E+00
         0.11981E+00
         0.11468E+00
         0.12063E+00
         0.11803E+00
         0.12037E+00
         0.11918E+00
  
SCALARS                     nodal_mass  double 1
LOOKUP_TABLE default
         0.24608E-05
         0.19551E-05
         0.20945E-05
         0.35953E-05
         0.12304E-05
         0.97770E-06
         0.10472E-05
         0.17973E-05
         0.19315E-05
         0.24627E-05
         0.96570E-06
         0.12312E-05
         0.13823E-05
         0.16614E-05
         0.69133E-06
         0.83095E-06
         0.27274E-05
         0.20125E-05
         0.13635E-05
         0.10066E-05
         0.81737E-06
         0.15393E-05
         0.16929E-05
         0.40889E-06
         0.76975E-06
         0.84649E-06
         0.13859E-05
         0.17532E-05
         0.69345E-06
         0.87672E-06
         0.32470E-05
         0.25355E-05
         0.32225E-05
         0.16233E-05
         0.12675E-05
         0.16109E-05
         0.18980E-05
         0.21673E-05
         0.94902E-06
         0.10836E-05
         0.20482E-05
         0.22683E-05
         0.10242E-05
         0.11342E-05
         0.17426E-05
         0.10823E-05
         0.87140E-06
         0.54121E-06
         0.20598E-05
         0.10301E-05
         0.17103E-05
         0.85523E-06
         0.17977E-05
         0.89958E-06
         0.18362E-05
         0.91859E-06
         0.15911E-05
         0.19369E-05
         0.79575E-06
         0.96860E-06
         0.24553E-05
         0.17361E-05
         0.12277E-05
         0.86816E-06
         0.27409E-05
         0.13702E-05
         0.23792E-05
         0.11891E-05
         0.10821E-05
         0.16705E-05
         0.54106E-06
         0.83538E-06
         0.18955E-05
         0.94787E-06
         0.20026E-05
         0.10014E-05
         0.19316E-05
         0.96578E-06
         0.15181E-05
         0.75906E-06
         0.95443E-06
         0.15782E-05
         0.47723E-06
         0.78918E-06
         0.20886E-05
         0.10443E-05
         0.16867E-05
         0.84342E-06
         0.14838E-05
         0.74203E-06
         0.97224E-06
         0.16569E-05
         0.48620E-06
         0.82849E-06
         0.22482E-05
         0.11241E-05
         0.23568E-05
         0.11783E-05
         0.19018E-05
         0.95085E-06
         0.11709E-05
         0.20091E-05
         0.58544E-06
         0.10044E-05
         0.74681E-06
         0.94889E-06
         0.37348E-06
         0.47447E-06
         0.88885E-06
         0.44455E-06
         0.10466E-05
         0.52333E-06
         0.10205E-05
         0.51021E-06
         0.99108E-06
         0.49550E-06
         0.10560E-05
         0.52791E-06
         0.11142E-05
         0.55694E-06
         0.10497E-05
         0.52469E-06
         0.82085E-06
         0.41039E-06
         0.66950E-06
         0.33475E-06
         0.86397E-06
         0.43199E-06
         0.11504E-05
         0.57519E-06
         0.12637E-05
         0.63182E-06
         0.12132E-05
         0.60658E-06
         0.10948E-05
         0.54745E-06
         0.99429E-06
         0.49718E-06
         0.80759E-06
         0.40382E-06
         0.67982E-06
         0.33995E-06
         0.88797E-06
         0.44401E-06
         0.11753E-05
         0.58766E-06
         0.12140E-05
         0.60702E-06
         0.98236E-06
         0.49125E-06
         0.79766E-06
         0.39889E-06
         0.97540E-06
         0.48769E-06
         0.11548E-05
         0.57743E-06
         0.24609E-05
         0.19547E-05
         0.20946E-05
         0.35969E-05
         0.19318E-05
         0.24634E-05
         0.13815E-05
         0.16603E-05
         0.27283E-05
         0.20111E-05
         0.81658E-06
         0.15390E-05
         0.16927E-05
         0.13839E-05
         0.17528E-05
         0.32479E-05
         0.25367E-05
         0.32241E-05
         0.18980E-05
         0.21675E-05
         0.20481E-05
         0.22684E-05
         0.17424E-05
         0.10822E-05
         0.20589E-05
         0.17102E-05
         0.17950E-05
         0.18344E-05
         0.15904E-05
         0.19365E-05
         0.24555E-05
         0.17359E-05
         0.27423E-05
         0.23814E-05
         0.10820E-05
         0.16702E-05
         0.18953E-05
         0.20025E-05
         0.19317E-05
         0.15181E-05
         0.95442E-06
         0.15780E-05
         0.20884E-05
         0.16864E-05
         0.14835E-05
         0.97197E-06
         0.16567E-05
         0.22482E-05
         0.23571E-05
         0.19022E-05
         0.11709E-05
         0.20101E-05
         0.74658E-06
         0.94886E-06
         0.88841E-06
         0.10467E-05
         0.10207E-05
         0.99128E-06
         0.10565E-05
         0.11150E-05
         0.10503E-05
         0.82102E-06
         0.66954E-06
         0.86398E-06
         0.11506E-05
         0.12640E-05
         0.12133E-05
         0.10948E-05
         0.99421E-06
         0.80751E-06
         0.67970E-06
         0.88789E-06
         0.11752E-05
         0.12140E-05
         0.98215E-06
         0.79747E-06
         0.97551E-06
         0.11548E-05
         0.24611E-05
         0.19543E-05
         0.20949E-05
         0.35987E-05
         0.19321E-05
         0.24642E-05
         0.13808E-05
         0.16594E-05
         0.27293E-05
         0.20098E-05
         0.81582E-06
         0.15388E-05
         0.16927E-05
         0.13821E-05
         0.17525E-05
         0.32489E-05
         0.25379E-05
         0.32257E-05
         0.18982E-05
         0.21678E-05
         0.20480E-05
         0.22685E-05
         0.17423E-05
         0.10821E-05
         0.20580E-05
         0.17101E-05
         0.17924E-05
         0.18326E-05
         0.15898E-05
         0.19361E-05
         0.24558E-05
         0.17357E-05
         0.27438E-05
         0.23836E-05
         0.10821E-05
         0.16699E-05
         0.18951E-05
         0.20024E-05
         0.19318E-05
         0.15183E-05
         0.95445E-06
         0.15778E-05
         0.20884E-05
         0.16862E-05
         0.14831E-05
         0.97174E-06
         0.16566E-05
         0.22483E-05
         0.23575E-05
         0.19026E-05
         0.11709E-05
         0.20112E-05
         0.74636E-06
         0.94886E-06
         0.88800E-06
         0.10467E-05
         0.10210E-05
         0.99152E-06
         0.10570E-05
         0.11159E-05
         0.10509E-05
         0.82122E-06
         0.66961E-06
         0.86402E-06
         0.11507E-05
         0.12643E-05
         0.12135E-05
         0.10948E-05
         0.99417E-06
         0.80747E-06
         0.67961E-06
         0.88784E-06
         0.11752E-05
         0.12140E-05
         0.98197E-06
         0.79731E-06
         0.97565E-06
         0.11548E-05
         0.24612E-05
         0.19539E-05
         0.20950E-05
         0.36004E-05
         0.19324E-05
         0.24650E-05
         0.13801E-05
         0.16584E-05
         0.27303E-05
         0.20085E-05
         0.81504E-06
         0.15385E-05
         0.16925E-05
         0.13801E-05
         0.17521E-05
         0.32498E-05
         0.25390E-05
         0.32274E-05
         0.18982E-05
         0.21681E-05
         0.20479E-05
         0.22686E-05
         0.17421E-05
         0.10820E-05
         0.20571E-05
         0.17099E-05
         0.17897E-05
         0.18308E-05
         0.15891E-05
         0.19356E-05
         0.24561E-05
         0.17355E-05
         0.27453E-05
         0.23857E-05
         0.10820E-05
         0.16696E-05
         0.18948E-05
         0.20022E-05
         0.19320E-05
         0.15183E-05
         0.95445E-06
         0.15776E-05
         0.20883E-05
         0.16859E-05
         0.14828E-05
         0.97149E-06
         0.16564E-05
         0.22483E-05
         0.23578E-05
         0.19030E-05
         0.11710E-05
         0.20122E-05
         0.74613E-06
         0.94884E-06
         0.88756E-06
         0.10467E-05
         0.10212E-05
         0.99173E-06
         0.10574E-05
         0.11167E-05
         0.10515E-05
         0.82140E-06
         0.66966E-06
         0.86404E-06
         0.11509E-05
         0.12646E-05
         0.12136E-05
         0.10947E-05
         0.99410E-06
         0.80740E-06
         0.67950E-06
         0.88777E-06
         0.11752E-05
         0.12140E-05
         0.98177E-06
         0.79713E-06
         0.97576E-06
         0.11547E-05
         0.24613E-05
         0.19535E-05
         0.20952E-05
         0.36022E-05
         0.19327E-05
         0.24657E-05
         0.13794E-05
         0.16574E-05
         0.27313E-05
         0.20072E-05
         0.81426E-06
         0.15382E-05
         0.16924E-05
         0.13782E-05
         0.17517E-05
         0.32508E-05
         0.25402E-05
         0.32290E-05
         0.18983E-05
         0.21684E-05
         0.20479E-05
         0.22687E-05
         0.17420E-05
         0.10819E-05
         0.20563E-05
         0.17098E-05
         0.17870E-05
         0.18290E-05
         0.15884E-05
         0.19352E-05
         0.24563E-05
         0.17353E-05
         0.27467E-05
         0.23879E-05
         0.10820E-05
         0.16693E-05
         0.18946E-05
         0.20021E-05
         0.19321E-05
         0.15184E-05
         0.95445E-06
         0.15773E-05
         0.20882E-05
         0.16857E-05
         0.14824E-05
         0.97124E-06
         0.16563E-05
         0.22484E-05
         0.23582E-05
         0.19034E-05
         0.11710E-05
         0.20132E-05
         0.74590E-06
         0.94883E-06
         0.88713E-06
         0.10468E-05
         0.10215E-05
         0.99194E-06
         0.10579E-05
         0.11175E-05
         0.10521E-05
         0.82159E-06
         0.66972E-06
         0.86406E-06
         0.11510E-05
         0.12649E-05
         0.12138E-05
         0.10947E-05
         0.99404E-06
         0.80734E-06
         0.67940E-06
         0.88771E-06
         0.11752E-05
         0.12140E-05
         0.98157E-06
         0.79696E-06
         0.97588E-06
         0.11547E-05
         0.24615E-05
         0.19531E-05
         0.20954E-05
         0.36039E-05
         0.19331E-05
         0.24665E-05
         0.13787E-05
         0.16564E-05
         0.27322E-05
         0.20059E-05
         0.81349E-06
         0.15380E-05
         0.16923E-05
         0.13763E-05
         0.17514E-05
         0.32518E-05
         0.25414E-05
         0.32306E-05
         0.18984E-05
         0.21687E-05
         0.20478E-05
         0.22688E-05
         0.17418E-05
         0.10818E-05
         0.20554E-05
         0.17096E-05
         0.17843E-05
         0.18272E-05
         0.15878E-05
         0.19347E-05
         0.24566E-05
         0.17351E-05
         0.27482E-05
         0.23901E-05
         0.10820E-05
         0.16690E-05
         0.18943E-05
         0.20019E-05
         0.19322E-05
         0.15185E-05
         0.95446E-06
         0.15771E-05
         0.20881E-05
         0.16855E-05
         0.14821E-05
         0.97100E-06
         0.16562E-05
         0.22484E-05
         0.23586E-05
         0.19038E-05
         0.11710E-05
         0.20142E-05
         0.74568E-06
         0.94882E-06
         0.88671E-06
         0.10468E-05
         0.10217E-05
         0.99216E-06
         0.10583E-05
         0.11183E-05
         0.10528E-05
         0.82178E-06
         0.66977E-06
         0.86408E-06
         0.11512E-05
         0.12652E-05
         0.12139E-05
         0.10947E-05
         0.99398E-06
         0.80728E-06
         0.67930E-06
         0.88766E-06
         0.11752E-05
         0.12140E-05
         0.98138E-06
         0.79679E-06
         0.97601E-06
         0.11547E-05
         0.24616E-05
         0.19527E-05
         0.20956E-05
         0.36056E-05
         0.19334E-05
         0.24672E-05
         0.13779E-05
         0.16554E-05
         0.27332E-05
         0.20046E-05
         0.81271E-06
         0.15377E-05
         0.16922E-05
         0.13744E-05
         0.17510E-05
         0.32527E-05
         0.25425E-05
         0.32322E-05
         0.18984E-05
         0.21689E-05
         0.20477E-05
         0.22689E-05
         0.17416E-05
         0.10816E-05
         0.20545E-05
         0.17095E-05
         0.17817E-05
         0.18254E-05
         0.15871E-05
         0.19343E-05
         0.24568E-05
         0.17349E-05
         0.27496E-05
         0.23922E-05
         0.10820E-05
         0.16686E-05
         0.18941E-05
         0.20018E-05
         0.19324E-05
         0.15186E-05
         0.95446E-06
         0.15769E-05
         0.20880E-05
         0.16852E-05
         0.14817E-05
         0.97074E-06
         0.16560E-05
         0.22484E-05
         0.23589E-05
         0.19042E-05
         0.11710E-05
         0.20152E-05
         0.74544E-06
         0.94880E-06
         0.88627E-06
         0.10469E-05
         0.10219E-05
         0.99237E-06
         0.10588E-05
         0.11191E-05
         0.10534E-05
         0.82196E-06
         0.66982E-06
         0.86410E-06
         0.11513E-05
         0.12654E-05
         0.12140E-05
         0.10947E-05
         0.99391E-06
         0.80721E-06
         0.67919E-06
         0.88759E-06
         0.11751E-05
         0.12140E-05
         0.98118E-06
         0.79661E-06
         0.97612E-06
         0.11546E-05
         0.24618E-05
         0.19523E-05
         0.20957E-05
         0.36073E-05
         0.19337E-05
         0.24680E-05
         0.13772E-05
         0.16545E-05
         0.27341E-05
         0.20033E-05
         0.81194E-06
         0.15374E-05
         0.16921E-05
         0.13725E-05
         0.17506E-05
         0.32537E-05
         0.25437E-05
         0.32339E-05
         0.18985E-05
         0.21692E-05
         0.20476E-05
         0.22690E-05
         0.17414E-05
         0.10815E-05
         0.20536E-05
         0.17093E-05
         0.17790E-05
         0.18236E-05
         0.15864E-05
         0.19339E-05
         0.24571E-05
         0.17347E-05
         0.27511E-05
         0.23944E-05
         0.10820E-05
         0.16683E-05
         0.18938E-05
         0.20016E-05
         0.19325E-05
         0.15186E-05
         0.95446E-06
         0.15767E-05
         0.20878E-05
         0.16850E-05
         0.14814E-05
         0.97050E-06
         0.16559E-05
         0.22484E-05
         0.23593E-05
         0.19046E-05
         0.11711E-05
         0.20162E-05
         0.74522E-06
         0.94878E-06
         0.88584E-06
         0.10469E-05
         0.10222E-05
         0.99258E-06
         0.10593E-05
         0.11199E-05
         0.10540E-05
         0.82215E-06
         0.66988E-06
         0.86413E-06
         0.11515E-05
         0.12657E-05
         0.12142E-05
         0.10946E-05
         0.99385E-06
         0.80715E-06
         0.67909E-06
         0.88752E-06
         0.11751E-05
         0.12140E-05
         0.98098E-06
         0.79643E-06
         0.97624E-06
         0.11546E-05
         0.24619E-05
         0.19519E-05
         0.20959E-05
         0.36091E-05
         0.19340E-05
         0.24688E-05
         0.13765E-05
         0.16535E-05
         0.27351E-05
         0.20020E-05
         0.81117E-06
         0.15372E-05
         0.16920E-05
         0.13706E-05
         0.17503E-05
         0.32546E-05
         0.25448E-05
         0.32355E-05
         0.18986E-05
         0.21695E-05
         0.20475E-05
         0.22691E-05
         0.17413E-05
         0.10814E-05
         0.20527E-05
         0.17092E-05
         0.17763E-05
         0.18219E-05
         0.15858E-05
         0.19334E-05
         0.24573E-05
         0.17345E-05
         0.27525E-05
         0.23966E-05
         0.10820E-05
         0.16680E-05
         0.18936E-05
         0.20015E-05
         0.19326E-05
         0.15187E-05
         0.95447E-06
         0.15765E-05
         0.20878E-05
         0.16848E-05
         0.14810E-05
         0.97025E-06
         0.16557E-05
         0.22485E-05
         0.23597E-05
         0.19050E-05
         0.11711E-05
         0.20172E-05
         0.74499E-06
         0.94877E-06
         0.88541E-06
         0.10469E-05
         0.10224E-05
         0.99280E-06
         0.10597E-05
         0.11207E-05
         0.10546E-05
         0.82234E-06
         0.66994E-06
         0.86415E-06
         0.11517E-05
         0.12660E-05
         0.12143E-05
         0.10946E-05
         0.99379E-06
         0.80709E-06
         0.67898E-06
         0.88746E-06
         0.11751E-05
         0.12140E-05
         0.98079E-06
         0.79626E-06
         0.97636E-06
         0.11546E-05
         0.24621E-05
         0.19515E-05
         0.20961E-05
         0.36108E-05
         0.19343E-05
         0.24695E-05
         0.13758E-05
         0.16525E-05
         0.27361E-05
         0.20006E-05
         0.81039E-06
         0.15369E-05
         0.16919E-05
         0.13686E-05
         0.17499E-05
         0.32556E-05
         0.25460E-05
         0.32371E-05
         0.18986E-05
         0.21697E-05
         0.20474E-05
         0.22692E-05
         0.17411E-05
         0.10813E-05
         0.20519E-05
         0.17091E-05
         0.17736E-05
         0.18201E-05
         0.15851E-05
         0.19330E-05
         0.24575E-05
         0.17342E-05
         0.27540E-05
         0.23987E-05
         0.10820E-05
         0.16677E-05
         0.18933E-05
         0.20014E-05
         0.19328E-05
         0.15188E-05
         0.95448E-06
         0.15763E-05
         0.20876E-05
         0.16845E-05
         0.14807E-05
         0.97000E-06
         0.16556E-05
         0.22485E-05
         0.23600E-05
         0.19053E-05
         0.11711E-05
         0.20182E-05
         0.74476E-06
         0.94875E-06
         0.88498E-06
         0.10470E-05
         0.10227E-05
         0.99301E-06
         0.10602E-05
         0.11215E-05
         0.10553E-05
         0.82252E-06
         0.66999E-06
         0.86417E-06
         0.11518E-05
         0.12663E-05
         0.12145E-05
         0.10946E-05
         0.99373E-06
         0.80702E-06
         0.67888E-06
         0.88740E-06
         0.11751E-05
         0.12140E-05
         0.98058E-06
         0.79608E-06
         0.97648E-06
         0.11546E-05
         0.24622E-05
         0.19511E-05
         0.20963E-05
         0.36125E-05
         0.19346E-05
         0.24703E-05
         0.13751E-05
         0.16515E-05
         0.27370E-05
         0.19993E-05
         0.80962E-06
         0.15366E-05
         0.16917E-05
         0.13667E-05
         0.17495E-05
         0.32565E-05
         0.25471E-05
         0.32388E-05
         0.18987E-05
         0.21700E-05
         0.20473E-05
         0.22693E-05
         0.17409E-05
         0.10812E-05
         0.20510E-05
         0.17089E-05
         0.17710E-05
         0.18183E-05
         0.15844E-05
         0.19325E-05
         0.24578E-05
         0.17340E-05
         0.27554E-05
         0.24009E-05
         0.10820E-05
         0.16674E-05
         0.18931E-05
         0.20012E-05
         0.19329E-05
         0.15189E-05
         0.95448E-06
         0.15760E-05
         0.20875E-05
         0.16843E-05
         0.14803E-05
         0.96975E-06
         0.16555E-05
         0.22485E-05
         0.23604E-05
         0.19057E-05
         0.11712E-05
         0.20192E-05
         0.74453E-06
         0.94874E-06
         0.88455E-06
         0.10470E-05
         0.10229E-05
         0.99322E-06
         0.10606E-05
         0.11223E-05
         0.10559E-05
         0.82270E-06
         0.67004E-06
         0.86419E-06
         0.11520E-05
         0.12666E-05
         0.12146E-05
         0.10945E-05
         0.99366E-06
         0.80696E-06
         0.67877E-06
         0.88733E-06
         0.11751E-05
         0.12140E-05
         0.98038E-06
         0.79590E-06
         0.97660E-06
         0.11545E-05
         0.24623E-05
         0.19507E-05
         0.20964E-05
         0.36142E-05
         0.19349E-05
         0.24710E-05
         0.13743E-05
         0.16505E-05
         0.27380E-05
         0.19980E-05
         0.80885E-06
         0.15364E-05
         0.16916E-05
         0.13648E-05
         0.17492E-05
         0.32575E-05
         0.25483E-05
         0.32404E-05
         0.18988E-05
         0.21703E-05
         0.20473E-05
         0.22694E-05
         0.17407E-05
         0.10811E-05
         0.20501E-05
         0.17088E-05
         0.17683E-05
         0.18165E-05
         0.15837E-05
         0.19321E-05
         0.24580E-05
         0.17338E-05
         0.27569E-05
         0.24031E-05
         0.10820E-05
         0.16670E-05
         0.18928E-05
         0.20011E-05
         0.19330E-05
         0.15189E-05
         0.95448E-06
         0.15758E-05
         0.20874E-05
         0.16840E-05
         0.14800E-05
         0.96950E-06
         0.16553E-05
         0.22485E-05
         0.23608E-05
         0.19061E-05
         0.11712E-05
         0.20202E-05
         0.74430E-06
         0.94872E-06
         0.88412E-06
         0.10470E-05
         0.10231E-05
         0.99344E-06
         0.10611E-05
         0.11231E-05
         0.10565E-05
         0.82289E-06
         0.67009E-06
         0.86422E-06
         0.11521E-05
         0.12669E-05
         0.12147E-05
         0.10945E-05
         0.99360E-06
         0.80690E-06
         0.67867E-06
         0.88727E-06
         0.11750E-05
         0.12140E-05
         0.98019E-06
         0.79573E-06
         0.97672E-06
         0.11545E-05
         0.24625E-05
         0.19503E-05
         0.20966E-05
         0.36160E-05
         0.19352E-05
         0.24718E-05
         0.13736E-05
         0.16496E-05
         0.27389E-05
         0.19967E-05
         0.80807E-06
         0.15361E-05
         0.16915E-05
         0.13629E-05
         0.17488E-05
         0.32584E-05
         0.25495E-05
         0.32420E-05
         0.18988E-05
         0.21705E-05
         0.20472E-05
         0.22695E-05
         0.17406E-05
         0.10810E-05
         0.20492E-05
         0.17086E-05
         0.17656E-05
         0.18147E-05
         0.15831E-05
         0.19317E-05
         0.24583E-05
         0.17336E-05
         0.27583E-05
         0.24053E-05
         0.10820E-05
         0.16667E-05
         0.18926E-05
         0.20009E-05
         0.19331E-05
         0.15190E-05
         0.95449E-06
         0.15756E-05
         0.20873E-05
         0.16838E-05
         0.14796E-05
         0.96925E-06
         0.16552E-05
         0.22486E-05
         0.23611E-05
         0.19065E-05
         0.11712E-05
         0.20212E-05
         0.74407E-06
         0.94870E-06
         0.88368E-06
         0.10471E-05
         0.10234E-05
         0.99365E-06
         0.10616E-05
         0.11239E-05
         0.10571E-05
         0.82307E-06
         0.67014E-06
         0.86424E-06
         0.11523E-05
         0.12672E-05
         0.12149E-05
         0.10945E-05
         0.99354E-06
         0.80683E-06
         0.67856E-06
         0.88721E-06
         0.11750E-05
         0.12140E-05
         0.97999E-06
         0.79555E-06
         0.97684E-06
         0.11545E-05
         0.24626E-05
         0.19499E-05
         0.20968E-05
         0.36177E-05
         0.19355E-05
         0.24725E-05
         0.13729E-05
         0.16486E-05
         0.27399E-05
         0.19954E-05
         0.80730E-06
         0.15358E-05
         0.16914E-05
         0.13610E-05
         0.17484E-05
         0.32594E-05
         0.25506E-05
         0.32437E-05
         0.18989E-05
         0.21708E-05
         0.20471E-05
         0.22696E-05
         0.17404E-05
         0.10808E-05
         0.20483E-05
         0.17085E-05
         0.17629E-05
         0.18129E-05
         0.15824E-05
         0.19312E-05
         0.24585E-05
         0.17334E-05
         0.27598E-05
         0.24074E-05
         0.10820E-05
         0.16664E-05
         0.18923E-05
         0.20008E-05
         0.19333E-05
         0.15191E-05
         0.95449E-06
         0.15754E-05
         0.20872E-05
         0.16835E-05
         0.14793E-05
         0.96901E-06
         0.16550E-05
         0.22486E-05
         0.23615E-05
         0.19069E-05
         0.11713E-05
         0.20222E-05
         0.74384E-06
         0.94869E-06
         0.88325E-06
         0.10471E-05
         0.10236E-05
         0.99386E-06
         0.10620E-05
         0.11247E-05
         0.10577E-05
         0.82326E-06
         0.67020E-06
         0.86426E-06
         0.11524E-05
         0.12674E-05
         0.12150E-05
         0.10944E-05
         0.99348E-06
         0.80677E-06
         0.67846E-06
         0.88714E-06
         0.11750E-05
         0.12140E-05
         0.97979E-06
         0.79538E-06
         0.97696E-06
         0.11544E-05
         0.24628E-05
         0.19495E-05
         0.20970E-05
         0.36194E-05
         0.19358E-05
         0.24733E-05
         0.13722E-05
         0.16476E-05
         0.27409E-05
         0.19941E-05
         0.80652E-06
         0.15355E-05
         0.16913E-05
         0.13591E-05
         0.17481E-05
         0.32604E-05
         0.25518E-05
         0.32453E-05
         0.18990E-05
         0.21711E-05
         0.20470E-05
         0.22697E-05
         0.17402E-05
         0.10807E-05
         0.20474E-05
         0.17084E-05
         0.17603E-05
         0.18111E-05
         0.15817E-05
         0.19308E-05
         0.24588E-05
         0.17332E-05
         0.27613E-05
         0.24096E-05
         0.10819E-05
         0.16661E-05
         0.18921E-05
         0.20006E-05
         0.19334E-05
         0.15192E-05
         0.95450E-06
         0.15752E-05
         0.20871E-05
         0.16833E-05
         0.14789E-05
         0.96876E-06
         0.16549E-05
         0.22486E-05
         0.23619E-05
         0.19073E-05
         0.11713E-05
         0.20232E-05
         0.74362E-06
         0.94868E-06
         0.88282E-06
         0.10472E-05
         0.10238E-05
         0.99408E-06
         0.10625E-05
         0.11255E-05
         0.10584E-05
         0.82345E-06
         0.67025E-06
         0.86428E-06
         0.11526E-05
         0.12677E-05
         0.12152E-05
         0.10944E-05
         0.99342E-06
         0.80671E-06
         0.67836E-06
         0.88709E-06
         0.11750E-05
         0.12140E-05
         0.97959E-06
         0.79521E-06
         0.97708E-06
         0.11544E-05
         0.24629E-05
         0.19491E-05
         0.20972E-05
         0.36212E-05
         0.19361E-05
         0.24741E-05
         0.13715E-05
         0.16466E-05
         0.27418E-05
         0.19928E-05
         0.80575E-06
         0.15353E-05
         0.16912E-05
         0.13572E-05
         0.17477E-05
         0.32613E-05
         0.25529E-05
         0.32469E-05
         0.18990E-05
         0.21714E-05
         0.20469E-05
         0.22698E-05
         0.17400E-05
         0.10806E-05
         0.20466E-05
         0.17082E-05
         0.17576E-05
         0.18093E-05
         0.15810E-05
         0.19303E-05
         0.24590E-05
         0.17330E-05
         0.27627E-05
         0.24118E-05
         0.10819E-05
         0.16658E-05
         0.18919E-05
         0.20005E-05
         0.19335E-05
         0.15192E-05
         0.95450E-06
         0.15750E-05
         0.20870E-05
         0.16831E-05
         0.14786E-05
         0.96851E-06
         0.16548E-05
         0.22487E-05
         0.23622E-05
         0.19077E-05
         0.11713E-05
         0.20242E-05
         0.74339E-06
         0.94866E-06
         0.88239E-06
         0.10472E-05
         0.10241E-05
         0.99429E-06
         0.10630E-05
         0.11263E-05
         0.10590E-05
         0.82363E-06
         0.67030E-06
         0.86430E-06
         0.11527E-05
         0.12680E-05
         0.12153E-05
         0.10944E-05
         0.99335E-06
         0.80665E-06
         0.67825E-06
         0.88702E-06
         0.11749E-05
         0.12140E-05
         0.97939E-06
         0.79503E-06
         0.97720E-06
         0.11544E-05
         0.24631E-05
         0.19487E-05
         0.20973E-05
         0.36229E-05
         0.19364E-05
         0.24748E-05
         0.13707E-05
         0.16456E-05
         0.27428E-05
         0.19915E-05
         0.80498E-06
         0.15350E-05
         0.16911E-05
         0.13553E-05
         0.17473E-05
         0.32623E-05
         0.25541E-05
         0.32486E-05
         0.18991E-05
         0.21716E-05
         0.20468E-05
         0.22699E-05
         0.17399E-05
         0.10805E-05
         0.20457E-05
         0.17081E-05
         0.17549E-05
         0.18075E-05
         0.15804E-05
         0.19299E-05
         0.24592E-05
         0.17328E-05
         0.27642E-05
         0.24140E-05
         0.10819E-05
         0.16654E-05
         0.18916E-05
         0.20003E-05
         0.19337E-05
         0.15193E-05
         0.95450E-06
         0.15748E-05
         0.20869E-05
         0.16828E-05
         0.14782E-05
         0.96826E-06
         0.16546E-05
         0.22487E-05
         0.23626E-05
         0.19081E-05
         0.11714E-05
         0.20253E-05
         0.74316E-06
         0.94864E-06
         0.88196E-06
         0.10472E-05
         0.10243E-05
         0.99450E-06
         0.10634E-05
         0.11271E-05
         0.10596E-05
         0.82381E-06
         0.67036E-06
         0.86432E-06
         0.11529E-05
         0.12683E-05
         0.12154E-05
         0.10943E-05
         0.99329E-06
         0.80658E-06
         0.67815E-06
         0.88696E-06
         0.11749E-05
         0.12140E-05
         0.97919E-06
         0.79485E-06
         0.97732E-06
         0.11544E-05
         0.24632E-05
         0.19483E-05
         0.20975E-05
         0.36246E-05
         0.19368E-05
         0.24756E-05
         0.13700E-05
         0.16447E-05
         0.27437E-05
         0.19902E-05
         0.80421E-06
         0.15347E-05
         0.16910E-05
         0.13534E-05
         0.17470E-05
         0.32632E-05
         0.25552E-05
         0.32502E-05
         0.18992E-05
         0.21719E-05
         0.20467E-05
         0.22700E-05
         0.17397E-05
         0.10804E-05
         0.20448E-05
         0.17079E-05
         0.17523E-05
         0.18057E-05
         0.15797E-05
         0.19295E-05
         0.24595E-05
         0.17326E-05
         0.27656E-05
         0.24161E-05
         0.10819E-05
         0.16651E-05
         0.18914E-05
         0.20002E-05
         0.19338E-05
         0.15194E-05
         0.95451E-06
         0.15745E-05
         0.20868E-05
         0.16826E-05
         0.14779E-05
         0.96801E-06
         0.16545E-05
         0.22487E-05
         0.23630E-05
         0.19085E-05
         0.11714E-05
         0.20263E-05
         0.74293E-06
         0.94863E-06
         0.88153E-06
         0.10473E-05
         0.10245E-05
         0.99472E-06
         0.10639E-05
         0.11279E-05
         0.10602E-05
         0.82400E-06
         0.67041E-06
         0.86435E-06
         0.11530E-05
         0.12686E-05
         0.12156E-05
         0.10943E-05
         0.99323E-06
         0.80652E-06
         0.67804E-06
         0.88690E-06
         0.11749E-05
         0.12140E-05
         0.97900E-06
         0.79468E-06
         0.97744E-06
         0.11543E-05
         0.24633E-05
         0.19479E-05
         0.20977E-05
         0.36264E-05
         0.19371E-05
         0.24763E-05
         0.13693E-05
         0.16437E-05
         0.27447E-05
         0.19888E-05
         0.80343E-06
         0.15345E-05
         0.16908E-05
         0.13515E-05
         0.17466E-05
         0.32642E-05
         0.25564E-05
         0.32518E-05
         0.18992E-05
         0.21722E-05
         0.20466E-05
         0.22701E-05
         0.17395E-05
         0.10803E-05
         0.20439E-05
         0.17078E-05
         0.17496E-05
         0.18039E-05
         0.15790E-05
         0.19290E-05
         0.24597E-05
         0.17323E-05
         0.27671E-05
         0.24183E-05
         0.10819E-05
         0.16648E-05
         0.18911E-05
         0.20001E-05
         0.19339E-05
         0.15195E-05
         0.95452E-06
         0.15743E-05
         0.20867E-05
         0.16823E-05
         0.14775E-05
         0.96776E-06
         0.16543E-05
         0.22487E-05
         0.23633E-05
         0.19089E-05
         0.11714E-05
         0.20273E-05
         0.74270E-06
         0.94861E-06
         0.88109E-06
         0.10473E-05
         0.10248E-05
         0.99493E-06
         0.10643E-05
         0.11287E-05
         0.10609E-05
         0.82418E-06
         0.67046E-06
         0.86437E-06
         0.11532E-05
         0.12689E-05
         0.12157E-05
         0.10943E-05
         0.99316E-06
         0.80646E-06
         0.67794E-06
         0.88683E-06
         0.11749E-05
         0.12140E-05
         0.97879E-06
         0.79450E-06
         0.97755E-06
         0.11543E-05
         0.24635E-05
         0.19475E-05
         0.20979E-05
         0.36281E-05
         0.19374E-05
         0.24771E-05
         0.13686E-05
         0.16427E-05
         0.27456E-05
         0.19875E-05
         0.80266E-06
         0.15342E-05
         0.16907E-05
         0.13496E-05
         0.17463E-05
         0.32651E-05
         0.25575E-05
         0.32534E-05
         0.18993E-05
         0.21724E-05
         0.20466E-05
         0.22702E-05
         0.17393E-05
         0.10802E-05
         0.20430E-05
         0.17076E-05
         0.17469E-05
         0.18021E-05
         0.15784E-05
         0.19286E-05
         0.24600E-05
         0.17321E-05
         0.27685E-05
         0.24205E-05
         0.10819E-05
         0.16645E-05
         0.18909E-05
         0.19999E-05
         0.19341E-05
         0.15195E-05
         0.95452E-06
         0.15741E-05
         0.20866E-05
         0.16821E-05
         0.14772E-05
         0.96751E-06
         0.16542E-05
         0.22488E-05
         0.23637E-05
         0.19092E-05
         0.11715E-05
         0.20283E-05
         0.74247E-06
         0.94860E-06
         0.88066E-06
         0.10473E-05
         0.10250E-05
         0.99514E-06
         0.10648E-05
         0.11295E-05
         0.10615E-05
         0.82437E-06
         0.67052E-06
         0.86439E-06
         0.11533E-05
         0.12691E-05
         0.12159E-05
         0.10942E-05
         0.99310E-06
         0.80639E-06
         0.67783E-06
         0.88676E-06
         0.11748E-05
         0.12140E-05
         0.97859E-06
         0.79433E-06
         0.97767E-06
         0.11543E-05
         0.24636E-05
         0.19471E-05
         0.20980E-05
         0.36298E-05
         0.19377E-05
         0.24779E-05
         0.13679E-05
         0.16417E-05
         0.27466E-05
         0.19862E-05
         0.80189E-06
         0.15339E-05
         0.16906E-05
         0.13477E-05
         0.17459E-05
         0.32661E-05
         0.25587E-05
         0.32551E-05
         0.18994E-05
         0.21727E-05
         0.20465E-05
         0.22703E-05
         0.17392E-05
         0.10800E-05
         0.20421E-05
         0.17075E-05
         0.17443E-05
         0.18003E-05
         0.15777E-05
         0.19281E-05
         0.24602E-05
         0.17319E-05
         0.27700E-05
         0.24227E-05
         0.10819E-05
         0.16642E-05
         0.18906E-05
         0.19998E-05
         0.19342E-05
         0.15196E-05
         0.95453E-06
         0.15739E-05
         0.20865E-05
         0.16819E-05
         0.14768E-05
         0.96727E-06
         0.16541E-05
         0.22488E-05
         0.23640E-05
         0.19096E-05
         0.11715E-05
         0.20293E-05
         0.74225E-06
         0.94859E-06
         0.88023E-06
         0.10474E-05
         0.10253E-05
         0.99535E-06
         0.10653E-05
         0.11303E-05
         0.10621E-05
         0.82456E-06
         0.67057E-06
         0.86441E-06
         0.11535E-05
         0.12694E-05
         0.12160E-05
         0.10942E-05
         0.99304E-06
         0.80633E-06
         0.67773E-06
         0.88671E-06
         0.11748E-05
         0.12140E-05
         0.97840E-06
         0.79415E-06
         0.97780E-06
         0.11542E-05
         0.24637E-05
         0.19466E-05
         0.20982E-05
         0.36315E-05
         0.19380E-05
         0.24786E-05
         0.13671E-05
         0.16407E-05
         0.27475E-05
         0.19849E-05
         0.80110E-06
         0.15336E-05
         0.16905E-05
         0.13457E-05
         0.17455E-05
         0.32669E-05
         0.25598E-05
         0.32567E-05
         0.18994E-05
         0.21729E-05
         0.20464E-05
         0.22703E-05
         0.17390E-05
         0.10799E-05
         0.20412E-05
         0.17073E-05
         0.17416E-05
         0.17985E-05
         0.15770E-05
         0.19277E-05
         0.24604E-05
         0.17317E-05
         0.27714E-05
         0.24248E-05
         0.10819E-05
         0.16638E-05
         0.18903E-05
         0.19996E-05
         0.19343E-05
         0.15196E-05
         0.95451E-06
         0.15737E-05
         0.20864E-05
         0.16816E-05
         0.14765E-05
         0.96700E-06
         0.16539E-05
         0.22488E-05
         0.23644E-05
         0.19100E-05
         0.11715E-05
         0.20303E-05
         0.74200E-06
         0.94855E-06
         0.87978E-06
         0.10474E-05
         0.10255E-05
         0.99555E-06
         0.10657E-05
         0.11311E-05
         0.10627E-05
         0.82472E-06
         0.67061E-06
         0.86442E-06
         0.11536E-05
         0.12697E-05
         0.12161E-05
         0.10941E-05
         0.99295E-06
         0.80625E-06
         0.67761E-06
         0.88662E-06
         0.11748E-05
         0.12140E-05
         0.97818E-06
         0.79396E-06
         0.97790E-06
         0.11542E-05
         0.24639E-05
         0.19463E-05
         0.20984E-05
         0.36333E-05
         0.19383E-05
         0.24794E-05
         0.13664E-05
         0.16398E-05
         0.27485E-05
         0.19836E-05
         0.80034E-06
         0.15334E-05
         0.16904E-05
         0.13439E-05
         0.17452E-05
         0.32679E-05
         0.25610E-05
         0.32583E-05
         0.18995E-05
         0.21732E-05
         0.20463E-05
         0.22704E-05
         0.17388E-05
         0.10798E-05
         0.20404E-05
         0.17072E-05
         0.17389E-05
         0.17967E-05
         0.15763E-05
         0.19272E-05
         0.24607E-05
         0.17315E-05
         0.27729E-05
         0.24270E-05
         0.10819E-05
         0.16635E-05
         0.18901E-05
         0.19995E-05
         0.19345E-05
         0.15197E-05
         0.95453E-06
         0.15735E-05
         0.20863E-05
         0.16814E-05
         0.14761E-05
         0.96677E-06
         0.16538E-05
         0.22488E-05
         0.23647E-05
         0.19104E-05
         0.11716E-05
         0.20313E-05
         0.74179E-06
         0.94855E-06
         0.87936E-06
         0.10475E-05
         0.10257E-05
         0.99577E-06
         0.10662E-05
         0.11319E-05
         0.10633E-05
         0.82492E-06
         0.67068E-06
         0.86446E-06
         0.11538E-05
         0.12700E-05
         0.12163E-05
         0.10941E-05
         0.99291E-06
         0.80620E-06
         0.67752E-06
         0.88657E-06
         0.11748E-05
         0.12140E-05
         0.97800E-06
         0.79380E-06
         0.97803E-06
         0.11542E-05
         0.12320E-05
         0.97306E-06
         0.10493E-05
         0.18171E-05
         0.96926E-06
         0.12399E-05
         0.68306E-06
         0.81967E-06
         0.13745E-05
         0.99152E-06
         0.39999E-06
         0.76665E-06
         0.84519E-06
         0.67148E-06
         0.87252E-06
         0.16343E-05
         0.12808E-05
         0.16296E-05
         0.94981E-06
         0.10867E-05
         0.10232E-05
         0.11353E-05
         0.86940E-06
         0.53990E-06
         0.10200E-05
         0.85360E-06
         0.86884E-06
         0.89793E-06
         0.78802E-06
         0.96354E-06
         0.12305E-05
         0.86572E-06
         0.13869E-05
         0.12141E-05
         0.54095E-06
         0.83170E-06
         0.94503E-06
         0.99975E-06
         0.96729E-06
         0.75992E-06
         0.47728E-06
         0.78670E-06
         0.10432E-05
         0.84065E-06
         0.73800E-06
         0.48334E-06
         0.82688E-06
         0.11245E-05
         0.11825E-05
         0.95534E-06
         0.58581E-06
         0.10159E-05
         0.37085E-06
         0.47429E-06
         0.43959E-06
         0.52375E-06
         0.51294E-06
         0.49796E-06
         0.53322E-06
         0.56619E-06
         0.53185E-06
         0.41252E-06
         0.33536E-06
         0.43225E-06
         0.57696E-06
         0.63509E-06
         0.60820E-06
         0.54708E-06
         0.49646E-06
         0.40310E-06
         0.33875E-06
         0.44329E-06
         0.58740E-06
         0.60700E-06
         0.48897E-06
         0.39687E-06
         0.48906E-06
         0.57710E-06
  
SCALARS                 Poissons_ratio  double 1
LOOKUP_TABLE default
         0.30000E+00
         0.30000E+00
         0.30000E+00
         0.30000E+00
         0.30000E+00
         0.30000E+00
         0.30000E+00
         0.30000E+00
         0.30000E+00
         0.30000E+00
         0.30000E+00
         0.30000E+00
         0.30000E+00
         0.30000E+00
         0.30000E+00
         0.30000E+00
         0.30000E+00
         0.30000E+00
         0.30000E+00
         0.30000E+00
         0.30000E+00
         0.30000E+00
         0.30000E+00
         0.30000E+00
         0.30000E+00
         0.30000E+00
         0.30000E+00
         0.30000E+00
         0.30000E+00
         0.30000E+00
         0.30000E+00
         0.30000E+00
         0.30000E+00
         0.30000E+00
         0.30000E+00
         0.30000E+00
         0.30000E+00
         0.30000E+00
         0.30000E+00
         0.30000E+00
         0.30000E+00
         0.30000E+00
         0.30000E+00
         0.30000E+00
         0.30000E+00
         0.30000E+00
         0.30000E+00
         0.30000E+00
         0.30000E+00
         0.30000E+00
         0.30000E+00
         0.30000E+00
         0.30000E+00
         0.30000E+00
         0.30000E+00
         0.30000E+00
         0.30000E+00
         0.30000E+00
         0.30000E+00
         0.30000E+00
         0.30000E+00
         0.30000E+00
         0.30000E+00
         0.30000E+00
         0.30000E+00
         0.30000E+00
         0.30000E+00
         0.30000E+00
         0.30000E+00
         0.30000E+00
         0.30000E+00
         0.30000E+00
         0.30000E+00
         0.30000E+00
         0.30000E+00
         0.30000E+00
         0.30000E+00
         0.30000E+00
         0.30000E+00
         0.30000E+00
         0.30000E+00
         0.30000E+00
         0.30000E+00
         0.30000E+00
         0.30000E+00
         0.30000E+00
         0.30000E+00
         0.30000E+00
         0.30000E+00
         0.30000E+00
         0.30000E+00
         0.30000E+00
         0.30000E+00
         0.30000E+00
         0.30000E+00
         0.30000E+00
         0.30000E+00
         0.30000E+00
         0.30000E+00
         0.30000E+00
         0.30000E+00
         0.30000E+00
         0.30000E+00
         0.30000E+00
         0.30000E+00
         0.30000E+00
         0.30000E+00
         0.30000E+00
         0.30000E+00
         0.30000E+00
         0.30000E+00
         0.30000E+00
         0.30000E+00
         0.30000E+00
         0.30000E+00
         0.30000E+00
         0.30000E+00
         0.30000E+00
         0.30000E+00
         0.30000E+00
         0.30000E+00
         0.30000E+00
         0.30000E+00
         0.30000E+00
         0.30000E+00
         0.30000E+00
         0.30000E+00
         0.30000E+00
         0.30000E+00
         0.30000E+00
         0.30000E+00
         0.30000E+00
         0.30000E+00
         0.30000E+00
         0.30000E+00
         0.30000E+00
         0.30000E+00
         0.30000E+00
         0.30000E+00
         0.30000E+00
         0.30000E+00
         0.30000E+00
         0.30000E+00
         0.30000E+00
         0.30000E+00
         0.30000E+00
         0.30000E+00
         0.30000E+00
         0.30000E+00
         0.30000E+00
         0.30000E+00
         0.30000E+00
         0.30000E+00
         0.30000E+00
         0.30000E+00
         0.30000E+00
         0.30000E+00
         0.30000E+00
         0.30000E+00
         0.30000E+00
         0.30000E+00
         0.30000E+00
         0.30000E+00
         0.30000E+00
         0.30000E+00
         0.30000E+00
         0.30000E+00
         0.30000E+00
         0.30000E+00
         0.30000E+00
         0.30000E+00
         0.30000E+00
         0.30000E+00
         0.30000E+00
         0.30000E+00
         0.30000E+00
         0.30000E+00
         0.30000E+00
         0.30000E+00
         0.30000E+00
         0.30000E+00
         0.30000E+00
         0.30000E+00
         0.30000E+00
         0.30000E+00
         0.30000E+00
         0.30000E+00
         0.30000E+00
         0.30000E+00
         0.30000E+00
         0.30000E+00
         0.30000E+00
         0.30000E+00
         0.30000E+00
         0.30000E+00
         0.30000E+00
         0.30000E+00
         0.30000E+00
         0.30000E+00
         0.30000E+00
         0.30000E+00
         0.30000E+00
         0.30000E+00
         0.30000E+00
         0.30000E+00
         0.30000E+00
         0.30000E+00
         0.30000E+00
         0.30000E+00
         0.30000E+00
         0.30000E+00
         0.30000E+00
         0.30000E+00
         0.30000E+00
         0.30000E+00
         0.30000E+00
         0.30000E+00
         0.30000E+00
         0.30000E+00
         0.30000E+00
         0.30000E+00
         0.30000E+00
         0.30000E+00
         0.30000E+00
         0.30000E+00
         0.30000E+00
         0.30000E+00
         0.30000E+00
         0.30000E+00
         0.30000E+00
         0.30000E+00
         0.30000E+00
         0.30000E+00
         0.30000E+00
         0.30000E+00
         0.30000E+00
         0.30000E+00
         0.30000E+00
         0.30000E+00
         0.30000E+00
         0.30000E+00
         0.30000E+00
         0.30000E+00
         0.30000E+00
         0.30000E+00
         0.30000E+00
         0.30000E+00
         0.30000E+00
         0.30000E+00
         0.30000E+00
         0.30000E+00
         0.30000E+00
         0.30000E+00
         0.30000E+00
         0.30000E+00
         0.30000E+00
         0.30000E+00
         0.30000E+00
         0.30000E+00
         0.30000E+00
         0.30000E+00
         0.30000E+00
         0.30000E+00
         0.30000E+00
         0.30000E+00
         0.30000E+00
         0.30000E+00
         0.30000E+00
         0.30000E+00
         0.30000E+00
         0.30000E+00
         0.30000E+00
         0.30000E+00
         0.30000E+00
         0.30000E+00
         0.30000E+00
         0.30000E+00
         0.30000E+00
         0.30000E+00
         0.30000E+00
         0.30000E+00
         0.30000E+00
         0.30000E+00
         0.30000E+00
         0.30000E+00
         0.30000E+00
         0.30000E+00
         0.30000E+00
         0.30000E+00
         0.30000E+00
         0.30000E+00
         0.30000E+00
         0.30000E+00
         0.30000E+00
         0.30000E+00
         0.30000E+00
         0.30000E+00
         0.30000E+00
         0.30000E+00
         0.30000E+00
         0.30000E+00
         0.30000E+00
         0.30000E+00
         0.30000E+00
         0.30000E+00
         0.30000E+00
         0.30000E+00
         0.30000E+00
         0.30000E+00
         0.30000E+00
         0.30000E+00
         0.30000E+00
         0.30000E+00
         0.30000E+00
         0.30000E+00
         0.30000E+00
         0.30000E+00
         0.30000E+00
         0.30000E+00
         0.30000E+00
         0.30000E+00
         0.30000E+00
         0.30000E+00
         0.30000E+00
         0.30000E+00
         0.30000E+00
         0.30000E+00
         0.30000E+00
         0.30000E+00
         0.30000E+00
         0.30000E+00
         0.30000E+00
         0.30000E+00
         0.30000E+00
         0.30000E+00
         0.30000E+00
         0.30000E+00
         0.30000E+00
         0.30000E+00
         0.30000E+00
         0.30000E+00
         0.30000E+00
         0.30000E+00
         0.30000E+00
         0.30000E+00
         0.30000E+00
         0.30000E+00
         0.30000E+00
         0.30000E+00
         0.30000E+00
         0.30000E+00
         0.30000E+00
         0.30000E+00
         0.30000E+00
         0.30000E+00
         0.30000E+00
         0.30000E+00
         0.30000E+00
         0.30000E+00
         0.30000E+00
         0.30000E+00
         0.30000E+00
         0.30000E+00
         0.30000E+00
         0.30000E+00
         0.30000E+00
         0.30000E+00
         0.30000E+00
         0.30000E+00
         0.30000E+00
         0.30000E+00
         0.30000E+00
         0.30000E+00
         0.30000E+00
         0.30000E+00
         0.30000E+00
         0.30000E+00
         0.30000E+00
         0.30000E+00
         0.30000E+00
         0.30000E+00
         0.30000E+00
         0.30000E+00
         0.30000E+00
         0.30000E+00
         0.30000E+00
         0.30000E+00
         0.30000E+00
         0.30000E+00
         0.30000E+00
         0.30000E+00
         0.30000E+00
         0.30000E+00
         0.30000E+00
         0.30000E+00
         0.30000E+00
         0.30000E+00
         0.30000E+00
         0.30000E+00
         0.30000E+00
         0.30000E+00
         0.30000E+00
         0.30000E+00
         0.30000E+00
         0.30000E+00
         0.30000E+00
         0.30000E+00
         0.30000E+00
         0.30000E+00
         0.30000E+00
         0.30000E+00
         0.30000E+00
         0.30000E+00
         0.30000E+00
         0.30000E+00
         0.30000E+00
         0.30000E+00
         0.30000E+00
         0.30000E+00
         0.30000E+00
         0.30000E+00
         0.30000E+00
         0.30000E+00
         0.30000E+00
         0.30000E+00
         0.30000E+00
         0.30000E+00
         0.30000E+00
         0.30000E+00
         0.30000E+00
         0.30000E+00
         0.30000E+00
         0.30000E+00
         0.30000E+00
         0.30000E+00
         0.30000E+00
         0.30000E+00
         0.30000E+00
         0.30000E+00
         0.30000E+00
         0.30000E+00
         0.30000E+00
         0.30000E+00
         0.30000E+00
         0.30000E+00
         0.30000E+00
         0.30000E+00
         0.30000E+00
         0.30000E+00
         0.30000E+00
         0.30000E+00
         0.30000E+00
         0.30000E+00
         0.30000E+00
         0.30000E+00
         0.30000E+00
         0.30000E+00
         0.30000E+00
         0.30000E+00
         0.30000E+00
         0.30000E+00
         0.30000E+00
         0.30000E+00
         0.30000E+00
         0.30000E+00
         0.30000E+00
         0.30000E+00
         0.30000E+00
         0.30000E+00
         0.30000E+00
         0.30000E+00
         0.30000E+00
         0.30000E+00
         0.30000E+00
         0.30000E+00
         0.30000E+00
         0.30000E+00
         0.30000E+00
         0.30000E+00
         0.30000E+00
         0.30000E+00
         0.30000E+00
         0.30000E+00
         0.30000E+00
         0.30000E+00
         0.30000E+00
         0.30000E+00
         0.30000E+00
         0.30000E+00
         0.30000E+00
         0.30000E+00
         0.30000E+00
         0.30000E+00
         0.30000E+00
         0.30000E+00
         0.30000E+00
         0.30000E+00
         0.30000E+00
         0.30000E+00
         0.30000E+00
         0.30000E+00
         0.30000E+00
         0.30000E+00
         0.30000E+00
         0.30000E+00
         0.30000E+00
         0.30000E+00
         0.30000E+00
         0.30000E+00
         0.30000E+00
         0.30000E+00
         0.30000E+00
         0.30000E+00
         0.30000E+00
         0.30000E+00
         0.30000E+00
         0.30000E+00
         0.30000E+00
         0.30000E+00
         0.30000E+00
         0.30000E+00
         0.30000E+00
         0.30000E+00
         0.30000E+00
         0.30000E+00
         0.30000E+00
         0.30000E+00
         0.30000E+00
         0.30000E+00
         0.30000E+00
         0.30000E+00
         0.30000E+00
         0.30000E+00
         0.30000E+00
         0.30000E+00
         0.30000E+00
         0.30000E+00
         0.30000E+00
         0.30000E+00
         0.30000E+00
         0.30000E+00
         0.30000E+00
         0.30000E+00
         0.30000E+00
         0.30000E+00
         0.30000E+00
         0.30000E+00
         0.30000E+00
         0.30000E+00
         0.30000E+00
         0.30000E+00
         0.30000E+00
         0.30000E+00
         0.30000E+00
         0.30000E+00
         0.30000E+00
         0.30000E+00
         0.30000E+00
         0.30000E+00
         0.30000E+00
         0.30000E+00
         0.30000E+00
         0.30000E+00
         0.30000E+00
         0.30000E+00
         0.30000E+00
         0.30000E+00
         0.30000E+00
         0.30000E+00
         0.30000E+00
         0.30000E+00
         0.30000E+00
         0.30000E+00
         0.30000E+00
         0.30000E+00
         0.30000E+00
         0.30000E+00
         0.30000E+00
         0.30000E+00
         0.30000E+00
         0.30000E+00
         0.30000E+00
         0.30000E+00
         0.30000E+00
         0.30000E+00
         0.30000E+00
         0.30000E+00
         0.30000E+00
         0.30000E+00
         0.30000E+00
         0.30000E+00
         0.30000E+00
         0.30000E+00
         0.30000E+00
         0.30000E+00
         0.30000E+00
         0.30000E+00
         0.30000E+00
         0.30000E+00
         0.30000E+00
         0.30000E+00
         0.30000E+00
         0.30000E+00
         0.30000E+00
         0.30000E+00
         0.30000E+00
         0.30000E+00
         0.30000E+00
         0.30000E+00
         0.30000E+00
         0.30000E+00
         0.30000E+00
         0.30000E+00
         0.30000E+00
         0.30000E+00
         0.30000E+00
         0.30000E+00
         0.30000E+00
         0.30000E+00
         0.30000E+00
         0.30000E+00
         0.30000E+00
         0.30000E+00
         0.30000E+00
         0.30000E+00
         0.30000E+00
         0.30000E+00
         0.30000E+00
         0.30000E+00
         0.30000E+00
         0.30000E+00
         0.30000E+00
         0.30000E+00
         0.30000E+00
         0.30000E+00
         0.30000E+00
         0.30000E+00
         0.30000E+00
         0.30000E+00
         0.30000E+00
         0.30000E+00
         0.30000E+00
         0.30000E+00
         0.30000E+00
         0.30000E+00
         0.30000E+00
         0.30000E+00
         0.30000E+00
         0.30000E+00
         0.30000E+00
         0.30000E+00
         0.30000E+00
         0.30000E+00
         0.30000E+00
         0.30000E+00
         0.30000E+00
         0.30000E+00
         0.30000E+00
         0.30000E+00
         0.30000E+00
         0.30000E+00
         0.30000E+00
         0.30000E+00
         0.30000E+00
         0.30000E+00
         0.30000E+00
         0.30000E+00
         0.30000E+00
         0.30000E+00
         0.30000E+00
         0.30000E+00
         0.30000E+00
         0.30000E+00
         0.30000E+00
         0.30000E+00
         0.30000E+00
         0.30000E+00
         0.30000E+00
         0.30000E+00
         0.30000E+00
         0.30000E+00
         0.30000E+00
         0.30000E+00
         0.30000E+00
         0.30000E+00
         0.30000E+00
         0.30000E+00
         0.30000E+00
         0.30000E+00
         0.30000E+00
         0.30000E+00
         0.30000E+00
         0.30000E+00
         0.30000E+00
         0.30000E+00
         0.30000E+00
         0.30000E+00
         0.30000E+00
         0.30000E+00
         0.30000E+00
         0.30000E+00
         0.30000E+00
         0.30000E+00
         0.30000E+00
         0.30000E+00
         0.30000E+00
         0.30000E+00
         0.30000E+00
         0.30000E+00
         0.30000E+00
         0.30000E+00
         0.30000E+00
         0.30000E+00
         0.30000E+00
         0.30000E+00
         0.30000E+00
         0.30000E+00
         0.30000E+00
         0.30000E+00
         0.30000E+00
         0.30000E+00
         0.30000E+00
         0.30000E+00
         0.30000E+00
         0.30000E+00
         0.30000E+00
         0.30000E+00
         0.30000E+00
         0.30000E+00
         0.30000E+00
         0.30000E+00
         0.30000E+00
         0.30000E+00
         0.30000E+00
         0.30000E+00
         0.30000E+00
         0.30000E+00
         0.30000E+00
         0.30000E+00
         0.30000E+00
         0.30000E+00
         0.30000E+00
         0.30000E+00
         0.30000E+00
         0.30000E+00
         0.30000E+00
         0.30000E+00
         0.30000E+00
         0.30000E+00
         0.30000E+00
         0.30000E+00
         0.30000E+00
         0.30000E+00
         0.30000E+00
         0.30000E+00
         0.30000E+00
         0.30000E+00
         0.30000E+00
         0.30000E+00
         0.30000E+00
         0.30000E+00
         0.30000E+00
         0.30000E+00
         0.30000E+00
         0.30000E+00
         0.30000E+00
         0.30000E+00
         0.30000E+00
         0.30000E+00
         0.30000E+00
         0.30000E+00
         0.30000E+00
         0.30000E+00
         0.30000E+00
         0.30000E+00
         0.30000E+00
         0.30000E+00
         0.30000E+00
         0.30000E+00
         0.30000E+00
         0.30000E+00
         0.30000E+00
         0.30000E+00
         0.30000E+00
         0.30000E+00
         0.30000E+00
         0.30000E+00
         0.30000E+00
         0.30000E+00
         0.30000E+00
         0.30000E+00
         0.30000E+00
         0.30000E+00
         0.30000E+00
         0.30000E+00
         0.30000E+00
         0.30000E+00
         0.30000E+00
         0.30000E+00
         0.30000E+00
         0.30000E+00
         0.30000E+00
         0.30000E+00
         0.30000E+00
         0.30000E+00
         0.30000E+00
         0.30000E+00
         0.30000E+00
         0.30000E+00
         0.30000E+00
         0.30000E+00
         0.30000E+00
         0.30000E+00
         0.30000E+00
         0.30000E+00
         0.30000E+00
         0.30000E+00
         0.30000E+00
         0.30000E+00
         0.30000E+00
         0.30000E+00
         0.30000E+00
         0.30000E+00
         0.30000E+00
         0.30000E+00
         0.30000E+00
         0.30000E+00
         0.30000E+00
         0.30000E+00
         0.30000E+00
         0.30000E+00
         0.30000E+00
         0.30000E+00
         0.30000E+00
         0.30000E+00
         0.30000E+00
         0.30000E+00
         0.30000E+00
         0.30000E+00
         0.30000E+00
         0.30000E+00
         0.30000E+00
         0.30000E+00
         0.30000E+00
         0.30000E+00
         0.30000E+00
         0.30000E+00
         0.30000E+00
         0.30000E+00
         0.30000E+00
         0.30000E+00
         0.30000E+00
         0.30000E+00
         0.30000E+00
         0.30000E+00
         0.30000E+00
         0.30000E+00
         0.30000E+00
         0.30000E+00
         0.30000E+00
         0.30000E+00
         0.30000E+00
         0.30000E+00
         0.30000E+00
         0.30000E+00
         0.30000E+00
         0.30000E+00
         0.30000E+00
         0.30000E+00
         0.30000E+00
         0.30000E+00
         0.30000E+00
         0.30000E+00
         0.30000E+00
         0.30000E+00
         0.30000E+00
         0.30000E+00
         0.30000E+00
         0.30000E+00
         0.30000E+00
         0.30000E+00
         0.30000E+00
         0.30000E+00
         0.30000E+00
         0.30000E+00
         0.30000E+00
         0.30000E+00
         0.30000E+00
         0.30000E+00
         0.30000E+00
         0.30000E+00
         0.30000E+00
         0.30000E+00
         0.30000E+00
         0.30000E+00
         0.30000E+00
         0.30000E+00
         0.30000E+00
         0.30000E+00
         0.30000E+00
         0.30000E+00
         0.30000E+00
         0.30000E+00
         0.30000E+00
         0.30000E+00
         0.30000E+00
         0.30000E+00
         0.30000E+00
         0.30000E+00
         0.30000E+00
         0.30000E+00
         0.30000E+00
         0.30000E+00
         0.30000E+00
         0.30000E+00
         0.30000E+00
         0.30000E+00
         0.30000E+00
         0.30000E+00
         0.30000E+00
         0.30000E+00
         0.30000E+00
         0.30000E+00
         0.30000E+00
         0.30000E+00
         0.30000E+00
         0.30000E+00
         0.30000E+00
         0.30000E+00
         0.30000E+00
         0.30000E+00
         0.30000E+00
         0.30000E+00
         0.30000E+00
         0.30000E+00
         0.30000E+00
         0.30000E+00
         0.30000E+00
         0.30000E+00
         0.30000E+00
         0.30000E+00
         0.30000E+00
         0.30000E+00
         0.30000E+00
         0.30000E+00
         0.30000E+00
         0.30000E+00
         0.30000E+00
         0.30000E+00
         0.30000E+00
         0.30000E+00
         0.30000E+00
         0.30000E+00
         0.30000E+00
         0.30000E+00
         0.30000E+00
         0.30000E+00
         0.30000E+00
         0.30000E+00
         0.30000E+00
         0.30000E+00
         0.30000E+00
         0.30000E+00
         0.30000E+00
         0.30000E+00
         0.30000E+00
         0.30000E+00
         0.30000E+00
         0.30000E+00
         0.30000E+00
         0.30000E+00
         0.30000E+00
         0.30000E+00
         0.30000E+00
         0.30000E+00
         0.30000E+00
         0.30000E+00
         0.30000E+00
         0.30000E+00
         0.30000E+00
         0.30000E+00
         0.30000E+00
         0.30000E+00
         0.30000E+00
         0.30000E+00
         0.30000E+00
         0.30000E+00
         0.30000E+00
         0.30000E+00
         0.30000E+00
         0.30000E+00
         0.30000E+00
         0.30000E+00
         0.30000E+00
         0.30000E+00
         0.30000E+00
         0.30000E+00
         0.30000E+00
         0.30000E+00
         0.30000E+00
         0.30000E+00
         0.30000E+00
         0.30000E+00
         0.30000E+00
         0.30000E+00
         0.30000E+00
         0.30000E+00
         0.30000E+00
         0.30000E+00
         0.30000E+00
         0.30000E+00
         0.30000E+00
         0.30000E+00
         0.30000E+00
         0.30000E+00
         0.30000E+00
         0.30000E+00
         0.30000E+00
         0.30000E+00
         0.30000E+00
         0.30000E+00
         0.30000E+00
         0.30000E+00
         0.30000E+00
         0.30000E+00
         0.30000E+00
         0.30000E+00
         0.30000E+00
         0.30000E+00
         0.30000E+00
         0.30000E+00
         0.30000E+00
         0.30000E+00
         0.30000E+00
         0.30000E+00
         0.30000E+00
         0.30000E+00
         0.30000E+00
         0.30000E+00
         0.30000E+00
         0.30000E+00
         0.30000E+00
         0.30000E+00
         0.30000E+00
         0.30000E+00
         0.30000E+00
         0.30000E+00
         0.30000E+00
         0.30000E+00
         0.30000E+00
         0.30000E+00
         0.30000E+00
         0.30000E+00
         0.30000E+00
         0.30000E+00
         0.30000E+00
         0.30000E+00
         0.30000E+00
         0.30000E+00
         0.30000E+00
         0.30000E+00
         0.30000E+00
         0.30000E+00
         0.30000E+00
         0.30000E+00
         0.30000E+00
         0.30000E+00
         0.30000E+00
         0.30000E+00
         0.30000E+00
         0.30000E+00
         0.30000E+00
         0.30000E+00
         0.30000E+00
         0.30000E+00
         0.30000E+00
         0.30000E+00
         0.30000E+00
         0.30000E+00
         0.30000E+00
         0.30000E+00
         0.30000E+00
         0.30000E+00
         0.30000E+00
         0.30000E+00
         0.30000E+00
         0.30000E+00
         0.30000E+00
         0.30000E+00
         0.30000E+00
         0.30000E+00
         0.30000E+00
         0.30000E+00
         0.30000E+00
         0.30000E+00
         0.30000E+00
         0.30000E+00
         0.30000E+00
         0.30000E+00
         0.30000E+00
         0.30000E+00
         0.30000E+00
         0.30000E+00
         0.30000E+00
         0.30000E+00
         0.30000E+00
         0.30000E+00
         0.30000E+00
         0.30000E+00
         0.30000E+00
         0.30000E+00
         0.30000E+00
         0.30000E+00
         0.30000E+00
         0.30000E+00
         0.30000E+00
         0.30000E+00
         0.30000E+00
         0.30000E+00
         0.30000E+00
         0.30000E+00
         0.30000E+00
         0.30000E+00
         0.30000E+00
         0.30000E+00
         0.30000E+00
         0.30000E+00
         0.30000E+00
         0.30000E+00
         0.30000E+00
         0.30000E+00
         0.30000E+00
         0.30000E+00
         0.30000E+00
         0.30000E+00
         0.30000E+00
         0.30000E+00
         0.30000E+00
         0.30000E+00
         0.30000E+00
         0.30000E+00
         0.30000E+00
         0.30000E+00
         0.30000E+00
         0.30000E+00
         0.30000E+00
         0.30000E+00
         0.30000E+00
         0.30000E+00
         0.30000E+00
         0.30000E+00
         0.30000E+00
         0.30000E+00
         0.30000E+00
         0.30000E+00
         0.30000E+00
         0.30000E+00
         0.30000E+00
         0.30000E+00
         0.30000E+00
         0.30000E+00
         0.30000E+00
         0.30000E+00
         0.30000E+00
         0.30000E+00
         0.30000E+00
         0.30000E+00
         0.30000E+00
         0.30000E+00
         0.30000E+00
         0.30000E+00
         0.30000E+00
         0.30000E+00
         0.30000E+00
         0.30000E+00
         0.30000E+00
         0.30000E+00
         0.30000E+00
         0.30000E+00
         0.30000E+00
         0.30000E+00
         0.30000E+00
         0.30000E+00
         0.30000E+00
         0.30000E+00
         0.30000E+00
         0.30000E+00
         0.30000E+00
         0.30000E+00
         0.30000E+00
         0.30000E+00
         0.30000E+00
         0.30000E+00
         0.30000E+00
         0.30000E+00
         0.30000E+00
         0.30000E+00
         0.30000E+00
         0.30000E+00
         0.30000E+00
         0.30000E+00
         0.30000E+00
         0.30000E+00
         0.30000E+00
         0.30000E+00
         0.30000E+00
         0.30000E+00
         0.30000E+00
         0.30000E+00
         0.30000E+00
         0.30000E+00
         0.30000E+00
         0.30000E+00
         0.30000E+00
         0.30000E+00
         0.30000E+00
         0.30000E+00
         0.30000E+00
         0.30000E+00
         0.30000E+00
         0.30000E+00
         0.30000E+00
         0.30000E+00
         0.30000E+00
         0.30000E+00
         0.30000E+00
         0.30000E+00
         0.30000E+00
         0.30000E+00
         0.30000E+00
         0.30000E+00
         0.30000E+00
         0.30000E+00
         0.30000E+00
         0.30000E+00
         0.30000E+00
         0.30000E+00
         0.30000E+00
         0.30000E+00
         0.30000E+00
         0.30000E+00
         0.30000E+00
         0.30000E+00
         0.30000E+00
         0.30000E+00
         0.30000E+00
         0.30000E+00
         0.30000E+00
         0.30000E+00
         0.30000E+00
         0.30000E+00
         0.30000E+00
         0.30000E+00
         0.30000E+00
         0.30000E+00
         0.30000E+00
         0.30000E+00
         0.30000E+00
         0.30000E+00
         0.30000E+00
         0.30000E+00
         0.30000E+00
         0.30000E+00
         0.30000E+00
         0.30000E+00
         0.30000E+00
         0.30000E+00
         0.30000E+00
         0.30000E+00
         0.30000E+00
         0.30000E+00
         0.30000E+00
         0.30000E+00
         0.30000E+00
         0.30000E+00
         0.30000E+00
         0.30000E+00
         0.30000E+00
         0.30000E+00
         0.30000E+00
         0.30000E+00
         0.30000E+00
         0.30000E+00
         0.30000E+00
         0.30000E+00
         0.30000E+00
         0.30000E+00
         0.30000E+00
         0.30000E+00
         0.30000E+00
         0.30000E+00
         0.30000E+00
         0.30000E+00
         0.30000E+00
         0.30000E+00
         0.30000E+00
         0.30000E+00
         0.30000E+00
         0.30000E+00
         0.30000E+00
         0.30000E+00
         0.30000E+00
         0.30000E+00
         0.30000E+00
         0.30000E+00
         0.30000E+00
         0.30000E+00
         0.30000E+00
         0.30000E+00
         0.30000E+00
         0.30000E+00
         0.30000E+00
         0.30000E+00
         0.30000E+00
         0.30000E+00
         0.30000E+00
         0.30000E+00
         0.30000E+00
         0.30000E+00
         0.30000E+00
         0.30000E+00
         0.30000E+00
         0.30000E+00
         0.30000E+00
         0.30000E+00
         0.30000E+00
         0.30000E+00
         0.30000E+00
         0.30000E+00
         0.30000E+00
         0.30000E+00
         0.30000E+00
         0.30000E+00
         0.30000E+00
         0.30000E+00
         0.30000E+00
         0.30000E+00
         0.30000E+00
         0.30000E+00
         0.30000E+00
         0.30000E+00
         0.30000E+00
         0.30000E+00
         0.30000E+00
         0.30000E+00
         0.30000E+00
         0.30000E+00
         0.30000E+00
         0.30000E+00
         0.30000E+00
         0.30000E+00
         0.30000E+00
         0.30000E+00
         0.30000E+00
         0.30000E+00
         0.30000E+00
         0.30000E+00
         0.30000E+00
         0.30000E+00
         0.30000E+00
         0.30000E+00
         0.30000E+00
         0.30000E+00
         0.30000E+00
         0.30000E+00
         0.30000E+00
         0.30000E+00
         0.30000E+00
         0.30000E+00
         0.30000E+00
         0.30000E+00
         0.30000E+00
         0.30000E+00
         0.30000E+00
         0.30000E+00
         0.30000E+00
         0.30000E+00
         0.30000E+00
         0.30000E+00
         0.30000E+00
         0.30000E+00
         0.30000E+00
         0.30000E+00
         0.30000E+00
         0.30000E+00
         0.30000E+00
         0.30000E+00
         0.30000E+00
         0.30000E+00
         0.30000E+00
         0.30000E+00
         0.30000E+00
         0.30000E+00
         0.30000E+00
         0.30000E+00
         0.30000E+00
         0.30000E+00
         0.30000E+00
         0.30000E+00
         0.30000E+00
         0.30000E+00
         0.30000E+00
         0.30000E+00
         0.30000E+00
         0.30000E+00
         0.30000E+00
         0.30000E+00
         0.30000E+00
         0.30000E+00
         0.30000E+00
         0.30000E+00
         0.30000E+00
         0.30000E+00
         0.30000E+00
         0.30000E+00
         0.30000E+00
         0.30000E+00
         0.30000E+00
         0.30000E+00
         0.30000E+00
         0.30000E+00
         0.30000E+00
         0.30000E+00
         0.30000E+00
         0.30000E+00
         0.30000E+00
         0.30000E+00
         0.30000E+00
         0.30000E+00
         0.30000E+00
         0.30000E+00
         0.30000E+00
         0.30000E+00
         0.30000E+00
         0.30000E+00
         0.30000E+00
         0.30000E+00
         0.30000E+00
         0.30000E+00
         0.30000E+00
         0.30000E+00
         0.30000E+00
         0.30000E+00
         0.30000E+00
         0.30000E+00
         0.30000E+00
         0.30000E+00
         0.30000E+00
         0.30000E+00
         0.30000E+00
         0.30000E+00
         0.30000E+00
         0.30000E+00
         0.30000E+00
         0.30000E+00
         0.30000E+00
         0.30000E+00
         0.30000E+00
         0.30000E+00
         0.30000E+00
         0.30000E+00
         0.30000E+00
         0.30000E+00
         0.30000E+00
         0.30000E+00
         0.30000E+00
         0.30000E+00
         0.30000E+00
         0.30000E+00
         0.30000E+00
         0.30000E+00
         0.30000E+00
         0.30000E+00
         0.30000E+00
         0.30000E+00
         0.30000E+00
         0.30000E+00
         0.30000E+00
         0.30000E+00
         0.30000E+00
         0.30000E+00
         0.30000E+00
         0.30000E+00
         0.30000E+00
         0.30000E+00
         0.30000E+00
         0.30000E+00
         0.30000E+00
         0.30000E+00
         0.30000E+00
         0.30000E+00
         0.30000E+00
         0.30000E+00
         0.30000E+00
         0.30000E+00
         0.30000E+00
         0.30000E+00
         0.30000E+00
         0.30000E+00
         0.30000E+00
         0.30000E+00
         0.30000E+00
         0.30000E+00
         0.30000E+00
         0.30000E+00
         0.30000E+00
         0.30000E+00
         0.30000E+00
         0.30000E+00
         0.30000E+00
         0.30000E+00
         0.30000E+00
         0.30000E+00
         0.30000E+00
         0.30000E+00
         0.30000E+00
         0.30000E+00
         0.30000E+00
         0.30000E+00
         0.30000E+00
         0.30000E+00
         0.30000E+00
         0.30000E+00
         0.30000E+00
         0.30000E+00
         0.30000E+00
         0.30000E+00
         0.30000E+00
         0.30000E+00
         0.30000E+00
         0.30000E+00
         0.30000E+00
         0.30000E+00
         0.30000E+00
         0.30000E+00
         0.30000E+00
         0.30000E+00
         0.30000E+00
         0.30000E+00
         0.30000E+00
         0.30000E+00
         0.30000E+00
         0.30000E+00
         0.30000E+00
         0.30000E+00
         0.30000E+00
         0.30000E+00
         0.30000E+00
         0.30000E+00
         0.30000E+00
         0.30000E+00
         0.30000E+00
         0.30000E+00
         0.30000E+00
         0.30000E+00
         0.30000E+00
         0.30000E+00
         0.30000E+00
         0.30000E+00
         0.30000E+00
         0.30000E+00
         0.30000E+00
         0.30000E+00
         0.30000E+00
         0.30000E+00
         0.30000E+00
         0.30000E+00
         0.30000E+00
         0.30000E+00
         0.30000E+00
         0.30000E+00
         0.30000E+00
         0.30000E+00
         0.30000E+00
         0.30000E+00
         0.30000E+00
         0.30000E+00
         0.30000E+00
         0.30000E+00
         0.30000E+00
         0.30000E+00
         0.30000E+00
         0.30000E+00
         0.30000E+00
         0.30000E+00
         0.30000E+00
         0.30000E+00
         0.30000E+00
         0.30000E+00
         0.30000E+00
         0.30000E+00
         0.30000E+00
         0.30000E+00
         0.30000E+00
         0.30000E+00
         0.30000E+00
         0.30000E+00
         0.30000E+00
         0.30000E+00
         0.30000E+00
         0.30000E+00
         0.30000E+00
         0.30000E+00
         0.30000E+00
         0.30000E+00
         0.30000E+00
         0.30000E+00
         0.30000E+00
         0.30000E+00
         0.30000E+00
         0.30000E+00
         0.30000E+00
         0.30000E+00
         0.30000E+00
         0.30000E+00
         0.30000E+00
         0.30000E+00
         0.30000E+00
         0.30000E+00
         0.30000E+00
         0.30000E+00
         0.30000E+00
         0.30000E+00
         0.30000E+00
         0.30000E+00
         0.30000E+00
         0.30000E+00
         0.30000E+00
         0.30000E+00
         0.30000E+00
         0.30000E+00
         0.30000E+00
         0.30000E+00
         0.30000E+00
         0.30000E+00
         0.30000E+00
         0.30000E+00
         0.30000E+00
         0.30000E+00
         0.30000E+00
         0.30000E+00
         0.30000E+00
         0.30000E+00
         0.30000E+00
         0.30000E+00
         0.30000E+00
         0.30000E+00
         0.30000E+00
         0.30000E+00
         0.30000E+00
         0.30000E+00
         0.30000E+00
         0.30000E+00
         0.30000E+00
         0.30000E+00
         0.30000E+00
         0.30000E+00
         0.30000E+00
         0.30000E+00
         0.30000E+00
         0.30000E+00
         0.30000E+00
         0.30000E+00
         0.30000E+00
         0.30000E+00
         0.30000E+00
         0.30000E+00
         0.30000E+00
         0.30000E+00
         0.30000E+00
         0.30000E+00
         0.30000E+00
         0.30000E+00
         0.30000E+00
         0.30000E+00
         0.30000E+00
         0.30000E+00
         0.30000E+00
         0.30000E+00
         0.30000E+00
         0.30000E+00
         0.30000E+00
         0.30000E+00
         0.30000E+00
         0.30000E+00
         0.30000E+00
         0.30000E+00
         0.30000E+00
         0.30000E+00
         0.30000E+00
         0.30000E+00
         0.30000E+00
         0.30000E+00
         0.30000E+00
         0.30000E+00
         0.30000E+00
         0.30000E+00
         0.30000E+00
         0.30000E+00
         0.30000E+00
         0.30000E+00
         0.30000E+00
         0.30000E+00
         0.30000E+00
         0.30000E+00
         0.30000E+00
         0.30000E+00
         0.30000E+00
         0.30000E+00
         0.30000E+00
         0.30000E+00
         0.30000E+00
         0.30000E+00
         0.30000E+00
         0.30000E+00
         0.30000E+00
         0.30000E+00
         0.30000E+00
         0.30000E+00
         0.30000E+00
         0.30000E+00
         0.30000E+00
         0.30000E+00
         0.30000E+00
         0.30000E+00
         0.30000E+00
         0.30000E+00
         0.30000E+00
         0.30000E+00
         0.30000E+00
         0.30000E+00
         0.30000E+00
         0.30000E+00
         0.30000E+00
         0.30000E+00
         0.30000E+00
         0.30000E+00
         0.30000E+00
         0.30000E+00
         0.30000E+00
         0.30000E+00
         0.30000E+00
         0.30000E+00
         0.30000E+00
         0.30000E+00
         0.30000E+00
         0.30000E+00
         0.30000E+00
         0.30000E+00
         0.30000E+00
         0.30000E+00
         0.30000E+00
         0.30000E+00
         0.30000E+00
         0.30000E+00
         0.30000E+00
         0.30000E+00
         0.30000E+00
         0.30000E+00
         0.30000E+00
         0.30000E+00
         0.30000E+00
         0.30000E+00
         0.30000E+00
         0.30000E+00
         0.30000E+00
         0.30000E+00
         0.30000E+00
         0.30000E+00
         0.30000E+00
         0.30000E+00
         0.30000E+00
         0.30000E+00
         0.30000E+00
         0.30000E+00
         0.30000E+00
         0.30000E+00
         0.30000E+00
         0.30000E+00
         0.30000E+00
         0.30000E+00
         0.30000E+00
         0.30000E+00
         0.30000E+00
         0.30000E+00
         0.30000E+00
         0.30000E+00
         0.30000E+00
         0.30000E+00
         0.30000E+00
         0.30000E+00
         0.30000E+00
         0.30000E+00
         0.30000E+00
         0.30000E+00
         0.30000E+00
         0.30000E+00
         0.30000E+00
         0.30000E+00
         0.30000E+00
         0.30000E+00
         0.30000E+00
         0.30000E+00
         0.30000E+00
         0.30000E+00
         0.30000E+00
         0.30000E+00
         0.30000E+00
         0.30000E+00
         0.30000E+00
         0.30000E+00
         0.30000E+00
         0.30000E+00
         0.30000E+00
         0.30000E+00
         0.30000E+00
         0.30000E+00
         0.30000E+00
         0.30000E+00
         0.30000E+00
         0.30000E+00
         0.30000E+00
         0.30000E+00
         0.30000E+00
         0.30000E+00
         0.30000E+00
         0.30000E+00
         0.30000E+00
         0.30000E+00
         0.30000E+00
         0.30000E+00
         0.30000E+00
         0.30000E+00
         0.30000E+00
         0.30000E+00
         0.30000E+00
         0.30000E+00
         0.30000E+00
         0.30000E+00
         0.30000E+00
         0.30000E+00
         0.30000E+00
         0.30000E+00
         0.30000E+00
         0.30000E+00
         0.30000E+00
         0.30000E+00
         0.30000E+00
         0.30000E+00
         0.30000E+00
         0.30000E+00
         0.30000E+00
         0.30000E+00
         0.30000E+00
         0.30000E+00
         0.30000E+00
         0.30000E+00
         0.30000E+00
         0.30000E+00
         0.30000E+00
         0.30000E+00
         0.30000E+00
         0.30000E+00
         0.30000E+00
         0.30000E+00
         0.30000E+00
         0.30000E+00
         0.30000E+00
         0.30000E+00
         0.30000E+00
         0.30000E+00
         0.30000E+00
         0.30000E+00
         0.30000E+00
         0.30000E+00
         0.30000E+00
         0.30000E+00
         0.30000E+00
         0.30000E+00
         0.30000E+00
         0.30000E+00
         0.30000E+00
         0.30000E+00
         0.30000E+00
         0.30000E+00
         0.30000E+00
         0.30000E+00
         0.30000E+00
         0.30000E+00
         0.30000E+00
         0.30000E+00
         0.30000E+00
         0.30000E+00
         0.30000E+00
         0.30000E+00
         0.30000E+00
         0.30000E+00
         0.30000E+00
         0.30000E+00
         0.30000E+00
         0.30000E+00
         0.30000E+00
         0.30000E+00
         0.30000E+00
         0.30000E+00
         0.30000E+00
         0.30000E+00
         0.30000E+00
         0.30000E+00
         0.30000E+00
         0.30000E+00
         0.30000E+00
         0.30000E+00
         0.30000E+00
         0.30000E+00
         0.30000E+00
         0.30000E+00
         0.30000E+00
         0.30000E+00
         0.30000E+00
         0.30000E+00
         0.30000E+00
         0.30000E+00
         0.30000E+00
         0.30000E+00
         0.30000E+00
         0.30000E+00
         0.30000E+00
         0.30000E+00
         0.30000E+00
         0.30000E+00
         0.30000E+00
         0.30000E+00
         0.30000E+00
         0.30000E+00
         0.30000E+00
         0.30000E+00
         0.30000E+00
         0.30000E+00
         0.30000E+00
         0.30000E+00
         0.30000E+00
         0.30000E+00
         0.30000E+00
         0.30000E+00
         0.30000E+00
         0.30000E+00
         0.30000E+00
         0.30000E+00
         0.30000E+00
  
SCALARS                 Youngs_modulus  double 1
LOOKUP_TABLE default
         0.78200E+11
         0.78200E+11
         0.78200E+11
         0.78200E+11
         0.78200E+11
         0.78200E+11
         0.78200E+11
         0.78200E+11
         0.78200E+11
         0.78200E+11
         0.78200E+11
         0.78200E+11
         0.78200E+11
         0.78200E+11
         0.78200E+11
         0.78200E+11
         0.78200E+11
         0.78200E+11
         0.78200E+11
         0.78200E+11
         0.78200E+11
         0.78200E+11
         0.78200E+11
         0.78200E+11
         0.78200E+11
         0.78200E+11
         0.78200E+11
         0.78200E+11
         0.78200E+11
         0.78200E+11
         0.78200E+11
         0.78200E+11
         0.78200E+11
         0.78200E+11
         0.78200E+11
         0.78200E+11
         0.78200E+11
         0.78200E+11
         0.78200E+11
         0.78200E+11
         0.78200E+11
         0.78200E+11
         0.78200E+11
         0.78200E+11
         0.78200E+11
         0.78200E+11
         0.78200E+11
         0.78200E+11
         0.78200E+11
         0.78200E+11
         0.78200E+11
         0.78200E+11
         0.78200E+11
         0.78200E+11
         0.78200E+11
         0.78200E+11
         0.78200E+11
         0.78200E+11
         0.78200E+11
         0.78200E+11
         0.78200E+11
         0.78200E+11
         0.78200E+11
         0.78200E+11
         0.78200E+11
         0.78200E+11
         0.78200E+11
         0.78200E+11
         0.78200E+11
         0.78200E+11
         0.78200E+11
         0.78200E+11
         0.78200E+11
         0.78200E+11
         0.78200E+11
         0.78200E+11
         0.78200E+11
         0.78200E+11
         0.78200E+11
         0.78200E+11
         0.78200E+11
         0.78200E+11
         0.78200E+11
         0.78200E+11
         0.78200E+11
         0.78200E+11
         0.78200E+11
         0.78200E+11
         0.78200E+11
         0.78200E+11
         0.78200E+11
         0.78200E+11
         0.78200E+11
         0.78200E+11
         0.78200E+11
         0.78200E+11
         0.78200E+11
         0.78200E+11
         0.78200E+11
         0.78200E+11
         0.78200E+11
         0.78200E+11
         0.78200E+11
         0.78200E+11
         0.78200E+11
         0.78200E+11
         0.78200E+11
         0.78200E+11
         0.78200E+11
         0.78200E+11
         0.78200E+11
         0.78200E+11
         0.78200E+11
         0.78200E+11
         0.78200E+11
         0.78200E+11
         0.78200E+11
         0.78200E+11
         0.78200E+11
         0.78200E+11
         0.78200E+11
         0.78200E+11
         0.78200E+11
         0.78200E+11
         0.78200E+11
         0.78200E+11
         0.78200E+11
         0.78200E+11
         0.78200E+11
         0.78200E+11
         0.78200E+11
         0.78200E+11
         0.78200E+11
         0.78200E+11
         0.78200E+11
         0.78200E+11
         0.78200E+11
         0.78200E+11
         0.78200E+11
         0.78200E+11
         0.78200E+11
         0.78200E+11
         0.78200E+11
         0.78200E+11
         0.78200E+11
         0.78200E+11
         0.78200E+11
         0.78200E+11
         0.78200E+11
         0.78200E+11
         0.78200E+11
         0.78200E+11
         0.78200E+11
         0.78200E+11
         0.78200E+11
         0.78200E+11
         0.78200E+11
         0.78200E+11
         0.78200E+11
         0.78200E+11
         0.78200E+11
         0.78200E+11
         0.78200E+11
         0.78200E+11
         0.78200E+11
         0.78200E+11
         0.78200E+11
         0.78200E+11
         0.78200E+11
         0.78200E+11
         0.78200E+11
         0.78200E+11
         0.78200E+11
         0.78200E+11
         0.78200E+11
         0.78200E+11
         0.78200E+11
         0.78200E+11
         0.78200E+11
         0.78200E+11
         0.78200E+11
         0.78200E+11
         0.78200E+11
         0.78200E+11
         0.78200E+11
         0.78200E+11
         0.78200E+11
         0.78200E+11
         0.78200E+11
         0.78200E+11
         0.78200E+11
         0.78200E+11
         0.78200E+11
         0.78200E+11
         0.78200E+11
         0.78200E+11
         0.78200E+11
         0.78200E+11
         0.78200E+11
         0.78200E+11
         0.78200E+11
         0.78200E+11
         0.78200E+11
         0.78200E+11
         0.78200E+11
         0.78200E+11
         0.78200E+11
         0.78200E+11
         0.78200E+11
         0.78200E+11
         0.78200E+11
         0.78200E+11
         0.78200E+11
         0.78200E+11
         0.78200E+11
         0.78200E+11
         0.78200E+11
         0.78200E+11
         0.78200E+11
         0.78200E+11
         0.78200E+11
         0.78200E+11
         0.78200E+11
         0.78200E+11
         0.78200E+11
         0.78200E+11
         0.78200E+11
         0.78200E+11
         0.78200E+11
         0.78200E+11
         0.78200E+11
         0.78200E+11
         0.78200E+11
         0.78200E+11
         0.78200E+11
         0.78200E+11
         0.78200E+11
         0.78200E+11
         0.78200E+11
         0.78200E+11
         0.78200E+11
         0.78200E+11
         0.78200E+11
         0.78200E+11
         0.78200E+11
         0.78200E+11
         0.78200E+11
         0.78200E+11
         0.78200E+11
         0.78200E+11
         0.78200E+11
         0.78200E+11
         0.78200E+11
         0.78200E+11
         0.78200E+11
         0.78200E+11
         0.78200E+11
         0.78200E+11
         0.78200E+11
         0.78200E+11
         0.78200E+11
         0.78200E+11
         0.78200E+11
         0.78200E+11
         0.78200E+11
         0.78200E+11
         0.78200E+11
         0.78200E+11
         0.78200E+11
         0.78200E+11
         0.78200E+11
         0.78200E+11
         0.78200E+11
         0.78200E+11
         0.78200E+11
         0.78200E+11
         0.78200E+11
         0.78200E+11
         0.78200E+11
         0.78200E+11
         0.78200E+11
         0.78200E+11
         0.78200E+11
         0.78200E+11
         0.78200E+11
         0.78200E+11
         0.78200E+11
         0.78200E+11
         0.78200E+11
         0.78200E+11
         0.78200E+11
         0.78200E+11
         0.78200E+11
         0.78200E+11
         0.78200E+11
         0.78200E+11
         0.78200E+11
         0.78200E+11
         0.78200E+11
         0.78200E+11
         0.78200E+11
         0.78200E+11
         0.78200E+11
         0.78200E+11
         0.78200E+11
         0.78200E+11
         0.78200E+11
         0.78200E+11
         0.78200E+11
         0.78200E+11
         0.78200E+11
         0.78200E+11
         0.78200E+11
         0.78200E+11
         0.78200E+11
         0.78200E+11
         0.78200E+11
         0.78200E+11
         0.78200E+11
         0.78200E+11
         0.78200E+11
         0.78200E+11
         0.78200E+11
         0.78200E+11
         0.78200E+11
         0.78200E+11
         0.78200E+11
         0.78200E+11
         0.78200E+11
         0.78200E+11
         0.78200E+11
         0.78200E+11
         0.78200E+11
         0.78200E+11
         0.78200E+11
         0.78200E+11
         0.78200E+11
         0.78200E+11
         0.78200E+11
         0.78200E+11
         0.78200E+11
         0.78200E+11
         0.78200E+11
         0.78200E+11
         0.78200E+11
         0.78200E+11
         0.78200E+11
         0.78200E+11
         0.78200E+11
         0.78200E+11
         0.78200E+11
         0.78200E+11
         0.78200E+11
         0.78200E+11
         0.78200E+11
         0.78200E+11
         0.78200E+11
         0.78200E+11
         0.78200E+11
         0.78200E+11
         0.78200E+11
         0.78200E+11
         0.78200E+11
         0.78200E+11
         0.78200E+11
         0.78200E+11
         0.78200E+11
         0.78200E+11
         0.78200E+11
         0.78200E+11
         0.78200E+11
         0.78200E+11
         0.78200E+11
         0.78200E+11
         0.78200E+11
         0.78200E+11
         0.78200E+11
         0.78200E+11
         0.78200E+11
         0.78200E+11
         0.78200E+11
         0.78200E+11
         0.78200E+11
         0.78200E+11
         0.78200E+11
         0.78200E+11
         0.78200E+11
         0.78200E+11
         0.78200E+11
         0.78200E+11
         0.78200E+11
         0.78200E+11
         0.78200E+11
         0.78200E+11
         0.78200E+11
         0.78200E+11
         0.78200E+11
         0.78200E+11
         0.78200E+11
         0.78200E+11
         0.78200E+11
         0.78200E+11
         0.78200E+11
         0.78200E+11
         0.78200E+11
         0.78200E+11
         0.78200E+11
         0.78200E+11
         0.78200E+11
         0.78200E+11
         0.78200E+11
         0.78200E+11
         0.78200E+11
         0.78200E+11
         0.78200E+11
         0.78200E+11
         0.78200E+11
         0.78200E+11
         0.78200E+11
         0.78200E+11
         0.78200E+11
         0.78200E+11
         0.78200E+11
         0.78200E+11
         0.78200E+11
         0.78200E+11
         0.78200E+11
         0.78200E+11
         0.78200E+11
         0.78200E+11
         0.78200E+11
         0.78200E+11
         0.78200E+11
         0.78200E+11
         0.78200E+11
         0.78200E+11
         0.78200E+11
         0.78200E+11
         0.78200E+11
         0.78200E+11
         0.78200E+11
         0.78200E+11
         0.78200E+11
         0.78200E+11
         0.78200E+11
         0.78200E+11
         0.78200E+11
         0.78200E+11
         0.78200E+11
         0.78200E+11
         0.78200E+11
         0.78200E+11
         0.78200E+11
         0.78200E+11
         0.78200E+11
         0.78200E+11
         0.78200E+11
         0.78200E+11
         0.78200E+11
         0.78200E+11
         0.78200E+11
         0.78200E+11
         0.78200E+11
         0.78200E+11
         0.78200E+11
         0.78200E+11
         0.78200E+11
         0.78200E+11
         0.78200E+11
         0.78200E+11
         0.78200E+11
         0.78200E+11
         0.78200E+11
         0.78200E+11
         0.78200E+11
         0.78200E+11
         0.78200E+11
         0.78200E+11
         0.78200E+11
         0.78200E+11
         0.78200E+11
         0.78200E+11
         0.78200E+11
         0.78200E+11
         0.78200E+11
         0.78200E+11
         0.78200E+11
         0.78200E+11
         0.78200E+11
         0.78200E+11
         0.78200E+11
         0.78200E+11
         0.78200E+11
         0.78200E+11
         0.78200E+11
         0.78200E+11
         0.78200E+11
         0.78200E+11
         0.78200E+11
         0.78200E+11
         0.78200E+11
         0.78200E+11
         0.78200E+11
         0.78200E+11
         0.78200E+11
         0.78200E+11
         0.78200E+11
         0.78200E+11
         0.78200E+11
         0.78200E+11
         0.78200E+11
         0.78200E+11
         0.78200E+11
         0.78200E+11
         0.78200E+11
         0.78200E+11
         0.78200E+11
         0.78200E+11
         0.78200E+11
         0.78200E+11
         0.78200E+11
         0.78200E+11
         0.78200E+11
         0.78200E+11
         0.78200E+11
         0.78200E+11
         0.78200E+11
         0.78200E+11
         0.78200E+11
         0.78200E+11
         0.78200E+11
         0.78200E+11
         0.78200E+11
         0.78200E+11
         0.78200E+11
         0.78200E+11
         0.78200E+11
         0.78200E+11
         0.78200E+11
         0.78200E+11
         0.78200E+11
         0.78200E+11
         0.78200E+11
         0.78200E+11
         0.78200E+11
         0.78200E+11
         0.78200E+11
         0.78200E+11
         0.78200E+11
         0.78200E+11
         0.78200E+11
         0.78200E+11
         0.78200E+11
         0.78200E+11
         0.78200E+11
         0.78200E+11
         0.78200E+11
         0.78200E+11
         0.78200E+11
         0.78200E+11
         0.78200E+11
         0.78200E+11
         0.78200E+11
         0.78200E+11
         0.78200E+11
         0.78200E+11
         0.78200E+11
         0.78200E+11
         0.78200E+11
         0.78200E+11
         0.78200E+11
         0.78200E+11
         0.78200E+11
         0.78200E+11
         0.78200E+11
         0.78200E+11
         0.78200E+11
         0.78200E+11
         0.78200E+11
         0.78200E+11
         0.78200E+11
         0.78200E+11
         0.78200E+11
         0.78200E+11
         0.78200E+11
         0.78200E+11
         0.78200E+11
         0.78200E+11
         0.78200E+11
         0.78200E+11
         0.78200E+11
         0.78200E+11
         0.78200E+11
         0.78200E+11
         0.78200E+11
         0.78200E+11
         0.78200E+11
         0.78200E+11
         0.78200E+11
         0.78200E+11
         0.78200E+11
         0.78200E+11
         0.78200E+11
         0.78200E+11
         0.78200E+11
         0.78200E+11
         0.78200E+11
         0.78200E+11
         0.78200E+11
         0.78200E+11
         0.78200E+11
         0.78200E+11
         0.78200E+11
         0.78200E+11
         0.78200E+11
         0.78200E+11
         0.78200E+11
         0.78200E+11
         0.78200E+11
         0.78200E+11
         0.78200E+11
         0.78200E+11
         0.78200E+11
         0.78200E+11
         0.78200E+11
         0.78200E+11
         0.78200E+11
         0.78200E+11
         0.78200E+11
         0.78200E+11
         0.78200E+11
         0.78200E+11
         0.78200E+11
         0.78200E+11
         0.78200E+11
         0.78200E+11
         0.78200E+11
         0.78200E+11
         0.78200E+11
         0.78200E+11
         0.78200E+11
         0.78200E+11
         0.78200E+11
         0.78200E+11
         0.78200E+11
         0.78200E+11
         0.78200E+11
         0.78200E+11
         0.78200E+11
         0.78200E+11
         0.78200E+11
         0.78200E+11
         0.78200E+11
         0.78200E+11
         0.78200E+11
         0.78200E+11
         0.78200E+11
         0.78200E+11
         0.78200E+11
         0.78200E+11
         0.78200E+11
         0.78200E+11
         0.78200E+11
         0.78200E+11
         0.78200E+11
         0.78200E+11
         0.78200E+11
         0.78200E+11
         0.78200E+11
         0.78200E+11
         0.78200E+11
         0.78200E+11
         0.78200E+11
         0.78200E+11
         0.78200E+11
         0.78200E+11
         0.78200E+11
         0.78200E+11
         0.78200E+11
         0.78200E+11
         0.78200E+11
         0.78200E+11
         0.78200E+11
         0.78200E+11
         0.78200E+11
         0.78200E+11
         0.78200E+11
         0.78200E+11
         0.78200E+11
         0.78200E+11
         0.78200E+11
         0.78200E+11
         0.78200E+11
         0.78200E+11
         0.78200E+11
         0.78200E+11
         0.78200E+11
         0.78200E+11
         0.78200E+11
         0.78200E+11
         0.78200E+11
         0.78200E+11
         0.78200E+11
         0.78200E+11
         0.78200E+11
         0.78200E+11
         0.78200E+11
         0.78200E+11
         0.78200E+11
         0.78200E+11
         0.78200E+11
         0.78200E+11
         0.78200E+11
         0.78200E+11
         0.78200E+11
         0.78200E+11
         0.78200E+11
         0.78200E+11
         0.78200E+11
         0.78200E+11
         0.78200E+11
         0.78200E+11
         0.78200E+11
         0.78200E+11
         0.78200E+11
         0.78200E+11
         0.78200E+11
         0.78200E+11
         0.78200E+11
         0.78200E+11
         0.78200E+11
         0.78200E+11
         0.78200E+11
         0.78200E+11
         0.78200E+11
         0.78200E+11
         0.78200E+11
         0.78200E+11
         0.78200E+11
         0.78200E+11
         0.78200E+11
         0.78200E+11
         0.78200E+11
         0.78200E+11
         0.78200E+11
         0.78200E+11
         0.78200E+11
         0.78200E+11
         0.78200E+11
         0.78200E+11
         0.78200E+11
         0.78200E+11
         0.78200E+11
         0.78200E+11
         0.78200E+11
         0.78200E+11
         0.78200E+11
         0.78200E+11
         0.78200E+11
         0.78200E+11
         0.78200E+11
         0.78200E+11
         0.78200E+11
         0.78200E+11
         0.78200E+11
         0.78200E+11
         0.78200E+11
         0.78200E+11
         0.78200E+11
         0.78200E+11
         0.78200E+11
         0.78200E+11
         0.78200E+11
         0.78200E+11
         0.78200E+11
         0.78200E+11
         0.78200E+11
         0.78200E+11
         0.78200E+11
         0.78200E+11
         0.78200E+11
         0.78200E+11
         0.78200E+11
         0.78200E+11
         0.78200E+11
         0.78200E+11
         0.78200E+11
         0.78200E+11
         0.78200E+11
         0.78200E+11
         0.78200E+11
         0.78200E+11
         0.78200E+11
         0.78200E+11
         0.78200E+11
         0.78200E+11
         0.78200E+11
         0.78200E+11
         0.78200E+11
         0.78200E+11
         0.78200E+11
         0.78200E+11
         0.78200E+11
         0.78200E+11
         0.78200E+11
         0.78200E+11
         0.78200E+11
         0.78200E+11
         0.78200E+11
         0.78200E+11
         0.78200E+11
         0.78200E+11
         0.78200E+11
         0.78200E+11
         0.78200E+11
         0.78200E+11
         0.78200E+11
         0.78200E+11
         0.78200E+11
         0.78200E+11
         0.78200E+11
         0.78200E+11
         0.78200E+11
         0.78200E+11
         0.78200E+11
         0.78200E+11
         0.78200E+11
         0.78200E+11
         0.78200E+11
         0.78200E+11
         0.78200E+11
         0.78200E+11
         0.78200E+11
         0.78200E+11
         0.78200E+11
         0.78200E+11
         0.78200E+11
         0.78200E+11
         0.78200E+11
         0.78200E+11
         0.78200E+11
         0.78200E+11
         0.78200E+11
         0.78200E+11
         0.78200E+11
         0.78200E+11
         0.78200E+11
         0.78200E+11
         0.78200E+11
         0.78200E+11
         0.78200E+11
         0.78200E+11
         0.78200E+11
         0.78200E+11
         0.78200E+11
         0.78200E+11
         0.78200E+11
         0.78200E+11
         0.78200E+11
         0.78200E+11
         0.78200E+11
         0.78200E+11
         0.78200E+11
         0.78200E+11
         0.78200E+11
         0.78200E+11
         0.78200E+11
         0.78200E+11
         0.78200E+11
         0.78200E+11
         0.78200E+11
         0.78200E+11
         0.78200E+11
         0.78200E+11
         0.78200E+11
         0.78200E+11
         0.78200E+11
         0.78200E+11
         0.78200E+11
         0.78200E+11
         0.78200E+11
         0.78200E+11
         0.78200E+11
         0.78200E+11
         0.78200E+11
         0.78200E+11
         0.78200E+11
         0.78200E+11
         0.78200E+11
         0.78200E+11
         0.78200E+11
         0.78200E+11
         0.78200E+11
         0.78200E+11
         0.78200E+11
         0.78200E+11
         0.78200E+11
         0.78200E+11
         0.78200E+11
         0.78200E+11
         0.78200E+11
         0.78200E+11
         0.78200E+11
         0.78200E+11
         0.78200E+11
         0.78200E+11
         0.78200E+11
         0.78200E+11
         0.78200E+11
         0.78200E+11
         0.78200E+11
         0.78200E+11
         0.78200E+11
         0.78200E+11
         0.78200E+11
         0.78200E+11
         0.78200E+11
         0.78200E+11
         0.78200E+11
         0.78200E+11
         0.78200E+11
         0.78200E+11
         0.78200E+11
         0.78200E+11
         0.78200E+11
         0.78200E+11
         0.78200E+11
         0.78200E+11
         0.78200E+11
         0.78200E+11
         0.78200E+11
         0.78200E+11
         0.78200E+11
         0.78200E+11
         0.78200E+11
         0.78200E+11
         0.78200E+11
         0.78200E+11
         0.78200E+11
         0.78200E+11
         0.78200E+11
         0.78200E+11
         0.78200E+11
         0.78200E+11
         0.78200E+11
         0.78200E+11
         0.78200E+11
         0.78200E+11
         0.78200E+11
         0.78200E+11
         0.78200E+11
         0.78200E+11
         0.78200E+11
         0.78200E+11
         0.78200E+11
         0.78200E+11
         0.78200E+11
         0.78200E+11
         0.78200E+11
         0.78200E+11
         0.78200E+11
         0.78200E+11
         0.78200E+11
         0.78200E+11
         0.78200E+11
         0.78200E+11
         0.78200E+11
         0.78200E+11
         0.78200E+11
         0.78200E+11
         0.78200E+11
         0.78200E+11
         0.78200E+11
         0.78200E+11
         0.78200E+11
         0.78200E+11
         0.78200E+11
         0.78200E+11
         0.78200E+11
         0.78200E+11
         0.78200E+11
         0.78200E+11
         0.78200E+11
         0.78200E+11
         0.78200E+11
         0.78200E+11
         0.78200E+11
         0.78200E+11
         0.78200E+11
         0.78200E+11
         0.78200E+11
         0.78200E+11
         0.78200E+11
         0.78200E+11
         0.78200E+11
         0.78200E+11
         0.78200E+11
         0.78200E+11
         0.78200E+11
         0.78200E+11
         0.78200E+11
         0.78200E+11
         0.78200E+11
         0.78200E+11
         0.78200E+11
         0.78200E+11
         0.78200E+11
         0.78200E+11
         0.78200E+11
         0.78200E+11
         0.78200E+11
         0.78200E+11
         0.78200E+11
         0.78200E+11
         0.78200E+11
         0.78200E+11
         0.78200E+11
         0.78200E+11
         0.78200E+11
         0.78200E+11
         0.78200E+11
         0.78200E+11
         0.78200E+11
         0.78200E+11
         0.78200E+11
         0.78200E+11
         0.78200E+11
         0.78200E+11
         0.78200E+11
         0.78200E+11
         0.78200E+11
         0.78200E+11
         0.78200E+11
         0.78200E+11
         0.78200E+11
         0.78200E+11
         0.78200E+11
         0.78200E+11
         0.78200E+11
         0.78200E+11
         0.78200E+11
         0.78200E+11
         0.78200E+11
         0.78200E+11
         0.78200E+11
         0.78200E+11
         0.78200E+11
         0.78200E+11
         0.78200E+11
         0.78200E+11
         0.78200E+11
         0.78200E+11
         0.78200E+11
         0.78200E+11
         0.78200E+11
         0.78200E+11
         0.78200E+11
         0.78200E+11
         0.78200E+11
         0.78200E+11
         0.78200E+11
         0.78200E+11
         0.78200E+11
         0.78200E+11
         0.78200E+11
         0.78200E+11
         0.78200E+11
         0.78200E+11
         0.78200E+11
         0.78200E+11
         0.78200E+11
         0.78200E+11
         0.78200E+11
         0.78200E+11
         0.78200E+11
         0.78200E+11
         0.78200E+11
         0.78200E+11
         0.78200E+11
         0.78200E+11
         0.78200E+11
         0.78200E+11
         0.78200E+11
         0.78200E+11
         0.78200E+11
         0.78200E+11
         0.78200E+11
         0.78200E+11
         0.78200E+11
         0.78200E+11
         0.78200E+11
         0.78200E+11
         0.78200E+11
         0.78200E+11
         0.78200E+11
         0.78200E+11
         0.78200E+11
         0.78200E+11
         0.78200E+11
         0.78200E+11
         0.78200E+11
         0.78200E+11
         0.78200E+11
         0.78200E+11
         0.78200E+11
         0.78200E+11
         0.78200E+11
         0.78200E+11
         0.78200E+11
         0.78200E+11
         0.78200E+11
         0.78200E+11
         0.78200E+11
         0.78200E+11
         0.78200E+11
         0.78200E+11
         0.78200E+11
         0.78200E+11
         0.78200E+11
         0.78200E+11
         0.78200E+11
         0.78200E+11
         0.78200E+11
         0.78200E+11
         0.78200E+11
         0.78200E+11
         0.78200E+11
         0.78200E+11
         0.78200E+11
         0.78200E+11
         0.78200E+11
         0.78200E+11
         0.78200E+11
         0.78200E+11
         0.78200E+11
         0.78200E+11
         0.78200E+11
         0.78200E+11
         0.78200E+11
         0.78200E+11
         0.78200E+11
         0.78200E+11
         0.78200E+11
         0.78200E+11
         0.78200E+11
         0.78200E+11
         0.78200E+11
         0.78200E+11
         0.78200E+11
         0.78200E+11
         0.78200E+11
         0.78200E+11
         0.78200E+11
         0.78200E+11
         0.78200E+11
         0.78200E+11
         0.78200E+11
         0.78200E+11
         0.78200E+11
         0.78200E+11
         0.78200E+11
         0.78200E+11
         0.78200E+11
         0.78200E+11
         0.78200E+11
         0.78200E+11
         0.78200E+11
         0.78200E+11
         0.78200E+11
         0.78200E+11
         0.78200E+11
         0.78200E+11
         0.78200E+11
         0.78200E+11
         0.78200E+11
         0.78200E+11
         0.78200E+11
         0.78200E+11
         0.78200E+11
         0.78200E+11
         0.78200E+11
         0.78200E+11
         0.78200E+11
         0.78200E+11
         0.78200E+11
         0.78200E+11
         0.78200E+11
         0.78200E+11
         0.78200E+11
         0.78200E+11
         0.78200E+11
         0.78200E+11
         0.78200E+11
         0.78200E+11
         0.78200E+11
         0.78200E+11
         0.78200E+11
         0.78200E+11
         0.78200E+11
         0.78200E+11
         0.78200E+11
         0.78200E+11
         0.78200E+11
         0.78200E+11
         0.78200E+11
         0.78200E+11
         0.78200E+11
         0.78200E+11
         0.78200E+11
         0.78200E+11
         0.78200E+11
         0.78200E+11
         0.78200E+11
         0.78200E+11
         0.78200E+11
         0.78200E+11
         0.78200E+11
         0.78200E+11
         0.78200E+11
         0.78200E+11
         0.78200E+11
         0.78200E+11
         0.78200E+11
         0.78200E+11
         0.78200E+11
         0.78200E+11
         0.78200E+11
         0.78200E+11
         0.78200E+11
         0.78200E+11
         0.78200E+11
         0.78200E+11
         0.78200E+11
         0.78200E+11
         0.78200E+11
         0.78200E+11
         0.78200E+11
         0.78200E+11
         0.78200E+11
         0.78200E+11
         0.78200E+11
         0.78200E+11
         0.78200E+11
         0.78200E+11
         0.78200E+11
         0.78200E+11
         0.78200E+11
         0.78200E+11
         0.78200E+11
         0.78200E+11
         0.78200E+11
         0.78200E+11
         0.78200E+11
         0.78200E+11
         0.78200E+11
         0.78200E+11
         0.78200E+11
         0.78200E+11
         0.78200E+11
         0.78200E+11
         0.78200E+11
         0.78200E+11
         0.78200E+11
         0.78200E+11
         0.78200E+11
         0.78200E+11
         0.78200E+11
         0.78200E+11
         0.78200E+11
         0.78200E+11
         0.78200E+11
         0.78200E+11
         0.78200E+11
         0.78200E+11
         0.78200E+11
         0.78200E+11
         0.78200E+11
         0.78200E+11
         0.78200E+11
         0.78200E+11
         0.78200E+11
         0.78200E+11
         0.78200E+11
         0.78200E+11
         0.78200E+11
         0.78200E+11
         0.78200E+11
         0.78200E+11
         0.78200E+11
         0.78200E+11
         0.78200E+11
         0.78200E+11
         0.78200E+11
         0.78200E+11
         0.78200E+11
         0.78200E+11
         0.78200E+11
         0.78200E+11
         0.78200E+11
         0.78200E+11
         0.78200E+11
         0.78200E+11
         0.78200E+11
         0.78200E+11
         0.78200E+11
         0.78200E+11
         0.78200E+11
         0.78200E+11
         0.78200E+11
         0.78200E+11
         0.78200E+11
         0.78200E+11
         0.78200E+11
         0.78200E+11
         0.78200E+11
         0.78200E+11
         0.78200E+11
         0.78200E+11
         0.78200E+11
         0.78200E+11
         0.78200E+11
         0.78200E+11
         0.78200E+11
         0.78200E+11
         0.78200E+11
         0.78200E+11
         0.78200E+11
         0.78200E+11
         0.78200E+11
         0.78200E+11
         0.78200E+11
         0.78200E+11
         0.78200E+11
         0.78200E+11
         0.78200E+11
         0.78200E+11
         0.78200E+11
         0.78200E+11
         0.78200E+11
         0.78200E+11
         0.78200E+11
         0.78200E+11
         0.78200E+11
         0.78200E+11
         0.78200E+11
         0.78200E+11
         0.78200E+11
         0.78200E+11
         0.78200E+11
         0.78200E+11
         0.78200E+11
         0.78200E+11
         0.78200E+11
         0.78200E+11
         0.78200E+11
         0.78200E+11
         0.78200E+11
         0.78200E+11
         0.78200E+11
         0.78200E+11
         0.78200E+11
         0.78200E+11
         0.78200E+11
         0.78200E+11
         0.78200E+11
         0.78200E+11
         0.78200E+11
         0.78200E+11
         0.78200E+11
         0.78200E+11
         0.78200E+11
         0.78200E+11
         0.78200E+11
         0.78200E+11
         0.78200E+11
         0.78200E+11
         0.78200E+11
         0.78200E+11
         0.78200E+11
         0.78200E+11
         0.78200E+11
         0.78200E+11
         0.78200E+11
         0.78200E+11
         0.78200E+11
         0.78200E+11
         0.78200E+11
         0.78200E+11
         0.78200E+11
         0.78200E+11
         0.78200E+11
         0.78200E+11
         0.78200E+11
         0.78200E+11
         0.78200E+11
         0.78200E+11
         0.78200E+11
         0.78200E+11
         0.78200E+11
         0.78200E+11
         0.78200E+11
         0.78200E+11
         0.78200E+11
         0.78200E+11
         0.78200E+11
         0.78200E+11
         0.78200E+11
         0.78200E+11
         0.78200E+11
         0.78200E+11
         0.78200E+11
         0.78200E+11
         0.78200E+11
         0.78200E+11
         0.78200E+11
         0.78200E+11
         0.78200E+11
         0.78200E+11
         0.78200E+11
         0.78200E+11
         0.78200E+11
         0.78200E+11
         0.78200E+11
         0.78200E+11
         0.78200E+11
         0.78200E+11
         0.78200E+11
         0.78200E+11
         0.78200E+11
         0.78200E+11
         0.78200E+11
         0.78200E+11
         0.78200E+11
         0.78200E+11
         0.78200E+11
         0.78200E+11
         0.78200E+11
         0.78200E+11
         0.78200E+11
         0.78200E+11
         0.78200E+11
         0.78200E+11
         0.78200E+11
         0.78200E+11
         0.78200E+11
         0.78200E+11
         0.78200E+11
         0.78200E+11
         0.78200E+11
         0.78200E+11
         0.78200E+11
         0.78200E+11
         0.78200E+11
         0.78200E+11
         0.78200E+11
         0.78200E+11
         0.78200E+11
         0.78200E+11
         0.78200E+11
         0.78200E+11
         0.78200E+11
         0.78200E+11
         0.78200E+11
         0.78200E+11
         0.78200E+11
         0.78200E+11
         0.78200E+11
         0.78200E+11
         0.78200E+11
         0.78200E+11
         0.78200E+11
         0.78200E+11
         0.78200E+11
         0.78200E+11
         0.78200E+11
         0.78200E+11
         0.78200E+11
         0.78200E+11
         0.78200E+11
         0.78200E+11
         0.78200E+11
         0.78200E+11
         0.78200E+11
         0.78200E+11
         0.78200E+11
         0.78200E+11
         0.78200E+11
         0.78200E+11
         0.78200E+11
         0.78200E+11
         0.78200E+11
         0.78200E+11
         0.78200E+11
         0.78200E+11
         0.78200E+11
         0.78200E+11
         0.78200E+11
         0.78200E+11
         0.78200E+11
         0.78200E+11
         0.78200E+11
         0.78200E+11
         0.78200E+11
         0.78200E+11
         0.78200E+11
         0.78200E+11
         0.78200E+11
         0.78200E+11
         0.78200E+11
         0.78200E+11
         0.78200E+11
         0.78200E+11
         0.78200E+11
         0.78200E+11
         0.78200E+11
         0.78200E+11
         0.78200E+11
         0.78200E+11
         0.78200E+11
         0.78200E+11
         0.78200E+11
         0.78200E+11
         0.78200E+11
         0.78200E+11
         0.78200E+11
         0.78200E+11
         0.78200E+11
         0.78200E+11
         0.78200E+11
         0.78200E+11
         0.78200E+11
         0.78200E+11
         0.78200E+11
         0.78200E+11
         0.78200E+11
         0.78200E+11
         0.78200E+11
         0.78200E+11
         0.78200E+11
         0.78200E+11
         0.78200E+11
         0.78200E+11
         0.78200E+11
         0.78200E+11
         0.78200E+11
         0.78200E+11
         0.78200E+11
         0.78200E+11
         0.78200E+11
         0.78200E+11
         0.78200E+11
         0.78200E+11
         0.78200E+11
         0.78200E+11
         0.78200E+11
         0.78200E+11
         0.78200E+11
         0.78200E+11
         0.78200E+11
         0.78200E+11
         0.78200E+11
         0.78200E+11
         0.78200E+11
         0.78200E+11
         0.78200E+11
         0.78200E+11
         0.78200E+11
         0.78200E+11
         0.78200E+11
         0.78200E+11
         0.78200E+11
         0.78200E+11
         0.78200E+11
         0.78200E+11
         0.78200E+11
         0.78200E+11
         0.78200E+11
         0.78200E+11
         0.78200E+11
         0.78200E+11
         0.78200E+11
         0.78200E+11
         0.78200E+11
         0.78200E+11
         0.78200E+11
         0.78200E+11
         0.78200E+11
         0.78200E+11
         0.78200E+11
         0.78200E+11
         0.78200E+11
         0.78200E+11
         0.78200E+11
         0.78200E+11
         0.78200E+11
         0.78200E+11
         0.78200E+11
         0.78200E+11
         0.78200E+11
         0.78200E+11
         0.78200E+11
         0.78200E+11
         0.78200E+11
         0.78200E+11
         0.78200E+11
         0.78200E+11
         0.78200E+11
         0.78200E+11
         0.78200E+11
         0.78200E+11
         0.78200E+11
         0.78200E+11
         0.78200E+11
         0.78200E+11
         0.78200E+11
         0.78200E+11
         0.78200E+11
         0.78200E+11
         0.78200E+11
         0.78200E+11
         0.78200E+11
         0.78200E+11
         0.78200E+11
         0.78200E+11
         0.78200E+11
         0.78200E+11
         0.78200E+11
         0.78200E+11
         0.78200E+11
         0.78200E+11
         0.78200E+11
         0.78200E+11
         0.78200E+11
         0.78200E+11
         0.78200E+11
         0.78200E+11
         0.78200E+11
         0.78200E+11
         0.78200E+11
         0.78200E+11
         0.78200E+11
         0.78200E+11
         0.78200E+11
         0.78200E+11
         0.78200E+11
         0.78200E+11
         0.78200E+11
         0.78200E+11
         0.78200E+11
         0.78200E+11
         0.78200E+11
         0.78200E+11
         0.78200E+11
         0.78200E+11
         0.78200E+11
         0.78200E+11
         0.78200E+11
         0.78200E+11
         0.78200E+11
         0.78200E+11
         0.78200E+11
         0.78200E+11
         0.78200E+11
         0.78200E+11
         0.78200E+11
         0.78200E+11
         0.78200E+11
         0.78200E+11
         0.78200E+11
         0.78200E+11
         0.78200E+11
         0.78200E+11
         0.78200E+11
         0.78200E+11
         0.78200E+11
         0.78200E+11
         0.78200E+11
         0.78200E+11
         0.78200E+11
         0.78200E+11
         0.78200E+11
         0.78200E+11
         0.78200E+11
         0.78200E+11
         0.78200E+11
         0.78200E+11
         0.78200E+11
         0.78200E+11
         0.78200E+11
         0.78200E+11
         0.78200E+11
         0.78200E+11
         0.78200E+11
         0.78200E+11
         0.78200E+11
         0.78200E+11
         0.78200E+11
         0.78200E+11
         0.78200E+11
         0.78200E+11
         0.78200E+11
         0.78200E+11
         0.78200E+11
         0.78200E+11
         0.78200E+11
         0.78200E+11
         0.78200E+11
         0.78200E+11
         0.78200E+11
         0.78200E+11
         0.78200E+11
         0.78200E+11
         0.78200E+11
         0.78200E+11
         0.78200E+11
         0.78200E+11
         0.78200E+11
         0.78200E+11
         0.78200E+11
         0.78200E+11
         0.78200E+11
         0.78200E+11
         0.78200E+11
         0.78200E+11
         0.78200E+11
         0.78200E+11
         0.78200E+11
         0.78200E+11
         0.78200E+11
         0.78200E+11
         0.78200E+11
         0.78200E+11
         0.78200E+11
         0.78200E+11
         0.78200E+11
         0.78200E+11
         0.78200E+11
         0.78200E+11
         0.78200E+11
         0.78200E+11
         0.78200E+11
         0.78200E+11
         0.78200E+11
         0.78200E+11
         0.78200E+11
         0.78200E+11
         0.78200E+11
         0.78200E+11
         0.78200E+11
         0.78200E+11
         0.78200E+11
         0.78200E+11
         0.78200E+11
         0.78200E+11
         0.78200E+11
         0.78200E+11
         0.78200E+11
         0.78200E+11
         0.78200E+11
         0.78200E+11
         0.78200E+11
         0.78200E+11
         0.78200E+11
         0.78200E+11
         0.78200E+11
         0.78200E+11
         0.78200E+11
         0.78200E+11
         0.78200E+11
         0.78200E+11
         0.78200E+11
         0.78200E+11
         0.78200E+11
         0.78200E+11
         0.78200E+11
         0.78200E+11
         0.78200E+11
         0.78200E+11
         0.78200E+11
         0.78200E+11
         0.78200E+11
         0.78200E+11
         0.78200E+11
         0.78200E+11
         0.78200E+11
         0.78200E+11
         0.78200E+11
         0.78200E+11
         0.78200E+11
         0.78200E+11
         0.78200E+11
         0.78200E+11
         0.78200E+11
         0.78200E+11
         0.78200E+11
         0.78200E+11
         0.78200E+11
         0.78200E+11
         0.78200E+11
         0.78200E+11
         0.78200E+11
         0.78200E+11
         0.78200E+11
         0.78200E+11
         0.78200E+11
         0.78200E+11
         0.78200E+11
         0.78200E+11
         0.78200E+11
         0.78200E+11
         0.78200E+11
         0.78200E+11
         0.78200E+11
         0.78200E+11
         0.78200E+11
         0.78200E+11
         0.78200E+11
         0.78200E+11
         0.78200E+11
         0.78200E+11
         0.78200E+11
         0.78200E+11
         0.78200E+11
         0.78200E+11
         0.78200E+11
         0.78200E+11
         0.78200E+11
         0.78200E+11
         0.78200E+11
         0.78200E+11
         0.78200E+11
         0.78200E+11
         0.78200E+11
         0.78200E+11
         0.78200E+11
         0.78200E+11
         0.78200E+11
         0.78200E+11
         0.78200E+11
         0.78200E+11
         0.78200E+11
         0.78200E+11
         0.78200E+11
         0.78200E+11
         0.78200E+11
         0.78200E+11
         0.78200E+11
         0.78200E+11
         0.78200E+11
         0.78200E+11
         0.78200E+11
         0.78200E+11
         0.78200E+11
         0.78200E+11
         0.78200E+11
         0.78200E+11
         0.78200E+11
         0.78200E+11
         0.78200E+11
         0.78200E+11
         0.78200E+11
         0.78200E+11
         0.78200E+11
         0.78200E+11
         0.78200E+11
         0.78200E+11
         0.78200E+11
         0.78200E+11
         0.78200E+11
         0.78200E+11
         0.78200E+11
         0.78200E+11
         0.78200E+11
         0.78200E+11
         0.78200E+11
         0.78200E+11
         0.78200E+11
         0.78200E+11
         0.78200E+11
         0.78200E+11
         0.78200E+11
         0.78200E+11
         0.78200E+11
         0.78200E+11
         0.78200E+11
         0.78200E+11
         0.78200E+11
         0.78200E+11
         0.78200E+11
         0.78200E+11
         0.78200E+11
         0.78200E+11
         0.78200E+11
         0.78200E+11
         0.78200E+11
         0.78200E+11
         0.78200E+11
         0.78200E+11
         0.78200E+11
         0.78200E+11
         0.78200E+11
         0.78200E+11
         0.78200E+11
         0.78200E+11
         0.78200E+11
         0.78200E+11
         0.78200E+11
         0.78200E+11
         0.78200E+11
         0.78200E+11
         0.78200E+11
         0.78200E+11
         0.78200E+11
         0.78200E+11
         0.78200E+11
         0.78200E+11
         0.78200E+11
         0.78200E+11
         0.78200E+11
         0.78200E+11
         0.78200E+11
         0.78200E+11
         0.78200E+11
         0.78200E+11
         0.78200E+11
         0.78200E+11
         0.78200E+11
         0.78200E+11
         0.78200E+11
         0.78200E+11
         0.78200E+11
         0.78200E+11
         0.78200E+11
         0.78200E+11
         0.78200E+11
         0.78200E+11
         0.78200E+11
         0.78200E+11
         0.78200E+11
         0.78200E+11
         0.78200E+11
         0.78200E+11
         0.78200E+11
         0.78200E+11
         0.78200E+11
         0.78200E+11
         0.78200E+11
         0.78200E+11
         0.78200E+11
         0.78200E+11
  
SCALARS                        density  double 1
LOOKUP_TABLE default
         0.27000E+04
         0.27000E+04
         0.27000E+04
         0.27000E+04
         0.27000E+04
         0.27000E+04
         0.27000E+04
         0.27000E+04
         0.27000E+04
         0.27000E+04
         0.27000E+04
         0.27000E+04
         0.27000E+04
         0.27000E+04
         0.27000E+04
         0.27000E+04
         0.27000E+04
         0.27000E+04
         0.27000E+04
         0.27000E+04
         0.27000E+04
         0.27000E+04
         0.27000E+04
         0.27000E+04
         0.27000E+04
         0.27000E+04
         0.27000E+04
         0.27000E+04
         0.27000E+04
         0.27000E+04
         0.27000E+04
         0.27000E+04
         0.27000E+04
         0.27000E+04
         0.27000E+04
         0.27000E+04
         0.27000E+04
         0.27000E+04
         0.27000E+04
         0.27000E+04
         0.27000E+04
         0.27000E+04
         0.27000E+04
         0.27000E+04
         0.27000E+04
         0.27000E+04
         0.27000E+04
         0.27000E+04
         0.27000E+04
         0.27000E+04
         0.27000E+04
         0.27000E+04
         0.27000E+04
         0.27000E+04
         0.27000E+04
         0.27000E+04
         0.27000E+04
         0.27000E+04
         0.27000E+04
         0.27000E+04
         0.27000E+04
         0.27000E+04
         0.27000E+04
         0.27000E+04
         0.27000E+04
         0.27000E+04
         0.27000E+04
         0.27000E+04
         0.27000E+04
         0.27000E+04
         0.27000E+04
         0.27000E+04
         0.27000E+04
         0.27000E+04
         0.27000E+04
         0.27000E+04
         0.27000E+04
         0.27000E+04
         0.27000E+04
         0.27000E+04
         0.27000E+04
         0.27000E+04
         0.27000E+04
         0.27000E+04
         0.27000E+04
         0.27000E+04
         0.27000E+04
         0.27000E+04
         0.27000E+04
         0.27000E+04
         0.27000E+04
         0.27000E+04
         0.27000E+04
         0.27000E+04
         0.27000E+04
         0.27000E+04
         0.27000E+04
         0.27000E+04
         0.27000E+04
         0.27000E+04
         0.27000E+04
         0.27000E+04
         0.27000E+04
         0.27000E+04
         0.27000E+04
         0.27000E+04
         0.27000E+04
         0.27000E+04
         0.27000E+04
         0.27000E+04
         0.27000E+04
         0.27000E+04
         0.27000E+04
         0.27000E+04
         0.27000E+04
         0.27000E+04
         0.27000E+04
         0.27000E+04
         0.27000E+04
         0.27000E+04
         0.27000E+04
         0.27000E+04
         0.27000E+04
         0.27000E+04
         0.27000E+04
         0.27000E+04
         0.27000E+04
         0.27000E+04
         0.27000E+04
         0.27000E+04
         0.27000E+04
         0.27000E+04
         0.27000E+04
         0.27000E+04
         0.27000E+04
         0.27000E+04
         0.27000E+04
         0.27000E+04
         0.27000E+04
         0.27000E+04
         0.27000E+04
         0.27000E+04
         0.27000E+04
         0.27000E+04
         0.27000E+04
         0.27000E+04
         0.27000E+04
         0.27000E+04
         0.27000E+04
         0.27000E+04
         0.27000E+04
         0.27000E+04
         0.27000E+04
         0.27000E+04
         0.27000E+04
         0.27000E+04
         0.27000E+04
         0.27000E+04
         0.27000E+04
         0.27000E+04
         0.27000E+04
         0.27000E+04
         0.27000E+04
         0.27000E+04
         0.27000E+04
         0.27000E+04
         0.27000E+04
         0.27000E+04
         0.27000E+04
         0.27000E+04
         0.27000E+04
         0.27000E+04
         0.27000E+04
         0.27000E+04
         0.27000E+04
         0.27000E+04
         0.27000E+04
         0.27000E+04
         0.27000E+04
         0.27000E+04
         0.27000E+04
         0.27000E+04
         0.27000E+04
         0.27000E+04
         0.27000E+04
         0.27000E+04
         0.27000E+04
         0.27000E+04
         0.27000E+04
         0.27000E+04
         0.27000E+04
         0.27000E+04
         0.27000E+04
         0.27000E+04
         0.27000E+04
         0.27000E+04
         0.27000E+04
         0.27000E+04
         0.27000E+04
         0.27000E+04
         0.27000E+04
         0.27000E+04
         0.27000E+04
         0.27000E+04
         0.27000E+04
         0.27000E+04
         0.27000E+04
         0.27000E+04
         0.27000E+04
         0.27000E+04
         0.27000E+04
         0.27000E+04
         0.27000E+04
         0.27000E+04
         0.27000E+04
         0.27000E+04
         0.27000E+04
         0.27000E+04
         0.27000E+04
         0.27000E+04
         0.27000E+04
         0.27000E+04
         0.27000E+04
         0.27000E+04
         0.27000E+04
         0.27000E+04
         0.27000E+04
         0.27000E+04
         0.27000E+04
         0.27000E+04
         0.27000E+04
         0.27000E+04
         0.27000E+04
         0.27000E+04
         0.27000E+04
         0.27000E+04
         0.27000E+04
         0.27000E+04
         0.27000E+04
         0.27000E+04
         0.27000E+04
         0.27000E+04
         0.27000E+04
         0.27000E+04
         0.27000E+04
         0.27000E+04
         0.27000E+04
         0.27000E+04
         0.27000E+04
         0.27000E+04
         0.27000E+04
         0.27000E+04
         0.27000E+04
         0.27000E+04
         0.27000E+04
         0.27000E+04
         0.27000E+04
         0.27000E+04
         0.27000E+04
         0.27000E+04
         0.27000E+04
         0.27000E+04
         0.27000E+04
         0.27000E+04
         0.27000E+04
         0.27000E+04
         0.27000E+04
         0.27000E+04
         0.27000E+04
         0.27000E+04
         0.27000E+04
         0.27000E+04
         0.27000E+04
         0.27000E+04
         0.27000E+04
         0.27000E+04
         0.27000E+04
         0.27000E+04
         0.27000E+04
         0.27000E+04
         0.27000E+04
         0.27000E+04
         0.27000E+04
         0.27000E+04
         0.27000E+04
         0.27000E+04
         0.27000E+04
         0.27000E+04
         0.27000E+04
         0.27000E+04
         0.27000E+04
         0.27000E+04
         0.27000E+04
         0.27000E+04
         0.27000E+04
         0.27000E+04
         0.27000E+04
         0.27000E+04
         0.27000E+04
         0.27000E+04
         0.27000E+04
         0.27000E+04
         0.27000E+04
         0.27000E+04
         0.27000E+04
         0.27000E+04
         0.27000E+04
         0.27000E+04
         0.27000E+04
         0.27000E+04
         0.27000E+04
         0.27000E+04
         0.27000E+04
         0.27000E+04
         0.27000E+04
         0.27000E+04
         0.27000E+04
         0.27000E+04
         0.27000E+04
         0.27000E+04
         0.27000E+04
         0.27000E+04
         0.27000E+04
         0.27000E+04
         0.27000E+04
         0.27000E+04
         0.27000E+04
         0.27000E+04
         0.27000E+04
         0.27000E+04
         0.27000E+04
         0.27000E+04
         0.27000E+04
         0.27000E+04
         0.27000E+04
         0.27000E+04
         0.27000E+04
         0.27000E+04
         0.27000E+04
         0.27000E+04
         0.27000E+04
         0.27000E+04
         0.27000E+04
         0.27000E+04
         0.27000E+04
         0.27000E+04
         0.27000E+04
         0.27000E+04
         0.27000E+04
         0.27000E+04
         0.27000E+04
         0.27000E+04
         0.27000E+04
         0.27000E+04
         0.27000E+04
         0.27000E+04
         0.27000E+04
         0.27000E+04
         0.27000E+04
         0.27000E+04
         0.27000E+04
         0.27000E+04
         0.27000E+04
         0.27000E+04
         0.27000E+04
         0.27000E+04
         0.27000E+04
         0.27000E+04
         0.27000E+04
         0.27000E+04
         0.27000E+04
         0.27000E+04
         0.27000E+04
         0.27000E+04
         0.27000E+04
         0.27000E+04
         0.27000E+04
         0.27000E+04
         0.27000E+04
         0.27000E+04
         0.27000E+04
         0.27000E+04
         0.27000E+04
         0.27000E+04
         0.27000E+04
         0.27000E+04
         0.27000E+04
         0.27000E+04
         0.27000E+04
         0.27000E+04
         0.27000E+04
         0.27000E+04
         0.27000E+04
         0.27000E+04
         0.27000E+04
         0.27000E+04
         0.27000E+04
         0.27000E+04
         0.27000E+04
         0.27000E+04
         0.27000E+04
         0.27000E+04
         0.27000E+04
         0.27000E+04
         0.27000E+04
         0.27000E+04
         0.27000E+04
         0.27000E+04
         0.27000E+04
         0.27000E+04
         0.27000E+04
         0.27000E+04
         0.27000E+04
         0.27000E+04
         0.27000E+04
         0.27000E+04
         0.27000E+04
         0.27000E+04
         0.27000E+04
         0.27000E+04
         0.27000E+04
         0.27000E+04
         0.27000E+04
         0.27000E+04
         0.27000E+04
         0.27000E+04
         0.27000E+04
         0.27000E+04
         0.27000E+04
         0.27000E+04
         0.27000E+04
         0.27000E+04
         0.27000E+04
         0.27000E+04
         0.27000E+04
         0.27000E+04
         0.27000E+04
         0.27000E+04
         0.27000E+04
         0.27000E+04
         0.27000E+04
         0.27000E+04
         0.27000E+04
         0.27000E+04
         0.27000E+04
         0.27000E+04
         0.27000E+04
         0.27000E+04
         0.27000E+04
         0.27000E+04
         0.27000E+04
         0.27000E+04
         0.27000E+04
         0.27000E+04
         0.27000E+04
         0.27000E+04
         0.27000E+04
         0.27000E+04
         0.27000E+04
         0.27000E+04
         0.27000E+04
         0.27000E+04
         0.27000E+04
         0.27000E+04
         0.27000E+04
         0.27000E+04
         0.27000E+04
         0.27000E+04
         0.27000E+04
         0.27000E+04
         0.27000E+04
         0.27000E+04
         0.27000E+04
         0.27000E+04
         0.27000E+04
         0.27000E+04
         0.27000E+04
         0.27000E+04
         0.27000E+04
         0.27000E+04
         0.27000E+04
         0.27000E+04
         0.27000E+04
         0.27000E+04
         0.27000E+04
         0.27000E+04
         0.27000E+04
         0.27000E+04
         0.27000E+04
         0.27000E+04
         0.27000E+04
         0.27000E+04
         0.27000E+04
         0.27000E+04
         0.27000E+04
         0.27000E+04
         0.27000E+04
         0.27000E+04
         0.27000E+04
         0.27000E+04
         0.27000E+04
         0.27000E+04
         0.27000E+04
         0.27000E+04
         0.27000E+04
         0.27000E+04
         0.27000E+04
         0.27000E+04
         0.27000E+04
         0.27000E+04
         0.27000E+04
         0.27000E+04
         0.27000E+04
         0.27000E+04
         0.27000E+04
         0.27000E+04
         0.27000E+04
         0.27000E+04
         0.27000E+04
         0.27000E+04
         0.27000E+04
         0.27000E+04
         0.27000E+04
         0.27000E+04
         0.27000E+04
         0.27000E+04
         0.27000E+04
         0.27000E+04
         0.27000E+04
         0.27000E+04
         0.27000E+04
         0.27000E+04
         0.27000E+04
         0.27000E+04
         0.27000E+04
         0.27000E+04
         0.27000E+04
         0.27000E+04
         0.27000E+04
         0.27000E+04
         0.27000E+04
         0.27000E+04
         0.27000E+04
         0.27000E+04
         0.27000E+04
         0.27000E+04
         0.27000E+04
         0.27000E+04
         0.27000E+04
         0.27000E+04
         0.27000E+04
         0.27000E+04
         0.27000E+04
         0.27000E+04
         0.27000E+04
         0.27000E+04
         0.27000E+04
         0.27000E+04
         0.27000E+04
         0.27000E+04
         0.27000E+04
         0.27000E+04
         0.27000E+04
         0.27000E+04
         0.27000E+04
         0.27000E+04
         0.27000E+04
         0.27000E+04
         0.27000E+04
         0.27000E+04
         0.27000E+04
         0.27000E+04
         0.27000E+04
         0.27000E+04
         0.27000E+04
         0.27000E+04
         0.27000E+04
         0.27000E+04
         0.27000E+04
         0.27000E+04
         0.27000E+04
         0.27000E+04
         0.27000E+04
         0.27000E+04
         0.27000E+04
         0.27000E+04
         0.27000E+04
         0.27000E+04
         0.27000E+04
         0.27000E+04
         0.27000E+04
         0.27000E+04
         0.27000E+04
         0.27000E+04
         0.27000E+04
         0.27000E+04
         0.27000E+04
         0.27000E+04
         0.27000E+04
         0.27000E+04
         0.27000E+04
         0.27000E+04
         0.27000E+04
         0.27000E+04
         0.27000E+04
         0.27000E+04
         0.27000E+04
         0.27000E+04
         0.27000E+04
         0.27000E+04
         0.27000E+04
         0.27000E+04
         0.27000E+04
         0.27000E+04
         0.27000E+04
         0.27000E+04
         0.27000E+04
         0.27000E+04
         0.27000E+04
         0.27000E+04
         0.27000E+04
         0.27000E+04
         0.27000E+04
         0.27000E+04
         0.27000E+04
         0.27000E+04
         0.27000E+04
         0.27000E+04
         0.27000E+04
         0.27000E+04
         0.27000E+04
         0.27000E+04
         0.27000E+04
         0.27000E+04
         0.27000E+04
         0.27000E+04
         0.27000E+04
         0.27000E+04
         0.27000E+04
         0.27000E+04
         0.27000E+04
         0.27000E+04
         0.27000E+04
         0.27000E+04
         0.27000E+04
         0.27000E+04
         0.27000E+04
         0.27000E+04
         0.27000E+04
         0.27000E+04
         0.27000E+04
         0.27000E+04
         0.27000E+04
         0.27000E+04
         0.27000E+04
         0.27000E+04
         0.27000E+04
         0.27000E+04
         0.27000E+04
         0.27000E+04
         0.27000E+04
         0.27000E+04
         0.27000E+04
         0.27000E+04
         0.27000E+04
         0.27000E+04
         0.27000E+04
         0.27000E+04
         0.27000E+04
         0.27000E+04
         0.27000E+04
         0.27000E+04
         0.27000E+04
         0.27000E+04
         0.27000E+04
         0.27000E+04
         0.27000E+04
         0.27000E+04
         0.27000E+04
         0.27000E+04
         0.27000E+04
         0.27000E+04
         0.27000E+04
         0.27000E+04
         0.27000E+04
         0.27000E+04
         0.27000E+04
         0.27000E+04
         0.27000E+04
         0.27000E+04
         0.27000E+04
         0.27000E+04
         0.27000E+04
         0.27000E+04
         0.27000E+04
         0.27000E+04
         0.27000E+04
         0.27000E+04
         0.27000E+04
         0.27000E+04
         0.27000E+04
         0.27000E+04
         0.27000E+04
         0.27000E+04
         0.27000E+04
         0.27000E+04
         0.27000E+04
         0.27000E+04
         0.27000E+04
         0.27000E+04
         0.27000E+04
         0.27000E+04
         0.27000E+04
         0.27000E+04
         0.27000E+04
         0.27000E+04
         0.27000E+04
         0.27000E+04
         0.27000E+04
         0.27000E+04
         0.27000E+04
         0.27000E+04
         0.27000E+04
         0.27000E+04
         0.27000E+04
         0.27000E+04
         0.27000E+04
         0.27000E+04
         0.27000E+04
         0.27000E+04
         0.27000E+04
         0.27000E+04
         0.27000E+04
         0.27000E+04
         0.27000E+04
         0.27000E+04
         0.27000E+04
         0.27000E+04
         0.27000E+04
         0.27000E+04
         0.27000E+04
         0.27000E+04
         0.27000E+04
         0.27000E+04
         0.27000E+04
         0.27000E+04
         0.27000E+04
         0.27000E+04
         0.27000E+04
         0.27000E+04
         0.27000E+04
         0.27000E+04
         0.27000E+04
         0.27000E+04
         0.27000E+04
         0.27000E+04
         0.27000E+04
         0.27000E+04
         0.27000E+04
         0.27000E+04
         0.27000E+04
         0.27000E+04
         0.27000E+04
         0.27000E+04
         0.27000E+04
         0.27000E+04
         0.27000E+04
         0.27000E+04
         0.27000E+04
         0.27000E+04
         0.27000E+04
         0.27000E+04
         0.27000E+04
         0.27000E+04
         0.27000E+04
         0.27000E+04
         0.27000E+04
         0.27000E+04
         0.27000E+04
         0.27000E+04
         0.27000E+04
         0.27000E+04
         0.27000E+04
         0.27000E+04
         0.27000E+04
         0.27000E+04
         0.27000E+04
         0.27000E+04
         0.27000E+04
         0.27000E+04
         0.27000E+04
         0.27000E+04
         0.27000E+04
         0.27000E+04
         0.27000E+04
         0.27000E+04
         0.27000E+04
         0.27000E+04
         0.27000E+04
         0.27000E+04
         0.27000E+04
         0.27000E+04
         0.27000E+04
         0.27000E+04
         0.27000E+04
         0.27000E+04
         0.27000E+04
         0.27000E+04
         0.27000E+04
         0.27000E+04
         0.27000E+04
         0.27000E+04
         0.27000E+04
         0.27000E+04
         0.27000E+04
         0.27000E+04
         0.27000E+04
         0.27000E+04
         0.27000E+04
         0.27000E+04
         0.27000E+04
         0.27000E+04
         0.27000E+04
         0.27000E+04
         0.27000E+04
         0.27000E+04
         0.27000E+04
         0.27000E+04
         0.27000E+04
         0.27000E+04
         0.27000E+04
         0.27000E+04
         0.27000E+04
         0.27000E+04
         0.27000E+04
         0.27000E+04
         0.27000E+04
         0.27000E+04
         0.27000E+04
         0.27000E+04
         0.27000E+04
         0.27000E+04
         0.27000E+04
         0.27000E+04
         0.27000E+04
         0.27000E+04
         0.27000E+04
         0.27000E+04
         0.27000E+04
         0.27000E+04
         0.27000E+04
         0.27000E+04
         0.27000E+04
         0.27000E+04
         0.27000E+04
         0.27000E+04
         0.27000E+04
         0.27000E+04
         0.27000E+04
         0.27000E+04
         0.27000E+04
         0.27000E+04
         0.27000E+04
         0.27000E+04
         0.27000E+04
         0.27000E+04
         0.27000E+04
         0.27000E+04
         0.27000E+04
         0.27000E+04
         0.27000E+04
         0.27000E+04
         0.27000E+04
         0.27000E+04
         0.27000E+04
         0.27000E+04
         0.27000E+04
         0.27000E+04
         0.27000E+04
         0.27000E+04
         0.27000E+04
         0.27000E+04
         0.27000E+04
         0.27000E+04
         0.27000E+04
         0.27000E+04
         0.27000E+04
         0.27000E+04
         0.27000E+04
         0.27000E+04
         0.27000E+04
         0.27000E+04
         0.27000E+04
         0.27000E+04
         0.27000E+04
         0.27000E+04
         0.27000E+04
         0.27000E+04
         0.27000E+04
         0.27000E+04
         0.27000E+04
         0.27000E+04
         0.27000E+04
         0.27000E+04
         0.27000E+04
         0.27000E+04
         0.27000E+04
         0.27000E+04
         0.27000E+04
         0.27000E+04
         0.27000E+04
         0.27000E+04
         0.27000E+04
         0.27000E+04
         0.27000E+04
         0.27000E+04
         0.27000E+04
         0.27000E+04
         0.27000E+04
         0.27000E+04
         0.27000E+04
         0.27000E+04
         0.27000E+04
         0.27000E+04
         0.27000E+04
         0.27000E+04
         0.27000E+04
         0.27000E+04
         0.27000E+04
         0.27000E+04
         0.27000E+04
         0.27000E+04
         0.27000E+04
         0.27000E+04
         0.27000E+04
         0.27000E+04
         0.27000E+04
         0.27000E+04
         0.27000E+04
         0.27000E+04
         0.27000E+04
         0.27000E+04
         0.27000E+04
         0.27000E+04
         0.27000E+04
         0.27000E+04
         0.27000E+04
         0.27000E+04
         0.27000E+04
         0.27000E+04
         0.27000E+04
         0.27000E+04
         0.27000E+04
         0.27000E+04
         0.27000E+04
         0.27000E+04
         0.27000E+04
         0.27000E+04
         0.27000E+04
         0.27000E+04
         0.27000E+04
         0.27000E+04
         0.27000E+04
         0.27000E+04
         0.27000E+04
         0.27000E+04
         0.27000E+04
         0.27000E+04
         0.27000E+04
         0.27000E+04
         0.27000E+04
         0.27000E+04
         0.27000E+04
         0.27000E+04
         0.27000E+04
         0.27000E+04
         0.27000E+04
         0.27000E+04
         0.27000E+04
         0.27000E+04
         0.27000E+04
         0.27000E+04
         0.27000E+04
         0.27000E+04
         0.27000E+04
         0.27000E+04
         0.27000E+04
         0.27000E+04
         0.27000E+04
         0.27000E+04
         0.27000E+04
         0.27000E+04
         0.27000E+04
         0.27000E+04
         0.27000E+04
         0.27000E+04
         0.27000E+04
         0.27000E+04
         0.27000E+04
         0.27000E+04
         0.27000E+04
         0.27000E+04
         0.27000E+04
         0.27000E+04
         0.27000E+04
         0.27000E+04
         0.27000E+04
         0.27000E+04
         0.27000E+04
         0.27000E+04
         0.27000E+04
         0.27000E+04
         0.27000E+04
         0.27000E+04
         0.27000E+04
         0.27000E+04
         0.27000E+04
         0.27000E+04
         0.27000E+04
         0.27000E+04
         0.27000E+04
         0.27000E+04
         0.27000E+04
         0.27000E+04
         0.27000E+04
         0.27000E+04
         0.27000E+04
         0.27000E+04
         0.27000E+04
         0.27000E+04
         0.27000E+04
         0.27000E+04
         0.27000E+04
         0.27000E+04
         0.27000E+04
         0.27000E+04
         0.27000E+04
         0.27000E+04
         0.27000E+04
         0.27000E+04
         0.27000E+04
         0.27000E+04
         0.27000E+04
         0.27000E+04
         0.27000E+04
         0.27000E+04
         0.27000E+04
         0.27000E+04
         0.27000E+04
         0.27000E+04
         0.27000E+04
         0.27000E+04
         0.27000E+04
         0.27000E+04
         0.27000E+04
         0.27000E+04
         0.27000E+04
         0.27000E+04
         0.27000E+04
         0.27000E+04
         0.27000E+04
         0.27000E+04
         0.27000E+04
         0.27000E+04
         0.27000E+04
         0.27000E+04
         0.27000E+04
         0.27000E+04
         0.27000E+04
         0.27000E+04
         0.27000E+04
         0.27000E+04
         0.27000E+04
         0.27000E+04
         0.27000E+04
         0.27000E+04
         0.27000E+04
         0.27000E+04
         0.27000E+04
         0.27000E+04
         0.27000E+04
         0.27000E+04
         0.27000E+04
         0.27000E+04
         0.27000E+04
         0.27000E+04
         0.27000E+04
         0.27000E+04
         0.27000E+04
         0.27000E+04
         0.27000E+04
         0.27000E+04
         0.27000E+04
         0.27000E+04
         0.27000E+04
         0.27000E+04
         0.27000E+04
         0.27000E+04
         0.27000E+04
         0.27000E+04
         0.27000E+04
         0.27000E+04
         0.27000E+04
         0.27000E+04
         0.27000E+04
         0.27000E+04
         0.27000E+04
         0.27000E+04
         0.27000E+04
         0.27000E+04
         0.27000E+04
         0.27000E+04
         0.27000E+04
         0.27000E+04
         0.27000E+04
         0.27000E+04
         0.27000E+04
         0.27000E+04
         0.27000E+04
         0.27000E+04
         0.27000E+04
         0.27000E+04
         0.27000E+04
         0.27000E+04
         0.27000E+04
         0.27000E+04
         0.27000E+04
         0.27000E+04
         0.27000E+04
         0.27000E+04
         0.27000E+04
         0.27000E+04
         0.27000E+04
         0.27000E+04
         0.27000E+04
         0.27000E+04
         0.27000E+04
         0.27000E+04
         0.27000E+04
         0.27000E+04
         0.27000E+04
         0.27000E+04
         0.27000E+04
         0.27000E+04
         0.27000E+04
         0.27000E+04
         0.27000E+04
         0.27000E+04
         0.27000E+04
         0.27000E+04
         0.27000E+04
         0.27000E+04
         0.27000E+04
         0.27000E+04
         0.27000E+04
         0.27000E+04
         0.27000E+04
         0.27000E+04
         0.27000E+04
         0.27000E+04
         0.27000E+04
         0.27000E+04
         0.27000E+04
         0.27000E+04
         0.27000E+04
         0.27000E+04
         0.27000E+04
         0.27000E+04
         0.27000E+04
         0.27000E+04
         0.27000E+04
         0.27000E+04
         0.27000E+04
         0.27000E+04
         0.27000E+04
         0.27000E+04
         0.27000E+04
         0.27000E+04
         0.27000E+04
         0.27000E+04
         0.27000E+04
         0.27000E+04
         0.27000E+04
         0.27000E+04
         0.27000E+04
         0.27000E+04
         0.27000E+04
         0.27000E+04
         0.27000E+04
         0.27000E+04
         0.27000E+04
         0.27000E+04
         0.27000E+04
         0.27000E+04
         0.27000E+04
         0.27000E+04
         0.27000E+04
         0.27000E+04
         0.27000E+04
         0.27000E+04
         0.27000E+04
         0.27000E+04
         0.27000E+04
         0.27000E+04
         0.27000E+04
         0.27000E+04
         0.27000E+04
         0.27000E+04
         0.27000E+04
         0.27000E+04
         0.27000E+04
         0.27000E+04
         0.27000E+04
         0.27000E+04
         0.27000E+04
         0.27000E+04
         0.27000E+04
         0.27000E+04
         0.27000E+04
         0.27000E+04
         0.27000E+04
         0.27000E+04
         0.27000E+04
         0.27000E+04
         0.27000E+04
         0.27000E+04
         0.27000E+04
         0.27000E+04
         0.27000E+04
         0.27000E+04
         0.27000E+04
         0.27000E+04
         0.27000E+04
         0.27000E+04
         0.27000E+04
         0.27000E+04
         0.27000E+04
         0.27000E+04
         0.27000E+04
         0.27000E+04
         0.27000E+04
         0.27000E+04
         0.27000E+04
         0.27000E+04
         0.27000E+04
         0.27000E+04
         0.27000E+04
         0.27000E+04
         0.27000E+04
         0.27000E+04
         0.27000E+04
         0.27000E+04
         0.27000E+04
         0.27000E+04
         0.27000E+04
         0.27000E+04
         0.27000E+04
         0.27000E+04
         0.27000E+04
         0.27000E+04
         0.27000E+04
         0.27000E+04
         0.27000E+04
         0.27000E+04
         0.27000E+04
         0.27000E+04
         0.27000E+04
         0.27000E+04
         0.27000E+04
         0.27000E+04
         0.27000E+04
         0.27000E+04
         0.27000E+04
         0.27000E+04
         0.27000E+04
         0.27000E+04
         0.27000E+04
         0.27000E+04
         0.27000E+04
         0.27000E+04
         0.27000E+04
         0.27000E+04
         0.27000E+04
         0.27000E+04
         0.27000E+04
         0.27000E+04
         0.27000E+04
         0.27000E+04
         0.27000E+04
         0.27000E+04
         0.27000E+04
         0.27000E+04
         0.27000E+04
         0.27000E+04
         0.27000E+04
         0.27000E+04
         0.27000E+04
         0.27000E+04
         0.27000E+04
         0.27000E+04
         0.27000E+04
         0.27000E+04
         0.27000E+04
         0.27000E+04
         0.27000E+04
         0.27000E+04
         0.27000E+04
         0.27000E+04
         0.27000E+04
         0.27000E+04
         0.27000E+04
         0.27000E+04
         0.27000E+04
         0.27000E+04
         0.27000E+04
         0.27000E+04
         0.27000E+04
         0.27000E+04
         0.27000E+04
         0.27000E+04
         0.27000E+04
         0.27000E+04
         0.27000E+04
         0.27000E+04
         0.27000E+04
         0.27000E+04
         0.27000E+04
         0.27000E+04
         0.27000E+04
         0.27000E+04
         0.27000E+04
         0.27000E+04
         0.27000E+04
         0.27000E+04
         0.27000E+04
         0.27000E+04
         0.27000E+04
         0.27000E+04
         0.27000E+04
         0.27000E+04
         0.27000E+04
         0.27000E+04
         0.27000E+04
         0.27000E+04
         0.27000E+04
         0.27000E+04
         0.27000E+04
         0.27000E+04
         0.27000E+04
         0.27000E+04
         0.27000E+04
         0.27000E+04
         0.27000E+04
         0.27000E+04
         0.27000E+04
         0.27000E+04
         0.27000E+04
         0.27000E+04
         0.27000E+04
         0.27000E+04
         0.27000E+04
         0.27000E+04
         0.27000E+04
         0.27000E+04
         0.27000E+04
         0.27000E+04
         0.27000E+04
         0.27000E+04
         0.27000E+04
         0.27000E+04
         0.27000E+04
         0.27000E+04
         0.27000E+04
         0.27000E+04
         0.27000E+04
         0.27000E+04
         0.27000E+04
         0.27000E+04
         0.27000E+04
         0.27000E+04
         0.27000E+04
         0.27000E+04
         0.27000E+04
         0.27000E+04
         0.27000E+04
         0.27000E+04
         0.27000E+04
         0.27000E+04
         0.27000E+04
         0.27000E+04
         0.27000E+04
         0.27000E+04
         0.27000E+04
         0.27000E+04
         0.27000E+04
         0.27000E+04
         0.27000E+04
         0.27000E+04
         0.27000E+04
         0.27000E+04
         0.27000E+04
         0.27000E+04
         0.27000E+04
         0.27000E+04
         0.27000E+04
         0.27000E+04
         0.27000E+04
         0.27000E+04
         0.27000E+04
         0.27000E+04
         0.27000E+04
         0.27000E+04
         0.27000E+04
         0.27000E+04
         0.27000E+04
         0.27000E+04
         0.27000E+04
         0.27000E+04
         0.27000E+04
         0.27000E+04
         0.27000E+04
         0.27000E+04
         0.27000E+04
         0.27000E+04
         0.27000E+04
         0.27000E+04
         0.27000E+04
         0.27000E+04
         0.27000E+04
         0.27000E+04
         0.27000E+04
         0.27000E+04
         0.27000E+04
         0.27000E+04
         0.27000E+04
         0.27000E+04
         0.27000E+04
         0.27000E+04
         0.27000E+04
         0.27000E+04
         0.27000E+04
         0.27000E+04
         0.27000E+04
         0.27000E+04
         0.27000E+04
         0.27000E+04
         0.27000E+04
         0.27000E+04
         0.27000E+04
         0.27000E+04
         0.27000E+04
         0.27000E+04
         0.27000E+04
         0.27000E+04
         0.27000E+04
         0.27000E+04
         0.27000E+04
         0.27000E+04
         0.27000E+04
         0.27000E+04
         0.27000E+04
         0.27000E+04
         0.27000E+04
         0.27000E+04
         0.27000E+04
         0.27000E+04
         0.27000E+04
         0.27000E+04
         0.27000E+04
         0.27000E+04
         0.27000E+04
         0.27000E+04
         0.27000E+04
         0.27000E+04
         0.27000E+04
         0.27000E+04
         0.27000E+04
         0.27000E+04
         0.27000E+04
         0.27000E+04
         0.27000E+04
         0.27000E+04
         0.27000E+04
         0.27000E+04
         0.27000E+04
         0.27000E+04
         0.27000E+04
         0.27000E+04
         0.27000E+04
         0.27000E+04
         0.27000E+04
         0.27000E+04
         0.27000E+04
         0.27000E+04
         0.27000E+04
         0.27000E+04
         0.27000E+04
         0.27000E+04
         0.27000E+04
         0.27000E+04
         0.27000E+04
         0.27000E+04
         0.27000E+04
         0.27000E+04
         0.27000E+04
         0.27000E+04
         0.27000E+04
         0.27000E+04
         0.27000E+04
         0.27000E+04
         0.27000E+04
         0.27000E+04
         0.27000E+04
         0.27000E+04
         0.27000E+04
         0.27000E+04
         0.27000E+04
         0.27000E+04
         0.27000E+04
         0.27000E+04
         0.27000E+04
         0.27000E+04
         0.27000E+04
         0.27000E+04
         0.27000E+04
         0.27000E+04
         0.27000E+04
         0.27000E+04
         0.27000E+04
         0.27000E+04
         0.27000E+04
         0.27000E+04
         0.27000E+04
         0.27000E+04
         0.27000E+04
         0.27000E+04
         0.27000E+04
         0.27000E+04
         0.27000E+04
         0.27000E+04
         0.27000E+04
         0.27000E+04
         0.27000E+04
         0.27000E+04
         0.27000E+04
         0.27000E+04
         0.27000E+04
         0.27000E+04
         0.27000E+04
         0.27000E+04
         0.27000E+04
         0.27000E+04
         0.27000E+04
         0.27000E+04
         0.27000E+04
         0.27000E+04
         0.27000E+04
         0.27000E+04
         0.27000E+04
         0.27000E+04
         0.27000E+04
         0.27000E+04
         0.27000E+04
         0.27000E+04
         0.27000E+04
         0.27000E+04
         0.27000E+04
         0.27000E+04
         0.27000E+04
         0.27000E+04
         0.27000E+04
         0.27000E+04
         0.27000E+04
         0.27000E+04
         0.27000E+04
         0.27000E+04
         0.27000E+04
         0.27000E+04
         0.27000E+04
         0.27000E+04
         0.27000E+04
         0.27000E+04
         0.27000E+04
         0.27000E+04
         0.27000E+04
         0.27000E+04
         0.27000E+04
         0.27000E+04
         0.27000E+04
         0.27000E+04
         0.27000E+04
         0.27000E+04
         0.27000E+04
         0.27000E+04
         0.27000E+04
         0.27000E+04
         0.27000E+04
         0.27000E+04
         0.27000E+04
         0.27000E+04
         0.27000E+04
         0.27000E+04
         0.27000E+04
         0.27000E+04
         0.27000E+04
         0.27000E+04
         0.27000E+04
         0.27000E+04
         0.27000E+04
         0.27000E+04
         0.27000E+04
         0.27000E+04
         0.27000E+04
         0.27000E+04
         0.27000E+04
         0.27000E+04
         0.27000E+04
         0.27000E+04
         0.27000E+04
         0.27000E+04
         0.27000E+04
         0.27000E+04
         0.27000E+04
         0.27000E+04
         0.27000E+04
         0.27000E+04
         0.27000E+04
         0.27000E+04
         0.27000E+04
         0.27000E+04
         0.27000E+04
         0.27000E+04
         0.27000E+04
         0.27000E+04
         0.27000E+04
         0.27000E+04
         0.27000E+04
         0.27000E+04
         0.27000E+04
         0.27000E+04
         0.27000E+04
         0.27000E+04
         0.27000E+04
         0.27000E+04
         0.27000E+04
         0.27000E+04
         0.27000E+04
         0.27000E+04
         0.27000E+04
         0.27000E+04
         0.27000E+04
         0.27000E+04
         0.27000E+04
         0.27000E+04
         0.27000E+04
         0.27000E+04
         0.27000E+04
         0.27000E+04
         0.27000E+04
         0.27000E+04
         0.27000E+04
         0.27000E+04
         0.27000E+04
         0.27000E+04
         0.27000E+04
         0.27000E+04
         0.27000E+04
         0.27000E+04
         0.27000E+04
         0.27000E+04
         0.27000E+04
         0.27000E+04
         0.27000E+04
         0.27000E+04
         0.27000E+04
         0.27000E+04
         0.27000E+04
         0.27000E+04
         0.27000E+04
         0.27000E+04
         0.27000E+04
         0.27000E+04
         0.27000E+04
         0.27000E+04
         0.27000E+04
         0.27000E+04
         0.27000E+04
         0.27000E+04
         0.27000E+04
         0.27000E+04
         0.27000E+04
         0.27000E+04
         0.27000E+04
         0.27000E+04
         0.27000E+04
         0.27000E+04
         0.27000E+04
         0.27000E+04
         0.27000E+04
         0.27000E+04
         0.27000E+04
         0.27000E+04
         0.27000E+04
         0.27000E+04
         0.27000E+04
         0.27000E+04
         0.27000E+04
         0.27000E+04
         0.27000E+04
         0.27000E+04
         0.27000E+04
         0.27000E+04
         0.27000E+04
         0.27000E+04
         0.27000E+04
         0.27000E+04
         0.27000E+04
         0.27000E+04
         0.27000E+04
         0.27000E+04
         0.27000E+04
         0.27000E+04
         0.27000E+04
         0.27000E+04
         0.27000E+04
         0.27000E+04
         0.27000E+04
         0.27000E+04
         0.27000E+04
         0.27000E+04
         0.27000E+04
         0.27000E+04
         0.27000E+04
         0.27000E+04
         0.27000E+04
         0.27000E+04
         0.27000E+04
         0.27000E+04
         0.27000E+04
         0.27000E+04
         0.27000E+04
         0.27000E+04
         0.27000E+04
         0.27000E+04
         0.27000E+04
         0.27000E+04
         0.27000E+04
         0.27000E+04
         0.27000E+04
         0.27000E+04
         0.27000E+04
         0.27000E+04
         0.27000E+04
         0.27000E+04
         0.27000E+04
         0.27000E+04
         0.27000E+04
         0.27000E+04
         0.27000E+04
         0.27000E+04
         0.27000E+04
         0.27000E+04
         0.27000E+04
         0.27000E+04
         0.27000E+04
         0.27000E+04
         0.27000E+04
         0.27000E+04
         0.27000E+04
         0.27000E+04
         0.27000E+04
         0.27000E+04
         0.27000E+04
         0.27000E+04
         0.27000E+04
         0.27000E+04
         0.27000E+04
         0.27000E+04
         0.27000E+04
         0.27000E+04
         0.27000E+04
         0.27000E+04
         0.27000E+04
         0.27000E+04
         0.27000E+04
         0.27000E+04
         0.27000E+04
         0.27000E+04
         0.27000E+04
         0.27000E+04
         0.27000E+04
         0.27000E+04
         0.27000E+04
         0.27000E+04
         0.27000E+04
         0.27000E+04
         0.27000E+04
         0.27000E+04
         0.27000E+04
         0.27000E+04
         0.27000E+04
         0.27000E+04
         0.27000E+04
         0.27000E+04
         0.27000E+04
         0.27000E+04
         0.27000E+04
         0.27000E+04
         0.27000E+04
         0.27000E+04
         0.27000E+04
         0.27000E+04
         0.27000E+04
         0.27000E+04
         0.27000E+04
         0.27000E+04
         0.27000E+04
         0.27000E+04
         0.27000E+04
         0.27000E+04
         0.27000E+04
         0.27000E+04
         0.27000E+04
         0.27000E+04
         0.27000E+04
         0.27000E+04
         0.27000E+04
         0.27000E+04
         0.27000E+04
         0.27000E+04
         0.27000E+04
         0.27000E+04
         0.27000E+04
         0.27000E+04
         0.27000E+04
         0.27000E+04
         0.27000E+04
         0.27000E+04
         0.27000E+04
         0.27000E+04
         0.27000E+04
         0.27000E+04
         0.27000E+04
         0.27000E+04
         0.27000E+04
         0.27000E+04
         0.27000E+04
         0.27000E+04
         0.27000E+04
         0.27000E+04
         0.27000E+04
         0.27000E+04
         0.27000E+04
         0.27000E+04
         0.27000E+04
         0.27000E+04
         0.27000E+04
         0.27000E+04
         0.27000E+04
         0.27000E+04
         0.27000E+04
         0.27000E+04
         0.27000E+04
         0.27000E+04
         0.27000E+04
         0.27000E+04
         0.27000E+04
         0.27000E+04
         0.27000E+04
         0.27000E+04
         0.27000E+04
         0.27000E+04
         0.27000E+04
         0.27000E+04
         0.27000E+04
         0.27000E+04
         0.27000E+04
         0.27000E+04
         0.27000E+04
         0.27000E+04
         0.27000E+04
         0.27000E+04
         0.27000E+04
         0.27000E+04
         0.27000E+04
         0.27000E+04
         0.27000E+04
         0.27000E+04
         0.27000E+04
         0.27000E+04
         0.27000E+04
         0.27000E+04
         0.27000E+04
         0.27000E+04
         0.27000E+04
         0.27000E+04
         0.27000E+04
         0.27000E+04
         0.27000E+04
         0.27000E+04
         0.27000E+04
         0.27000E+04
         0.27000E+04
         0.27000E+04
         0.27000E+04
         0.27000E+04
         0.27000E+04
         0.27000E+04
         0.27000E+04
         0.27000E+04
         0.27000E+04
         0.27000E+04
         0.27000E+04
         0.27000E+04
         0.27000E+04
         0.27000E+04
         0.27000E+04
         0.27000E+04
         0.27000E+04
         0.27000E+04
         0.27000E+04
         0.27000E+04
         0.27000E+04
         0.27000E+04
         0.27000E+04
         0.27000E+04
         0.27000E+04
         0.27000E+04
         0.27000E+04
         0.27000E+04
         0.27000E+04
         0.27000E+04
         0.27000E+04
         0.27000E+04
         0.27000E+04
         0.27000E+04
         0.27000E+04
         0.27000E+04
         0.27000E+04
         0.27000E+04
         0.27000E+04
         0.27000E+04
         0.27000E+04
         0.27000E+04
         0.27000E+04
         0.27000E+04
         0.27000E+04
         0.27000E+04
         0.27000E+04
         0.27000E+04
