# vtk DataFile Version 2.0
               (MEGA VTK FILE)
ASCII
DATASET UNSTRUCTURED_GRID
POINTS       1950    double
  0.92190E-03  0.67051E-03 -0.11115E-01
  0.15830E-02  0.12798E-02 -0.11081E-01
  0.21624E-02  0.69137E-03 -0.11097E-01
  0.15643E-02 -0.31029E-03 -0.11135E-01
  0.10216E-02  0.51075E-03 -0.11750E-01
  0.66712E-03  0.11585E-02 -0.11750E-01
  0.16687E-02  0.44706E-03 -0.11750E-01
  0.11073E-02 -0.52030E-03 -0.11750E-01
  0.28779E-02  0.48448E-03 -0.11117E-01
  0.26508E-02 -0.36216E-03 -0.11179E-01
  0.30691E-02  0.18556E-03 -0.11750E-01
  0.20373E-02 -0.54902E-03 -0.11750E-01
  0.11139E-02  0.19143E-02 -0.11061E-01
  0.52039E-03  0.14839E-02 -0.11098E-01
  0.12380E-02  0.18856E-02 -0.11750E-01
  0.24353E-04  0.15782E-02 -0.11750E-01
  0.75404E-04  0.28668E-03 -0.11132E-01
 -0.20468E-03  0.11668E-02 -0.11124E-01
  0.13298E-03  0.35097E-03 -0.11750E-01
 -0.62632E-03  0.11775E-02 -0.11750E-01
  0.76391E-03  0.23677E-02 -0.11031E-01
  0.93674E-03  0.29921E-02 -0.10959E-01
  0.15906E-02  0.25904E-02 -0.11000E-01
  0.84033E-03  0.24770E-02 -0.11750E-01
  0.20735E-03  0.30327E-02 -0.11750E-01
  0.10322E-02  0.25899E-02 -0.11750E-01
  0.25827E-03  0.22154E-02 -0.11047E-01
  0.20337E-03  0.30227E-02 -0.10930E-01
  0.33562E-03  0.21989E-02 -0.11750E-01
 -0.57191E-03  0.30003E-02 -0.11750E-01
 -0.77347E-03 -0.10174E-02 -0.11124E-01
 -0.88606E-03  0.72565E-04 -0.11145E-01
  0.41505E-03 -0.71806E-03 -0.11130E-01
 -0.75732E-03 -0.10149E-02 -0.11750E-01
 -0.94089E-03  0.76609E-05 -0.11750E-01
  0.25486E-03 -0.66948E-03 -0.11750E-01
 -0.18258E-02 -0.73323E-03 -0.11140E-01
 -0.18827E-02  0.78890E-04 -0.11158E-01
 -0.18289E-02 -0.72807E-03 -0.11750E-01
 -0.18570E-02  0.27956E-04 -0.11750E-01
 -0.27660E-02 -0.91484E-03 -0.11173E-01
 -0.28950E-02 -0.11679E-03 -0.11167E-01
 -0.27765E-02 -0.67114E-03 -0.11750E-01
 -0.28022E-02  0.27619E-03 -0.11750E-01
 -0.25591E-02 -0.16902E-02 -0.11176E-01
 -0.19307E-02 -0.13822E-02 -0.11139E-01
 -0.25528E-02 -0.15157E-02 -0.11750E-01
 -0.19624E-02 -0.13409E-02 -0.11750E-01
 -0.10683E-02  0.98387E-03 -0.11140E-01
 -0.97784E-03  0.94917E-03 -0.11750E-01
 -0.14518E-02 -0.17762E-02 -0.11140E-01
 -0.14651E-02 -0.16857E-02 -0.11750E-01
 -0.42712E-03  0.20201E-02 -0.11059E-01
 -0.40576E-03  0.19941E-02 -0.11750E-01
 -0.12421E-02  0.18148E-02 -0.11052E-01
 -0.12556E-02  0.18240E-02 -0.11750E-01
 -0.20832E-02  0.15689E-02 -0.11017E-01
 -0.19979E-02  0.87140E-03 -0.11133E-01
 -0.18940E-02  0.18032E-02 -0.11750E-01
 -0.27140E-02  0.98097E-03 -0.11750E-01
 -0.18440E-03 -0.19801E-02 -0.11152E-01
 -0.97604E-03 -0.23752E-02 -0.11182E-01
 -0.18216E-03 -0.19563E-02 -0.11750E-01
 -0.12983E-02 -0.21411E-02 -0.11750E-01
  0.76428E-03 -0.16859E-02 -0.11161E-01
  0.75781E-03 -0.19001E-02 -0.11750E-01
  0.16720E-02 -0.13787E-02 -0.11190E-01
  0.17083E-02 -0.14682E-02 -0.11750E-01
  0.30594E-02  0.11431E-02 -0.11067E-01
  0.26645E-02  0.14806E-02 -0.11045E-01
  0.31617E-02  0.10902E-02 -0.11750E-01
  0.20713E-02  0.13831E-02 -0.11750E-01
  0.21725E-02  0.20286E-02 -0.11024E-01
  0.22681E-02  0.19586E-02 -0.11750E-01
 -0.57219E-03  0.28832E-02 -0.10893E-01
 -0.48176E-03  0.28720E-02 -0.11750E-01
 -0.14122E-02  0.25698E-02 -0.10844E-01
 -0.13519E-02  0.26187E-02 -0.11750E-01
 -0.22248E-02  0.21057E-02 -0.10783E-01
 -0.22158E-02  0.25057E-02 -0.11750E-01
 -0.28519E-02  0.15826E-02 -0.10734E-01
 -0.29202E-02  0.11717E-02 -0.10932E-01
 -0.28633E-02  0.21378E-02 -0.11750E-01
 -0.34349E-02  0.17184E-02 -0.11750E-01
 -0.29468E-02  0.59044E-03 -0.11093E-01
 -0.28749E-02  0.11208E-02 -0.11750E-01
 -0.21229E-02 -0.23194E-02 -0.11198E-01
 -0.20759E-02 -0.22369E-02 -0.11750E-01
 -0.16177E-02 -0.28472E-02 -0.11252E-01
 -0.15095E-02 -0.26981E-02 -0.11750E-01
 -0.11969E-02 -0.32421E-02 -0.11313E-01
 -0.61185E-03 -0.30508E-02 -0.11272E-01
 -0.11251E-02 -0.29165E-02 -0.11750E-01
 -0.13124E-02 -0.28598E-02 -0.11750E-01
  0.20786E-03 -0.28257E-02 -0.11245E-01
  0.24948E-03 -0.29632E-02 -0.11750E-01
  0.10761E-02 -0.25173E-02 -0.11248E-01
  0.11096E-02 -0.27069E-02 -0.11750E-01
  0.18552E-02 -0.21210E-02 -0.11271E-01
  0.19509E-02 -0.23004E-02 -0.11750E-01
  0.24613E-02 -0.17260E-02 -0.11298E-01
  0.25374E-02 -0.11466E-02 -0.11245E-01
  0.26198E-02 -0.17691E-02 -0.11750E-01
  0.18286E-02 -0.13317E-02 -0.11750E-01
  0.36764E-02  0.16419E-02 -0.11031E-01
  0.36850E-02  0.83549E-03 -0.11127E-01
  0.39341E-02  0.23415E-02 -0.11750E-01
  0.24744E-02  0.13282E-02 -0.11750E-01
  0.33988E-02  0.22950E-02 -0.10966E-01
  0.34739E-02  0.24062E-02 -0.11750E-01
  0.28940E-02  0.29323E-02 -0.10936E-01
  0.29279E-02  0.29604E-02 -0.11750E-01
  0.21660E-02  0.35478E-02 -0.10901E-01
  0.22036E-02  0.36983E-02 -0.11750E-01
  0.12590E-02  0.39655E-02 -0.10819E-01
  0.11991E-02  0.40912E-02 -0.11750E-01
  0.27951E-03  0.40706E-02 -0.10711E-01
  0.12259E-03  0.41883E-02 -0.11750E-01
 -0.69352E-03  0.38443E-02 -0.10594E-01
 -0.66593E-03  0.38563E-02 -0.11750E-01
 -0.16877E-02  0.32917E-02 -0.10429E-01
 -0.16286E-02  0.33951E-02 -0.11750E-01
 -0.26572E-02  0.23067E-02 -0.10285E-01
 -0.26218E-02  0.19783E-02 -0.11750E-01
 -0.34435E-02  0.11361E-02 -0.10352E-01
 -0.35349E-02  0.18983E-03 -0.11750E-01
 -0.38776E-02  0.32578E-03 -0.10661E-01
 -0.38030E-02 -0.34818E-03 -0.11750E-01
 -0.40841E-02 -0.15066E-03 -0.10989E-01
 -0.38206E-02 -0.42298E-03 -0.11750E-01
 -0.41407E-02 -0.71415E-03 -0.11182E-01
 -0.39234E-02 -0.83838E-03 -0.11750E-01
 -0.39537E-02 -0.14707E-02 -0.11252E-01
 -0.36647E-02 -0.16099E-02 -0.11750E-01
 -0.35307E-02 -0.23093E-02 -0.11274E-01
 -0.31967E-02 -0.24762E-02 -0.11750E-01
 -0.29048E-02 -0.31184E-02 -0.11313E-01
 -0.25737E-02 -0.34112E-02 -0.11750E-01
 -0.21433E-02 -0.36926E-02 -0.11395E-01
 -0.16593E-02 -0.43367E-02 -0.11750E-01
 -0.13146E-02 -0.39041E-02 -0.11448E-01
 -0.72969E-03 -0.41301E-02 -0.11750E-01
 -0.40342E-03 -0.39193E-02 -0.11432E-01
  0.96827E-04 -0.39806E-02 -0.11750E-01
  0.57112E-03 -0.37425E-02 -0.11406E-01
  0.10671E-02 -0.38651E-02 -0.11750E-01
  0.15117E-02 -0.33097E-02 -0.11403E-01
  0.21953E-02 -0.30456E-02 -0.11750E-01
  0.23403E-02 -0.26734E-02 -0.11412E-01
  0.30581E-02 -0.23098E-02 -0.11750E-01
  0.30246E-02 -0.18435E-02 -0.11407E-01
  0.37036E-02 -0.10268E-02 -0.11750E-01
  0.34743E-02 -0.93007E-03 -0.11350E-01
  0.38553E-02 -0.12788E-03 -0.11750E-01
  0.36954E-02 -0.35089E-04 -0.11241E-01
  0.40162E-02  0.52667E-03 -0.11750E-01
  0.11219E-02  0.68227E-03 -0.10287E-01
  0.18475E-02  0.12763E-02 -0.10252E-01
  0.24423E-02  0.66806E-03 -0.10269E-01
  0.17763E-02 -0.29888E-03 -0.10311E-01
  0.32296E-02  0.32518E-03 -0.10299E-01
  0.29707E-02 -0.52494E-03 -0.10359E-01
  0.13942E-02  0.18945E-02 -0.10234E-01
  0.75529E-03  0.14779E-02 -0.10275E-01
  0.22006E-03  0.29344E-03 -0.10306E-01
 -0.22078E-04  0.11733E-02 -0.10307E-01
  0.10578E-02  0.23402E-02 -0.10201E-01
  0.12358E-02  0.29444E-02 -0.10110E-01
  0.18644E-02  0.25390E-02 -0.10163E-01
  0.51459E-03  0.22054E-02 -0.10221E-01
  0.48281E-03  0.30026E-02 -0.10064E-01
 -0.64922E-03 -0.10177E-02 -0.10299E-01
 -0.75699E-03  0.79542E-04 -0.10323E-01
  0.54975E-03 -0.70098E-03 -0.10306E-01
 -0.17047E-02 -0.73185E-03 -0.10317E-01
 -0.17383E-02  0.81075E-04 -0.10342E-01
 -0.26178E-02 -0.89085E-03 -0.10365E-01
 -0.27257E-02 -0.10248E-03 -0.10357E-01
 -0.24072E-02 -0.16395E-02 -0.10365E-01
 -0.17950E-02 -0.13747E-02 -0.10317E-01
 -0.89249E-03  0.99604E-03 -0.10328E-01
 -0.13016E-02 -0.17750E-02 -0.10320E-01
 -0.21932E-03  0.20319E-02 -0.10235E-01
 -0.10261E-02  0.18328E-02 -0.10226E-01
 -0.18211E-02  0.15856E-02 -0.10179E-01
 -0.17857E-02  0.87621E-03 -0.10319E-01
 -0.34663E-04 -0.19723E-02 -0.10334E-01
 -0.79237E-03 -0.23734E-02 -0.10362E-01
  0.91480E-03 -0.16719E-02 -0.10340E-01
  0.18903E-02 -0.14200E-02 -0.10365E-01
  0.34284E-02  0.95764E-03 -0.10249E-01
  0.29824E-02  0.13835E-02 -0.10219E-01
  0.24426E-02  0.19734E-02 -0.10193E-01
 -0.35012E-03  0.28911E-02 -0.10004E-01
 -0.11765E-02  0.25947E-02 -0.99351E-02
 -0.19271E-02  0.21535E-02 -0.98591E-02
 -0.25007E-02  0.16853E-02 -0.97911E-02
 -0.26049E-02  0.12396E-02 -0.10057E-01
 -0.27132E-02  0.62213E-03 -0.10262E-01
 -0.19593E-02 -0.22485E-02 -0.10381E-01
 -0.14252E-02 -0.27764E-02 -0.10424E-01
 -0.98503E-03 -0.31750E-02 -0.10462E-01
 -0.40662E-03 -0.30291E-02 -0.10418E-01
  0.37103E-03 -0.28208E-02 -0.10383E-01
  0.12417E-02 -0.25636E-02 -0.10377E-01
  0.20829E-02 -0.22756E-02 -0.10401E-01
  0.27493E-02 -0.20211E-02 -0.10435E-01
  0.28451E-02 -0.13730E-02 -0.10413E-01
  0.41320E-02  0.12533E-02 -0.10226E-01
  0.42146E-02  0.36158E-03 -0.10330E-01
  0.37424E-02  0.20548E-02 -0.10148E-01
  0.31072E-02  0.27900E-02 -0.10106E-01
  0.23258E-02  0.34376E-02 -0.10049E-01
  0.14445E-02  0.38787E-02 -0.99257E-02
  0.48935E-03  0.40132E-02 -0.97516E-02
 -0.49264E-03  0.38262E-02 -0.95468E-02
 -0.14449E-02  0.33081E-02 -0.92965E-02
 -0.23107E-02  0.24455E-02 -0.91197E-02
 -0.30160E-02  0.14266E-02 -0.92427E-02
 -0.35107E-02  0.62502E-03 -0.96744E-02
 -0.37966E-02  0.44658E-04 -0.10119E-01
 -0.38761E-02 -0.58668E-03 -0.10394E-01
 -0.37215E-02 -0.13348E-02 -0.10488E-01
 -0.33343E-02 -0.21220E-02 -0.10495E-01
 -0.27319E-02 -0.28494E-02 -0.10507E-01
 -0.19616E-02 -0.34047E-02 -0.10547E-01
 -0.11147E-02 -0.37272E-02 -0.10554E-01
 -0.24311E-03 -0.38335E-02 -0.10485E-01
  0.67770E-03 -0.37585E-02 -0.10407E-01
  0.16458E-02 -0.35225E-02 -0.10378E-01
  0.25810E-02 -0.31071E-02 -0.10413E-01
  0.33388E-02 -0.24480E-02 -0.10488E-01
  0.38099E-02 -0.15670E-02 -0.10507E-01
  0.40798E-02 -0.59749E-03 -0.10438E-01
  0.11580E-02  0.68844E-03 -0.93277E-02
  0.18848E-02  0.12587E-02 -0.93131E-02
  0.24661E-02  0.62151E-03 -0.93219E-02
  0.17888E-02 -0.30885E-03 -0.93420E-02
  0.32298E-02  0.17125E-03 -0.93407E-02
  0.29478E-02 -0.67138E-03 -0.93566E-02
  0.14415E-02  0.18738E-02 -0.93094E-02
  0.79468E-03  0.14776E-02 -0.93311E-02
  0.24068E-03  0.30917E-03 -0.93388E-02
  0.23707E-06  0.11874E-02 -0.93506E-02
  0.11084E-02  0.23167E-02 -0.92954E-02
  0.12891E-02  0.28998E-02 -0.92391E-02
  0.19033E-02  0.24876E-02 -0.92740E-02
  0.55849E-03  0.22001E-02 -0.93079E-02
  0.54249E-03  0.29876E-02 -0.92015E-02
 -0.64088E-03 -0.10016E-02 -0.93392E-02
 -0.75053E-03  0.95107E-04 -0.93515E-02
  0.56744E-03 -0.68519E-03 -0.93426E-02
 -0.16979E-02 -0.71179E-03 -0.93507E-02
 -0.17236E-02  0.97210E-04 -0.93695E-02
 -0.25685E-02 -0.83737E-03 -0.93898E-02
 -0.26608E-02 -0.52406E-04 -0.93859E-02
 -0.23659E-02 -0.15647E-02 -0.93785E-02
 -0.17797E-02 -0.13398E-02 -0.93507E-02
 -0.86810E-03  0.10147E-02 -0.93667E-02
 -0.12895E-02 -0.17446E-02 -0.93495E-02
 -0.17771E-03  0.20462E-02 -0.93161E-02
 -0.96436E-03  0.18601E-02 -0.93091E-02
 -0.17312E-02  0.16374E-02 -0.92750E-02
 -0.17419E-02  0.90363E-03 -0.93628E-02
 -0.32127E-04 -0.19603E-02 -0.93552E-02
 -0.78811E-03 -0.23464E-02 -0.93570E-02
  0.91238E-03 -0.16750E-02 -0.93533E-02
  0.18710E-02 -0.14707E-02 -0.93525E-02
  0.34348E-02  0.79086E-03 -0.93250E-02
  0.29987E-02  0.12845E-02 -0.93078E-02
  0.24664E-02  0.19135E-02 -0.92920E-02
 -0.27476E-03  0.29086E-02 -0.91485E-02
 -0.10662E-02  0.26391E-02 -0.90914E-02
 -0.17770E-02  0.22378E-02 -0.90380E-02
 -0.23228E-02  0.18334E-02 -0.89904E-02
 -0.24728E-02  0.13611E-02 -0.91830E-02
 -0.26215E-02  0.70038E-03 -0.93223E-02
 -0.19336E-02 -0.21659E-02 -0.93661E-02
 -0.14178E-02 -0.27027E-02 -0.93581E-02
 -0.99222E-03 -0.31146E-02 -0.93383E-02
 -0.41698E-03 -0.30051E-02 -0.93282E-02
  0.35536E-03 -0.28279E-02 -0.93074E-02
  0.12172E-02 -0.26145E-02 -0.92898E-02
  0.20370E-02 -0.23946E-02 -0.92912E-02
  0.26768E-02 -0.22222E-02 -0.93030E-02
  0.27918E-02 -0.15448E-02 -0.93486E-02
  0.41114E-02  0.95599E-03 -0.93321E-02
  0.41782E-02 -0.82232E-05 -0.93642E-02
  0.37326E-02  0.18581E-02 -0.92987E-02
  0.31140E-02  0.26671E-02 -0.92663E-02
  0.23592E-02  0.33380E-02 -0.92145E-02
  0.15099E-02  0.37949E-02 -0.91154E-02
  0.59046E-03  0.39731E-02 -0.89639E-02
 -0.35655E-03  0.38496E-02 -0.87734E-02
 -0.12548E-02  0.33823E-02 -0.85591E-02
 -0.20517E-02  0.26010E-02 -0.84448E-02
 -0.27351E-02  0.17169E-02 -0.85728E-02
 -0.32731E-02  0.94787E-03 -0.88999E-02
 -0.35952E-02  0.26857E-03 -0.92208E-02
 -0.36893E-02 -0.42799E-03 -0.94260E-02
 -0.35651E-02 -0.11767E-02 -0.94868E-02
 -0.32332E-02 -0.19358E-02 -0.94547E-02
 -0.26954E-02 -0.26388E-02 -0.93979E-02
 -0.19713E-02 -0.32230E-02 -0.93488E-02
 -0.11357E-02 -0.36234E-02 -0.92993E-02
 -0.26410E-03 -0.37998E-02 -0.92212E-02
  0.64697E-03 -0.37954E-02 -0.91248E-02
  0.15913E-02 -0.36636E-02 -0.90618E-02
  0.24863E-02 -0.33700E-02 -0.90930E-02
  0.32103E-02 -0.28073E-02 -0.92202E-02
  0.37065E-02 -0.19758E-02 -0.93360E-02
  0.40206E-02 -0.10048E-02 -0.93776E-02
  0.10803E-02  0.68952E-03 -0.83457E-02
  0.17868E-02  0.12468E-02 -0.83428E-02
  0.23489E-02  0.59864E-03 -0.83440E-02
  0.16968E-02 -0.31963E-03 -0.83485E-02
  0.30496E-02  0.12042E-03 -0.83491E-02
  0.27680E-02 -0.70966E-03 -0.83430E-02
  0.13370E-02  0.18613E-02 -0.83465E-02
  0.70085E-03  0.14792E-02 -0.83548E-02
  0.16853E-03  0.31879E-03 -0.83507E-02
 -0.82067E-04  0.11970E-02 -0.83647E-02
  0.10028E-02  0.23026E-02 -0.83445E-02
  0.11949E-02  0.28684E-02 -0.83184E-02
  0.17985E-02  0.24541E-02 -0.83347E-02
  0.46190E-03  0.21974E-02 -0.83514E-02
  0.46347E-03  0.29762E-02 -0.82959E-02
 -0.71980E-03 -0.99063E-03 -0.83510E-02
 -0.82415E-03  0.10415E-03 -0.83590E-02
  0.49671E-03 -0.68255E-03 -0.83510E-02
 -0.17795E-02 -0.69647E-03 -0.83599E-02
 -0.17937E-02  0.10703E-03 -0.83730E-02
 -0.26482E-02 -0.79359E-03 -0.83846E-02
 -0.27249E-02 -0.58861E-06 -0.83868E-02
 -0.24654E-02 -0.15179E-02 -0.83712E-02
 -0.18720E-02 -0.13139E-02 -0.83579E-02
 -0.94220E-03  0.10241E-02 -0.83754E-02
 -0.13882E-02 -0.17224E-02 -0.83527E-02
 -0.25943E-03  0.20539E-02 -0.83558E-02
 -0.10376E-02  0.18781E-02 -0.83520E-02
 -0.17989E-02  0.16834E-02 -0.83336E-02
 -0.18082E-02  0.92313E-03 -0.83765E-02
 -0.12825E-03 -0.19602E-02 -0.83510E-02
 -0.90804E-03 -0.23329E-02 -0.83451E-02
  0.80745E-03 -0.16854E-02 -0.83477E-02
  0.17204E-02 -0.14877E-02 -0.83387E-02
  0.32243E-02  0.73345E-03 -0.83521E-02
  0.28317E-02  0.12441E-02 -0.83474E-02
  0.23422E-02  0.18814E-02 -0.83419E-02
 -0.33684E-03  0.29212E-02 -0.82603E-02
 -0.11221E-02  0.26820E-02 -0.82217E-02
 -0.18341E-02  0.23288E-02 -0.81906E-02
 -0.23800E-02  0.19911E-02 -0.81670E-02
 -0.25329E-02  0.14853E-02 -0.82830E-02
 -0.26803E-02  0.78273E-03 -0.83572E-02
 -0.20574E-02 -0.21229E-02 -0.83512E-02
 -0.15767E-02 -0.26711E-02 -0.83301E-02
 -0.11843E-02 -0.30988E-02 -0.83043E-02
 -0.58025E-03 -0.30079E-02 -0.83082E-02
  0.20799E-03 -0.28455E-02 -0.83004E-02
  0.10421E-02 -0.26341E-02 -0.82846E-02
  0.17981E-02 -0.24071E-02 -0.82745E-02
  0.23790E-02 -0.22329E-02 -0.82707E-02
  0.25552E-02 -0.15694E-02 -0.83177E-02
  0.37990E-02  0.86291E-03 -0.83648E-02
  0.38941E-02 -0.10935E-03 -0.83567E-02
  0.34710E-02  0.17886E-02 -0.83623E-02
  0.29527E-02  0.26089E-02 -0.83464E-02
  0.22678E-02  0.32712E-02 -0.83141E-02
  0.14552E-02  0.37299E-02 -0.82550E-02
  0.55747E-03  0.39440E-02 -0.81552E-02
 -0.37707E-03  0.38771E-02 -0.80198E-02
 -0.12680E-02  0.34814E-02 -0.78687E-02
 -0.20719E-02  0.28047E-02 -0.77985E-02
 -0.27774E-02  0.20359E-02 -0.79073E-02
 -0.33282E-02  0.12914E-02 -0.81220E-02
 -0.36589E-02  0.53070E-03 -0.83029E-02
 -0.37610E-02 -0.24907E-03 -0.84149E-02
 -0.36597E-02 -0.10481E-02 -0.84420E-02
 -0.33635E-02 -0.18345E-02 -0.84061E-02
 -0.28741E-02 -0.25561E-02 -0.83460E-02
 -0.22095E-02 -0.31669E-02 -0.82904E-02
 -0.14026E-02 -0.36070E-02 -0.82520E-02
 -0.50494E-03 -0.38250E-02 -0.82134E-02
  0.41851E-03 -0.38382E-02 -0.81561E-02
  0.12997E-02 -0.36846E-02 -0.81010E-02
  0.20879E-02 -0.33546E-02 -0.81029E-02
  0.27673E-02 -0.27945E-02 -0.81799E-02
  0.33269E-02 -0.20079E-02 -0.82723E-02
  0.37230E-02 -0.10834E-02 -0.83316E-02
  0.10360E-02  0.68480E-03 -0.73585E-02
  0.17415E-02  0.12417E-02 -0.73578E-02
  0.23061E-02  0.59788E-03 -0.73557E-02
  0.16602E-02 -0.32707E-03 -0.73554E-02
  0.30081E-02  0.14306E-03 -0.73556E-02
  0.27391E-02 -0.68137E-03 -0.73517E-02
  0.12887E-02  0.18550E-02 -0.73622E-02
  0.65381E-03  0.14769E-02 -0.73665E-02
  0.12858E-03  0.31641E-03 -0.73615E-02
 -0.12257E-03  0.11954E-02 -0.73728E-02
  0.95439E-03  0.22950E-02 -0.73635E-02
  0.11497E-02  0.28531E-02 -0.73519E-02
  0.17545E-02  0.24414E-02 -0.73577E-02
  0.41700E-03  0.21924E-02 -0.73678E-02
  0.42195E-03  0.29673E-02 -0.73401E-02
 -0.75653E-03 -0.99399E-03 -0.73579E-02
 -0.85881E-03  0.99986E-04 -0.73669E-02
  0.46067E-03 -0.69096E-03 -0.73567E-02
 -0.18173E-02 -0.69757E-03 -0.73655E-02
 -0.18254E-02  0.10274E-03 -0.73759E-02
 -0.26925E-02 -0.77790E-03 -0.73784E-02
 -0.27623E-02  0.27581E-04 -0.73836E-02
 -0.25131E-02 -0.15107E-02 -0.73695E-02
 -0.19143E-02 -0.13117E-02 -0.73625E-02
 -0.97624E-03  0.10200E-02 -0.73801E-02
 -0.14290E-02 -0.17225E-02 -0.73578E-02
 -0.29825E-03  0.20513E-02 -0.73713E-02
 -0.10737E-02  0.18818E-02 -0.73704E-02
 -0.18337E-02  0.17067E-02 -0.73609E-02
 -0.18386E-02  0.92539E-03 -0.73821E-02
 -0.16108E-03 -0.19708E-02 -0.73547E-02
 -0.94628E-03 -0.23389E-02 -0.73536E-02
  0.77641E-03 -0.16977E-02 -0.73533E-02
  0.16915E-02 -0.14851E-02 -0.73500E-02
  0.31752E-02  0.75676E-03 -0.73586E-02
  0.27853E-02  0.12507E-02 -0.73586E-02
  0.22994E-02  0.18758E-02 -0.73585E-02
 -0.37302E-03  0.29236E-02 -0.73183E-02
 -0.11587E-02  0.27089E-02 -0.72944E-02
 -0.18735E-02  0.23925E-02 -0.72762E-02
 -0.24210E-02  0.20959E-02 -0.72629E-02
 -0.25692E-02  0.15603E-02 -0.73322E-02
 -0.27140E-02  0.83138E-03 -0.73720E-02
 -0.21038E-02 -0.21233E-02 -0.73590E-02
 -0.16208E-02 -0.26775E-02 -0.73503E-02
 -0.12253E-02 -0.31125E-02 -0.73433E-02
 -0.61405E-03 -0.30247E-02 -0.73446E-02
  0.18120E-03 -0.28626E-02 -0.73421E-02
  0.10183E-02 -0.26349E-02 -0.73360E-02
  0.17765E-02 -0.23730E-02 -0.73308E-02
  0.23624E-02 -0.21614E-02 -0.73280E-02
  0.25343E-02 -0.15206E-02 -0.73425E-02
  0.37409E-02  0.91352E-03 -0.73637E-02
  0.38488E-02 -0.33226E-04 -0.73567E-02
  0.34198E-02  0.18120E-02 -0.73663E-02
  0.29117E-02  0.26054E-02 -0.73621E-02
  0.22311E-02  0.32467E-02 -0.73498E-02
  0.14180E-02  0.36987E-02 -0.73225E-02
  0.51958E-03  0.39270E-02 -0.72660E-02
 -0.41248E-03  0.38929E-02 -0.71771E-02
 -0.13064E-02  0.35623E-02 -0.70752E-02
 -0.21189E-02  0.29737E-02 -0.70299E-02
 -0.28268E-02  0.22567E-02 -0.71019E-02
 -0.33776E-02  0.15107E-02 -0.72376E-02
 -0.37130E-02  0.71997E-03 -0.73423E-02
 -0.38232E-02 -0.11934E-03 -0.73972E-02
 -0.37265E-02 -0.98157E-03 -0.74062E-02
 -0.34260E-02 -0.18155E-02 -0.73870E-02
 -0.29296E-02 -0.25660E-02 -0.73605E-02
 -0.22608E-02 -0.31864E-02 -0.73400E-02
 -0.14469E-02 -0.36312E-02 -0.73308E-02
 -0.53375E-03 -0.38605E-02 -0.73252E-02
  0.40368E-03 -0.38637E-02 -0.73105E-02
  0.12914E-02 -0.36515E-02 -0.72898E-02
  0.20833E-02 -0.32383E-02 -0.72827E-02
  0.27661E-02 -0.26340E-02 -0.72996E-02
  0.33229E-02 -0.18623E-02 -0.73264E-02
  0.37025E-02 -0.97557E-03 -0.73459E-02
  0.10331E-02  0.67921E-03 -0.63734E-02
  0.17407E-02  0.12377E-02 -0.63732E-02
  0.23118E-02  0.59743E-03 -0.63713E-02
  0.16643E-02 -0.33226E-03 -0.63703E-02
  0.30285E-02  0.15737E-03 -0.63713E-02
  0.27697E-02 -0.66650E-03 -0.63716E-02
  0.12840E-02  0.18487E-02 -0.63761E-02
  0.64878E-03  0.14706E-02 -0.63782E-02
  0.12393E-03  0.31058E-03 -0.63750E-02
 -0.12842E-03  0.11875E-02 -0.63818E-02
  0.94620E-03  0.22863E-02 -0.63775E-02
  0.11374E-02  0.28411E-02 -0.63733E-02
  0.17485E-02  0.24337E-02 -0.63745E-02
  0.40916E-03  0.21824E-02 -0.63798E-02
  0.40784E-03  0.29550E-02 -0.63681E-02
 -0.76238E-03 -0.10008E-02 -0.63714E-02
 -0.86467E-03  0.91481E-04 -0.63780E-02
  0.45770E-03 -0.69808E-03 -0.63704E-02
 -0.18260E-02 -0.70461E-03 -0.63762E-02
 -0.18345E-02  0.93048E-04 -0.63827E-02
 -0.27100E-02 -0.77434E-03 -0.63818E-02
 -0.27812E-02  0.39415E-04 -0.63865E-02
 -0.25274E-02 -0.15128E-02 -0.63769E-02
 -0.19242E-02 -0.13170E-02 -0.63739E-02
 -0.98459E-03  0.10092E-02 -0.63861E-02
 -0.14351E-02 -0.17285E-02 -0.63713E-02
 -0.30691E-03  0.20400E-02 -0.63822E-02
 -0.10864E-02  0.18739E-02 -0.63828E-02
 -0.18517E-02  0.17142E-02 -0.63788E-02
 -0.18514E-02  0.91901E-03 -0.63875E-02
 -0.15945E-03 -0.19795E-02 -0.63695E-02
 -0.94390E-03 -0.23466E-02 -0.63705E-02
  0.78330E-03 -0.17064E-02 -0.63695E-02
  0.17139E-02 -0.14866E-02 -0.63706E-02
  0.31973E-02  0.77291E-03 -0.63718E-02
  0.27977E-02  0.12559E-02 -0.63723E-02
  0.23020E-02  0.18730E-02 -0.63734E-02
 -0.38807E-03  0.29156E-02 -0.63566E-02
 -0.11780E-02  0.27178E-02 -0.63444E-02
 -0.18974E-02  0.24303E-02 -0.63361E-02
 -0.24464E-02  0.21668E-02 -0.63298E-02
 -0.25916E-02  0.16076E-02 -0.63648E-02
 -0.27343E-02  0.85805E-03 -0.63833E-02
 -0.21093E-02 -0.21299E-02 -0.63731E-02
 -0.16134E-02 -0.26863E-02 -0.63721E-02
 -0.12060E-02 -0.31230E-02 -0.63736E-02
 -0.59644E-03 -0.30354E-02 -0.63734E-02
  0.20040E-03 -0.28728E-02 -0.63733E-02
  0.10482E-02 -0.26388E-02 -0.63734E-02
  0.18273E-02 -0.23618E-02 -0.63742E-02
  0.24345E-02 -0.21323E-02 -0.63754E-02
  0.25866E-02 -0.14990E-02 -0.63731E-02
  0.37816E-02  0.94769E-03 -0.63729E-02
  0.38922E-02  0.14170E-04 -0.63730E-02
  0.34490E-02  0.18287E-02 -0.63738E-02
  0.29196E-02  0.26055E-02 -0.63740E-02
  0.22230E-02  0.32342E-02 -0.63718E-02
  0.13978E-02  0.36798E-02 -0.63625E-02
  0.49130E-03  0.39120E-02 -0.63362E-02
 -0.44119E-03  0.38975E-02 -0.62861E-02
 -0.13373E-02  0.36148E-02 -0.62277E-02
 -0.21524E-02  0.30955E-02 -0.62061E-02
 -0.28544E-02  0.24213E-02 -0.62461E-02
 -0.34042E-02  0.16679E-02 -0.63181E-02
 -0.37492E-02  0.84556E-03 -0.63718E-02
 -0.38672E-02 -0.39051E-04 -0.63932E-02
 -0.37659E-02 -0.94381E-03 -0.63926E-02
 -0.34493E-02 -0.18085E-02 -0.63837E-02
 -0.29311E-02 -0.25767E-02 -0.63761E-02
 -0.22399E-02 -0.32017E-02 -0.63741E-02
 -0.14110E-02 -0.36454E-02 -0.63771E-02
 -0.49285E-03 -0.38761E-02 -0.63818E-02
  0.45163E-03 -0.38749E-02 -0.63842E-02
  0.13627E-02 -0.36416E-02 -0.63842E-02
  0.21901E-02 -0.31947E-02 -0.63833E-02
  0.28910E-02 -0.25656E-02 -0.63811E-02
  0.34289E-02 -0.17925E-02 -0.63783E-02
  0.37709E-02 -0.91696E-03 -0.63751E-02
  0.10362E-02  0.67612E-03 -0.53919E-02
  0.17437E-02  0.12350E-02 -0.53919E-02
  0.23167E-02  0.59533E-03 -0.53911E-02
  0.16687E-02 -0.33441E-03 -0.53905E-02
  0.30376E-02  0.15648E-03 -0.53919E-02
  0.27819E-02 -0.66802E-03 -0.53930E-02
  0.12848E-02  0.18439E-02 -0.53932E-02
  0.64999E-03  0.14657E-02 -0.53939E-02
  0.12531E-03  0.30712E-03 -0.53925E-02
 -0.12865E-03  0.11813E-02 -0.53954E-02
  0.94425E-03  0.22792E-02 -0.53941E-02
  0.11320E-02  0.28321E-02 -0.53931E-02
  0.17465E-02  0.24282E-02 -0.53929E-02
  0.40738E-03  0.21735E-02 -0.53950E-02
  0.40108E-03  0.29440E-02 -0.53918E-02
 -0.76381E-03 -0.10048E-02 -0.53908E-02
 -0.86578E-03  0.85753E-04 -0.53936E-02
  0.45874E-03 -0.70036E-03 -0.53903E-02
 -0.18296E-02 -0.70975E-03 -0.53928E-02
 -0.18394E-02  0.86001E-04 -0.53955E-02
 -0.27193E-02 -0.77429E-03 -0.53947E-02
 -0.27928E-02  0.43784E-04 -0.53978E-02
 -0.25349E-02 -0.15151E-02 -0.53923E-02
 -0.19288E-02 -0.13211E-02 -0.53917E-02
 -0.98873E-03  0.10009E-02 -0.53971E-02
 -0.14378E-02 -0.17323E-02 -0.53907E-02
 -0.31052E-03  0.20297E-02 -0.53962E-02
 -0.10954E-02  0.18653E-02 -0.53970E-02
 -0.18675E-02  0.17164E-02 -0.53968E-02
 -0.18611E-02  0.91332E-03 -0.53982E-02
 -0.15871E-03 -0.19826E-02 -0.53902E-02
 -0.94341E-03 -0.23501E-02 -0.53907E-02
  0.78616E-03 -0.17095E-02 -0.53905E-02
  0.17227E-02 -0.14904E-02 -0.53921E-02
  0.32069E-02  0.77277E-03 -0.53915E-02
  0.28038E-02  0.12540E-02 -0.53914E-02
  0.23041E-02  0.18694E-02 -0.53921E-02
 -0.39738E-03  0.29059E-02 -0.53880E-02
 -0.11933E-02  0.27193E-02 -0.53846E-02
 -0.19195E-02  0.24523E-02 -0.53836E-02
 -0.24714E-02  0.22135E-02 -0.53835E-02
 -0.26122E-02  0.16375E-02 -0.53943E-02
 -0.27498E-02  0.87263E-03 -0.53988E-02
 -0.21125E-02 -0.21337E-02 -0.53911E-02
 -0.16107E-02 -0.26906E-02 -0.53913E-02
 -0.11985E-02 -0.31272E-02 -0.53929E-02
 -0.59023E-03 -0.30390E-02 -0.53932E-02
  0.20668E-03 -0.28765E-02 -0.53939E-02
  0.10580E-02 -0.26434E-02 -0.53955E-02
  0.18441E-02 -0.23668E-02 -0.53977E-02
  0.24584E-02 -0.21373E-02 -0.53999E-02
  0.26050E-02 -0.15021E-02 -0.53960E-02
  0.37960E-02  0.94862E-03 -0.53920E-02
  0.39082E-02  0.16563E-04 -0.53944E-02
  0.34586E-02  0.18271E-02 -0.53916E-02
  0.29210E-02  0.26010E-02 -0.53921E-02
  0.22176E-02  0.32260E-02 -0.53923E-02
  0.13866E-02  0.36677E-02 -0.53905E-02
  0.47527E-03  0.38991E-02 -0.53822E-02
 -0.45989E-03  0.38954E-02 -0.53636E-02
 -0.13617E-02  0.36464E-02 -0.53431E-02
 -0.21828E-02  0.31769E-02 -0.53398E-02
 -0.28832E-02  0.25367E-02 -0.53586E-02
 -0.34276E-02  0.17743E-02 -0.53846E-02
 -0.37736E-02  0.91743E-03 -0.54005E-02
 -0.38945E-02 -0.35529E-07 -0.54027E-02
 -0.37889E-02 -0.92676E-03 -0.53983E-02
 -0.34627E-02 -0.18049E-02 -0.53936E-02
 -0.29331E-02 -0.25804E-02 -0.53912E-02
 -0.22312E-02 -0.32077E-02 -0.53921E-02
 -0.13968E-02 -0.36505E-02 -0.53954E-02
 -0.47871E-03 -0.38803E-02 -0.53996E-02
  0.46683E-03 -0.38800E-02 -0.54038E-02
  0.13848E-02 -0.36486E-02 -0.54079E-02
  0.22229E-02 -0.32018E-02 -0.54109E-02
  0.29306E-02 -0.25705E-02 -0.54094E-02
  0.34645E-02 -0.17943E-02 -0.54041E-02
  0.37954E-02 -0.91583E-03 -0.53985E-02
  0.10372E-02  0.67547E-03 -0.44124E-02
  0.17442E-02  0.12344E-02 -0.44123E-02
  0.23172E-02  0.59472E-03 -0.44121E-02
  0.16690E-02 -0.33419E-03 -0.44120E-02
  0.30375E-02  0.15483E-03 -0.44130E-02
  0.27821E-02 -0.66975E-03 -0.44143E-02
  0.12847E-02  0.18419E-02 -0.44127E-02
  0.65026E-03  0.14640E-02 -0.44129E-02
  0.12581E-03  0.30653E-03 -0.44125E-02
 -0.12880E-03  0.11793E-02 -0.44130E-02
  0.94321E-03  0.22758E-02 -0.44130E-02
  0.11297E-02  0.28271E-02 -0.44130E-02
  0.17452E-02  0.24257E-02 -0.44125E-02
  0.40659E-03  0.21690E-02 -0.44133E-02
  0.39830E-03  0.29375E-02 -0.44135E-02
 -0.76467E-03 -0.10060E-02 -0.44121E-02
 -0.86619E-03  0.83772E-04 -0.44126E-02
  0.45857E-03 -0.70003E-03 -0.44118E-02
 -0.18312E-02 -0.71177E-03 -0.44123E-02
 -0.18415E-02  0.82800E-04 -0.44128E-02
 -0.27229E-02 -0.77483E-03 -0.44125E-02
 -0.27977E-02  0.45235E-04 -0.44141E-02
 -0.25381E-02 -0.15163E-02 -0.44116E-02
 -0.19310E-02 -0.13225E-02 -0.44120E-02
 -0.99065E-03  0.99755E-03 -0.44132E-02
 -0.14396E-02 -0.17333E-02 -0.44119E-02
 -0.31221E-03  0.20246E-02 -0.44136E-02
 -0.10999E-02  0.18609E-02 -0.44144E-02
 -0.18762E-02  0.17175E-02 -0.44160E-02
 -0.18660E-02  0.91053E-03 -0.44140E-02
 -0.15976E-03 -0.19826E-02 -0.44119E-02
 -0.94492E-03 -0.23506E-02 -0.44120E-02
  0.78497E-03 -0.17096E-02 -0.44122E-02
  0.17221E-02 -0.14917E-02 -0.44134E-02
  0.32070E-02  0.77144E-03 -0.44122E-02
  0.28038E-02  0.12525E-02 -0.44119E-02
  0.23038E-02  0.18677E-02 -0.44121E-02
 -0.40208E-03  0.28995E-02 -0.44140E-02
 -0.12020E-02  0.27197E-02 -0.44155E-02
 -0.19324E-02  0.24639E-02 -0.44183E-02
 -0.24868E-02  0.22378E-02 -0.44216E-02
 -0.26242E-02  0.16523E-02 -0.44195E-02
 -0.27575E-02  0.87928E-03 -0.44167E-02
 -0.21146E-02 -0.21353E-02 -0.44114E-02
 -0.16114E-02 -0.26921E-02 -0.44117E-02
 -0.11984E-02 -0.31284E-02 -0.44123E-02
 -0.59082E-03 -0.30394E-02 -0.44130E-02
  0.20559E-03 -0.28766E-02 -0.44138E-02
  0.10566E-02 -0.26447E-02 -0.44151E-02
  0.18427E-02 -0.23700E-02 -0.44171E-02
  0.24568E-02 -0.21428E-02 -0.44192E-02
  0.26041E-02 -0.15055E-02 -0.44166E-02
  0.37951E-02  0.94501E-03 -0.44123E-02
  0.39078E-02  0.12655E-04 -0.44154E-02
  0.34580E-02  0.18239E-02 -0.44113E-02
  0.29200E-02  0.25983E-02 -0.44114E-02
  0.22153E-02  0.32224E-02 -0.44119E-02
  0.13824E-02  0.36613E-02 -0.44128E-02
  0.46903E-03  0.38899E-02 -0.44134E-02
 -0.46924E-03  0.38914E-02 -0.44135E-02
 -0.13764E-02  0.36632E-02 -0.44157E-02
 -0.22024E-02  0.32219E-02 -0.44227E-02
 -0.29035E-02  0.25978E-02 -0.44291E-02
 -0.34431E-02  0.18273E-02 -0.44290E-02
 -0.37856E-02  0.95025E-03 -0.44242E-02
 -0.39057E-02  0.14814E-04 -0.44176E-02
 -0.37978E-02 -0.92250E-03 -0.44128E-02
 -0.34677E-02 -0.18053E-02 -0.44106E-02
 -0.29347E-02 -0.25829E-02 -0.44100E-02
 -0.22303E-02 -0.32107E-02 -0.44108E-02
 -0.13952E-02 -0.36524E-02 -0.44127E-02
 -0.47823E-03 -0.38808E-02 -0.44154E-02
  0.46636E-03 -0.38809E-02 -0.44185E-02
  0.13834E-02 -0.36523E-02 -0.44219E-02
  0.22204E-02 -0.32094E-02 -0.44254E-02
  0.29279E-02 -0.25801E-02 -0.44261E-02
  0.34630E-02 -0.18025E-02 -0.44235E-02
  0.37949E-02 -0.92124E-03 -0.44194E-02
  0.10373E-02  0.67572E-03 -0.34333E-02
  0.17442E-02  0.12347E-02 -0.34332E-02
  0.23171E-02  0.59493E-03 -0.34331E-02
  0.16687E-02 -0.33333E-03 -0.34332E-02
  0.30370E-02  0.15464E-03 -0.34340E-02
  0.27816E-02 -0.66936E-03 -0.34355E-02
  0.12846E-02  0.18413E-02 -0.34333E-02
  0.65011E-03  0.14641E-02 -0.34332E-02
  0.12574E-03  0.30716E-03 -0.34332E-02
 -0.12903E-03  0.11796E-02 -0.34327E-02
  0.94266E-03  0.22745E-02 -0.34333E-02
  0.11289E-02  0.28248E-02 -0.34336E-02
  0.17447E-02  0.24248E-02 -0.34331E-02
  0.40622E-03  0.21673E-02 -0.34332E-02
  0.39715E-03  0.29343E-02 -0.34347E-02
 -0.76520E-03 -0.10062E-02 -0.34332E-02
 -0.86642E-03  0.83554E-04 -0.34328E-02
  0.45809E-03 -0.69917E-03 -0.34331E-02
 -0.18318E-02 -0.71246E-03 -0.34327E-02
 -0.18423E-02  0.81433E-04 -0.34321E-02
 -0.27241E-02 -0.77550E-03 -0.34320E-02
 -0.27997E-02  0.45354E-04 -0.34327E-02
 -0.25389E-02 -0.15171E-02 -0.34321E-02
 -0.19319E-02 -0.13229E-02 -0.34328E-02
 -0.99138E-03  0.99692E-03 -0.34322E-02
 -0.14404E-02 -0.17334E-02 -0.34331E-02
 -0.31288E-03  0.20226E-02 -0.34331E-02
 -0.11018E-02  0.18587E-02 -0.34337E-02
 -0.18801E-02  0.17175E-02 -0.34358E-02
 -0.18681E-02  0.90923E-03 -0.34325E-02
 -0.16037E-03 -0.19822E-02 -0.34334E-02
 -0.94572E-03 -0.23505E-02 -0.34333E-02
  0.78386E-03 -0.17091E-02 -0.34336E-02
  0.17213E-02 -0.14917E-02 -0.34347E-02
  0.32068E-02  0.77148E-03 -0.34330E-02
  0.28036E-02  0.12522E-02 -0.34327E-02
  0.23038E-02  0.18670E-02 -0.34329E-02
 -0.40436E-03  0.28958E-02 -0.34368E-02
 -0.12063E-02  0.27190E-02 -0.34401E-02
 -0.19385E-02  0.24678E-02 -0.34443E-02
 -0.24942E-02  0.22470E-02 -0.34487E-02
 -0.26300E-02  0.16578E-02 -0.34415E-02
 -0.27612E-02  0.88156E-03 -0.34358E-02
 -0.21150E-02 -0.21359E-02 -0.34324E-02
 -0.16112E-02 -0.26925E-02 -0.34328E-02
 -0.11980E-02 -0.31287E-02 -0.34334E-02
 -0.59103E-03 -0.30391E-02 -0.34341E-02
  0.20482E-03 -0.28760E-02 -0.34349E-02
  0.10554E-02 -0.26444E-02 -0.34361E-02
  0.18410E-02 -0.23700E-02 -0.34379E-02
  0.24546E-02 -0.21435E-02 -0.34400E-02
  0.26025E-02 -0.15054E-02 -0.34377E-02
  0.37942E-02  0.94326E-03 -0.34330E-02
  0.39067E-02  0.11377E-04 -0.34364E-02
  0.34578E-02  0.18224E-02 -0.34319E-02
  0.29204E-02  0.25970E-02 -0.34320E-02
  0.22152E-02  0.32208E-02 -0.34324E-02
  0.13813E-02  0.36582E-02 -0.34340E-02
  0.46647E-03  0.38852E-02 -0.34382E-02
 -0.47434E-03  0.38887E-02 -0.34458E-02
 -0.13845E-02  0.36686E-02 -0.34570E-02
 -0.22123E-02  0.32389E-02 -0.34674E-02
 -0.29137E-02  0.26220E-02 -0.34688E-02
 -0.34519E-02  0.18485E-02 -0.34587E-02
 -0.37922E-02  0.96270E-03 -0.34455E-02
 -0.39107E-02  0.19092E-04 -0.34355E-02
 -0.38006E-02 -0.92275E-03 -0.34310E-02
 -0.34683E-02 -0.18070E-02 -0.34304E-02
 -0.29339E-02 -0.25847E-02 -0.34308E-02
 -0.22288E-02 -0.32123E-02 -0.34317E-02
 -0.13938E-02 -0.36533E-02 -0.34333E-02
 -0.47751E-03 -0.38807E-02 -0.34358E-02
  0.46603E-03 -0.38803E-02 -0.34386E-02
  0.13818E-02 -0.36519E-02 -0.34418E-02
  0.22174E-02 -0.32097E-02 -0.34450E-02
  0.29241E-02 -0.25809E-02 -0.34461E-02
  0.34596E-02 -0.18030E-02 -0.34444E-02
  0.37929E-02 -0.92169E-03 -0.34408E-02
  0.10372E-02  0.67615E-03 -0.24541E-02
  0.17440E-02  0.12353E-02 -0.24541E-02
  0.23169E-02  0.59544E-03 -0.24539E-02
  0.16685E-02 -0.33259E-03 -0.24541E-02
  0.30369E-02  0.15512E-03 -0.24549E-02
  0.27818E-02 -0.66840E-03 -0.24567E-02
  0.12845E-02  0.18412E-02 -0.24541E-02
  0.64989E-03  0.14647E-02 -0.24538E-02
  0.12550E-03  0.30806E-03 -0.24539E-02
 -0.12921E-03  0.11808E-02 -0.24531E-02
  0.94225E-03  0.22742E-02 -0.24540E-02
  0.11283E-02  0.28236E-02 -0.24544E-02
  0.17441E-02  0.24247E-02 -0.24539E-02
  0.40609E-03  0.21666E-02 -0.24538E-02
  0.39668E-03  0.29330E-02 -0.24558E-02
 -0.76558E-03 -0.10066E-02 -0.24541E-02
 -0.86656E-03  0.83826E-04 -0.24533E-02
  0.45764E-03 -0.69853E-03 -0.24540E-02
 -0.18323E-02 -0.71284E-03 -0.24532E-02
 -0.18426E-02  0.80830E-04 -0.24523E-02
 -0.27247E-02 -0.77513E-03 -0.24524E-02
 -0.28006E-02  0.45957E-04 -0.24528E-02
 -0.25396E-02 -0.15169E-02 -0.24527E-02
 -0.19325E-02 -0.13231E-02 -0.24535E-02
 -0.99153E-03  0.99745E-03 -0.24522E-02
 -0.14408E-02 -0.17336E-02 -0.24540E-02
 -0.31295E-03  0.20220E-02 -0.24535E-02
 -0.11022E-02  0.18578E-02 -0.24538E-02
 -0.18817E-02  0.17173E-02 -0.24560E-02
 -0.18689E-02  0.90878E-03 -0.24524E-02
 -0.16057E-03 -0.19823E-02 -0.24544E-02
 -0.94624E-03 -0.23506E-02 -0.24543E-02
  0.78326E-03 -0.17091E-02 -0.24546E-02
  0.17213E-02 -0.14917E-02 -0.24558E-02
  0.32071E-02  0.77246E-03 -0.24538E-02
  0.28036E-02  0.12526E-02 -0.24535E-02
  0.23036E-02  0.18670E-02 -0.24537E-02
 -0.40512E-03  0.28938E-02 -0.24585E-02
 -0.12079E-02  0.27184E-02 -0.24623E-02
 -0.19409E-02  0.24689E-02 -0.24666E-02
 -0.24973E-02  0.22499E-02 -0.24710E-02
 -0.26326E-02  0.16596E-02 -0.24622E-02
 -0.27629E-02  0.88268E-03 -0.24559E-02
 -0.21154E-02 -0.21358E-02 -0.24533E-02
 -0.16113E-02 -0.26925E-02 -0.24539E-02
 -0.11979E-02 -0.31286E-02 -0.24546E-02
 -0.59106E-03 -0.30391E-02 -0.24554E-02
  0.20474E-03 -0.28759E-02 -0.24563E-02
  0.10553E-02 -0.26443E-02 -0.24578E-02
  0.18412E-02 -0.23694E-02 -0.24599E-02
  0.24547E-02 -0.21426E-02 -0.24623E-02
  0.26025E-02 -0.15043E-02 -0.24594E-02
  0.37942E-02  0.94321E-03 -0.24537E-02
  0.39067E-02  0.11798E-04 -0.24574E-02
  0.34578E-02  0.18224E-02 -0.24526E-02
  0.29204E-02  0.25970E-02 -0.24528E-02
  0.22149E-02  0.32204E-02 -0.24532E-02
  0.13807E-02  0.36571E-02 -0.24551E-02
  0.46526E-03  0.38835E-02 -0.24606E-02
 -0.47646E-03  0.38879E-02 -0.24713E-02
 -0.13875E-02  0.36711E-02 -0.24857E-02
 -0.22161E-02  0.32450E-02 -0.24965E-02
 -0.29181E-02  0.26297E-02 -0.24948E-02
 -0.34565E-02  0.18558E-02 -0.24817E-02
 -0.37961E-02  0.96844E-03 -0.24669E-02
 -0.39138E-02  0.23136E-04 -0.24562E-02
 -0.38026E-02 -0.91984E-03 -0.24515E-02
 -0.34694E-02 -0.18052E-02 -0.24508E-02
 -0.29344E-02 -0.25837E-02 -0.24515E-02
 -0.22289E-02 -0.32117E-02 -0.24527E-02
 -0.13936E-02 -0.36532E-02 -0.24547E-02
 -0.47694E-03 -0.38806E-02 -0.24576E-02
  0.46674E-03 -0.38797E-02 -0.24611E-02
  0.13823E-02 -0.36505E-02 -0.24652E-02
  0.22175E-02 -0.32073E-02 -0.24690E-02
  0.29240E-02 -0.25780E-02 -0.24699E-02
  0.34594E-02 -0.18004E-02 -0.24672E-02
  0.37927E-02 -0.92008E-03 -0.24625E-02
  0.10371E-02  0.67655E-03 -0.14748E-02
  0.17437E-02  0.12359E-02 -0.14748E-02
  0.23167E-02  0.59605E-03 -0.14747E-02
  0.16683E-02 -0.33205E-03 -0.14748E-02
  0.30369E-02  0.15602E-03 -0.14756E-02
  0.27824E-02 -0.66741E-03 -0.14777E-02
  0.12843E-02  0.18413E-02 -0.14747E-02
  0.64969E-03  0.14655E-02 -0.14745E-02
  0.12525E-03  0.30897E-03 -0.14746E-02
 -0.12934E-03  0.11822E-02 -0.14737E-02
  0.94180E-03  0.22739E-02 -0.14746E-02
  0.11275E-02  0.28229E-02 -0.14750E-02
  0.17433E-02  0.24249E-02 -0.14745E-02
  0.40605E-03  0.21662E-02 -0.14744E-02
  0.39635E-03  0.29322E-02 -0.14767E-02
 -0.76595E-03 -0.10072E-02 -0.14747E-02
 -0.86667E-03  0.84258E-04 -0.14738E-02
  0.45721E-03 -0.69812E-03 -0.14746E-02
 -0.18327E-02 -0.71288E-03 -0.14739E-02
 -0.18426E-02  0.80670E-04 -0.14728E-02
 -0.27253E-02 -0.77383E-03 -0.14732E-02
 -0.28008E-02  0.47202E-04 -0.14735E-02
 -0.25406E-02 -0.15156E-02 -0.14734E-02
 -0.19333E-02 -0.13229E-02 -0.14742E-02
 -0.99142E-03  0.99841E-03 -0.14726E-02
 -0.14414E-02 -0.17337E-02 -0.14747E-02
 -0.31273E-03  0.20218E-02 -0.14741E-02
 -0.11020E-02  0.18574E-02 -0.14743E-02
 -0.18820E-02  0.17175E-02 -0.14764E-02
 -0.18690E-02  0.90879E-03 -0.14726E-02
 -0.16080E-03 -0.19827E-02 -0.14751E-02
 -0.94709E-03 -0.23508E-02 -0.14750E-02
  0.78273E-03 -0.17095E-02 -0.14753E-02
  0.17215E-02 -0.14921E-02 -0.14768E-02
  0.32073E-02  0.77414E-03 -0.14745E-02
  0.28033E-02  0.12535E-02 -0.14742E-02
  0.23031E-02  0.18674E-02 -0.14744E-02
 -0.40530E-03  0.28924E-02 -0.14801E-02
 -0.12083E-02  0.27185E-02 -0.14843E-02
 -0.19415E-02  0.24699E-02 -0.14885E-02
 -0.24981E-02  0.22515E-02 -0.14924E-02
 -0.26333E-02  0.16604E-02 -0.14826E-02
 -0.27632E-02  0.88375E-03 -0.14763E-02
 -0.21165E-02 -0.21350E-02 -0.14739E-02
 -0.16123E-02 -0.26919E-02 -0.14745E-02
 -0.11991E-02 -0.31281E-02 -0.14753E-02
 -0.59192E-03 -0.30391E-02 -0.14762E-02
  0.20428E-03 -0.28761E-02 -0.14775E-02
  0.10552E-02 -0.26446E-02 -0.14793E-02
  0.18417E-02 -0.23691E-02 -0.14819E-02
  0.24556E-02 -0.21420E-02 -0.14846E-02
  0.26031E-02 -0.15035E-02 -0.14810E-02
  0.37940E-02  0.94451E-03 -0.14742E-02
  0.39066E-02  0.13434E-04 -0.14783E-02
  0.34571E-02  0.18236E-02 -0.14731E-02
  0.29193E-02  0.25980E-02 -0.14731E-02
  0.22137E-02  0.32210E-02 -0.14734E-02
  0.13794E-02  0.36570E-02 -0.14755E-02
  0.46411E-03  0.38830E-02 -0.14824E-02
 -0.47768E-03  0.38883E-02 -0.14959E-02
 -0.13888E-02  0.36742E-02 -0.15130E-02
 -0.22174E-02  0.32499E-02 -0.15234E-02
 -0.29193E-02  0.26333E-02 -0.15181E-02
 -0.34577E-02  0.18583E-02 -0.15025E-02
 -0.37974E-02  0.97242E-03 -0.14879E-02
 -0.39152E-02  0.27964E-04 -0.14775E-02
 -0.38044E-02 -0.91486E-03 -0.14725E-02
 -0.34718E-02 -0.18007E-02 -0.14714E-02
 -0.29371E-02 -0.25803E-02 -0.14717E-02
 -0.22316E-02 -0.32095E-02 -0.14730E-02
 -0.13959E-02 -0.36519E-02 -0.14753E-02
 -0.47837E-03 -0.38799E-02 -0.14789E-02
  0.46623E-03 -0.38791E-02 -0.14837E-02
  0.13824E-02 -0.36490E-02 -0.14892E-02
  0.22182E-02 -0.32049E-02 -0.14936E-02
  0.29251E-02 -0.25750E-02 -0.14941E-02
  0.34604E-02 -0.17975E-02 -0.14903E-02
  0.37930E-02 -0.91786E-03 -0.14843E-02
  0.10370E-02  0.67693E-03 -0.49561E-03
  0.17435E-02  0.12365E-02 -0.49560E-03
  0.23166E-02  0.59658E-03 -0.49545E-03
  0.16681E-02 -0.33147E-03 -0.49551E-03
  0.30368E-02  0.15663E-03 -0.49648E-03
  0.27828E-02 -0.66687E-03 -0.49852E-03
  0.12842E-02  0.18412E-02 -0.49549E-03
  0.64951E-03  0.14662E-02 -0.49521E-03
  0.12499E-03  0.30996E-03 -0.49534E-03
 -0.12948E-03  0.11837E-02 -0.49432E-03
  0.94154E-03  0.22736E-02 -0.49536E-03
  0.11271E-02  0.28219E-02 -0.49578E-03
  0.17428E-02  0.24248E-02 -0.49522E-03
  0.40609E-03  0.21658E-02 -0.49512E-03
  0.39634E-03  0.29314E-02 -0.49778E-03
 -0.76633E-03 -0.10074E-02 -0.49551E-03
 -0.86681E-03  0.84927E-04 -0.49453E-03
  0.45677E-03 -0.69757E-03 -0.49538E-03
 -0.18331E-02 -0.71269E-03 -0.49468E-03
 -0.18425E-02  0.80748E-04 -0.49340E-03
 -0.27253E-02 -0.77324E-03 -0.49397E-03
 -0.28003E-02  0.47811E-04 -0.49412E-03
 -0.25410E-02 -0.15151E-02 -0.49427E-03
 -0.19338E-02 -0.13227E-02 -0.49504E-03
 -0.99127E-03  0.99954E-03 -0.49313E-03
 -0.14419E-02 -0.17337E-02 -0.49544E-03
 -0.31246E-03  0.20217E-02 -0.49480E-03
 -0.11017E-02  0.18572E-02 -0.49517E-03
 -0.18818E-02  0.17180E-02 -0.49755E-03
 -0.18688E-02  0.90905E-03 -0.49321E-03
 -0.16114E-03 -0.19829E-02 -0.49582E-03
 -0.94790E-03 -0.23509E-02 -0.49576E-03
  0.78208E-03 -0.17097E-02 -0.49610E-03
  0.17216E-02 -0.14925E-02 -0.49758E-03
  0.32076E-02  0.77557E-03 -0.49530E-03
  0.28032E-02  0.12542E-02 -0.49496E-03
  0.23029E-02  0.18675E-02 -0.49512E-03
 -0.40521E-03  0.28910E-02 -0.50168E-03
 -0.12084E-02  0.27185E-02 -0.50669E-03
 -0.19413E-02  0.24715E-02 -0.51162E-03
 -0.24974E-02  0.22545E-02 -0.51618E-03
 -0.26325E-02  0.16622E-02 -0.50455E-03
 -0.27623E-02  0.88472E-03 -0.49709E-03
 -0.21170E-02 -0.21346E-02 -0.49464E-03
 -0.16129E-02 -0.26917E-02 -0.49514E-03
 -0.12000E-02 -0.31278E-02 -0.49595E-03
 -0.59283E-03 -0.30389E-02 -0.49700E-03
  0.20351E-03 -0.28761E-02 -0.49844E-03
  0.10548E-02 -0.26448E-02 -0.50044E-03
  0.18419E-02 -0.23693E-02 -0.50301E-03
  0.24561E-02 -0.21425E-02 -0.50581E-03
  0.26035E-02 -0.15034E-02 -0.50194E-03
  0.37940E-02  0.94537E-03 -0.49511E-03
  0.39066E-02  0.14264E-04 -0.49931E-03
  0.34569E-02  0.18245E-02 -0.49380E-03
  0.29188E-02  0.25986E-02 -0.49384E-03
  0.22133E-02  0.32209E-02 -0.49418E-03
  0.13791E-02  0.36564E-02 -0.49647E-03
  0.46386E-03  0.38822E-02 -0.50427E-03
 -0.47807E-03  0.38880E-02 -0.51965E-03
 -0.13893E-02  0.36761E-02 -0.53934E-03
 -0.22173E-02  0.32550E-02 -0.55202E-03
 -0.29180E-02  0.26402E-02 -0.54616E-03
 -0.34559E-02  0.18633E-02 -0.52644E-03
 -0.37959E-02  0.97461E-03 -0.50893E-03
 -0.39144E-02  0.29146E-04 -0.49795E-03
 -0.38043E-02 -0.91357E-03 -0.49329E-03
 -0.34723E-02 -0.17994E-02 -0.49228E-03
 -0.29380E-02 -0.25794E-02 -0.49243E-03
 -0.22327E-02 -0.32088E-02 -0.49357E-03
 -0.13972E-02 -0.36512E-02 -0.49596E-03
 -0.47978E-03 -0.38792E-02 -0.49989E-03
  0.46503E-03 -0.38783E-02 -0.50528E-03
  0.13818E-02 -0.36481E-02 -0.51118E-03
  0.22183E-02 -0.32042E-02 -0.51554E-03
  0.29259E-02 -0.25747E-02 -0.51569E-03
  0.34611E-02 -0.17971E-02 -0.51155E-03
  0.37933E-02 -0.91723E-03 -0.50537E-03
  0.10369E-02  0.67734E-03  0.48358E-03
  0.17435E-02  0.12369E-02  0.48357E-03
  0.23166E-02  0.59695E-03  0.48369E-03
  0.16680E-02 -0.33082E-03  0.48366E-03
  0.30370E-02  0.15707E-03  0.48250E-03
  0.27833E-02 -0.66634E-03  0.48049E-03
  0.12843E-02  0.18410E-02  0.48369E-03
  0.64934E-03  0.14670E-02  0.48400E-03
  0.12474E-03  0.31108E-03  0.48384E-03
 -0.12967E-03  0.11853E-02  0.48492E-03
  0.94142E-03  0.22734E-02  0.48381E-03
  0.11272E-02  0.28210E-02  0.48328E-03
  0.17428E-02  0.24245E-02  0.48385E-03
  0.40615E-03  0.21656E-02  0.48404E-03
  0.39658E-03  0.29307E-02  0.48109E-03
 -0.76668E-03 -0.10075E-02  0.48368E-03
 -0.86696E-03  0.85712E-04  0.48468E-03
  0.45633E-03 -0.69686E-03  0.48380E-03
 -0.18333E-02 -0.71263E-03  0.48453E-03
 -0.18424E-02  0.80724E-04  0.48590E-03
 -0.27251E-02 -0.77338E-03  0.48538E-03
 -0.27999E-02  0.47913E-04  0.48528E-03
 -0.25409E-02 -0.15155E-02  0.48506E-03
 -0.19342E-02 -0.13227E-02  0.48421E-03
 -0.99120E-03  0.10007E-02  0.48622E-03
 -0.14422E-02 -0.17337E-02  0.48381E-03
 -0.31225E-03  0.20218E-02  0.48439E-03
 -0.11014E-02  0.18568E-02  0.48410E-03
 -0.18820E-02  0.17180E-02  0.48154E-03
 -0.18688E-02  0.90911E-03  0.48618E-03
 -0.16149E-03 -0.19829E-02  0.48342E-03
 -0.94854E-03 -0.23509E-02  0.48349E-03
  0.78137E-03 -0.17096E-02  0.48310E-03
  0.17216E-02 -0.14928E-02  0.48156E-03
  0.32081E-02  0.77663E-03  0.48370E-03
  0.28034E-02  0.12544E-02  0.48411E-03
  0.23030E-02  0.18671E-02  0.48395E-03
 -0.40493E-03  0.28898E-02  0.47693E-03
 -0.12085E-02  0.27180E-02  0.47182E-03
 -0.19416E-02  0.24718E-02  0.46651E-03
 -0.24981E-02  0.22562E-02  0.46114E-03
 -0.26329E-02  0.16633E-02  0.47382E-03
 -0.27621E-02  0.88527E-03  0.48209E-03
 -0.21169E-02 -0.21349E-02  0.48464E-03
 -0.16128E-02 -0.26919E-02  0.48406E-03
 -0.12002E-02 -0.31278E-02  0.48316E-03
 -0.59336E-03 -0.30388E-02  0.48221E-03
  0.20282E-03 -0.28759E-02  0.48086E-03
  0.10542E-02 -0.26449E-02  0.47888E-03
  0.18419E-02 -0.23694E-02  0.47623E-03
  0.24563E-02 -0.21431E-02  0.47336E-03
  0.26037E-02 -0.15033E-02  0.47713E-03
  0.37943E-02  0.94573E-03  0.48378E-03
  0.39067E-02  0.14856E-04  0.47933E-03
  0.34571E-02  0.18243E-02  0.48521E-03
  0.29191E-02  0.25979E-02  0.48505E-03
  0.22140E-02  0.32200E-02  0.48461E-03
  0.13799E-02  0.36556E-02  0.48230E-03
  0.46438E-03  0.38815E-02  0.47395E-03
 -0.47758E-03  0.38881E-02  0.45735E-03
 -0.13891E-02  0.36769E-02  0.43715E-03
 -0.22180E-02  0.32571E-02  0.42368E-03
 -0.29194E-02  0.26451E-02  0.42801E-03
 -0.34569E-02  0.18678E-02  0.44981E-03
 -0.37957E-02  0.97643E-03  0.46981E-03
 -0.39139E-02  0.29270E-04  0.48160E-03
 -0.38038E-02 -0.91420E-03  0.48634E-03
 -0.34716E-02 -0.18005E-02  0.48721E-03
 -0.29375E-02 -0.25803E-02  0.48685E-03
 -0.22325E-02 -0.32092E-02  0.48547E-03
 -0.13973E-02 -0.36512E-02  0.48293E-03
 -0.48018E-03 -0.38789E-02  0.47923E-03
  0.46430E-03 -0.38779E-02  0.47430E-03
  0.13811E-02 -0.36479E-02  0.46865E-03
  0.22181E-02 -0.32043E-02  0.46412E-03
  0.29260E-02 -0.25750E-02  0.46364E-03
  0.34613E-02 -0.17972E-02  0.46746E-03
  0.37934E-02 -0.91688E-03  0.47333E-03
  0.10369E-02  0.67794E-03  0.14628E-02
  0.17435E-02  0.12375E-02  0.14628E-02
  0.23166E-02  0.59739E-03  0.14628E-02
  0.16678E-02 -0.33003E-03  0.14628E-02
  0.30372E-02  0.15746E-03  0.14614E-02
  0.27837E-02 -0.66572E-03  0.14594E-02
  0.12843E-02  0.18412E-02  0.14629E-02
  0.64911E-03  0.14681E-02  0.14632E-02
  0.12447E-03  0.31228E-03  0.14630E-02
 -0.12991E-03  0.11871E-02  0.14641E-02
  0.94118E-03  0.22736E-02  0.14631E-02
  0.11271E-02  0.28204E-02  0.14624E-02
  0.17428E-02  0.24243E-02  0.14631E-02
  0.40607E-03  0.21657E-02  0.14633E-02
  0.39658E-03  0.29305E-02  0.14601E-02
 -0.76705E-03 -0.10076E-02  0.14629E-02
 -0.86711E-03  0.86546E-04  0.14639E-02
  0.45589E-03 -0.69609E-03  0.14630E-02
 -0.18336E-02 -0.71266E-03  0.14638E-02
 -0.18425E-02  0.80751E-04  0.14651E-02
 -0.27251E-02 -0.77383E-03  0.14648E-02
 -0.28001E-02  0.47926E-04  0.14646E-02
 -0.25409E-02 -0.15161E-02  0.14645E-02
 -0.19346E-02 -0.13229E-02  0.14635E-02
 -0.99121E-03  0.10021E-02  0.14654E-02
 -0.14425E-02 -0.17337E-02  0.14631E-02
 -0.31218E-03  0.20221E-02  0.14637E-02
 -0.11014E-02  0.18566E-02  0.14635E-02
 -0.18828E-02  0.17178E-02  0.14609E-02
 -0.18691E-02  0.90929E-03  0.14654E-02
 -0.16176E-03 -0.19829E-02  0.14627E-02
 -0.94905E-03 -0.23509E-02  0.14627E-02
  0.78068E-03 -0.17096E-02  0.14624E-02
  0.17215E-02 -0.14930E-02  0.14607E-02
  0.32088E-02  0.77741E-03  0.14627E-02
  0.28037E-02  0.12544E-02  0.14632E-02
  0.23033E-02  0.18667E-02  0.14631E-02
 -0.40500E-03  0.28889E-02  0.14562E-02
 -0.12091E-02  0.27174E-02  0.14517E-02
 -0.19431E-02  0.24710E-02  0.14466E-02
 -0.25006E-02  0.22557E-02  0.14408E-02
 -0.26348E-02  0.16633E-02  0.14528E-02
 -0.27630E-02  0.88564E-03  0.14612E-02
 -0.21168E-02 -0.21355E-02  0.14639E-02
 -0.16126E-02 -0.26922E-02  0.14632E-02
 -0.11999E-02 -0.31280E-02  0.14621E-02
 -0.59352E-03 -0.30388E-02  0.14613E-02
  0.20245E-03 -0.28759E-02  0.14602E-02
  0.10538E-02 -0.26452E-02  0.14584E-02
  0.18417E-02 -0.23698E-02  0.14558E-02
  0.24561E-02 -0.21438E-02  0.14527E-02
  0.26036E-02 -0.15032E-02  0.14562E-02
  0.37948E-02  0.94537E-03  0.14627E-02
  0.39070E-02  0.15165E-04  0.14581E-02
  0.34579E-02  0.18231E-02  0.14643E-02
  0.29201E-02  0.25965E-02  0.14642E-02
  0.22151E-02  0.32192E-02  0.14638E-02
  0.13807E-02  0.36552E-02  0.14612E-02
  0.46454E-03  0.38816E-02  0.14520E-02
 -0.47786E-03  0.38890E-02  0.14355E-02
 -0.13902E-02  0.36770E-02  0.14177E-02
 -0.22208E-02  0.32555E-02  0.14059E-02
 -0.29242E-02  0.26444E-02  0.14082E-02
 -0.34615E-02  0.18691E-02  0.14279E-02
 -0.37988E-02  0.97758E-03  0.14485E-02
 -0.39150E-02  0.28844E-04  0.14611E-02
 -0.38038E-02 -0.91580E-03  0.14662E-02
 -0.34712E-02 -0.18023E-02  0.14669E-02
 -0.29368E-02 -0.25817E-02  0.14662E-02
 -0.22317E-02 -0.32100E-02  0.14644E-02
 -0.13966E-02 -0.36515E-02  0.14615E-02
 -0.47969E-03 -0.38790E-02  0.14581E-02
  0.46449E-03 -0.38780E-02  0.14540E-02
  0.13809E-02 -0.36485E-02  0.14491E-02
  0.22177E-02 -0.32051E-02  0.14446E-02
  0.29255E-02 -0.25754E-02  0.14433E-02
  0.34608E-02 -0.17971E-02  0.14464E-02
  0.37934E-02 -0.91646E-03  0.14519E-02
  0.10367E-02  0.67864E-03  0.24419E-02
  0.17433E-02  0.12383E-02  0.24419E-02
  0.23166E-02  0.59799E-03  0.24418E-02
  0.16677E-02 -0.32918E-03  0.24419E-02
  0.30373E-02  0.15758E-03  0.24405E-02
  0.27840E-02 -0.66554E-03  0.24387E-02
  0.12842E-02  0.18416E-02  0.24421E-02
  0.64880E-03  0.14692E-02  0.24424E-02
  0.12422E-03  0.31349E-03  0.24422E-02
 -0.13015E-03  0.11890E-02  0.24432E-02
  0.94074E-03  0.22739E-02  0.24423E-02
  0.11267E-02  0.28203E-02  0.24416E-02
  0.17425E-02  0.24246E-02  0.24423E-02
  0.40583E-03  0.21659E-02  0.24425E-02
  0.39620E-03  0.29306E-02  0.24394E-02
 -0.76739E-03 -0.10078E-02  0.24421E-02
 -0.86722E-03  0.87412E-04  0.24430E-02
  0.45549E-03 -0.69534E-03  0.24422E-02
 -0.18339E-02 -0.71259E-03  0.24430E-02
 -0.18425E-02  0.80936E-04  0.24442E-02
 -0.27251E-02 -0.77418E-03  0.24441E-02
 -0.28002E-02  0.48004E-04  0.24439E-02
 -0.25409E-02 -0.15167E-02  0.24437E-02
 -0.19349E-02 -0.13230E-02  0.24427E-02
 -0.99115E-03  0.10036E-02  0.24444E-02
 -0.14427E-02 -0.17339E-02  0.24423E-02
 -0.31223E-03  0.20226E-02  0.24429E-02
 -0.11015E-02  0.18566E-02  0.24427E-02
 -0.18834E-02  0.17176E-02  0.24402E-02
 -0.18692E-02  0.90962E-03  0.24443E-02
 -0.16191E-03 -0.19830E-02  0.24419E-02
 -0.94942E-03 -0.23511E-02  0.24418E-02
  0.78011E-03 -0.17096E-02  0.24416E-02
  0.17214E-02 -0.14933E-02  0.24401E-02
  0.32095E-02  0.77811E-03  0.24417E-02
  0.28040E-02  0.12547E-02  0.24423E-02
  0.23034E-02  0.18668E-02  0.24423E-02
 -0.40552E-03  0.28880E-02  0.24359E-02
 -0.12102E-02  0.27167E-02  0.24319E-02
 -0.19445E-02  0.24698E-02  0.24273E-02
 -0.25024E-02  0.22538E-02  0.24219E-02
 -0.26359E-02  0.16623E-02  0.24326E-02
 -0.27634E-02  0.88572E-03  0.24403E-02
 -0.21167E-02 -0.21360E-02  0.24431E-02
 -0.16121E-02 -0.26926E-02  0.24422E-02
 -0.11994E-02 -0.31282E-02  0.24411E-02
 -0.59346E-03 -0.30389E-02  0.24403E-02
  0.20228E-03 -0.28759E-02  0.24394E-02
  0.10536E-02 -0.26457E-02  0.24379E-02
  0.18416E-02 -0.23704E-02  0.24355E-02
  0.24559E-02 -0.21450E-02  0.24327E-02
  0.26035E-02 -0.15036E-02  0.24358E-02
  0.37954E-02  0.94461E-03  0.24418E-02
  0.39074E-02  0.14253E-04  0.24372E-02
  0.34587E-02  0.18223E-02  0.24434E-02
  0.29210E-02  0.25961E-02  0.24435E-02
  0.22155E-02  0.32192E-02  0.24432E-02
  0.13806E-02  0.36555E-02  0.24403E-02
  0.46388E-03  0.38821E-02  0.24312E-02
 -0.47926E-03  0.38891E-02  0.24160E-02
 -0.13926E-02  0.36757E-02  0.24003E-02
 -0.22242E-02  0.32524E-02  0.23905E-02
 -0.29276E-02  0.26396E-02  0.23926E-02
 -0.34639E-02  0.18662E-02  0.24089E-02
 -0.38004E-02  0.97683E-03  0.24280E-02
 -0.39158E-02  0.27701E-04  0.24409E-02
 -0.38038E-02 -0.91774E-03  0.24457E-02
 -0.34707E-02 -0.18042E-02  0.24461E-02
 -0.29358E-02 -0.25832E-02  0.24452E-02
 -0.22305E-02 -0.32109E-02  0.24432E-02
 -0.13955E-02 -0.36518E-02  0.24403E-02
 -0.47902E-03 -0.38790E-02  0.24369E-02
  0.46480E-03 -0.38781E-02  0.24332E-02
  0.13809E-02 -0.36490E-02  0.24291E-02
  0.22173E-02 -0.32062E-02  0.24252E-02
  0.29247E-02 -0.25768E-02  0.24240E-02
  0.34603E-02 -0.17985E-02  0.24265E-02
  0.37933E-02 -0.91767E-03  0.24315E-02
  0.10367E-02  0.67926E-03  0.34210E-02
  0.17431E-02  0.12392E-02  0.34210E-02
  0.23164E-02  0.59874E-03  0.34209E-02
  0.16675E-02 -0.32830E-03  0.34209E-02
  0.30372E-02  0.15790E-03  0.34196E-02
  0.27844E-02 -0.66532E-03  0.34180E-02
  0.12840E-02  0.18419E-02  0.34213E-02
  0.64855E-03  0.14703E-02  0.34215E-02
  0.12403E-03  0.31463E-03  0.34212E-02
 -0.13029E-03  0.11908E-02  0.34223E-02
  0.94027E-03  0.22742E-02  0.34214E-02
  0.11260E-02  0.28202E-02  0.34209E-02
  0.17418E-02  0.24251E-02  0.34215E-02
  0.40569E-03  0.21660E-02  0.34216E-02
  0.39589E-03  0.29305E-02  0.34189E-02
 -0.76764E-03 -0.10080E-02  0.34212E-02
 -0.86722E-03  0.88236E-04  0.34220E-02
  0.45511E-03 -0.69461E-03  0.34212E-02
 -0.18341E-02 -0.71242E-03  0.34220E-02
 -0.18422E-02  0.81142E-04  0.34232E-02
 -0.27249E-02 -0.77400E-03  0.34231E-02
 -0.27995E-02  0.48206E-04  0.34229E-02
 -0.25409E-02 -0.15167E-02  0.34227E-02
 -0.19352E-02 -0.13230E-02  0.34218E-02
 -0.99089E-03  0.10050E-02  0.34234E-02
 -0.14429E-02 -0.17339E-02  0.34213E-02
 -0.31210E-03  0.20230E-02  0.34220E-02
 -0.11011E-02  0.18565E-02  0.34218E-02
 -0.18830E-02  0.17173E-02  0.34196E-02
 -0.18688E-02  0.90983E-03  0.34233E-02
 -0.16206E-03 -0.19830E-02  0.34209E-02
 -0.94983E-03 -0.23512E-02  0.34209E-02
  0.77956E-03 -0.17095E-02  0.34207E-02
  0.17214E-02 -0.14935E-02  0.34193E-02
  0.32097E-02  0.77936E-03  0.34207E-02
  0.28038E-02  0.12556E-02  0.34214E-02
  0.23031E-02  0.18673E-02  0.34215E-02
 -0.40572E-03  0.28869E-02  0.34157E-02
 -0.12104E-02  0.27160E-02  0.34118E-02
 -0.19442E-02  0.24689E-02  0.34076E-02
 -0.25014E-02  0.22523E-02  0.34028E-02
 -0.26348E-02  0.16612E-02  0.34127E-02
 -0.27624E-02  0.88544E-03  0.34197E-02
 -0.21165E-02 -0.21361E-02  0.34221E-02
 -0.16119E-02 -0.26926E-02  0.34212E-02
 -0.11992E-02 -0.31282E-02  0.34201E-02
 -0.59359E-03 -0.30388E-02  0.34194E-02
  0.20204E-03 -0.28759E-02  0.34185E-02
  0.10534E-02 -0.26459E-02  0.34171E-02
  0.18417E-02 -0.23707E-02  0.34150E-02
  0.24560E-02 -0.21460E-02  0.34126E-02
  0.26036E-02 -0.15038E-02  0.34155E-02
  0.37953E-02  0.94481E-03  0.34206E-02
  0.39074E-02  0.13452E-04  0.34164E-02
  0.34586E-02  0.18232E-02  0.34224E-02
  0.29206E-02  0.25970E-02  0.34228E-02
  0.22149E-02  0.32200E-02  0.34225E-02
  0.13799E-02  0.36562E-02  0.34199E-02
  0.46321E-03  0.38824E-02  0.34118E-02
 -0.48011E-03  0.38884E-02  0.33981E-02
 -0.13933E-02  0.36744E-02  0.33826E-02
 -0.22238E-02  0.32505E-02  0.33729E-02
 -0.29256E-02  0.26361E-02  0.33759E-02
 -0.34614E-02  0.18625E-02  0.33911E-02
 -0.37988E-02  0.97479E-03  0.34081E-02
 -0.39151E-02  0.26918E-04  0.34201E-02
 -0.38034E-02 -0.91809E-03  0.34246E-02
 -0.34704E-02 -0.18043E-02  0.34249E-02
 -0.29355E-02 -0.25831E-02  0.34239E-02
 -0.22301E-02 -0.32108E-02  0.34220E-02
 -0.13951E-02 -0.36516E-02  0.34194E-02
 -0.47878E-03 -0.38788E-02  0.34162E-02
  0.46494E-03 -0.38779E-02  0.34124E-02
  0.13810E-02 -0.36489E-02  0.34083E-02
  0.22172E-02 -0.32063E-02  0.34050E-02
  0.29245E-02 -0.25777E-02  0.34047E-02
  0.34603E-02 -0.18002E-02  0.34073E-02
  0.37935E-02 -0.91928E-03  0.34115E-02
  0.10366E-02  0.67989E-03  0.44000E-02
  0.17429E-02  0.12399E-02  0.44000E-02
  0.23162E-02  0.59948E-03  0.43998E-02
  0.16672E-02 -0.32726E-03  0.43998E-02
  0.30371E-02  0.15834E-03  0.43985E-02
  0.27847E-02 -0.66478E-03  0.43971E-02
  0.12840E-02  0.18421E-02  0.44002E-02
  0.64841E-03  0.14713E-02  0.44005E-02
  0.12382E-03  0.31578E-03  0.44003E-02
 -0.13039E-03  0.11926E-02  0.44013E-02
  0.94010E-03  0.22743E-02  0.44003E-02
  0.11259E-02  0.28197E-02  0.43998E-02
  0.17415E-02  0.24253E-02  0.44005E-02
  0.40581E-03  0.21661E-02  0.44006E-02
  0.39620E-03  0.29301E-02  0.43981E-02
 -0.76794E-03 -0.10082E-02  0.44003E-02
 -0.86728E-03  0.88988E-04  0.44011E-02
  0.45469E-03 -0.69374E-03  0.44002E-02
 -0.18343E-02 -0.71227E-03  0.44012E-02
 -0.18420E-02  0.81291E-04  0.44022E-02
 -0.27248E-02 -0.77330E-03  0.44021E-02
 -0.27991E-02  0.48810E-04  0.44018E-02
 -0.25411E-02 -0.15161E-02  0.44018E-02
 -0.19356E-02 -0.13228E-02  0.44009E-02
 -0.99070E-03  0.10064E-02  0.44024E-02
 -0.14432E-02 -0.17338E-02  0.44004E-02
 -0.31175E-03  0.20233E-02  0.44009E-02
 -0.11006E-02  0.18565E-02  0.44007E-02
 -0.18828E-02  0.17176E-02  0.43985E-02
 -0.18686E-02  0.91017E-03  0.44023E-02
 -0.16234E-03 -0.19829E-02  0.43999E-02
 -0.95045E-03 -0.23511E-02  0.44000E-02
  0.77889E-03 -0.17092E-02  0.43996E-02
  0.17214E-02 -0.14935E-02  0.43983E-02
  0.32098E-02  0.78055E-03  0.43995E-02
  0.28037E-02  0.12563E-02  0.44003E-02
  0.23030E-02  0.18674E-02  0.44005E-02
 -0.40525E-03  0.28857E-02  0.43949E-02
 -0.12101E-02  0.27156E-02  0.43906E-02
 -0.19437E-02  0.24692E-02  0.43862E-02
 -0.25005E-02  0.22532E-02  0.43815E-02
 -0.26341E-02  0.16617E-02  0.43916E-02
 -0.27617E-02  0.88593E-03  0.43986E-02
 -0.21168E-02 -0.21357E-02  0.44012E-02
 -0.16120E-02 -0.26924E-02  0.44004E-02
 -0.11995E-02 -0.31280E-02  0.43995E-02
 -0.59402E-03 -0.30387E-02  0.43988E-02
  0.20157E-03 -0.28757E-02  0.43978E-02
  0.10530E-02 -0.26459E-02  0.43963E-02
  0.18417E-02 -0.23707E-02  0.43944E-02
  0.24561E-02 -0.21466E-02  0.43921E-02
  0.26036E-02 -0.15037E-02  0.43948E-02
  0.37950E-02  0.94493E-03  0.43993E-02
  0.39072E-02  0.12914E-04  0.43955E-02
  0.34583E-02  0.18236E-02  0.44013E-02
  0.29204E-02  0.25974E-02  0.44018E-02
  0.22149E-02  0.32200E-02  0.44013E-02
  0.13803E-02  0.36561E-02  0.43988E-02
  0.46389E-03  0.38821E-02  0.43916E-02
 -0.47937E-03  0.38875E-02  0.43784E-02
 -0.13925E-02  0.36741E-02  0.43615E-02
 -0.22226E-02  0.32516E-02  0.43504E-02
 -0.29237E-02  0.26381E-02  0.43538E-02
 -0.34595E-02  0.18635E-02  0.43696E-02
 -0.37975E-02  0.97501E-03  0.43867E-02
 -0.39146E-02  0.27993E-04  0.43986E-02
 -0.38035E-02 -0.91621E-03  0.44033E-02
 -0.34707E-02 -0.18026E-02  0.44039E-02
 -0.29359E-02 -0.25820E-02  0.44031E-02
 -0.22305E-02 -0.32102E-02  0.44014E-02
 -0.13954E-02 -0.36514E-02  0.43991E-02
 -0.47895E-03 -0.38787E-02  0.43963E-02
  0.46483E-03 -0.38779E-02  0.43926E-02
  0.13809E-02 -0.36489E-02  0.43885E-02
  0.22170E-02 -0.32066E-02  0.43854E-02
  0.29244E-02 -0.25783E-02  0.43850E-02
  0.34603E-02 -0.18010E-02  0.43874E-02
  0.37935E-02 -0.92019E-03  0.43911E-02
  0.10365E-02  0.68058E-03  0.53791E-02
  0.17429E-02  0.12405E-02  0.53790E-02
  0.23163E-02  0.59990E-03  0.53788E-02
  0.16671E-02 -0.32634E-03  0.53788E-02
  0.30372E-02  0.15832E-03  0.53776E-02
  0.27850E-02 -0.66457E-03  0.53762E-02
  0.12841E-02  0.18423E-02  0.53791E-02
  0.64822E-03  0.14724E-02  0.53795E-02
  0.12352E-03  0.31708E-03  0.53794E-02
 -0.13062E-03  0.11944E-02  0.53803E-02
  0.94007E-03  0.22745E-02  0.53791E-02
  0.11262E-02  0.28191E-02  0.53785E-02
  0.17417E-02  0.24251E-02  0.53792E-02
  0.40594E-03  0.21662E-02  0.53794E-02
  0.39685E-03  0.29298E-02  0.53768E-02
 -0.76844E-03 -0.10080E-02  0.53793E-02
 -0.86750E-03  0.89916E-04  0.53803E-02
  0.45419E-03 -0.69272E-03  0.53792E-02
 -0.18349E-02 -0.71184E-03  0.53803E-02
 -0.18422E-02  0.81627E-04  0.53814E-02
 -0.27253E-02 -0.77254E-03  0.53813E-02
 -0.27993E-02  0.49631E-04  0.53808E-02
 -0.25419E-02 -0.15155E-02  0.53810E-02
 -0.19364E-02 -0.13222E-02  0.53801E-02
 -0.99067E-03  0.10078E-02  0.53815E-02
 -0.14439E-02 -0.17333E-02  0.53795E-02
 -0.31147E-03  0.20236E-02  0.53798E-02
 -0.11003E-02  0.18563E-02  0.53797E-02
 -0.18830E-02  0.17179E-02  0.53774E-02
 -0.18687E-02  0.91063E-03  0.53814E-02
 -0.16275E-03 -0.19825E-02  0.53790E-02
 -0.95127E-03 -0.23507E-02  0.53791E-02
  0.77815E-03 -0.17090E-02  0.53786E-02
  0.17213E-02 -0.14936E-02  0.53774E-02
  0.32104E-02  0.78100E-03  0.53785E-02
  0.28040E-02  0.12562E-02  0.53792E-02
  0.23033E-02  0.18671E-02  0.53793E-02
 -0.40453E-03  0.28844E-02  0.53736E-02
 -0.12098E-02  0.27150E-02  0.53693E-02
 -0.19438E-02  0.24693E-02  0.53646E-02
 -0.25010E-02  0.22543E-02  0.53596E-02
 -0.26345E-02  0.16626E-02  0.53702E-02
 -0.27618E-02  0.88680E-03  0.53775E-02
 -0.21175E-02 -0.21352E-02  0.53804E-02
 -0.16124E-02 -0.26920E-02  0.53798E-02
 -0.11998E-02 -0.31277E-02  0.53791E-02
 -0.59452E-03 -0.30384E-02  0.53783E-02
  0.20105E-03 -0.28756E-02  0.53774E-02
  0.10526E-02 -0.26463E-02  0.53761E-02
  0.18417E-02 -0.23713E-02  0.53742E-02
  0.24561E-02 -0.21478E-02  0.53720E-02
  0.26036E-02 -0.15040E-02  0.53742E-02
  0.37953E-02  0.94399E-03  0.53783E-02
  0.39072E-02  0.11930E-04  0.53748E-02
  0.34589E-02  0.18225E-02  0.53800E-02
  0.29214E-02  0.25962E-02  0.53803E-02
  0.22162E-02  0.32191E-02  0.53798E-02
  0.13819E-02  0.36555E-02  0.53773E-02
  0.46578E-03  0.38815E-02  0.53705E-02
 -0.47753E-03  0.38869E-02  0.53572E-02
 -0.13915E-02  0.36739E-02  0.53394E-02
 -0.22227E-02  0.32529E-02  0.53272E-02
 -0.29244E-02  0.26409E-02  0.53303E-02
 -0.34602E-02  0.18658E-02  0.53473E-02
 -0.37982E-02  0.97617E-03  0.53653E-02
 -0.39155E-02  0.29155E-04  0.53776E-02
 -0.38047E-02 -0.91493E-03  0.53825E-02
 -0.34721E-02 -0.18016E-02  0.53831E-02
 -0.29369E-02 -0.25814E-02  0.53825E-02
 -0.22309E-02 -0.32100E-02  0.53812E-02
 -0.13954E-02 -0.36513E-02  0.53792E-02
 -0.47900E-03 -0.38787E-02  0.53768E-02
  0.46481E-03 -0.38783E-02  0.53736E-02
  0.13809E-02 -0.36500E-02  0.53700E-02
  0.22170E-02 -0.32082E-02  0.53669E-02
  0.29243E-02 -0.25799E-02  0.53658E-02
  0.34600E-02 -0.18023E-02  0.53674E-02
  0.37931E-02 -0.92128E-03  0.53708E-02
  0.10364E-02  0.68142E-03  0.63581E-02
  0.17428E-02  0.12414E-02  0.63580E-02
  0.23163E-02  0.60038E-03  0.63579E-02
  0.16669E-02 -0.32539E-03  0.63578E-02
  0.30374E-02  0.15810E-03  0.63568E-02
  0.27855E-02 -0.66467E-03  0.63556E-02
  0.12841E-02  0.18427E-02  0.63582E-02
  0.64792E-03  0.14737E-02  0.63586E-02
  0.12316E-03  0.31852E-03  0.63585E-02
 -0.13092E-03  0.11964E-02  0.63594E-02
  0.93980E-03  0.22749E-02  0.63581E-02
  0.11262E-02  0.28188E-02  0.63574E-02
  0.17417E-02  0.24253E-02  0.63581E-02
  0.40585E-03  0.21665E-02  0.63585E-02
  0.39708E-03  0.29297E-02  0.63558E-02
 -0.76898E-03 -0.10076E-02  0.63583E-02
 -0.86774E-03  0.91121E-04  0.63593E-02
  0.45367E-03 -0.69162E-03  0.63581E-02
 -0.18355E-02 -0.71116E-03  0.63593E-02
 -0.18423E-02  0.82244E-04  0.63604E-02
 -0.27257E-02 -0.77233E-03  0.63603E-02
 -0.27994E-02  0.49821E-04  0.63600E-02
 -0.25425E-02 -0.15153E-02  0.63600E-02
 -0.19373E-02 -0.13216E-02  0.63590E-02
 -0.99068E-03  0.10094E-02  0.63606E-02
 -0.14446E-02 -0.17327E-02  0.63585E-02
 -0.31135E-03  0.20241E-02  0.63590E-02
 -0.11002E-02  0.18563E-02  0.63590E-02
 -0.18834E-02  0.17179E-02  0.63567E-02
 -0.18689E-02  0.91121E-03  0.63605E-02
 -0.16306E-03 -0.19821E-02  0.63580E-02
 -0.95199E-03 -0.23502E-02  0.63582E-02
  0.77755E-03 -0.17087E-02  0.63577E-02
  0.17214E-02 -0.14940E-02  0.63567E-02
  0.32112E-02  0.78119E-03  0.63577E-02
  0.28044E-02  0.12561E-02  0.63582E-02
  0.23037E-02  0.18668E-02  0.63582E-02
 -0.40418E-03  0.28833E-02  0.63531E-02
 -0.12099E-02  0.27141E-02  0.63493E-02
 -0.19445E-02  0.24685E-02  0.63448E-02
 -0.25023E-02  0.22537E-02  0.63395E-02
 -0.26355E-02  0.16623E-02  0.63496E-02
 -0.27622E-02  0.88687E-03  0.63567E-02
 -0.21180E-02 -0.21349E-02  0.63594E-02
 -0.16126E-02 -0.26917E-02  0.63590E-02
 -0.11997E-02 -0.31274E-02  0.63586E-02
 -0.59462E-03 -0.30381E-02  0.63578E-02
  0.20099E-03 -0.28755E-02  0.63570E-02
  0.10527E-02 -0.26469E-02  0.63560E-02
  0.18422E-02 -0.23725E-02  0.63544E-02
  0.24567E-02 -0.21498E-02  0.63525E-02
  0.26039E-02 -0.15049E-02  0.63540E-02
  0.37961E-02  0.94232E-03  0.63576E-02
  0.39077E-02  0.10326E-04  0.63543E-02
  0.34599E-02  0.18208E-02  0.63588E-02
  0.29226E-02  0.25950E-02  0.63589E-02
  0.22174E-02  0.32186E-02  0.63583E-02
  0.13828E-02  0.36554E-02  0.63560E-02
  0.46667E-03  0.38813E-02  0.63496E-02
 -0.47654E-03  0.38863E-02  0.63372E-02
 -0.13913E-02  0.36725E-02  0.63211E-02
 -0.22240E-02  0.32510E-02  0.63095E-02
 -0.29271E-02  0.26393E-02  0.63108E-02
 -0.34627E-02  0.18641E-02  0.63272E-02
 -0.37997E-02  0.97340E-03  0.63455E-02
 -0.39162E-02  0.26589E-04  0.63576E-02
 -0.38052E-02 -0.91678E-03  0.63620E-02
 -0.34725E-02 -0.18028E-02  0.63623E-02
 -0.29372E-02 -0.25820E-02  0.63617E-02
 -0.22308E-02 -0.32102E-02  0.63606E-02
 -0.13949E-02 -0.36514E-02  0.63590E-02
 -0.47815E-03 -0.38789E-02  0.63570E-02
  0.46591E-03 -0.38791E-02  0.63546E-02
  0.13821E-02 -0.36518E-02  0.63520E-02
  0.22180E-02 -0.32109E-02  0.63492E-02
  0.29249E-02 -0.25828E-02  0.63476E-02
  0.34602E-02 -0.18049E-02  0.63483E-02
  0.37932E-02 -0.92322E-03  0.63508E-02
  0.10364E-02  0.68225E-03  0.73371E-02
  0.17429E-02  0.12423E-02  0.73370E-02
  0.23166E-02  0.60087E-03  0.73368E-02
  0.16670E-02 -0.32444E-03  0.73367E-02
  0.30383E-02  0.15738E-03  0.73359E-02
  0.27868E-02 -0.66532E-03  0.73349E-02
  0.12841E-02  0.18431E-02  0.73372E-02
  0.64775E-03  0.14749E-02  0.73377E-02
  0.12293E-03  0.31994E-03  0.73374E-02
 -0.13112E-03  0.11983E-02  0.73385E-02
  0.93942E-03  0.22752E-02  0.73373E-02
  0.11255E-02  0.28187E-02  0.73365E-02
  0.17413E-02  0.24257E-02  0.73370E-02
  0.40573E-03  0.21667E-02  0.73377E-02
  0.39658E-03  0.29298E-02  0.73352E-02
 -0.76926E-03 -0.10074E-02  0.73371E-02
 -0.86787E-03  0.92297E-04  0.73382E-02
  0.45335E-03 -0.69052E-03  0.73369E-02
 -0.18357E-02 -0.71072E-03  0.73382E-02
 -0.18422E-02  0.82756E-04  0.73392E-02
 -0.27252E-02 -0.77262E-03  0.73394E-02
 -0.27989E-02  0.49691E-04  0.73391E-02
 -0.25421E-02 -0.15155E-02  0.73390E-02
 -0.19374E-02 -0.13214E-02  0.73379E-02
 -0.99068E-03  0.10111E-02  0.73396E-02
 -0.14447E-02 -0.17324E-02  0.73373E-02
 -0.31132E-03  0.20245E-02  0.73384E-02
 -0.11002E-02  0.18564E-02  0.73382E-02
 -0.18841E-02  0.17185E-02  0.73356E-02
 -0.18690E-02  0.91194E-03  0.73393E-02
 -0.16293E-03 -0.19818E-02  0.73368E-02
 -0.95208E-03 -0.23500E-02  0.73371E-02
  0.77741E-03 -0.17085E-02  0.73365E-02
  0.17222E-02 -0.14946E-02  0.73358E-02
  0.32125E-02  0.78095E-03  0.73368E-02
  0.28050E-02  0.12561E-02  0.73372E-02
  0.23038E-02  0.18670E-02  0.73372E-02
 -0.40471E-03  0.28825E-02  0.73328E-02
 -0.12110E-02  0.27140E-02  0.73290E-02
 -0.19460E-02  0.24690E-02  0.73240E-02
 -0.25042E-02  0.22549E-02  0.73179E-02
 -0.26364E-02  0.16633E-02  0.73279E-02
 -0.27622E-02  0.88734E-03  0.73355E-02
 -0.21176E-02 -0.21350E-02  0.73384E-02
 -0.16119E-02 -0.26918E-02  0.73380E-02
 -0.11986E-02 -0.31276E-02  0.73379E-02
 -0.59378E-03 -0.30382E-02  0.73372E-02
  0.20181E-03 -0.28757E-02  0.73364E-02
  0.10538E-02 -0.26478E-02  0.73356E-02
  0.18438E-02 -0.23741E-02  0.73345E-02
  0.24587E-02 -0.21528E-02  0.73330E-02
  0.26053E-02 -0.15065E-02  0.73339E-02
  0.37977E-02  0.93961E-03  0.73369E-02
  0.39092E-02  0.70583E-05  0.73341E-02
  0.34609E-02  0.18194E-02  0.73379E-02
  0.29228E-02  0.25948E-02  0.73377E-02
  0.22170E-02  0.32189E-02  0.73370E-02
  0.13818E-02  0.36559E-02  0.73347E-02
  0.46521E-03  0.38823E-02  0.73288E-02
 -0.47831E-03  0.38872E-02  0.73172E-02
 -0.13939E-02  0.36730E-02  0.73019E-02
 -0.22277E-02  0.32518E-02  0.72894E-02
 -0.29307E-02  0.26412E-02  0.72884E-02
 -0.34645E-02  0.18658E-02  0.73045E-02
 -0.37997E-02  0.97178E-03  0.73249E-02
 -0.39152E-02  0.23155E-04  0.73377E-02
 -0.38037E-02 -0.91965E-03  0.73417E-02
 -0.34710E-02 -0.18045E-02  0.73416E-02
 -0.29358E-02 -0.25828E-02  0.73408E-02
 -0.22293E-02 -0.32108E-02  0.73400E-02
 -0.13930E-02 -0.36519E-02  0.73390E-02
 -0.47572E-03 -0.38797E-02  0.73377E-02
  0.46856E-03 -0.38805E-02  0.73359E-02
  0.13849E-02 -0.36544E-02  0.73340E-02
  0.22211E-02 -0.32148E-02  0.73317E-02
  0.29277E-02 -0.25876E-02  0.73299E-02
  0.34624E-02 -0.18094E-02  0.73297E-02
  0.37949E-02 -0.92694E-03  0.73312E-02
  0.10369E-02  0.68242E-03  0.83161E-02
  0.17435E-02  0.12424E-02  0.83161E-02
  0.23178E-02  0.60033E-03  0.83157E-02
  0.16679E-02 -0.32423E-03  0.83154E-02
  0.30407E-02  0.15464E-03  0.83152E-02
  0.27897E-02 -0.66802E-03  0.83144E-02
  0.12845E-02  0.18428E-02  0.83165E-02
  0.64799E-03  0.14753E-02  0.83169E-02
  0.12304E-03  0.32073E-03  0.83165E-02
 -0.13099E-03  0.11995E-02  0.83178E-02
  0.93925E-03  0.22749E-02  0.83166E-02
  0.11247E-02  0.28181E-02  0.83159E-02
  0.17410E-02  0.24254E-02  0.83163E-02
  0.40576E-03  0.21662E-02  0.83171E-02
  0.39547E-03  0.29296E-02  0.83147E-02
 -0.76903E-03 -0.10080E-02  0.83159E-02
 -0.86765E-03  0.92673E-04  0.83174E-02
  0.45350E-03 -0.69000E-03  0.83155E-02
 -0.18352E-02 -0.71130E-03  0.83175E-02
 -0.18417E-02  0.82180E-04  0.83186E-02
 -0.27237E-02 -0.77346E-03  0.83193E-02
 -0.27977E-02  0.49027E-04  0.83188E-02
 -0.25401E-02 -0.15166E-02  0.83186E-02
 -0.19366E-02 -0.13221E-02  0.83172E-02
 -0.99045E-03  0.10120E-02  0.83188E-02
 -0.14437E-02 -0.17331E-02  0.83163E-02
 -0.31133E-03  0.20243E-02  0.83177E-02
 -0.11006E-02  0.18559E-02  0.83175E-02
 -0.18854E-02  0.17181E-02  0.83147E-02
 -0.18690E-02  0.91156E-03  0.83185E-02
 -0.16186E-03 -0.19823E-02  0.83153E-02
 -0.95088E-03 -0.23507E-02  0.83160E-02
  0.77829E-03 -0.17092E-02  0.83151E-02
  0.17244E-02 -0.14965E-02  0.83149E-02
  0.32157E-02  0.77863E-03  0.83160E-02
  0.28069E-02  0.12547E-02  0.83162E-02
  0.23046E-02  0.18661E-02  0.83162E-02
 -0.40634E-03  0.28816E-02  0.83125E-02
 -0.12136E-02  0.27135E-02  0.83088E-02
 -0.19495E-02  0.24684E-02  0.83034E-02
 -0.25084E-02  0.22545E-02  0.82965E-02
 -0.26386E-02  0.16630E-02  0.83062E-02
 -0.27621E-02  0.88697E-03  0.83144E-02
 -0.21154E-02 -0.21360E-02  0.83178E-02
 -0.16093E-02 -0.26926E-02  0.83175E-02
 -0.11955E-02 -0.31283E-02  0.83183E-02
 -0.59119E-03 -0.30390E-02  0.83174E-02
  0.20421E-03 -0.28770E-02  0.83167E-02
  0.10566E-02 -0.26503E-02  0.83160E-02
  0.18478E-02 -0.23781E-02  0.83153E-02
  0.24634E-02 -0.21589E-02  0.83144E-02
  0.26090E-02 -0.15107E-02  0.83140E-02
  0.38023E-02  0.93367E-03  0.83163E-02
  0.39134E-02 -0.25410E-06  0.83141E-02
  0.34641E-02  0.18159E-02  0.83169E-02
  0.29237E-02  0.25933E-02  0.83166E-02
  0.22163E-02  0.32185E-02  0.83161E-02
  0.13798E-02  0.36565E-02  0.83141E-02
  0.46161E-03  0.38838E-02  0.83087E-02
 -0.48348E-03  0.38887E-02  0.82983E-02
 -0.14007E-02  0.36734E-02  0.82839E-02
 -0.22360E-02  0.32509E-02  0.82709E-02
 -0.29387E-02  0.26405E-02  0.82670E-02
 -0.34690E-02  0.18669E-02  0.82803E-02
 -0.38000E-02  0.97247E-03  0.83027E-02
 -0.39131E-02  0.22652E-04  0.83179E-02
 -0.38003E-02 -0.92075E-03  0.83225E-02
 -0.34667E-02 -0.18059E-02  0.83221E-02
 -0.29315E-02 -0.25841E-02  0.83209E-02
 -0.22252E-02 -0.32114E-02  0.83206E-02
 -0.13884E-02 -0.36524E-02  0.83213E-02
 -0.47075E-03 -0.38811E-02  0.83219E-02
  0.47361E-03 -0.38837E-02  0.83210E-02
  0.13905E-02 -0.36600E-02  0.83193E-02
  0.22274E-02 -0.32230E-02  0.83169E-02
  0.29342E-02 -0.25974E-02  0.83141E-02
  0.34681E-02 -0.18189E-02  0.83122E-02
  0.37994E-02 -0.93524E-03  0.83121E-02
  0.10382E-02  0.68164E-03  0.92953E-02
  0.17452E-02  0.12415E-02  0.92951E-02
  0.23201E-02  0.59877E-03  0.92945E-02
  0.16694E-02 -0.32481E-03  0.92940E-02
  0.30447E-02  0.15017E-03  0.92943E-02
  0.27935E-02 -0.67248E-03  0.92941E-02
  0.12861E-02  0.18414E-02  0.92958E-02
  0.64933E-03  0.14747E-02  0.92963E-02
  0.12408E-03  0.32051E-03  0.92958E-02
 -0.12977E-03  0.11997E-02  0.92972E-02
  0.94036E-03  0.22735E-02  0.92960E-02
  0.11253E-02  0.28165E-02  0.92953E-02
  0.17422E-02  0.24240E-02  0.92956E-02
  0.40698E-03  0.21648E-02  0.92963E-02
  0.39582E-03  0.29285E-02  0.92939E-02
 -0.76774E-03 -0.10096E-02  0.92948E-02
 -0.86627E-03  0.91803E-04  0.92970E-02
  0.45433E-03 -0.69031E-03  0.92941E-02
 -0.18331E-02 -0.71309E-03  0.92974E-02
 -0.18393E-02  0.80284E-04  0.92986E-02
 -0.27197E-02 -0.77342E-03  0.93000E-02
 -0.27936E-02  0.49365E-04  0.92986E-02
 -0.25361E-02 -0.15168E-02  0.92994E-02
 -0.19341E-02 -0.13236E-02  0.92969E-02
 -0.98869E-03  0.10117E-02  0.92983E-02
 -0.14415E-02 -0.17345E-02  0.92953E-02
 -0.31006E-03  0.20233E-02  0.92966E-02
 -0.10990E-02  0.18543E-02  0.92961E-02
 -0.18835E-02  0.17162E-02  0.92925E-02
 -0.18666E-02  0.90988E-03  0.92977E-02
 -0.16038E-03 -0.19834E-02  0.92938E-02
 -0.94912E-03 -0.23514E-02  0.92953E-02
  0.77934E-03 -0.17104E-02  0.92937E-02
  0.17267E-02 -0.14992E-02  0.92942E-02
  0.32209E-02  0.77476E-03  0.92947E-02
  0.28105E-02  0.12521E-02  0.92948E-02
  0.23069E-02  0.18642E-02  0.92951E-02
 -0.40631E-03  0.28797E-02  0.92914E-02
 -0.12137E-02  0.27118E-02  0.92873E-02
 -0.19489E-02  0.24660E-02  0.92808E-02
 -0.25072E-02  0.22520E-02  0.92721E-02
 -0.26361E-02  0.16617E-02  0.92821E-02
 -0.27584E-02  0.88702E-03  0.92922E-02
 -0.21119E-02 -0.21361E-02  0.92982E-02
 -0.16062E-02 -0.26920E-02  0.92986E-02
 -0.11928E-02 -0.31271E-02  0.93013E-02
 -0.58913E-03 -0.30391E-02  0.92999E-02
  0.20585E-03 -0.28784E-02  0.92986E-02
  0.10585E-02 -0.26533E-02  0.92979E-02
  0.18506E-02 -0.23830E-02  0.92976E-02
  0.24671E-02 -0.21665E-02  0.92975E-02
  0.26126E-02 -0.15165E-02  0.92951E-02
  0.38098E-02  0.92564E-03  0.92950E-02
  0.39203E-02 -0.11211E-04  0.92944E-02
  0.34707E-02  0.18109E-02  0.92950E-02
  0.29275E-02  0.25905E-02  0.92952E-02
  0.22176E-02  0.32171E-02  0.92955E-02
  0.13797E-02  0.36562E-02  0.92940E-02
  0.46037E-03  0.38842E-02  0.92886E-02
 -0.48583E-03  0.38890E-02  0.92787E-02
 -0.14035E-02  0.36720E-02  0.92647E-02
 -0.22380E-02  0.32467E-02  0.92497E-02
 -0.29390E-02  0.26364E-02  0.92409E-02
 -0.34670E-02  0.18695E-02  0.92502E-02
 -0.37947E-02  0.98109E-03  0.92757E-02
 -0.39060E-02  0.32007E-04  0.92969E-02
 -0.37930E-02 -0.91377E-03  0.93050E-02
 -0.34604E-02 -0.18015E-02  0.93053E-02
 -0.29270E-02 -0.25806E-02  0.93040E-02
 -0.22218E-02 -0.32075E-02  0.93051E-02
 -0.13853E-02 -0.36491E-02  0.93090E-02
 -0.46793E-03 -0.38804E-02  0.93127E-02
  0.47588E-03 -0.38865E-02  0.93126E-02
  0.13925E-02 -0.36659E-02  0.93101E-02
  0.22301E-02 -0.32324E-02  0.93067E-02
  0.29384E-02 -0.26097E-02  0.93018E-02
  0.34736E-02 -0.18322E-02  0.92970E-02
  0.38059E-02 -0.94806E-03  0.92945E-02
  0.10363E-02  0.68421E-03  0.10274E-01
  0.17430E-02  0.12448E-02  0.10273E-01
  0.23168E-02  0.60276E-03  0.10272E-01
  0.16656E-02 -0.32078E-03  0.10272E-01
  0.30397E-02  0.15317E-03  0.10272E-01
  0.27874E-02 -0.67018E-03  0.10273E-01
  0.12840E-02  0.18434E-02  0.10274E-01
  0.64692E-03  0.14770E-02  0.10275E-01
  0.12198E-03  0.32260E-03  0.10275E-01
 -0.13210E-03  0.12017E-02  0.10277E-01
  0.93840E-03  0.22750E-02  0.10274E-01
  0.11252E-02  0.28173E-02  0.10272E-01
  0.17416E-02  0.24259E-02  0.10273E-01
  0.40532E-03  0.21657E-02  0.10275E-01
  0.39682E-03  0.29290E-02  0.10271E-01
 -0.77210E-03 -0.10092E-02  0.10273E-01
 -0.86915E-03  0.91715E-04  0.10277E-01
  0.45112E-03 -0.68758E-03  0.10272E-01
 -0.18397E-02 -0.71260E-03  0.10278E-01
 -0.18443E-02  0.79210E-04  0.10280E-01
 -0.27334E-02 -0.76355E-03  0.10282E-01
 -0.28053E-02  0.59619E-04  0.10278E-01
 -0.25517E-02 -0.15058E-02  0.10282E-01
 -0.19436E-02 -0.13201E-02  0.10277E-01
 -0.99120E-03  0.10117E-02  0.10278E-01
 -0.14503E-02 -0.17309E-02  0.10274E-01
 -0.31112E-03  0.20235E-02  0.10275E-01
 -0.10999E-02  0.18535E-02  0.10273E-01
 -0.18852E-02  0.17178E-02  0.10265E-01
 -0.18706E-02  0.90957E-03  0.10276E-01
 -0.16802E-03 -0.19804E-02  0.10272E-01
 -0.96050E-03 -0.23458E-02  0.10276E-01
  0.77139E-03 -0.17072E-02  0.10272E-01
  0.17175E-02 -0.14956E-02  0.10274E-01
  0.32159E-02  0.77973E-03  0.10271E-01
  0.28073E-02  0.12566E-02  0.10271E-01
  0.23060E-02  0.18671E-02  0.10272E-01
 -0.40393E-03  0.28789E-02  0.10267E-01
 -0.12104E-02  0.27119E-02  0.10258E-01
 -0.19456E-02  0.24699E-02  0.10245E-01
 -0.25052E-02  0.22639E-02  0.10228E-01
 -0.26395E-02  0.16740E-02  0.10245E-01
 -0.27667E-02  0.89883E-03  0.10264E-01
 -0.21277E-02 -0.21249E-02  0.10281E-01
 -0.16235E-02 -0.26797E-02  0.10283E-01
 -0.12131E-02 -0.31137E-02  0.10291E-01
 -0.60637E-03 -0.30308E-02  0.10287E-01
  0.19024E-03 -0.28738E-02  0.10284E-01
  0.10420E-02 -0.26499E-02  0.10283E-01
  0.18328E-02 -0.23796E-02  0.10282E-01
  0.24487E-02 -0.21648E-02  0.10283E-01
  0.26007E-02 -0.15144E-02  0.10277E-01
  0.38026E-02  0.92972E-03  0.10270E-01
  0.39155E-02 -0.12474E-04  0.10273E-01
  0.34684E-02  0.18162E-02  0.10269E-01
  0.29305E-02  0.25937E-02  0.10271E-01
  0.22215E-02  0.32185E-02  0.10272E-01
  0.13844E-02  0.36572E-02  0.10269E-01
  0.46701E-03  0.38853E-02  0.10263E-01
 -0.47663E-03  0.38903E-02  0.10250E-01
 -0.13909E-02  0.36746E-02  0.10228E-01
 -0.22243E-02  0.32559E-02  0.10198E-01
 -0.29314E-02  0.26617E-02  0.10176E-01
 -0.34726E-02  0.19136E-02  0.10187E-01
 -0.38146E-02  0.10329E-02  0.10231E-01
 -0.39351E-02  0.79374E-04  0.10272E-01
 -0.38251E-02 -0.87455E-03  0.10291E-01
 -0.34918E-02 -0.17691E-02  0.10294E-01
 -0.29568E-02 -0.25522E-02  0.10294E-01
 -0.22515E-02 -0.31814E-02  0.10299E-01
 -0.14149E-02 -0.36277E-02  0.10309E-01
 -0.49644E-03 -0.38676E-02  0.10317E-01
  0.44712E-03 -0.38811E-02  0.10316E-01
  0.13607E-02 -0.36633E-02  0.10310E-01
  0.21973E-02 -0.32307E-02  0.10302E-01
  0.29114E-02 -0.26102E-02  0.10293E-01
  0.34574E-02 -0.18363E-02  0.10283E-01
  0.37990E-02 -0.95313E-03  0.10277E-01
  0.10239E-02  0.69564E-03  0.11251E-01
  0.17291E-02  0.12581E-02  0.11248E-01
  0.22991E-02  0.61939E-03  0.11246E-01
  0.16488E-02 -0.30609E-03  0.11247E-01
  0.30142E-02  0.17218E-03  0.11246E-01
  0.27602E-02 -0.65352E-03  0.11250E-01
  0.12695E-02  0.18541E-02  0.11250E-01
  0.63218E-03  0.14872E-02  0.11253E-01
  0.10958E-03  0.33146E-03  0.11254E-01
 -0.14652E-03  0.12095E-02  0.11257E-01
  0.92431E-03  0.22842E-02  0.11250E-01
  0.11160E-02  0.28252E-02  0.11246E-01
  0.17314E-02  0.24363E-02  0.11247E-01
  0.39192E-03  0.21733E-02  0.11252E-01
  0.39050E-03  0.29352E-02  0.11244E-01
 -0.79339E-03 -0.10021E-02  0.11251E-01
 -0.88594E-03  0.95552E-04  0.11259E-01
  0.43649E-03 -0.67703E-03  0.11249E-01
 -0.18715E-02 -0.70514E-03  0.11259E-01
 -0.18719E-02  0.81977E-04  0.11263E-01
 -0.27905E-02 -0.73778E-03  0.11267E-01
 -0.28594E-02  0.85506E-04  0.11259E-01
 -0.26130E-02 -0.14767E-02  0.11267E-01
 -0.19850E-02 -0.13054E-02  0.11258E-01
 -0.10094E-02  0.10147E-02  0.11260E-01
 -0.14883E-02 -0.17162E-02  0.11254E-01
 -0.32338E-03  0.20284E-02  0.11253E-01
 -0.11158E-02  0.18565E-02  0.11247E-01
 -0.19104E-02  0.17280E-02  0.11228E-01
 -0.18988E-02  0.91370E-03  0.11254E-01
 -0.19720E-03 -0.19684E-02  0.11251E-01
 -0.10028E-02 -0.23275E-02  0.11258E-01
  0.74388E-03 -0.16944E-02  0.11250E-01
  0.16850E-02 -0.14799E-02  0.11253E-01
  0.31878E-02  0.80229E-03  0.11243E-01
  0.27866E-02  0.12757E-02  0.11243E-01
  0.22937E-02  0.18810E-02  0.11245E-01
 -0.40711E-03  0.28821E-02  0.11237E-01
 -0.12160E-02  0.27177E-02  0.11218E-01
 -0.19606E-02  0.24873E-02  0.11187E-01
 -0.25313E-02  0.23008E-02  0.11153E-01
 -0.26780E-02  0.17096E-02  0.11187E-01
 -0.28159E-02  0.92975E-03  0.11229E-01
 -0.21873E-02 -0.20950E-02  0.11266E-01
 -0.16838E-02 -0.26484E-02  0.11273E-01
 -0.12784E-02 -0.30814E-02  0.11287E-01
 -0.66167E-03 -0.30081E-02  0.11280E-01
  0.14211E-03 -0.28586E-02  0.11274E-01
  0.99278E-03 -0.26359E-02  0.11271E-01
  0.17791E-02 -0.23628E-02  0.11269E-01
  0.23924E-02 -0.21475E-02  0.11269E-01
  0.25596E-02 -0.14976E-02  0.11258E-01
  0.37650E-02  0.95554E-03  0.11240E-01
  0.38839E-02  0.66295E-05  0.11249E-01
  0.34437E-02  0.18396E-02  0.11239E-01
  0.29237E-02  0.26089E-02  0.11242E-01
  0.22214E-02  0.32276E-02  0.11243E-01
  0.13873E-02  0.36639E-02  0.11239E-01
  0.47448E-03  0.38909E-02  0.11229E-01
 -0.46352E-03  0.38959E-02  0.11208E-01
 -0.13755E-02  0.36861E-02  0.11166E-01
 -0.22199E-02  0.32884E-02  0.11105E-01
 -0.29528E-02  0.27298E-02  0.11061E-01
 -0.35275E-02  0.20132E-02  0.11085E-01
 -0.39053E-02  0.11394E-02  0.11167E-01
 -0.40474E-02  0.17261E-03  0.11246E-01
 -0.39390E-02 -0.79730E-03  0.11282E-01
 -0.35969E-02 -0.17027E-02  0.11289E-01
 -0.30514E-02 -0.24920E-02  0.11292E-01
 -0.23403E-02 -0.31263E-02  0.11303E-01
 -0.15013E-02 -0.35824E-02  0.11321E-01
 -0.57705E-03 -0.38384E-02  0.11334E-01
  0.36937E-03 -0.38650E-02  0.11331E-01
  0.12783E-02 -0.36500E-02  0.11319E-01
  0.21124E-02 -0.32142E-02  0.11304E-01
  0.28365E-02 -0.25929E-02  0.11286E-01
  0.34034E-02 -0.18228E-02  0.11269E-01
  0.37645E-02 -0.94047E-03  0.11258E-01
  
CELLS       3486               17724
       1       0
       1       1
       1       2
       1       3
       1       4
       1       5
       1       6
       1       7
       1       8
       1       9
       1      10
       1      11
       1      12
       1      13
       1      14
       1      15
       1      16
       1      17
       1      18
       1      19
       1      20
       1      21
       1      22
       1      23
       1      24
       1      25
       1      26
       1      27
       1      28
       1      29
       1      30
       1      31
       1      32
       1      33
       1      34
       1      35
       1      36
       1      37
       1      38
       1      39
       1      40
       1      41
       1      42
       1      43
       1      44
       1      45
       1      46
       1      47
       1      48
       1      49
       1      50
       1      51
       1      52
       1      53
       1      54
       1      55
       1      56
       1      57
       1      58
       1      59
       1      60
       1      61
       1      62
       1      63
       1      64
       1      65
       1      66
       1      67
       1      68
       1      69
       1      70
       1      71
       1      72
       1      73
       1      74
       1      75
       1      76
       1      77
       1      78
       1      79
       1      80
       1      81
       1      82
       1      83
       1      84
       1      85
       1      86
       1      87
       1      88
       1      89
       1      90
       1      91
       1      92
       1      93
       1      94
       1      95
       1      96
       1      97
       1      98
       1      99
       1     100
       1     101
       1     102
       1     103
       1     104
       1     105
       1     106
       1     107
       1     108
       1     109
       1     110
       1     111
       1     112
       1     113
       1     114
       1     115
       1     116
       1     117
       1     118
       1     119
       1     120
       1     121
       1     122
       1     123
       1     124
       1     125
       1     126
       1     127
       1     128
       1     129
       1     130
       1     131
       1     132
       1     133
       1     134
       1     135
       1     136
       1     137
       1     138
       1     139
       1     140
       1     141
       1     142
       1     143
       1     144
       1     145
       1     146
       1     147
       1     148
       1     149
       1     150
       1     151
       1     152
       1     153
       1     154
       1     155
       1     156
       1     157
       1     158
       1     159
       1     160
       1     161
       1     162
       1     163
       1     164
       1     165
       1     166
       1     167
       1     168
       1     169
       1     170
       1     171
       1     172
       1     173
       1     174
       1     175
       1     176
       1     177
       1     178
       1     179
       1     180
       1     181
       1     182
       1     183
       1     184
       1     185
       1     186
       1     187
       1     188
       1     189
       1     190
       1     191
       1     192
       1     193
       1     194
       1     195
       1     196
       1     197
       1     198
       1     199
       1     200
       1     201
       1     202
       1     203
       1     204
       1     205
       1     206
       1     207
       1     208
       1     209
       1     210
       1     211
       1     212
       1     213
       1     214
       1     215
       1     216
       1     217
       1     218
       1     219
       1     220
       1     221
       1     222
       1     223
       1     224
       1     225
       1     226
       1     227
       1     228
       1     229
       1     230
       1     231
       1     232
       1     233
       1     234
       1     235
       1     236
       1     237
       1     238
       1     239
       1     240
       1     241
       1     242
       1     243
       1     244
       1     245
       1     246
       1     247
       1     248
       1     249
       1     250
       1     251
       1     252
       1     253
       1     254
       1     255
       1     256
       1     257
       1     258
       1     259
       1     260
       1     261
       1     262
       1     263
       1     264
       1     265
       1     266
       1     267
       1     268
       1     269
       1     270
       1     271
       1     272
       1     273
       1     274
       1     275
       1     276
       1     277
       1     278
       1     279
       1     280
       1     281
       1     282
       1     283
       1     284
       1     285
       1     286
       1     287
       1     288
       1     289
       1     290
       1     291
       1     292
       1     293
       1     294
       1     295
       1     296
       1     297
       1     298
       1     299
       1     300
       1     301
       1     302
       1     303
       1     304
       1     305
       1     306
       1     307
       1     308
       1     309
       1     310
       1     311
       1     312
       1     313
       1     314
       1     315
       1     316
       1     317
       1     318
       1     319
       1     320
       1     321
       1     322
       1     323
       1     324
       1     325
       1     326
       1     327
       1     328
       1     329
       1     330
       1     331
       1     332
       1     333
       1     334
       1     335
       1     336
       1     337
       1     338
       1     339
       1     340
       1     341
       1     342
       1     343
       1     344
       1     345
       1     346
       1     347
       1     348
       1     349
       1     350
       1     351
       1     352
       1     353
       1     354
       1     355
       1     356
       1     357
       1     358
       1     359
       1     360
       1     361
       1     362
       1     363
       1     364
       1     365
       1     366
       1     367
       1     368
       1     369
       1     370
       1     371
       1     372
       1     373
       1     374
       1     375
       1     376
       1     377
       1     378
       1     379
       1     380
       1     381
       1     382
       1     383
       1     384
       1     385
       1     386
       1     387
       1     388
       1     389
       1     390
       1     391
       1     392
       1     393
       1     394
       1     395
       1     396
       1     397
       1     398
       1     399
       1     400
       1     401
       1     402
       1     403
       1     404
       1     405
       1     406
       1     407
       1     408
       1     409
       1     410
       1     411
       1     412
       1     413
       1     414
       1     415
       1     416
       1     417
       1     418
       1     419
       1     420
       1     421
       1     422
       1     423
       1     424
       1     425
       1     426
       1     427
       1     428
       1     429
       1     430
       1     431
       1     432
       1     433
       1     434
       1     435
       1     436
       1     437
       1     438
       1     439
       1     440
       1     441
       1     442
       1     443
       1     444
       1     445
       1     446
       1     447
       1     448
       1     449
       1     450
       1     451
       1     452
       1     453
       1     454
       1     455
       1     456
       1     457
       1     458
       1     459
       1     460
       1     461
       1     462
       1     463
       1     464
       1     465
       1     466
       1     467
       1     468
       1     469
       1     470
       1     471
       1     472
       1     473
       1     474
       1     475
       1     476
       1     477
       1     478
       1     479
       1     480
       1     481
       1     482
       1     483
       1     484
       1     485
       1     486
       1     487
       1     488
       1     489
       1     490
       1     491
       1     492
       1     493
       1     494
       1     495
       1     496
       1     497
       1     498
       1     499
       1     500
       1     501
       1     502
       1     503
       1     504
       1     505
       1     506
       1     507
       1     508
       1     509
       1     510
       1     511
       1     512
       1     513
       1     514
       1     515
       1     516
       1     517
       1     518
       1     519
       1     520
       1     521
       1     522
       1     523
       1     524
       1     525
       1     526
       1     527
       1     528
       1     529
       1     530
       1     531
       1     532
       1     533
       1     534
       1     535
       1     536
       1     537
       1     538
       1     539
       1     540
       1     541
       1     542
       1     543
       1     544
       1     545
       1     546
       1     547
       1     548
       1     549
       1     550
       1     551
       1     552
       1     553
       1     554
       1     555
       1     556
       1     557
       1     558
       1     559
       1     560
       1     561
       1     562
       1     563
       1     564
       1     565
       1     566
       1     567
       1     568
       1     569
       1     570
       1     571
       1     572
       1     573
       1     574
       1     575
       1     576
       1     577
       1     578
       1     579
       1     580
       1     581
       1     582
       1     583
       1     584
       1     585
       1     586
       1     587
       1     588
       1     589
       1     590
       1     591
       1     592
       1     593
       1     594
       1     595
       1     596
       1     597
       1     598
       1     599
       1     600
       1     601
       1     602
       1     603
       1     604
       1     605
       1     606
       1     607
       1     608
       1     609
       1     610
       1     611
       1     612
       1     613
       1     614
       1     615
       1     616
       1     617
       1     618
       1     619
       1     620
       1     621
       1     622
       1     623
       1     624
       1     625
       1     626
       1     627
       1     628
       1     629
       1     630
       1     631
       1     632
       1     633
       1     634
       1     635
       1     636
       1     637
       1     638
       1     639
       1     640
       1     641
       1     642
       1     643
       1     644
       1     645
       1     646
       1     647
       1     648
       1     649
       1     650
       1     651
       1     652
       1     653
       1     654
       1     655
       1     656
       1     657
       1     658
       1     659
       1     660
       1     661
       1     662
       1     663
       1     664
       1     665
       1     666
       1     667
       1     668
       1     669
       1     670
       1     671
       1     672
       1     673
       1     674
       1     675
       1     676
       1     677
       1     678
       1     679
       1     680
       1     681
       1     682
       1     683
       1     684
       1     685
       1     686
       1     687
       1     688
       1     689
       1     690
       1     691
       1     692
       1     693
       1     694
       1     695
       1     696
       1     697
       1     698
       1     699
       1     700
       1     701
       1     702
       1     703
       1     704
       1     705
       1     706
       1     707
       1     708
       1     709
       1     710
       1     711
       1     712
       1     713
       1     714
       1     715
       1     716
       1     717
       1     718
       1     719
       1     720
       1     721
       1     722
       1     723
       1     724
       1     725
       1     726
       1     727
       1     728
       1     729
       1     730
       1     731
       1     732
       1     733
       1     734
       1     735
       1     736
       1     737
       1     738
       1     739
       1     740
       1     741
       1     742
       1     743
       1     744
       1     745
       1     746
       1     747
       1     748
       1     749
       1     750
       1     751
       1     752
       1     753
       1     754
       1     755
       1     756
       1     757
       1     758
       1     759
       1     760
       1     761
       1     762
       1     763
       1     764
       1     765
       1     766
       1     767
       1     768
       1     769
       1     770
       1     771
       1     772
       1     773
       1     774
       1     775
       1     776
       1     777
       1     778
       1     779
       1     780
       1     781
       1     782
       1     783
       1     784
       1     785
       1     786
       1     787
       1     788
       1     789
       1     790
       1     791
       1     792
       1     793
       1     794
       1     795
       1     796
       1     797
       1     798
       1     799
       1     800
       1     801
       1     802
       1     803
       1     804
       1     805
       1     806
       1     807
       1     808
       1     809
       1     810
       1     811
       1     812
       1     813
       1     814
       1     815
       1     816
       1     817
       1     818
       1     819
       1     820
       1     821
       1     822
       1     823
       1     824
       1     825
       1     826
       1     827
       1     828
       1     829
       1     830
       1     831
       1     832
       1     833
       1     834
       1     835
       1     836
       1     837
       1     838
       1     839
       1     840
       1     841
       1     842
       1     843
       1     844
       1     845
       1     846
       1     847
       1     848
       1     849
       1     850
       1     851
       1     852
       1     853
       1     854
       1     855
       1     856
       1     857
       1     858
       1     859
       1     860
       1     861
       1     862
       1     863
       1     864
       1     865
       1     866
       1     867
       1     868
       1     869
       1     870
       1     871
       1     872
       1     873
       1     874
       1     875
       1     876
       1     877
       1     878
       1     879
       1     880
       1     881
       1     882
       1     883
       1     884
       1     885
       1     886
       1     887
       1     888
       1     889
       1     890
       1     891
       1     892
       1     893
       1     894
       1     895
       1     896
       1     897
       1     898
       1     899
       1     900
       1     901
       1     902
       1     903
       1     904
       1     905
       1     906
       1     907
       1     908
       1     909
       1     910
       1     911
       1     912
       1     913
       1     914
       1     915
       1     916
       1     917
       1     918
       1     919
       1     920
       1     921
       1     922
       1     923
       1     924
       1     925
       1     926
       1     927
       1     928
       1     929
       1     930
       1     931
       1     932
       1     933
       1     934
       1     935
       1     936
       1     937
       1     938
       1     939
       1     940
       1     941
       1     942
       1     943
       1     944
       1     945
       1     946
       1     947
       1     948
       1     949
       1     950
       1     951
       1     952
       1     953
       1     954
       1     955
       1     956
       1     957
       1     958
       1     959
       1     960
       1     961
       1     962
       1     963
       1     964
       1     965
       1     966
       1     967
       1     968
       1     969
       1     970
       1     971
       1     972
       1     973
       1     974
       1     975
       1     976
       1     977
       1     978
       1     979
       1     980
       1     981
       1     982
       1     983
       1     984
       1     985
       1     986
       1     987
       1     988
       1     989
       1     990
       1     991
       1     992
       1     993
       1     994
       1     995
       1     996
       1     997
       1     998
       1     999
       1    1000
       1    1001
       1    1002
       1    1003
       1    1004
       1    1005
       1    1006
       1    1007
       1    1008
       1    1009
       1    1010
       1    1011
       1    1012
       1    1013
       1    1014
       1    1015
       1    1016
       1    1017
       1    1018
       1    1019
       1    1020
       1    1021
       1    1022
       1    1023
       1    1024
       1    1025
       1    1026
       1    1027
       1    1028
       1    1029
       1    1030
       1    1031
       1    1032
       1    1033
       1    1034
       1    1035
       1    1036
       1    1037
       1    1038
       1    1039
       1    1040
       1    1041
       1    1042
       1    1043
       1    1044
       1    1045
       1    1046
       1    1047
       1    1048
       1    1049
       1    1050
       1    1051
       1    1052
       1    1053
       1    1054
       1    1055
       1    1056
       1    1057
       1    1058
       1    1059
       1    1060
       1    1061
       1    1062
       1    1063
       1    1064
       1    1065
       1    1066
       1    1067
       1    1068
       1    1069
       1    1070
       1    1071
       1    1072
       1    1073
       1    1074
       1    1075
       1    1076
       1    1077
       1    1078
       1    1079
       1    1080
       1    1081
       1    1082
       1    1083
       1    1084
       1    1085
       1    1086
       1    1087
       1    1088
       1    1089
       1    1090
       1    1091
       1    1092
       1    1093
       1    1094
       1    1095
       1    1096
       1    1097
       1    1098
       1    1099
       1    1100
       1    1101
       1    1102
       1    1103
       1    1104
       1    1105
       1    1106
       1    1107
       1    1108
       1    1109
       1    1110
       1    1111
       1    1112
       1    1113
       1    1114
       1    1115
       1    1116
       1    1117
       1    1118
       1    1119
       1    1120
       1    1121
       1    1122
       1    1123
       1    1124
       1    1125
       1    1126
       1    1127
       1    1128
       1    1129
       1    1130
       1    1131
       1    1132
       1    1133
       1    1134
       1    1135
       1    1136
       1    1137
       1    1138
       1    1139
       1    1140
       1    1141
       1    1142
       1    1143
       1    1144
       1    1145
       1    1146
       1    1147
       1    1148
       1    1149
       1    1150
       1    1151
       1    1152
       1    1153
       1    1154
       1    1155
       1    1156
       1    1157
       1    1158
       1    1159
       1    1160
       1    1161
       1    1162
       1    1163
       1    1164
       1    1165
       1    1166
       1    1167
       1    1168
       1    1169
       1    1170
       1    1171
       1    1172
       1    1173
       1    1174
       1    1175
       1    1176
       1    1177
       1    1178
       1    1179
       1    1180
       1    1181
       1    1182
       1    1183
       1    1184
       1    1185
       1    1186
       1    1187
       1    1188
       1    1189
       1    1190
       1    1191
       1    1192
       1    1193
       1    1194
       1    1195
       1    1196
       1    1197
       1    1198
       1    1199
       1    1200
       1    1201
       1    1202
       1    1203
       1    1204
       1    1205
       1    1206
       1    1207
       1    1208
       1    1209
       1    1210
       1    1211
       1    1212
       1    1213
       1    1214
       1    1215
       1    1216
       1    1217
       1    1218
       1    1219
       1    1220
       1    1221
       1    1222
       1    1223
       1    1224
       1    1225
       1    1226
       1    1227
       1    1228
       1    1229
       1    1230
       1    1231
       1    1232
       1    1233
       1    1234
       1    1235
       1    1236
       1    1237
       1    1238
       1    1239
       1    1240
       1    1241
       1    1242
       1    1243
       1    1244
       1    1245
       1    1246
       1    1247
       1    1248
       1    1249
       1    1250
       1    1251
       1    1252
       1    1253
       1    1254
       1    1255
       1    1256
       1    1257
       1    1258
       1    1259
       1    1260
       1    1261
       1    1262
       1    1263
       1    1264
       1    1265
       1    1266
       1    1267
       1    1268
       1    1269
       1    1270
       1    1271
       1    1272
       1    1273
       1    1274
       1    1275
       1    1276
       1    1277
       1    1278
       1    1279
       1    1280
       1    1281
       1    1282
       1    1283
       1    1284
       1    1285
       1    1286
       1    1287
       1    1288
       1    1289
       1    1290
       1    1291
       1    1292
       1    1293
       1    1294
       1    1295
       1    1296
       1    1297
       1    1298
       1    1299
       1    1300
       1    1301
       1    1302
       1    1303
       1    1304
       1    1305
       1    1306
       1    1307
       1    1308
       1    1309
       1    1310
       1    1311
       1    1312
       1    1313
       1    1314
       1    1315
       1    1316
       1    1317
       1    1318
       1    1319
       1    1320
       1    1321
       1    1322
       1    1323
       1    1324
       1    1325
       1    1326
       1    1327
       1    1328
       1    1329
       1    1330
       1    1331
       1    1332
       1    1333
       1    1334
       1    1335
       1    1336
       1    1337
       1    1338
       1    1339
       1    1340
       1    1341
       1    1342
       1    1343
       1    1344
       1    1345
       1    1346
       1    1347
       1    1348
       1    1349
       1    1350
       1    1351
       1    1352
       1    1353
       1    1354
       1    1355
       1    1356
       1    1357
       1    1358
       1    1359
       1    1360
       1    1361
       1    1362
       1    1363
       1    1364
       1    1365
       1    1366
       1    1367
       1    1368
       1    1369
       1    1370
       1    1371
       1    1372
       1    1373
       1    1374
       1    1375
       1    1376
       1    1377
       1    1378
       1    1379
       1    1380
       1    1381
       1    1382
       1    1383
       1    1384
       1    1385
       1    1386
       1    1387
       1    1388
       1    1389
       1    1390
       1    1391
       1    1392
       1    1393
       1    1394
       1    1395
       1    1396
       1    1397
       1    1398
       1    1399
       1    1400
       1    1401
       1    1402
       1    1403
       1    1404
       1    1405
       1    1406
       1    1407
       1    1408
       1    1409
       1    1410
       1    1411
       1    1412
       1    1413
       1    1414
       1    1415
       1    1416
       1    1417
       1    1418
       1    1419
       1    1420
       1    1421
       1    1422
       1    1423
       1    1424
       1    1425
       1    1426
       1    1427
       1    1428
       1    1429
       1    1430
       1    1431
       1    1432
       1    1433
       1    1434
       1    1435
       1    1436
       1    1437
       1    1438
       1    1439
       1    1440
       1    1441
       1    1442
       1    1443
       1    1444
       1    1445
       1    1446
       1    1447
       1    1448
       1    1449
       1    1450
       1    1451
       1    1452
       1    1453
       1    1454
       1    1455
       1    1456
       1    1457
       1    1458
       1    1459
       1    1460
       1    1461
       1    1462
       1    1463
       1    1464
       1    1465
       1    1466
       1    1467
       1    1468
       1    1469
       1    1470
       1    1471
       1    1472
       1    1473
       1    1474
       1    1475
       1    1476
       1    1477
       1    1478
       1    1479
       1    1480
       1    1481
       1    1482
       1    1483
       1    1484
       1    1485
       1    1486
       1    1487
       1    1488
       1    1489
       1    1490
       1    1491
       1    1492
       1    1493
       1    1494
       1    1495
       1    1496
       1    1497
       1    1498
       1    1499
       1    1500
       1    1501
       1    1502
       1    1503
       1    1504
       1    1505
       1    1506
       1    1507
       1    1508
       1    1509
       1    1510
       1    1511
       1    1512
       1    1513
       1    1514
       1    1515
       1    1516
       1    1517
       1    1518
       1    1519
       1    1520
       1    1521
       1    1522
       1    1523
       1    1524
       1    1525
       1    1526
       1    1527
       1    1528
       1    1529
       1    1530
       1    1531
       1    1532
       1    1533
       1    1534
       1    1535
       1    1536
       1    1537
       1    1538
       1    1539
       1    1540
       1    1541
       1    1542
       1    1543
       1    1544
       1    1545
       1    1546
       1    1547
       1    1548
       1    1549
       1    1550
       1    1551
       1    1552
       1    1553
       1    1554
       1    1555
       1    1556
       1    1557
       1    1558
       1    1559
       1    1560
       1    1561
       1    1562
       1    1563
       1    1564
       1    1565
       1    1566
       1    1567
       1    1568
       1    1569
       1    1570
       1    1571
       1    1572
       1    1573
       1    1574
       1    1575
       1    1576
       1    1577
       1    1578
       1    1579
       1    1580
       1    1581
       1    1582
       1    1583
       1    1584
       1    1585
       1    1586
       1    1587
       1    1588
       1    1589
       1    1590
       1    1591
       1    1592
       1    1593
       1    1594
       1    1595
       1    1596
       1    1597
       1    1598
       1    1599
       1    1600
       1    1601
       1    1602
       1    1603
       1    1604
       1    1605
       1    1606
       1    1607
       1    1608
       1    1609
       1    1610
       1    1611
       1    1612
       1    1613
       1    1614
       1    1615
       1    1616
       1    1617
       1    1618
       1    1619
       1    1620
       1    1621
       1    1622
       1    1623
       1    1624
       1    1625
       1    1626
       1    1627
       1    1628
       1    1629
       1    1630
       1    1631
       1    1632
       1    1633
       1    1634
       1    1635
       1    1636
       1    1637
       1    1638
       1    1639
       1    1640
       1    1641
       1    1642
       1    1643
       1    1644
       1    1645
       1    1646
       1    1647
       1    1648
       1    1649
       1    1650
       1    1651
       1    1652
       1    1653
       1    1654
       1    1655
       1    1656
       1    1657
       1    1658
       1    1659
       1    1660
       1    1661
       1    1662
       1    1663
       1    1664
       1    1665
       1    1666
       1    1667
       1    1668
       1    1669
       1    1670
       1    1671
       1    1672
       1    1673
       1    1674
       1    1675
       1    1676
       1    1677
       1    1678
       1    1679
       1    1680
       1    1681
       1    1682
       1    1683
       1    1684
       1    1685
       1    1686
       1    1687
       1    1688
       1    1689
       1    1690
       1    1691
       1    1692
       1    1693
       1    1694
       1    1695
       1    1696
       1    1697
       1    1698
       1    1699
       1    1700
       1    1701
       1    1702
       1    1703
       1    1704
       1    1705
       1    1706
       1    1707
       1    1708
       1    1709
       1    1710
       1    1711
       1    1712
       1    1713
       1    1714
       1    1715
       1    1716
       1    1717
       1    1718
       1    1719
       1    1720
       1    1721
       1    1722
       1    1723
       1    1724
       1    1725
       1    1726
       1    1727
       1    1728
       1    1729
       1    1730
       1    1731
       1    1732
       1    1733
       1    1734
       1    1735
       1    1736
       1    1737
       1    1738
       1    1739
       1    1740
       1    1741
       1    1742
       1    1743
       1    1744
       1    1745
       1    1746
       1    1747
       1    1748
       1    1749
       1    1750
       1    1751
       1    1752
       1    1753
       1    1754
       1    1755
       1    1756
       1    1757
       1    1758
       1    1759
       1    1760
       1    1761
       1    1762
       1    1763
       1    1764
       1    1765
       1    1766
       1    1767
       1    1768
       1    1769
       1    1770
       1    1771
       1    1772
       1    1773
       1    1774
       1    1775
       1    1776
       1    1777
       1    1778
       1    1779
       1    1780
       1    1781
       1    1782
       1    1783
       1    1784
       1    1785
       1    1786
       1    1787
       1    1788
       1    1789
       1    1790
       1    1791
       1    1792
       1    1793
       1    1794
       1    1795
       1    1796
       1    1797
       1    1798
       1    1799
       1    1800
       1    1801
       1    1802
       1    1803
       1    1804
       1    1805
       1    1806
       1    1807
       1    1808
       1    1809
       1    1810
       1    1811
       1    1812
       1    1813
       1    1814
       1    1815
       1    1816
       1    1817
       1    1818
       1    1819
       1    1820
       1    1821
       1    1822
       1    1823
       1    1824
       1    1825
       1    1826
       1    1827
       1    1828
       1    1829
       1    1830
       1    1831
       1    1832
       1    1833
       1    1834
       1    1835
       1    1836
       1    1837
       1    1838
       1    1839
       1    1840
       1    1841
       1    1842
       1    1843
       1    1844
       1    1845
       1    1846
       1    1847
       1    1848
       1    1849
       1    1850
       1    1851
       1    1852
       1    1853
       1    1854
       1    1855
       1    1856
       1    1857
       1    1858
       1    1859
       1    1860
       1    1861
       1    1862
       1    1863
       1    1864
       1    1865
       1    1866
       1    1867
       1    1868
       1    1869
       1    1870
       1    1871
       1    1872
       1    1873
       1    1874
       1    1875
       1    1876
       1    1877
       1    1878
       1    1879
       1    1880
       1    1881
       1    1882
       1    1883
       1    1884
       1    1885
       1    1886
       1    1887
       1    1888
       1    1889
       1    1890
       1    1891
       1    1892
       1    1893
       1    1894
       1    1895
       1    1896
       1    1897
       1    1898
       1    1899
       1    1900
       1    1901
       1    1902
       1    1903
       1    1904
       1    1905
       1    1906
       1    1907
       1    1908
       1    1909
       1    1910
       1    1911
       1    1912
       1    1913
       1    1914
       1    1915
       1    1916
       1    1917
       1    1918
       1    1919
       1    1920
       1    1921
       1    1922
       1    1923
       1    1924
       1    1925
       1    1926
       1    1927
       1    1928
       1    1929
       1    1930
       1    1931
       1    1932
       1    1933
       1    1934
       1    1935
       1    1936
       1    1937
       1    1938
       1    1939
       1    1940
       1    1941
       1    1942
       1    1943
       1    1944
       1    1945
       1    1946
       1    1947
       1    1948
       1    1949
       8       0       1       2       3       4       5       6       7
       8       2       8       9       3       6      10      11       7
       8      12       1       0      13      14       5       4      15
       8       0      16      17      13       4      18      19      15
       8      20      21      22      12      23      24      25      14
       8      26      27      21      20      28      29      24      23
       8      13      26      20      12      15      28      23      14
       8      30      31      16      32      33      34      18      35
       8      36      37      31      30      38      39      34      33
       8      40      41      37      36      42      43      39      38
       8      44      40      36      45      46      42      38      47
       8      48      17      16      31      49      19      18      34
       8      30      50      45      36      33      51      47      38
       8       0       3      32      16       4       7      35      18
       8      52      26      13      17      53      28      15      19
       8      54      52      17      48      55      53      19      49
       8      56      54      48      57      58      55      49      59
       8      37      57      48      31      39      59      49      34
       8      60      61      50      30      62      63      51      33
       8      64      60      30      32      65      62      33      35
       8      66      64      32       3      67      65      35       7
       8      68       8       2      69      70      10       6      71
       8      72      69       2       1      73      71       6       5
       8      22      72       1      12      25      73       5      14
       8      74      27      26      52      75      29      28      53
       8      76      74      52      54      77      75      53      55
       8      78      76      54      56      79      77      55      58
       8      80      78      56      81      82      79      58      83
       8      84      81      56      57      85      83      58      59
       8      41      84      57      37      43      85      59      39
       8      86      44      45      50      87      46      47      51
       8      88      86      50      61      89      87      51      63
       8      90      88      61      91      92      89      63      93
       8      94      91      61      60      95      93      63      62
       8      96      94      60      64      97      95      62      65
       8      98      96      64      66      99      97      65      67
       8     100      98      66     101     102      99      67     103
       8       9     101      66       3      11     103      67       7
       8     104     105       8      68     106     107      10      70
       8     108     104      68      69     109     106      70      71
       8     110     108      69      72     111     109      71      73
       8     112     110      72      22     113     111      73      25
       8     114     112      22      21     115     113      25      24
       8     116     114      21      27     117     115      24      29
       8     118     116      27      74     119     117      29      75
       8     120     118      74      76     121     119      75      77
       8     122     120      76      78     123     121      77      79
       8     124     122      78      80     125     123      79      82
       8     126     124      80      81     127     125      82      83
       8     128     126      81      84     129     127      83      85
       8     130     128      84      41     131     129      85      43
       8     132     130      41      40     133     131      43      42
       8     134     132      40      44     135     133      42      46
       8     136     134      44      86     137     135      46      87
       8     138     136      86      88     139     137      87      89
       8     140     138      88      90     141     139      89      92
       8     142     140      90      91     143     141      92      93
       8     144     142      91      94     145     143      93      95
       8     146     144      94      96     147     145      95      97
       8     148     146      96      98     149     147      97      99
       8     150     148      98     100     151     149      99     102
       8     152     150     100     101     153     151     102     103
       8     154     152     101       9     155     153     103      11
       8     105     154       9       8     107     155      11      10
       8     156     157     158     159       0       1       2       3
       8     158     160     161     159       2       8       9       3
       8     162     157     156     163      12       1       0      13
       8     156     164     165     163       0      16      17      13
       8     166     167     168     162      20      21      22      12
       8     169     170     167     166      26      27      21      20
       8     163     169     166     162      13      26      20      12
       8     171     172     164     173      30      31      16      32
       8     174     175     172     171      36      37      31      30
       8     176     177     175     174      40      41      37      36
       8     178     176     174     179      44      40      36      45
       8     180     165     164     172      48      17      16      31
       8     171     181     179     174      30      50      45      36
       8     156     159     173     164       0       3      32      16
       8     182     169     163     165      52      26      13      17
       8     183     182     165     180      54      52      17      48
       8     184     183     180     185      56      54      48      57
       8     175     185     180     172      37      57      48      31
       8     186     187     181     171      60      61      50      30
       8     188     186     171     173      64      60      30      32
       8     189     188     173     159      66      64      32       3
       8     190     160     158     191      68       8       2      69
       8     192     191     158     157      72      69       2       1
       8     168     192     157     162      22      72       1      12
       8     193     170     169     182      74      27      26      52
       8     194     193     182     183      76      74      52      54
       8     195     194     183     184      78      76      54      56
       8     196     195     184     197      80      78      56      81
       8     198     197     184     185      84      81      56      57
       8     177     198     185     175      41      84      57      37
       8     199     178     179     181      86      44      45      50
       8     200     199     181     187      88      86      50      61
       8     201     200     187     202      90      88      61      91
       8     203     202     187     186      94      91      61      60
       8     204     203     186     188      96      94      60      64
       8     205     204     188     189      98      96      64      66
       8     206     205     189     207     100      98      66     101
       8     161     207     189     159       9     101      66       3
       8     208     209     160     190     104     105       8      68
       8     210     208     190     191     108     104      68      69
       8     211     210     191     192     110     108      69      72
       8     212     211     192     168     112     110      72      22
       8     213     212     168     167     114     112      22      21
       8     214     213     167     170     116     114      21      27
       8     215     214     170     193     118     116      27      74
       8     216     215     193     194     120     118      74      76
       8     217     216     194     195     122     120      76      78
       8     218     217     195     196     124     122      78      80
       8     219     218     196     197     126     124      80      81
       8     220     219     197     198     128     126      81      84
       8     221     220     198     177     130     128      84      41
       8     222     221     177     176     132     130      41      40
       8     223     222     176     178     134     132      40      44
       8     224     223     178     199     136     134      44      86
       8     225     224     199     200     138     136      86      88
       8     226     225     200     201     140     138      88      90
       8     227     226     201     202     142     140      90      91
       8     228     227     202     203     144     142      91      94
       8     229     228     203     204     146     144      94      96
       8     230     229     204     205     148     146      96      98
       8     231     230     205     206     150     148      98     100
       8     232     231     206     207     152     150     100     101
       8     233     232     207     161     154     152     101       9
       8     209     233     161     160     105     154       9       8
       8     234     235     236     237     156     157     158     159
       8     236     238     239     237     158     160     161     159
       8     240     235     234     241     162     157     156     163
       8     234     242     243     241     156     164     165     163
       8     244     245     246     240     166     167     168     162
       8     247     248     245     244     169     170     167     166
       8     241     247     244     240     163     169     166     162
       8     249     250     242     251     171     172     164     173
       8     252     253     250     249     174     175     172     171
       8     254     255     253     252     176     177     175     174
       8     256     254     252     257     178     176     174     179
       8     258     243     242     250     180     165     164     172
       8     249     259     257     252     171     181     179     174
       8     234     237     251     242     156     159     173     164
       8     260     247     241     243     182     169     163     165
       8     261     260     243     258     183     182     165     180
       8     262     261     258     263     184     183     180     185
       8     253     263     258     250     175     185     180     172
       8     264     265     259     249     186     187     181     171
       8     266     264     249     251     188     186     171     173
       8     267     266     251     237     189     188     173     159
       8     268     238     236     269     190     160     158     191
       8     270     269     236     235     192     191     158     157
       8     246     270     235     240     168     192     157     162
       8     271     248     247     260     193     170     169     182
       8     272     271     260     261     194     193     182     183
       8     273     272     261     262     195     194     183     184
       8     274     273     262     275     196     195     184     197
       8     276     275     262     263     198     197     184     185
       8     255     276     263     253     177     198     185     175
       8     277     256     257     259     199     178     179     181
       8     278     277     259     265     200     199     181     187
       8     279     278     265     280     201     200     187     202
       8     281     280     265     264     203     202     187     186
       8     282     281     264     266     204     203     186     188
       8     283     282     266     267     205     204     188     189
       8     284     283     267     285     206     205     189     207
       8     239     285     267     237     161     207     189     159
       8     286     287     238     268     208     209     160     190
       8     288     286     268     269     210     208     190     191
       8     289     288     269     270     211     210     191     192
       8     290     289     270     246     212     211     192     168
       8     291     290     246     245     213     212     168     167
       8     292     291     245     248     214     213     167     170
       8     293     292     248     271     215     214     170     193
       8     294     293     271     272     216     215     193     194
       8     295     294     272     273     217     216     194     195
       8     296     295     273     274     218     217     195     196
       8     297     296     274     275     219     218     196     197
       8     298     297     275     276     220     219     197     198
       8     299     298     276     255     221     220     198     177
       8     300     299     255     254     222     221     177     176
       8     301     300     254     256     223     222     176     178
       8     302     301     256     277     224     223     178     199
       8     303     302     277     278     225     224     199     200
       8     304     303     278     279     226     225     200     201
       8     305     304     279     280     227     226     201     202
       8     306     305     280     281     228     227     202     203
       8     307     306     281     282     229     228     203     204
       8     308     307     282     283     230     229     204     205
       8     309     308     283     284     231     230     205     206
       8     310     309     284     285     232     231     206     207
       8     311     310     285     239     233     232     207     161
       8     287     311     239     238     209     233     161     160
       8     312     313     314     315     234     235     236     237
       8     314     316     317     315     236     238     239     237
       8     318     313     312     319     240     235     234     241
       8     312     320     321     319     234     242     243     241
       8     322     323     324     318     244     245     246     240
       8     325     326     323     322     247     248     245     244
       8     319     325     322     318     241     247     244     240
       8     327     328     320     329     249     250     242     251
       8     330     331     328     327     252     253     250     249
       8     332     333     331     330     254     255     253     252
       8     334     332     330     335     256     254     252     257
       8     336     321     320     328     258     243     242     250
       8     327     337     335     330     249     259     257     252
       8     312     315     329     320     234     237     251     242
       8     338     325     319     321     260     247     241     243
       8     339     338     321     336     261     260     243     258
       8     340     339     336     341     262     261     258     263
       8     331     341     336     328     253     263     258     250
       8     342     343     337     327     264     265     259     249
       8     344     342     327     329     266     264     249     251
       8     345     344     329     315     267     266     251     237
       8     346     316     314     347     268     238     236     269
       8     348     347     314     313     270     269     236     235
       8     324     348     313     318     246     270     235     240
       8     349     326     325     338     271     248     247     260
       8     350     349     338     339     272     271     260     261
       8     351     350     339     340     273     272     261     262
       8     352     351     340     353     274     273     262     275
       8     354     353     340     341     276     275     262     263
       8     333     354     341     331     255     276     263     253
       8     355     334     335     337     277     256     257     259
       8     356     355     337     343     278     277     259     265
       8     357     356     343     358     279     278     265     280
       8     359     358     343     342     281     280     265     264
       8     360     359     342     344     282     281     264     266
       8     361     360     344     345     283     282     266     267
       8     362     361     345     363     284     283     267     285
       8     317     363     345     315     239     285     267     237
       8     364     365     316     346     286     287     238     268
       8     366     364     346     347     288     286     268     269
       8     367     366     347     348     289     288     269     270
       8     368     367     348     324     290     289     270     246
       8     369     368     324     323     291     290     246     245
       8     370     369     323     326     292     291     245     248
       8     371     370     326     349     293     292     248     271
       8     372     371     349     350     294     293     271     272
       8     373     372     350     351     295     294     272     273
       8     374     373     351     352     296     295     273     274
       8     375     374     352     353     297     296     274     275
       8     376     375     353     354     298     297     275     276
       8     377     376     354     333     299     298     276     255
       8     378     377     333     332     300     299     255     254
       8     379     378     332     334     301     300     254     256
       8     380     379     334     355     302     301     256     277
       8     381     380     355     356     303     302     277     278
       8     382     381     356     357     304     303     278     279
       8     383     382     357     358     305     304     279     280
       8     384     383     358     359     306     305     280     281
       8     385     384     359     360     307     306     281     282
       8     386     385     360     361     308     307     282     283
       8     387     386     361     362     309     308     283     284
       8     388     387     362     363     310     309     284     285
       8     389     388     363     317     311     310     285     239
       8     365     389     317     316     287     311     239     238
       8     390     391     392     393     312     313     314     315
       8     392     394     395     393     314     316     317     315
       8     396     391     390     397     318     313     312     319
       8     390     398     399     397     312     320     321     319
       8     400     401     402     396     322     323     324     318
       8     403     404     401     400     325     326     323     322
       8     397     403     400     396     319     325     322     318
       8     405     406     398     407     327     328     320     329
       8     408     409     406     405     330     331     328     327
       8     410     411     409     408     332     333     331     330
       8     412     410     408     413     334     332     330     335
       8     414     399     398     406     336     321     320     328
       8     405     415     413     408     327     337     335     330
       8     390     393     407     398     312     315     329     320
       8     416     403     397     399     338     325     319     321
       8     417     416     399     414     339     338     321     336
       8     418     417     414     419     340     339     336     341
       8     409     419     414     406     331     341     336     328
       8     420     421     415     405     342     343     337     327
       8     422     420     405     407     344     342     327     329
       8     423     422     407     393     345     344     329     315
       8     424     394     392     425     346     316     314     347
       8     426     425     392     391     348     347     314     313
       8     402     426     391     396     324     348     313     318
       8     427     404     403     416     349     326     325     338
       8     428     427     416     417     350     349     338     339
       8     429     428     417     418     351     350     339     340
       8     430     429     418     431     352     351     340     353
       8     432     431     418     419     354     353     340     341
       8     411     432     419     409     333     354     341     331
       8     433     412     413     415     355     334     335     337
       8     434     433     415     421     356     355     337     343
       8     435     434     421     436     357     356     343     358
       8     437     436     421     420     359     358     343     342
       8     438     437     420     422     360     359     342     344
       8     439     438     422     423     361     360     344     345
       8     440     439     423     441     362     361     345     363
       8     395     441     423     393     317     363     345     315
       8     442     443     394     424     364     365     316     346
       8     444     442     424     425     366     364     346     347
       8     445     444     425     426     367     366     347     348
       8     446     445     426     402     368     367     348     324
       8     447     446     402     401     369     368     324     323
       8     448     447     401     404     370     369     323     326
       8     449     448     404     427     371     370     326     349
       8     450     449     427     428     372     371     349     350
       8     451     450     428     429     373     372     350     351
       8     452     451     429     430     374     373     351     352
       8     453     452     430     431     375     374     352     353
       8     454     453     431     432     376     375     353     354
       8     455     454     432     411     377     376     354     333
       8     456     455     411     410     378     377     333     332
       8     457     456     410     412     379     378     332     334
       8     458     457     412     433     380     379     334     355
       8     459     458     433     434     381     380     355     356
       8     460     459     434     435     382     381     356     357
       8     461     460     435     436     383     382     357     358
       8     462     461     436     437     384     383     358     359
       8     463     462     437     438     385     384     359     360
       8     464     463     438     439     386     385     360     361
       8     465     464     439     440     387     386     361     362
       8     466     465     440     441     388     387     362     363
       8     467     466     441     395     389     388     363     317
       8     443     467     395     394     365     389     317     316
       8     468     469     470     471     390     391     392     393
       8     470     472     473     471     392     394     395     393
       8     474     469     468     475     396     391     390     397
       8     468     476     477     475     390     398     399     397
       8     478     479     480     474     400     401     402     396
       8     481     482     479     478     403     404     401     400
       8     475     481     478     474     397     403     400     396
       8     483     484     476     485     405     406     398     407
       8     486     487     484     483     408     409     406     405
       8     488     489     487     486     410     411     409     408
       8     490     488     486     491     412     410     408     413
       8     492     477     476     484     414     399     398     406
       8     483     493     491     486     405     415     413     408
       8     468     471     485     476     390     393     407     398
       8     494     481     475     477     416     403     397     399
       8     495     494     477     492     417     416     399     414
       8     496     495     492     497     418     417     414     419
       8     487     497     492     484     409     419     414     406
       8     498     499     493     483     420     421     415     405
       8     500     498     483     485     422     420     405     407
       8     501     500     485     471     423     422     407     393
       8     502     472     470     503     424     394     392     425
       8     504     503     470     469     426     425     392     391
       8     480     504     469     474     402     426     391     396
       8     505     482     481     494     427     404     403     416
       8     506     505     494     495     428     427     416     417
       8     507     506     495     496     429     428     417     418
       8     508     507     496     509     430     429     418     431
       8     510     509     496     497     432     431     418     419
       8     489     510     497     487     411     432     419     409
       8     511     490     491     493     433     412     413     415
       8     512     511     493     499     434     433     415     421
       8     513     512     499     514     435     434     421     436
       8     515     514     499     498     437     436     421     420
       8     516     515     498     500     438     437     420     422
       8     517     516     500     501     439     438     422     423
       8     518     517     501     519     440     439     423     441
       8     473     519     501     471     395     441     423     393
       8     520     521     472     502     442     443     394     424
       8     522     520     502     503     444     442     424     425
       8     523     522     503     504     445     444     425     426
       8     524     523     504     480     446     445     426     402
       8     525     524     480     479     447     446     402     401
       8     526     525     479     482     448     447     401     404
       8     527     526     482     505     449     448     404     427
       8     528     527     505     506     450     449     427     428
       8     529     528     506     507     451     450     428     429
       8     530     529     507     508     452     451     429     430
       8     531     530     508     509     453     452     430     431
       8     532     531     509     510     454     453     431     432
       8     533     532     510     489     455     454     432     411
       8     534     533     489     488     456     455     411     410
       8     535     534     488     490     457     456     410     412
       8     536     535     490     511     458     457     412     433
       8     537     536     511     512     459     458     433     434
       8     538     537     512     513     460     459     434     435
       8     539     538     513     514     461     460     435     436
       8     540     539     514     515     462     461     436     437
       8     541     540     515     516     463     462     437     438
       8     542     541     516     517     464     463     438     439
       8     543     542     517     518     465     464     439     440
       8     544     543     518     519     466     465     440     441
       8     545     544     519     473     467     466     441     395
       8     521     545     473     472     443     467     395     394
       8     546     547     548     549     468     469     470     471
       8     548     550     551     549     470     472     473     471
       8     552     547     546     553     474     469     468     475
       8     546     554     555     553     468     476     477     475
       8     556     557     558     552     478     479     480     474
       8     559     560     557     556     481     482     479     478
       8     553     559     556     552     475     481     478     474
       8     561     562     554     563     483     484     476     485
       8     564     565     562     561     486     487     484     483
       8     566     567     565     564     488     489     487     486
       8     568     566     564     569     490     488     486     491
       8     570     555     554     562     492     477     476     484
       8     561     571     569     564     483     493     491     486
       8     546     549     563     554     468     471     485     476
       8     572     559     553     555     494     481     475     477
       8     573     572     555     570     495     494     477     492
       8     574     573     570     575     496     495     492     497
       8     565     575     570     562     487     497     492     484
       8     576     577     571     561     498     499     493     483
       8     578     576     561     563     500     498     483     485
       8     579     578     563     549     501     500     485     471
       8     580     550     548     581     502     472     470     503
       8     582     581     548     547     504     503     470     469
       8     558     582     547     552     480     504     469     474
       8     583     560     559     572     505     482     481     494
       8     584     583     572     573     506     505     494     495
       8     585     584     573     574     507     506     495     496
       8     586     585     574     587     508     507     496     509
       8     588     587     574     575     510     509     496     497
       8     567     588     575     565     489     510     497     487
       8     589     568     569     571     511     490     491     493
       8     590     589     571     577     512     511     493     499
       8     591     590     577     592     513     512     499     514
       8     593     592     577     576     515     514     499     498
       8     594     593     576     578     516     515     498     500
       8     595     594     578     579     517     516     500     501
       8     596     595     579     597     518     517     501     519
       8     551     597     579     549     473     519     501     471
       8     598     599     550     580     520     521     472     502
       8     600     598     580     581     522     520     502     503
       8     601     600     581     582     523     522     503     504
       8     602     601     582     558     524     523     504     480
       8     603     602     558     557     525     524     480     479
       8     604     603     557     560     526     525     479     482
       8     605     604     560     583     527     526     482     505
       8     606     605     583     584     528     527     505     506
       8     607     606     584     585     529     528     506     507
       8     608     607     585     586     530     529     507     508
       8     609     608     586     587     531     530     508     509
       8     610     609     587     588     532     531     509     510
       8     611     610     588     567     533     532     510     489
       8     612     611     567     566     534     533     489     488
       8     613     612     566     568     535     534     488     490
       8     614     613     568     589     536     535     490     511
       8     615     614     589     590     537     536     511     512
       8     616     615     590     591     538     537     512     513
       8     617     616     591     592     539     538     513     514
       8     618     617     592     593     540     539     514     515
       8     619     618     593     594     541     540     515     516
       8     620     619     594     595     542     541     516     517
       8     621     620     595     596     543     542     517     518
       8     622     621     596     597     544     543     518     519
       8     623     622     597     551     545     544     519     473
       8     599     623     551     550     521     545     473     472
       8     624     625     626     627     546     547     548     549
       8     626     628     629     627     548     550     551     549
       8     630     625     624     631     552     547     546     553
       8     624     632     633     631     546     554     555     553
       8     634     635     636     630     556     557     558     552
       8     637     638     635     634     559     560     557     556
       8     631     637     634     630     553     559     556     552
       8     639     640     632     641     561     562     554     563
       8     642     643     640     639     564     565     562     561
       8     644     645     643     642     566     567     565     564
       8     646     644     642     647     568     566     564     569
       8     648     633     632     640     570     555     554     562
       8     639     649     647     642     561     571     569     564
       8     624     627     641     632     546     549     563     554
       8     650     637     631     633     572     559     553     555
       8     651     650     633     648     573     572     555     570
       8     652     651     648     653     574     573     570     575
       8     643     653     648     640     565     575     570     562
       8     654     655     649     639     576     577     571     561
       8     656     654     639     641     578     576     561     563
       8     657     656     641     627     579     578     563     549
       8     658     628     626     659     580     550     548     581
       8     660     659     626     625     582     581     548     547
       8     636     660     625     630     558     582     547     552
       8     661     638     637     650     583     560     559     572
       8     662     661     650     651     584     583     572     573
       8     663     662     651     652     585     584     573     574
       8     664     663     652     665     586     585     574     587
       8     666     665     652     653     588     587     574     575
       8     645     666     653     643     567     588     575     565
       8     667     646     647     649     589     568     569     571
       8     668     667     649     655     590     589     571     577
       8     669     668     655     670     591     590     577     592
       8     671     670     655     654     593     592     577     576
       8     672     671     654     656     594     593     576     578
       8     673     672     656     657     595     594     578     579
       8     674     673     657     675     596     595     579     597
       8     629     675     657     627     551     597     579     549
       8     676     677     628     658     598     599     550     580
       8     678     676     658     659     600     598     580     581
       8     679     678     659     660     601     600     581     582
       8     680     679     660     636     602     601     582     558
       8     681     680     636     635     603     602     558     557
       8     682     681     635     638     604     603     557     560
       8     683     682     638     661     605     604     560     583
       8     684     683     661     662     606     605     583     584
       8     685     684     662     663     607     606     584     585
       8     686     685     663     664     608     607     585     586
       8     687     686     664     665     609     608     586     587
       8     688     687     665     666     610     609     587     588
       8     689     688     666     645     611     610     588     567
       8     690     689     645     644     612     611     567     566
       8     691     690     644     646     613     612     566     568
       8     692     691     646     667     614     613     568     589
       8     693     692     667     668     615     614     589     590
       8     694     693     668     669     616     615     590     591
       8     695     694     669     670     617     616     591     592
       8     696     695     670     671     618     617     592     593
       8     697     696     671     672     619     618     593     594
       8     698     697     672     673     620     619     594     595
       8     699     698     673     674     621     620     595     596
       8     700     699     674     675     622     621     596     597
       8     701     700     675     629     623     622     597     551
       8     677     701     629     628     599     623     551     550
       8     702     703     704     705     624     625     626     627
       8     704     706     707     705     626     628     629     627
       8     708     703     702     709     630     625     624     631
       8     702     710     711     709     624     632     633     631
       8     712     713     714     708     634     635     636     630
       8     715     716     713     712     637     638     635     634
       8     709     715     712     708     631     637     634     630
       8     717     718     710     719     639     640     632     641
       8     720     721     718     717     642     643     640     639
       8     722     723     721     720     644     645     643     642
       8     724     722     720     725     646     644     642     647
       8     726     711     710     718     648     633     632     640
       8     717     727     725     720     639     649     647     642
       8     702     705     719     710     624     627     641     632
       8     728     715     709     711     650     637     631     633
       8     729     728     711     726     651     650     633     648
       8     730     729     726     731     652     651     648     653
       8     721     731     726     718     643     653     648     640
       8     732     733     727     717     654     655     649     639
       8     734     732     717     719     656     654     639     641
       8     735     734     719     705     657     656     641     627
       8     736     706     704     737     658     628     626     659
       8     738     737     704     703     660     659     626     625
       8     714     738     703     708     636     660     625     630
       8     739     716     715     728     661     638     637     650
       8     740     739     728     729     662     661     650     651
       8     741     740     729     730     663     662     651     652
       8     742     741     730     743     664     663     652     665
       8     744     743     730     731     666     665     652     653
       8     723     744     731     721     645     666     653     643
       8     745     724     725     727     667     646     647     649
       8     746     745     727     733     668     667     649     655
       8     747     746     733     748     669     668     655     670
       8     749     748     733     732     671     670     655     654
       8     750     749     732     734     672     671     654     656
       8     751     750     734     735     673     672     656     657
       8     752     751     735     753     674     673     657     675
       8     707     753     735     705     629     675     657     627
       8     754     755     706     736     676     677     628     658
       8     756     754     736     737     678     676     658     659
       8     757     756     737     738     679     678     659     660
       8     758     757     738     714     680     679     660     636
       8     759     758     714     713     681     680     636     635
       8     760     759     713     716     682     681     635     638
       8     761     760     716     739     683     682     638     661
       8     762     761     739     740     684     683     661     662
       8     763     762     740     741     685     684     662     663
       8     764     763     741     742     686     685     663     664
       8     765     764     742     743     687     686     664     665
       8     766     765     743     744     688     687     665     666
       8     767     766     744     723     689     688     666     645
       8     768     767     723     722     690     689     645     644
       8     769     768     722     724     691     690     644     646
       8     770     769     724     745     692     691     646     667
       8     771     770     745     746     693     692     667     668
       8     772     771     746     747     694     693     668     669
       8     773     772     747     748     695     694     669     670
       8     774     773     748     749     696     695     670     671
       8     775     774     749     750     697     696     671     672
       8     776     775     750     751     698     697     672     673
       8     777     776     751     752     699     698     673     674
       8     778     777     752     753     700     699     674     675
       8     779     778     753     707     701     700     675     629
       8     755     779     707     706     677     701     629     628
       8     780     781     782     783     702     703     704     705
       8     782     784     785     783     704     706     707     705
       8     786     781     780     787     708     703     702     709
       8     780     788     789     787     702     710     711     709
       8     790     791     792     786     712     713     714     708
       8     793     794     791     790     715     716     713     712
       8     787     793     790     786     709     715     712     708
       8     795     796     788     797     717     718     710     719
       8     798     799     796     795     720     721     718     717
       8     800     801     799     798     722     723     721     720
       8     802     800     798     803     724     722     720     725
       8     804     789     788     796     726     711     710     718
       8     795     805     803     798     717     727     725     720
       8     780     783     797     788     702     705     719     710
       8     806     793     787     789     728     715     709     711
       8     807     806     789     804     729     728     711     726
       8     808     807     804     809     730     729     726     731
       8     799     809     804     796     721     731     726     718
       8     810     811     805     795     732     733     727     717
       8     812     810     795     797     734     732     717     719
       8     813     812     797     783     735     734     719     705
       8     814     784     782     815     736     706     704     737
       8     816     815     782     781     738     737     704     703
       8     792     816     781     786     714     738     703     708
       8     817     794     793     806     739     716     715     728
       8     818     817     806     807     740     739     728     729
       8     819     818     807     808     741     740     729     730
       8     820     819     808     821     742     741     730     743
       8     822     821     808     809     744     743     730     731
       8     801     822     809     799     723     744     731     721
       8     823     802     803     805     745     724     725     727
       8     824     823     805     811     746     745     727     733
       8     825     824     811     826     747     746     733     748
       8     827     826     811     810     749     748     733     732
       8     828     827     810     812     750     749     732     734
       8     829     828     812     813     751     750     734     735
       8     830     829     813     831     752     751     735     753
       8     785     831     813     783     707     753     735     705
       8     832     833     784     814     754     755     706     736
       8     834     832     814     815     756     754     736     737
       8     835     834     815     816     757     756     737     738
       8     836     835     816     792     758     757     738     714
       8     837     836     792     791     759     758     714     713
       8     838     837     791     794     760     759     713     716
       8     839     838     794     817     761     760     716     739
       8     840     839     817     818     762     761     739     740
       8     841     840     818     819     763     762     740     741
       8     842     841     819     820     764     763     741     742
       8     843     842     820     821     765     764     742     743
       8     844     843     821     822     766     765     743     744
       8     845     844     822     801     767     766     744     723
       8     846     845     801     800     768     767     723     722
       8     847     846     800     802     769     768     722     724
       8     848     847     802     823     770     769     724     745
       8     849     848     823     824     771     770     745     746
       8     850     849     824     825     772     771     746     747
       8     851     850     825     826     773     772     747     748
       8     852     851     826     827     774     773     748     749
       8     853     852     827     828     775     774     749     750
       8     854     853     828     829     776     775     750     751
       8     855     854     829     830     777     776     751     752
       8     856     855     830     831     778     777     752     753
       8     857     856     831     785     779     778     753     707
       8     833     857     785     784     755     779     707     706
       8     858     859     860     861     780     781     782     783
       8     860     862     863     861     782     784     785     783
       8     864     859     858     865     786     781     780     787
       8     858     866     867     865     780     788     789     787
       8     868     869     870     864     790     791     792     786
       8     871     872     869     868     793     794     791     790
       8     865     871     868     864     787     793     790     786
       8     873     874     866     875     795     796     788     797
       8     876     877     874     873     798     799     796     795
       8     878     879     877     876     800     801     799     798
       8     880     878     876     881     802     800     798     803
       8     882     867     866     874     804     789     788     796
       8     873     883     881     876     795     805     803     798
       8     858     861     875     866     780     783     797     788
       8     884     871     865     867     806     793     787     789
       8     885     884     867     882     807     806     789     804
       8     886     885     882     887     808     807     804     809
       8     877     887     882     874     799     809     804     796
       8     888     889     883     873     810     811     805     795
       8     890     888     873     875     812     810     795     797
       8     891     890     875     861     813     812     797     783
       8     892     862     860     893     814     784     782     815
       8     894     893     860     859     816     815     782     781
       8     870     894     859     864     792     816     781     786
       8     895     872     871     884     817     794     793     806
       8     896     895     884     885     818     817     806     807
       8     897     896     885     886     819     818     807     808
       8     898     897     886     899     820     819     808     821
       8     900     899     886     887     822     821     808     809
       8     879     900     887     877     801     822     809     799
       8     901     880     881     883     823     802     803     805
       8     902     901     883     889     824     823     805     811
       8     903     902     889     904     825     824     811     826
       8     905     904     889     888     827     826     811     810
       8     906     905     888     890     828     827     810     812
       8     907     906     890     891     829     828     812     813
       8     908     907     891     909     830     829     813     831
       8     863     909     891     861     785     831     813     783
       8     910     911     862     892     832     833     784     814
       8     912     910     892     893     834     832     814     815
       8     913     912     893     894     835     834     815     816
       8     914     913     894     870     836     835     816     792
       8     915     914     870     869     837     836     792     791
       8     916     915     869     872     838     837     791     794
       8     917     916     872     895     839     838     794     817
       8     918     917     895     896     840     839     817     818
       8     919     918     896     897     841     840     818     819
       8     920     919     897     898     842     841     819     820
       8     921     920     898     899     843     842     820     821
       8     922     921     899     900     844     843     821     822
       8     923     922     900     879     845     844     822     801
       8     924     923     879     878     846     845     801     800
       8     925     924     878     880     847     846     800     802
       8     926     925     880     901     848     847     802     823
       8     927     926     901     902     849     848     823     824
       8     928     927     902     903     850     849     824     825
       8     929     928     903     904     851     850     825     826
       8     930     929     904     905     852     851     826     827
       8     931     930     905     906     853     852     827     828
       8     932     931     906     907     854     853     828     829
       8     933     932     907     908     855     854     829     830
       8     934     933     908     909     856     855     830     831
       8     935     934     909     863     857     856     831     785
       8     911     935     863     862     833     857     785     784
       8     936     937     938     939     858     859     860     861
       8     938     940     941     939     860     862     863     861
       8     942     937     936     943     864     859     858     865
       8     936     944     945     943     858     866     867     865
       8     946     947     948     942     868     869     870     864
       8     949     950     947     946     871     872     869     868
       8     943     949     946     942     865     871     868     864
       8     951     952     944     953     873     874     866     875
       8     954     955     952     951     876     877     874     873
       8     956     957     955     954     878     879     877     876
       8     958     956     954     959     880     878     876     881
       8     960     945     944     952     882     867     866     874
       8     951     961     959     954     873     883     881     876
       8     936     939     953     944     858     861     875     866
       8     962     949     943     945     884     871     865     867
       8     963     962     945     960     885     884     867     882
       8     964     963     960     965     886     885     882     887
       8     955     965     960     952     877     887     882     874
       8     966     967     961     951     888     889     883     873
       8     968     966     951     953     890     888     873     875
       8     969     968     953     939     891     890     875     861
       8     970     940     938     971     892     862     860     893
       8     972     971     938     937     894     893     860     859
       8     948     972     937     942     870     894     859     864
       8     973     950     949     962     895     872     871     884
       8     974     973     962     963     896     895     884     885
       8     975     974     963     964     897     896     885     886
       8     976     975     964     977     898     897     886     899
       8     978     977     964     965     900     899     886     887
       8     957     978     965     955     879     900     887     877
       8     979     958     959     961     901     880     881     883
       8     980     979     961     967     902     901     883     889
       8     981     980     967     982     903     902     889     904
       8     983     982     967     966     905     904     889     888
       8     984     983     966     968     906     905     888     890
       8     985     984     968     969     907     906     890     891
       8     986     985     969     987     908     907     891     909
       8     941     987     969     939     863     909     891     861
       8     988     989     940     970     910     911     862     892
       8     990     988     970     971     912     910     892     893
       8     991     990     971     972     913     912     893     894
       8     992     991     972     948     914     913     894     870
       8     993     992     948     947     915     914     870     869
       8     994     993     947     950     916     915     869     872
       8     995     994     950     973     917     916     872     895
       8     996     995     973     974     918     917     895     896
       8     997     996     974     975     919     918     896     897
       8     998     997     975     976     920     919     897     898
       8     999     998     976     977     921     920     898     899
       8    1000     999     977     978     922     921     899     900
       8    1001    1000     978     957     923     922     900     879
       8    1002    1001     957     956     924     923     879     878
       8    1003    1002     956     958     925     924     878     880
       8    1004    1003     958     979     926     925     880     901
       8    1005    1004     979     980     927     926     901     902
       8    1006    1005     980     981     928     927     902     903
       8    1007    1006     981     982     929     928     903     904
       8    1008    1007     982     983     930     929     904     905
       8    1009    1008     983     984     931     930     905     906
       8    1010    1009     984     985     932     931     906     907
       8    1011    1010     985     986     933     932     907     908
       8    1012    1011     986     987     934     933     908     909
       8    1013    1012     987     941     935     934     909     863
       8     989    1013     941     940     911     935     863     862
       8    1014    1015    1016    1017     936     937     938     939
       8    1016    1018    1019    1017     938     940     941     939
       8    1020    1015    1014    1021     942     937     936     943
       8    1014    1022    1023    1021     936     944     945     943
       8    1024    1025    1026    1020     946     947     948     942
       8    1027    1028    1025    1024     949     950     947     946
       8    1021    1027    1024    1020     943     949     946     942
       8    1029    1030    1022    1031     951     952     944     953
       8    1032    1033    1030    1029     954     955     952     951
       8    1034    1035    1033    1032     956     957     955     954
       8    1036    1034    1032    1037     958     956     954     959
       8    1038    1023    1022    1030     960     945     944     952
       8    1029    1039    1037    1032     951     961     959     954
       8    1014    1017    1031    1022     936     939     953     944
       8    1040    1027    1021    1023     962     949     943     945
       8    1041    1040    1023    1038     963     962     945     960
       8    1042    1041    1038    1043     964     963     960     965
       8    1033    1043    1038    1030     955     965     960     952
       8    1044    1045    1039    1029     966     967     961     951
       8    1046    1044    1029    1031     968     966     951     953
       8    1047    1046    1031    1017     969     968     953     939
       8    1048    1018    1016    1049     970     940     938     971
       8    1050    1049    1016    1015     972     971     938     937
       8    1026    1050    1015    1020     948     972     937     942
       8    1051    1028    1027    1040     973     950     949     962
       8    1052    1051    1040    1041     974     973     962     963
       8    1053    1052    1041    1042     975     974     963     964
       8    1054    1053    1042    1055     976     975     964     977
       8    1056    1055    1042    1043     978     977     964     965
       8    1035    1056    1043    1033     957     978     965     955
       8    1057    1036    1037    1039     979     958     959     961
       8    1058    1057    1039    1045     980     979     961     967
       8    1059    1058    1045    1060     981     980     967     982
       8    1061    1060    1045    1044     983     982     967     966
       8    1062    1061    1044    1046     984     983     966     968
       8    1063    1062    1046    1047     985     984     968     969
       8    1064    1063    1047    1065     986     985     969     987
       8    1019    1065    1047    1017     941     987     969     939
       8    1066    1067    1018    1048     988     989     940     970
       8    1068    1066    1048    1049     990     988     970     971
       8    1069    1068    1049    1050     991     990     971     972
       8    1070    1069    1050    1026     992     991     972     948
       8    1071    1070    1026    1025     993     992     948     947
       8    1072    1071    1025    1028     994     993     947     950
       8    1073    1072    1028    1051     995     994     950     973
       8    1074    1073    1051    1052     996     995     973     974
       8    1075    1074    1052    1053     997     996     974     975
       8    1076    1075    1053    1054     998     997     975     976
       8    1077    1076    1054    1055     999     998     976     977
       8    1078    1077    1055    1056    1000     999     977     978
       8    1079    1078    1056    1035    1001    1000     978     957
       8    1080    1079    1035    1034    1002    1001     957     956
       8    1081    1080    1034    1036    1003    1002     956     958
       8    1082    1081    1036    1057    1004    1003     958     979
       8    1083    1082    1057    1058    1005    1004     979     980
       8    1084    1083    1058    1059    1006    1005     980     981
       8    1085    1084    1059    1060    1007    1006     981     982
       8    1086    1085    1060    1061    1008    1007     982     983
       8    1087    1086    1061    1062    1009    1008     983     984
       8    1088    1087    1062    1063    1010    1009     984     985
       8    1089    1088    1063    1064    1011    1010     985     986
       8    1090    1089    1064    1065    1012    1011     986     987
       8    1091    1090    1065    1019    1013    1012     987     941
       8    1067    1091    1019    1018     989    1013     941     940
       8    1092    1093    1094    1095    1014    1015    1016    1017
       8    1094    1096    1097    1095    1016    1018    1019    1017
       8    1098    1093    1092    1099    1020    1015    1014    1021
       8    1092    1100    1101    1099    1014    1022    1023    1021
       8    1102    1103    1104    1098    1024    1025    1026    1020
       8    1105    1106    1103    1102    1027    1028    1025    1024
       8    1099    1105    1102    1098    1021    1027    1024    1020
       8    1107    1108    1100    1109    1029    1030    1022    1031
       8    1110    1111    1108    1107    1032    1033    1030    1029
       8    1112    1113    1111    1110    1034    1035    1033    1032
       8    1114    1112    1110    1115    1036    1034    1032    1037
       8    1116    1101    1100    1108    1038    1023    1022    1030
       8    1107    1117    1115    1110    1029    1039    1037    1032
       8    1092    1095    1109    1100    1014    1017    1031    1022
       8    1118    1105    1099    1101    1040    1027    1021    1023
       8    1119    1118    1101    1116    1041    1040    1023    1038
       8    1120    1119    1116    1121    1042    1041    1038    1043
       8    1111    1121    1116    1108    1033    1043    1038    1030
       8    1122    1123    1117    1107    1044    1045    1039    1029
       8    1124    1122    1107    1109    1046    1044    1029    1031
       8    1125    1124    1109    1095    1047    1046    1031    1017
       8    1126    1096    1094    1127    1048    1018    1016    1049
       8    1128    1127    1094    1093    1050    1049    1016    1015
       8    1104    1128    1093    1098    1026    1050    1015    1020
       8    1129    1106    1105    1118    1051    1028    1027    1040
       8    1130    1129    1118    1119    1052    1051    1040    1041
       8    1131    1130    1119    1120    1053    1052    1041    1042
       8    1132    1131    1120    1133    1054    1053    1042    1055
       8    1134    1133    1120    1121    1056    1055    1042    1043
       8    1113    1134    1121    1111    1035    1056    1043    1033
       8    1135    1114    1115    1117    1057    1036    1037    1039
       8    1136    1135    1117    1123    1058    1057    1039    1045
       8    1137    1136    1123    1138    1059    1058    1045    1060
       8    1139    1138    1123    1122    1061    1060    1045    1044
       8    1140    1139    1122    1124    1062    1061    1044    1046
       8    1141    1140    1124    1125    1063    1062    1046    1047
       8    1142    1141    1125    1143    1064    1063    1047    1065
       8    1097    1143    1125    1095    1019    1065    1047    1017
       8    1144    1145    1096    1126    1066    1067    1018    1048
       8    1146    1144    1126    1127    1068    1066    1048    1049
       8    1147    1146    1127    1128    1069    1068    1049    1050
       8    1148    1147    1128    1104    1070    1069    1050    1026
       8    1149    1148    1104    1103    1071    1070    1026    1025
       8    1150    1149    1103    1106    1072    1071    1025    1028
       8    1151    1150    1106    1129    1073    1072    1028    1051
       8    1152    1151    1129    1130    1074    1073    1051    1052
       8    1153    1152    1130    1131    1075    1074    1052    1053
       8    1154    1153    1131    1132    1076    1075    1053    1054
       8    1155    1154    1132    1133    1077    1076    1054    1055
       8    1156    1155    1133    1134    1078    1077    1055    1056
       8    1157    1156    1134    1113    1079    1078    1056    1035
       8    1158    1157    1113    1112    1080    1079    1035    1034
       8    1159    1158    1112    1114    1081    1080    1034    1036
       8    1160    1159    1114    1135    1082    1081    1036    1057
       8    1161    1160    1135    1136    1083    1082    1057    1058
       8    1162    1161    1136    1137    1084    1083    1058    1059
       8    1163    1162    1137    1138    1085    1084    1059    1060
       8    1164    1163    1138    1139    1086    1085    1060    1061
       8    1165    1164    1139    1140    1087    1086    1061    1062
       8    1166    1165    1140    1141    1088    1087    1062    1063
       8    1167    1166    1141    1142    1089    1088    1063    1064
       8    1168    1167    1142    1143    1090    1089    1064    1065
       8    1169    1168    1143    1097    1091    1090    1065    1019
       8    1145    1169    1097    1096    1067    1091    1019    1018
       8    1170    1171    1172    1173    1092    1093    1094    1095
       8    1172    1174    1175    1173    1094    1096    1097    1095
       8    1176    1171    1170    1177    1098    1093    1092    1099
       8    1170    1178    1179    1177    1092    1100    1101    1099
       8    1180    1181    1182    1176    1102    1103    1104    1098
       8    1183    1184    1181    1180    1105    1106    1103    1102
       8    1177    1183    1180    1176    1099    1105    1102    1098
       8    1185    1186    1178    1187    1107    1108    1100    1109
       8    1188    1189    1186    1185    1110    1111    1108    1107
       8    1190    1191    1189    1188    1112    1113    1111    1110
       8    1192    1190    1188    1193    1114    1112    1110    1115
       8    1194    1179    1178    1186    1116    1101    1100    1108
       8    1185    1195    1193    1188    1107    1117    1115    1110
       8    1170    1173    1187    1178    1092    1095    1109    1100
       8    1196    1183    1177    1179    1118    1105    1099    1101
       8    1197    1196    1179    1194    1119    1118    1101    1116
       8    1198    1197    1194    1199    1120    1119    1116    1121
       8    1189    1199    1194    1186    1111    1121    1116    1108
       8    1200    1201    1195    1185    1122    1123    1117    1107
       8    1202    1200    1185    1187    1124    1122    1107    1109
       8    1203    1202    1187    1173    1125    1124    1109    1095
       8    1204    1174    1172    1205    1126    1096    1094    1127
       8    1206    1205    1172    1171    1128    1127    1094    1093
       8    1182    1206    1171    1176    1104    1128    1093    1098
       8    1207    1184    1183    1196    1129    1106    1105    1118
       8    1208    1207    1196    1197    1130    1129    1118    1119
       8    1209    1208    1197    1198    1131    1130    1119    1120
       8    1210    1209    1198    1211    1132    1131    1120    1133
       8    1212    1211    1198    1199    1134    1133    1120    1121
       8    1191    1212    1199    1189    1113    1134    1121    1111
       8    1213    1192    1193    1195    1135    1114    1115    1117
       8    1214    1213    1195    1201    1136    1135    1117    1123
       8    1215    1214    1201    1216    1137    1136    1123    1138
       8    1217    1216    1201    1200    1139    1138    1123    1122
       8    1218    1217    1200    1202    1140    1139    1122    1124
       8    1219    1218    1202    1203    1141    1140    1124    1125
       8    1220    1219    1203    1221    1142    1141    1125    1143
       8    1175    1221    1203    1173    1097    1143    1125    1095
       8    1222    1223    1174    1204    1144    1145    1096    1126
       8    1224    1222    1204    1205    1146    1144    1126    1127
       8    1225    1224    1205    1206    1147    1146    1127    1128
       8    1226    1225    1206    1182    1148    1147    1128    1104
       8    1227    1226    1182    1181    1149    1148    1104    1103
       8    1228    1227    1181    1184    1150    1149    1103    1106
       8    1229    1228    1184    1207    1151    1150    1106    1129
       8    1230    1229    1207    1208    1152    1151    1129    1130
       8    1231    1230    1208    1209    1153    1152    1130    1131
       8    1232    1231    1209    1210    1154    1153    1131    1132
       8    1233    1232    1210    1211    1155    1154    1132    1133
       8    1234    1233    1211    1212    1156    1155    1133    1134
       8    1235    1234    1212    1191    1157    1156    1134    1113
       8    1236    1235    1191    1190    1158    1157    1113    1112
       8    1237    1236    1190    1192    1159    1158    1112    1114
       8    1238    1237    1192    1213    1160    1159    1114    1135
       8    1239    1238    1213    1214    1161    1160    1135    1136
       8    1240    1239    1214    1215    1162    1161    1136    1137
       8    1241    1240    1215    1216    1163    1162    1137    1138
       8    1242    1241    1216    1217    1164    1163    1138    1139
       8    1243    1242    1217    1218    1165    1164    1139    1140
       8    1244    1243    1218    1219    1166    1165    1140    1141
       8    1245    1244    1219    1220    1167    1166    1141    1142
       8    1246    1245    1220    1221    1168    1167    1142    1143
       8    1247    1246    1221    1175    1169    1168    1143    1097
       8    1223    1247    1175    1174    1145    1169    1097    1096
       8    1248    1249    1250    1251    1170    1171    1172    1173
       8    1250    1252    1253    1251    1172    1174    1175    1173
       8    1254    1249    1248    1255    1176    1171    1170    1177
       8    1248    1256    1257    1255    1170    1178    1179    1177
       8    1258    1259    1260    1254    1180    1181    1182    1176
       8    1261    1262    1259    1258    1183    1184    1181    1180
       8    1255    1261    1258    1254    1177    1183    1180    1176
       8    1263    1264    1256    1265    1185    1186    1178    1187
       8    1266    1267    1264    1263    1188    1189    1186    1185
       8    1268    1269    1267    1266    1190    1191    1189    1188
       8    1270    1268    1266    1271    1192    1190    1188    1193
       8    1272    1257    1256    1264    1194    1179    1178    1186
       8    1263    1273    1271    1266    1185    1195    1193    1188
       8    1248    1251    1265    1256    1170    1173    1187    1178
       8    1274    1261    1255    1257    1196    1183    1177    1179
       8    1275    1274    1257    1272    1197    1196    1179    1194
       8    1276    1275    1272    1277    1198    1197    1194    1199
       8    1267    1277    1272    1264    1189    1199    1194    1186
       8    1278    1279    1273    1263    1200    1201    1195    1185
       8    1280    1278    1263    1265    1202    1200    1185    1187
       8    1281    1280    1265    1251    1203    1202    1187    1173
       8    1282    1252    1250    1283    1204    1174    1172    1205
       8    1284    1283    1250    1249    1206    1205    1172    1171
       8    1260    1284    1249    1254    1182    1206    1171    1176
       8    1285    1262    1261    1274    1207    1184    1183    1196
       8    1286    1285    1274    1275    1208    1207    1196    1197
       8    1287    1286    1275    1276    1209    1208    1197    1198
       8    1288    1287    1276    1289    1210    1209    1198    1211
       8    1290    1289    1276    1277    1212    1211    1198    1199
       8    1269    1290    1277    1267    1191    1212    1199    1189
       8    1291    1270    1271    1273    1213    1192    1193    1195
       8    1292    1291    1273    1279    1214    1213    1195    1201
       8    1293    1292    1279    1294    1215    1214    1201    1216
       8    1295    1294    1279    1278    1217    1216    1201    1200
       8    1296    1295    1278    1280    1218    1217    1200    1202
       8    1297    1296    1280    1281    1219    1218    1202    1203
       8    1298    1297    1281    1299    1220    1219    1203    1221
       8    1253    1299    1281    1251    1175    1221    1203    1173
       8    1300    1301    1252    1282    1222    1223    1174    1204
       8    1302    1300    1282    1283    1224    1222    1204    1205
       8    1303    1302    1283    1284    1225    1224    1205    1206
       8    1304    1303    1284    1260    1226    1225    1206    1182
       8    1305    1304    1260    1259    1227    1226    1182    1181
       8    1306    1305    1259    1262    1228    1227    1181    1184
       8    1307    1306    1262    1285    1229    1228    1184    1207
       8    1308    1307    1285    1286    1230    1229    1207    1208
       8    1309    1308    1286    1287    1231    1230    1208    1209
       8    1310    1309    1287    1288    1232    1231    1209    1210
       8    1311    1310    1288    1289    1233    1232    1210    1211
       8    1312    1311    1289    1290    1234    1233    1211    1212
       8    1313    1312    1290    1269    1235    1234    1212    1191
       8    1314    1313    1269    1268    1236    1235    1191    1190
       8    1315    1314    1268    1270    1237    1236    1190    1192
       8    1316    1315    1270    1291    1238    1237    1192    1213
       8    1317    1316    1291    1292    1239    1238    1213    1214
       8    1318    1317    1292    1293    1240    1239    1214    1215
       8    1319    1318    1293    1294    1241    1240    1215    1216
       8    1320    1319    1294    1295    1242    1241    1216    1217
       8    1321    1320    1295    1296    1243    1242    1217    1218
       8    1322    1321    1296    1297    1244    1243    1218    1219
       8    1323    1322    1297    1298    1245    1244    1219    1220
       8    1324    1323    1298    1299    1246    1245    1220    1221
       8    1325    1324    1299    1253    1247    1246    1221    1175
       8    1301    1325    1253    1252    1223    1247    1175    1174
       8    1326    1327    1328    1329    1248    1249    1250    1251
       8    1328    1330    1331    1329    1250    1252    1253    1251
       8    1332    1327    1326    1333    1254    1249    1248    1255
       8    1326    1334    1335    1333    1248    1256    1257    1255
       8    1336    1337    1338    1332    1258    1259    1260    1254
       8    1339    1340    1337    1336    1261    1262    1259    1258
       8    1333    1339    1336    1332    1255    1261    1258    1254
       8    1341    1342    1334    1343    1263    1264    1256    1265
       8    1344    1345    1342    1341    1266    1267    1264    1263
       8    1346    1347    1345    1344    1268    1269    1267    1266
       8    1348    1346    1344    1349    1270    1268    1266    1271
       8    1350    1335    1334    1342    1272    1257    1256    1264
       8    1341    1351    1349    1344    1263    1273    1271    1266
       8    1326    1329    1343    1334    1248    1251    1265    1256
       8    1352    1339    1333    1335    1274    1261    1255    1257
       8    1353    1352    1335    1350    1275    1274    1257    1272
       8    1354    1353    1350    1355    1276    1275    1272    1277
       8    1345    1355    1350    1342    1267    1277    1272    1264
       8    1356    1357    1351    1341    1278    1279    1273    1263
       8    1358    1356    1341    1343    1280    1278    1263    1265
       8    1359    1358    1343    1329    1281    1280    1265    1251
       8    1360    1330    1328    1361    1282    1252    1250    1283
       8    1362    1361    1328    1327    1284    1283    1250    1249
       8    1338    1362    1327    1332    1260    1284    1249    1254
       8    1363    1340    1339    1352    1285    1262    1261    1274
       8    1364    1363    1352    1353    1286    1285    1274    1275
       8    1365    1364    1353    1354    1287    1286    1275    1276
       8    1366    1365    1354    1367    1288    1287    1276    1289
       8    1368    1367    1354    1355    1290    1289    1276    1277
       8    1347    1368    1355    1345    1269    1290    1277    1267
       8    1369    1348    1349    1351    1291    1270    1271    1273
       8    1370    1369    1351    1357    1292    1291    1273    1279
       8    1371    1370    1357    1372    1293    1292    1279    1294
       8    1373    1372    1357    1356    1295    1294    1279    1278
       8    1374    1373    1356    1358    1296    1295    1278    1280
       8    1375    1374    1358    1359    1297    1296    1280    1281
       8    1376    1375    1359    1377    1298    1297    1281    1299
       8    1331    1377    1359    1329    1253    1299    1281    1251
       8    1378    1379    1330    1360    1300    1301    1252    1282
       8    1380    1378    1360    1361    1302    1300    1282    1283
       8    1381    1380    1361    1362    1303    1302    1283    1284
       8    1382    1381    1362    1338    1304    1303    1284    1260
       8    1383    1382    1338    1337    1305    1304    1260    1259
       8    1384    1383    1337    1340    1306    1305    1259    1262
       8    1385    1384    1340    1363    1307    1306    1262    1285
       8    1386    1385    1363    1364    1308    1307    1285    1286
       8    1387    1386    1364    1365    1309    1308    1286    1287
       8    1388    1387    1365    1366    1310    1309    1287    1288
       8    1389    1388    1366    1367    1311    1310    1288    1289
       8    1390    1389    1367    1368    1312    1311    1289    1290
       8    1391    1390    1368    1347    1313    1312    1290    1269
       8    1392    1391    1347    1346    1314    1313    1269    1268
       8    1393    1392    1346    1348    1315    1314    1268    1270
       8    1394    1393    1348    1369    1316    1315    1270    1291
       8    1395    1394    1369    1370    1317    1316    1291    1292
       8    1396    1395    1370    1371    1318    1317    1292    1293
       8    1397    1396    1371    1372    1319    1318    1293    1294
       8    1398    1397    1372    1373    1320    1319    1294    1295
       8    1399    1398    1373    1374    1321    1320    1295    1296
       8    1400    1399    1374    1375    1322    1321    1296    1297
       8    1401    1400    1375    1376    1323    1322    1297    1298
       8    1402    1401    1376    1377    1324    1323    1298    1299
       8    1403    1402    1377    1331    1325    1324    1299    1253
       8    1379    1403    1331    1330    1301    1325    1253    1252
       8    1404    1405    1406    1407    1326    1327    1328    1329
       8    1406    1408    1409    1407    1328    1330    1331    1329
       8    1410    1405    1404    1411    1332    1327    1326    1333
       8    1404    1412    1413    1411    1326    1334    1335    1333
       8    1414    1415    1416    1410    1336    1337    1338    1332
       8    1417    1418    1415    1414    1339    1340    1337    1336
       8    1411    1417    1414    1410    1333    1339    1336    1332
       8    1419    1420    1412    1421    1341    1342    1334    1343
       8    1422    1423    1420    1419    1344    1345    1342    1341
       8    1424    1425    1423    1422    1346    1347    1345    1344
       8    1426    1424    1422    1427    1348    1346    1344    1349
       8    1428    1413    1412    1420    1350    1335    1334    1342
       8    1419    1429    1427    1422    1341    1351    1349    1344
       8    1404    1407    1421    1412    1326    1329    1343    1334
       8    1430    1417    1411    1413    1352    1339    1333    1335
       8    1431    1430    1413    1428    1353    1352    1335    1350
       8    1432    1431    1428    1433    1354    1353    1350    1355
       8    1423    1433    1428    1420    1345    1355    1350    1342
       8    1434    1435    1429    1419    1356    1357    1351    1341
       8    1436    1434    1419    1421    1358    1356    1341    1343
       8    1437    1436    1421    1407    1359    1358    1343    1329
       8    1438    1408    1406    1439    1360    1330    1328    1361
       8    1440    1439    1406    1405    1362    1361    1328    1327
       8    1416    1440    1405    1410    1338    1362    1327    1332
       8    1441    1418    1417    1430    1363    1340    1339    1352
       8    1442    1441    1430    1431    1364    1363    1352    1353
       8    1443    1442    1431    1432    1365    1364    1353    1354
       8    1444    1443    1432    1445    1366    1365    1354    1367
       8    1446    1445    1432    1433    1368    1367    1354    1355
       8    1425    1446    1433    1423    1347    1368    1355    1345
       8    1447    1426    1427    1429    1369    1348    1349    1351
       8    1448    1447    1429    1435    1370    1369    1351    1357
       8    1449    1448    1435    1450    1371    1370    1357    1372
       8    1451    1450    1435    1434    1373    1372    1357    1356
       8    1452    1451    1434    1436    1374    1373    1356    1358
       8    1453    1452    1436    1437    1375    1374    1358    1359
       8    1454    1453    1437    1455    1376    1375    1359    1377
       8    1409    1455    1437    1407    1331    1377    1359    1329
       8    1456    1457    1408    1438    1378    1379    1330    1360
       8    1458    1456    1438    1439    1380    1378    1360    1361
       8    1459    1458    1439    1440    1381    1380    1361    1362
       8    1460    1459    1440    1416    1382    1381    1362    1338
       8    1461    1460    1416    1415    1383    1382    1338    1337
       8    1462    1461    1415    1418    1384    1383    1337    1340
       8    1463    1462    1418    1441    1385    1384    1340    1363
       8    1464    1463    1441    1442    1386    1385    1363    1364
       8    1465    1464    1442    1443    1387    1386    1364    1365
       8    1466    1465    1443    1444    1388    1387    1365    1366
       8    1467    1466    1444    1445    1389    1388    1366    1367
       8    1468    1467    1445    1446    1390    1389    1367    1368
       8    1469    1468    1446    1425    1391    1390    1368    1347
       8    1470    1469    1425    1424    1392    1391    1347    1346
       8    1471    1470    1424    1426    1393    1392    1346    1348
       8    1472    1471    1426    1447    1394    1393    1348    1369
       8    1473    1472    1447    1448    1395    1394    1369    1370
       8    1474    1473    1448    1449    1396    1395    1370    1371
       8    1475    1474    1449    1450    1397    1396    1371    1372
       8    1476    1475    1450    1451    1398    1397    1372    1373
       8    1477    1476    1451    1452    1399    1398    1373    1374
       8    1478    1477    1452    1453    1400    1399    1374    1375
       8    1479    1478    1453    1454    1401    1400    1375    1376
       8    1480    1479    1454    1455    1402    1401    1376    1377
       8    1481    1480    1455    1409    1403    1402    1377    1331
       8    1457    1481    1409    1408    1379    1403    1331    1330
       8    1482    1483    1484    1485    1404    1405    1406    1407
       8    1484    1486    1487    1485    1406    1408    1409    1407
       8    1488    1483    1482    1489    1410    1405    1404    1411
       8    1482    1490    1491    1489    1404    1412    1413    1411
       8    1492    1493    1494    1488    1414    1415    1416    1410
       8    1495    1496    1493    1492    1417    1418    1415    1414
       8    1489    1495    1492    1488    1411    1417    1414    1410
       8    1497    1498    1490    1499    1419    1420    1412    1421
       8    1500    1501    1498    1497    1422    1423    1420    1419
       8    1502    1503    1501    1500    1424    1425    1423    1422
       8    1504    1502    1500    1505    1426    1424    1422    1427
       8    1506    1491    1490    1498    1428    1413    1412    1420
       8    1497    1507    1505    1500    1419    1429    1427    1422
       8    1482    1485    1499    1490    1404    1407    1421    1412
       8    1508    1495    1489    1491    1430    1417    1411    1413
       8    1509    1508    1491    1506    1431    1430    1413    1428
       8    1510    1509    1506    1511    1432    1431    1428    1433
       8    1501    1511    1506    1498    1423    1433    1428    1420
       8    1512    1513    1507    1497    1434    1435    1429    1419
       8    1514    1512    1497    1499    1436    1434    1419    1421
       8    1515    1514    1499    1485    1437    1436    1421    1407
       8    1516    1486    1484    1517    1438    1408    1406    1439
       8    1518    1517    1484    1483    1440    1439    1406    1405
       8    1494    1518    1483    1488    1416    1440    1405    1410
       8    1519    1496    1495    1508    1441    1418    1417    1430
       8    1520    1519    1508    1509    1442    1441    1430    1431
       8    1521    1520    1509    1510    1443    1442    1431    1432
       8    1522    1521    1510    1523    1444    1443    1432    1445
       8    1524    1523    1510    1511    1446    1445    1432    1433
       8    1503    1524    1511    1501    1425    1446    1433    1423
       8    1525    1504    1505    1507    1447    1426    1427    1429
       8    1526    1525    1507    1513    1448    1447    1429    1435
       8    1527    1526    1513    1528    1449    1448    1435    1450
       8    1529    1528    1513    1512    1451    1450    1435    1434
       8    1530    1529    1512    1514    1452    1451    1434    1436
       8    1531    1530    1514    1515    1453    1452    1436    1437
       8    1532    1531    1515    1533    1454    1453    1437    1455
       8    1487    1533    1515    1485    1409    1455    1437    1407
       8    1534    1535    1486    1516    1456    1457    1408    1438
       8    1536    1534    1516    1517    1458    1456    1438    1439
       8    1537    1536    1517    1518    1459    1458    1439    1440
       8    1538    1537    1518    1494    1460    1459    1440    1416
       8    1539    1538    1494    1493    1461    1460    1416    1415
       8    1540    1539    1493    1496    1462    1461    1415    1418
       8    1541    1540    1496    1519    1463    1462    1418    1441
       8    1542    1541    1519    1520    1464    1463    1441    1442
       8    1543    1542    1520    1521    1465    1464    1442    1443
       8    1544    1543    1521    1522    1466    1465    1443    1444
       8    1545    1544    1522    1523    1467    1466    1444    1445
       8    1546    1545    1523    1524    1468    1467    1445    1446
       8    1547    1546    1524    1503    1469    1468    1446    1425
       8    1548    1547    1503    1502    1470    1469    1425    1424
       8    1549    1548    1502    1504    1471    1470    1424    1426
       8    1550    1549    1504    1525    1472    1471    1426    1447
       8    1551    1550    1525    1526    1473    1472    1447    1448
       8    1552    1551    1526    1527    1474    1473    1448    1449
       8    1553    1552    1527    1528    1475    1474    1449    1450
       8    1554    1553    1528    1529    1476    1475    1450    1451
       8    1555    1554    1529    1530    1477    1476    1451    1452
       8    1556    1555    1530    1531    1478    1477    1452    1453
       8    1557    1556    1531    1532    1479    1478    1453    1454
       8    1558    1557    1532    1533    1480    1479    1454    1455
       8    1559    1558    1533    1487    1481    1480    1455    1409
       8    1535    1559    1487    1486    1457    1481    1409    1408
       8    1560    1561    1562    1563    1482    1483    1484    1485
       8    1562    1564    1565    1563    1484    1486    1487    1485
       8    1566    1561    1560    1567    1488    1483    1482    1489
       8    1560    1568    1569    1567    1482    1490    1491    1489
       8    1570    1571    1572    1566    1492    1493    1494    1488
       8    1573    1574    1571    1570    1495    1496    1493    1492
       8    1567    1573    1570    1566    1489    1495    1492    1488
       8    1575    1576    1568    1577    1497    1498    1490    1499
       8    1578    1579    1576    1575    1500    1501    1498    1497
       8    1580    1581    1579    1578    1502    1503    1501    1500
       8    1582    1580    1578    1583    1504    1502    1500    1505
       8    1584    1569    1568    1576    1506    1491    1490    1498
       8    1575    1585    1583    1578    1497    1507    1505    1500
       8    1560    1563    1577    1568    1482    1485    1499    1490
       8    1586    1573    1567    1569    1508    1495    1489    1491
       8    1587    1586    1569    1584    1509    1508    1491    1506
       8    1588    1587    1584    1589    1510    1509    1506    1511
       8    1579    1589    1584    1576    1501    1511    1506    1498
       8    1590    1591    1585    1575    1512    1513    1507    1497
       8    1592    1590    1575    1577    1514    1512    1497    1499
       8    1593    1592    1577    1563    1515    1514    1499    1485
       8    1594    1564    1562    1595    1516    1486    1484    1517
       8    1596    1595    1562    1561    1518    1517    1484    1483
       8    1572    1596    1561    1566    1494    1518    1483    1488
       8    1597    1574    1573    1586    1519    1496    1495    1508
       8    1598    1597    1586    1587    1520    1519    1508    1509
       8    1599    1598    1587    1588    1521    1520    1509    1510
       8    1600    1599    1588    1601    1522    1521    1510    1523
       8    1602    1601    1588    1589    1524    1523    1510    1511
       8    1581    1602    1589    1579    1503    1524    1511    1501
       8    1603    1582    1583    1585    1525    1504    1505    1507
       8    1604    1603    1585    1591    1526    1525    1507    1513
       8    1605    1604    1591    1606    1527    1526    1513    1528
       8    1607    1606    1591    1590    1529    1528    1513    1512
       8    1608    1607    1590    1592    1530    1529    1512    1514
       8    1609    1608    1592    1593    1531    1530    1514    1515
       8    1610    1609    1593    1611    1532    1531    1515    1533
       8    1565    1611    1593    1563    1487    1533    1515    1485
       8    1612    1613    1564    1594    1534    1535    1486    1516
       8    1614    1612    1594    1595    1536    1534    1516    1517
       8    1615    1614    1595    1596    1537    1536    1517    1518
       8    1616    1615    1596    1572    1538    1537    1518    1494
       8    1617    1616    1572    1571    1539    1538    1494    1493
       8    1618    1617    1571    1574    1540    1539    1493    1496
       8    1619    1618    1574    1597    1541    1540    1496    1519
       8    1620    1619    1597    1598    1542    1541    1519    1520
       8    1621    1620    1598    1599    1543    1542    1520    1521
       8    1622    1621    1599    1600    1544    1543    1521    1522
       8    1623    1622    1600    1601    1545    1544    1522    1523
       8    1624    1623    1601    1602    1546    1545    1523    1524
       8    1625    1624    1602    1581    1547    1546    1524    1503
       8    1626    1625    1581    1580    1548    1547    1503    1502
       8    1627    1626    1580    1582    1549    1548    1502    1504
       8    1628    1627    1582    1603    1550    1549    1504    1525
       8    1629    1628    1603    1604    1551    1550    1525    1526
       8    1630    1629    1604    1605    1552    1551    1526    1527
       8    1631    1630    1605    1606    1553    1552    1527    1528
       8    1632    1631    1606    1607    1554    1553    1528    1529
       8    1633    1632    1607    1608    1555    1554    1529    1530
       8    1634    1633    1608    1609    1556    1555    1530    1531
       8    1635    1634    1609    1610    1557    1556    1531    1532
       8    1636    1635    1610    1611    1558    1557    1532    1533
       8    1637    1636    1611    1565    1559    1558    1533    1487
       8    1613    1637    1565    1564    1535    1559    1487    1486
       8    1638    1639    1640    1641    1560    1561    1562    1563
       8    1640    1642    1643    1641    1562    1564    1565    1563
       8    1644    1639    1638    1645    1566    1561    1560    1567
       8    1638    1646    1647    1645    1560    1568    1569    1567
       8    1648    1649    1650    1644    1570    1571    1572    1566
       8    1651    1652    1649    1648    1573    1574    1571    1570
       8    1645    1651    1648    1644    1567    1573    1570    1566
       8    1653    1654    1646    1655    1575    1576    1568    1577
       8    1656    1657    1654    1653    1578    1579    1576    1575
       8    1658    1659    1657    1656    1580    1581    1579    1578
       8    1660    1658    1656    1661    1582    1580    1578    1583
       8    1662    1647    1646    1654    1584    1569    1568    1576
       8    1653    1663    1661    1656    1575    1585    1583    1578
       8    1638    1641    1655    1646    1560    1563    1577    1568
       8    1664    1651    1645    1647    1586    1573    1567    1569
       8    1665    1664    1647    1662    1587    1586    1569    1584
       8    1666    1665    1662    1667    1588    1587    1584    1589
       8    1657    1667    1662    1654    1579    1589    1584    1576
       8    1668    1669    1663    1653    1590    1591    1585    1575
       8    1670    1668    1653    1655    1592    1590    1575    1577
       8    1671    1670    1655    1641    1593    1592    1577    1563
       8    1672    1642    1640    1673    1594    1564    1562    1595
       8    1674    1673    1640    1639    1596    1595    1562    1561
       8    1650    1674    1639    1644    1572    1596    1561    1566
       8    1675    1652    1651    1664    1597    1574    1573    1586
       8    1676    1675    1664    1665    1598    1597    1586    1587
       8    1677    1676    1665    1666    1599    1598    1587    1588
       8    1678    1677    1666    1679    1600    1599    1588    1601
       8    1680    1679    1666    1667    1602    1601    1588    1589
       8    1659    1680    1667    1657    1581    1602    1589    1579
       8    1681    1660    1661    1663    1603    1582    1583    1585
       8    1682    1681    1663    1669    1604    1603    1585    1591
       8    1683    1682    1669    1684    1605    1604    1591    1606
       8    1685    1684    1669    1668    1607    1606    1591    1590
       8    1686    1685    1668    1670    1608    1607    1590    1592
       8    1687    1686    1670    1671    1609    1608    1592    1593
       8    1688    1687    1671    1689    1610    1609    1593    1611
       8    1643    1689    1671    1641    1565    1611    1593    1563
       8    1690    1691    1642    1672    1612    1613    1564    1594
       8    1692    1690    1672    1673    1614    1612    1594    1595
       8    1693    1692    1673    1674    1615    1614    1595    1596
       8    1694    1693    1674    1650    1616    1615    1596    1572
       8    1695    1694    1650    1649    1617    1616    1572    1571
       8    1696    1695    1649    1652    1618    1617    1571    1574
       8    1697    1696    1652    1675    1619    1618    1574    1597
       8    1698    1697    1675    1676    1620    1619    1597    1598
       8    1699    1698    1676    1677    1621    1620    1598    1599
       8    1700    1699    1677    1678    1622    1621    1599    1600
       8    1701    1700    1678    1679    1623    1622    1600    1601
       8    1702    1701    1679    1680    1624    1623    1601    1602
       8    1703    1702    1680    1659    1625    1624    1602    1581
       8    1704    1703    1659    1658    1626    1625    1581    1580
       8    1705    1704    1658    1660    1627    1626    1580    1582
       8    1706    1705    1660    1681    1628    1627    1582    1603
       8    1707    1706    1681    1682    1629    1628    1603    1604
       8    1708    1707    1682    1683    1630    1629    1604    1605
       8    1709    1708    1683    1684    1631    1630    1605    1606
       8    1710    1709    1684    1685    1632    1631    1606    1607
       8    1711    1710    1685    1686    1633    1632    1607    1608
       8    1712    1711    1686    1687    1634    1633    1608    1609
       8    1713    1712    1687    1688    1635    1634    1609    1610
       8    1714    1713    1688    1689    1636    1635    1610    1611
       8    1715    1714    1689    1643    1637    1636    1611    1565
       8    1691    1715    1643    1642    1613    1637    1565    1564
       8    1716    1717    1718    1719    1638    1639    1640    1641
       8    1718    1720    1721    1719    1640    1642    1643    1641
       8    1722    1717    1716    1723    1644    1639    1638    1645
       8    1716    1724    1725    1723    1638    1646    1647    1645
       8    1726    1727    1728    1722    1648    1649    1650    1644
       8    1729    1730    1727    1726    1651    1652    1649    1648
       8    1723    1729    1726    1722    1645    1651    1648    1644
       8    1731    1732    1724    1733    1653    1654    1646    1655
       8    1734    1735    1732    1731    1656    1657    1654    1653
       8    1736    1737    1735    1734    1658    1659    1657    1656
       8    1738    1736    1734    1739    1660    1658    1656    1661
       8    1740    1725    1724    1732    1662    1647    1646    1654
       8    1731    1741    1739    1734    1653    1663    1661    1656
       8    1716    1719    1733    1724    1638    1641    1655    1646
       8    1742    1729    1723    1725    1664    1651    1645    1647
       8    1743    1742    1725    1740    1665    1664    1647    1662
       8    1744    1743    1740    1745    1666    1665    1662    1667
       8    1735    1745    1740    1732    1657    1667    1662    1654
       8    1746    1747    1741    1731    1668    1669    1663    1653
       8    1748    1746    1731    1733    1670    1668    1653    1655
       8    1749    1748    1733    1719    1671    1670    1655    1641
       8    1750    1720    1718    1751    1672    1642    1640    1673
       8    1752    1751    1718    1717    1674    1673    1640    1639
       8    1728    1752    1717    1722    1650    1674    1639    1644
       8    1753    1730    1729    1742    1675    1652    1651    1664
       8    1754    1753    1742    1743    1676    1675    1664    1665
       8    1755    1754    1743    1744    1677    1676    1665    1666
       8    1756    1755    1744    1757    1678    1677    1666    1679
       8    1758    1757    1744    1745    1680    1679    1666    1667
       8    1737    1758    1745    1735    1659    1680    1667    1657
       8    1759    1738    1739    1741    1681    1660    1661    1663
       8    1760    1759    1741    1747    1682    1681    1663    1669
       8    1761    1760    1747    1762    1683    1682    1669    1684
       8    1763    1762    1747    1746    1685    1684    1669    1668
       8    1764    1763    1746    1748    1686    1685    1668    1670
       8    1765    1764    1748    1749    1687    1686    1670    1671
       8    1766    1765    1749    1767    1688    1687    1671    1689
       8    1721    1767    1749    1719    1643    1689    1671    1641
       8    1768    1769    1720    1750    1690    1691    1642    1672
       8    1770    1768    1750    1751    1692    1690    1672    1673
       8    1771    1770    1751    1752    1693    1692    1673    1674
       8    1772    1771    1752    1728    1694    1693    1674    1650
       8    1773    1772    1728    1727    1695    1694    1650    1649
       8    1774    1773    1727    1730    1696    1695    1649    1652
       8    1775    1774    1730    1753    1697    1696    1652    1675
       8    1776    1775    1753    1754    1698    1697    1675    1676
       8    1777    1776    1754    1755    1699    1698    1676    1677
       8    1778    1777    1755    1756    1700    1699    1677    1678
       8    1779    1778    1756    1757    1701    1700    1678    1679
       8    1780    1779    1757    1758    1702    1701    1679    1680
       8    1781    1780    1758    1737    1703    1702    1680    1659
       8    1782    1781    1737    1736    1704    1703    1659    1658
       8    1783    1782    1736    1738    1705    1704    1658    1660
       8    1784    1783    1738    1759    1706    1705    1660    1681
       8    1785    1784    1759    1760    1707    1706    1681    1682
       8    1786    1785    1760    1761    1708    1707    1682    1683
       8    1787    1786    1761    1762    1709    1708    1683    1684
       8    1788    1787    1762    1763    1710    1709    1684    1685
       8    1789    1788    1763    1764    1711    1710    1685    1686
       8    1790    1789    1764    1765    1712    1711    1686    1687
       8    1791    1790    1765    1766    1713    1712    1687    1688
       8    1792    1791    1766    1767    1714    1713    1688    1689
       8    1793    1792    1767    1721    1715    1714    1689    1643
       8    1769    1793    1721    1720    1691    1715    1643    1642
       8    1794    1795    1796    1797    1716    1717    1718    1719
       8    1796    1798    1799    1797    1718    1720    1721    1719
       8    1800    1795    1794    1801    1722    1717    1716    1723
       8    1794    1802    1803    1801    1716    1724    1725    1723
       8    1804    1805    1806    1800    1726    1727    1728    1722
       8    1807    1808    1805    1804    1729    1730    1727    1726
       8    1801    1807    1804    1800    1723    1729    1726    1722
       8    1809    1810    1802    1811    1731    1732    1724    1733
       8    1812    1813    1810    1809    1734    1735    1732    1731
       8    1814    1815    1813    1812    1736    1737    1735    1734
       8    1816    1814    1812    1817    1738    1736    1734    1739
       8    1818    1803    1802    1810    1740    1725    1724    1732
       8    1809    1819    1817    1812    1731    1741    1739    1734
       8    1794    1797    1811    1802    1716    1719    1733    1724
       8    1820    1807    1801    1803    1742    1729    1723    1725
       8    1821    1820    1803    1818    1743    1742    1725    1740
       8    1822    1821    1818    1823    1744    1743    1740    1745
       8    1813    1823    1818    1810    1735    1745    1740    1732
       8    1824    1825    1819    1809    1746    1747    1741    1731
       8    1826    1824    1809    1811    1748    1746    1731    1733
       8    1827    1826    1811    1797    1749    1748    1733    1719
       8    1828    1798    1796    1829    1750    1720    1718    1751
       8    1830    1829    1796    1795    1752    1751    1718    1717
       8    1806    1830    1795    1800    1728    1752    1717    1722
       8    1831    1808    1807    1820    1753    1730    1729    1742
       8    1832    1831    1820    1821    1754    1753    1742    1743
       8    1833    1832    1821    1822    1755    1754    1743    1744
       8    1834    1833    1822    1835    1756    1755    1744    1757
       8    1836    1835    1822    1823    1758    1757    1744    1745
       8    1815    1836    1823    1813    1737    1758    1745    1735
       8    1837    1816    1817    1819    1759    1738    1739    1741
       8    1838    1837    1819    1825    1760    1759    1741    1747
       8    1839    1838    1825    1840    1761    1760    1747    1762
       8    1841    1840    1825    1824    1763    1762    1747    1746
       8    1842    1841    1824    1826    1764    1763    1746    1748
       8    1843    1842    1826    1827    1765    1764    1748    1749
       8    1844    1843    1827    1845    1766    1765    1749    1767
       8    1799    1845    1827    1797    1721    1767    1749    1719
       8    1846    1847    1798    1828    1768    1769    1720    1750
       8    1848    1846    1828    1829    1770    1768    1750    1751
       8    1849    1848    1829    1830    1771    1770    1751    1752
       8    1850    1849    1830    1806    1772    1771    1752    1728
       8    1851    1850    1806    1805    1773    1772    1728    1727
       8    1852    1851    1805    1808    1774    1773    1727    1730
       8    1853    1852    1808    1831    1775    1774    1730    1753
       8    1854    1853    1831    1832    1776    1775    1753    1754
       8    1855    1854    1832    1833    1777    1776    1754    1755
       8    1856    1855    1833    1834    1778    1777    1755    1756
       8    1857    1856    1834    1835    1779    1778    1756    1757
       8    1858    1857    1835    1836    1780    1779    1757    1758
       8    1859    1858    1836    1815    1781    1780    1758    1737
       8    1860    1859    1815    1814    1782    1781    1737    1736
       8    1861    1860    1814    1816    1783    1782    1736    1738
       8    1862    1861    1816    1837    1784    1783    1738    1759
       8    1863    1862    1837    1838    1785    1784    1759    1760
       8    1864    1863    1838    1839    1786    1785    1760    1761
       8    1865    1864    1839    1840    1787    1786    1761    1762
       8    1866    1865    1840    1841    1788    1787    1762    1763
       8    1867    1866    1841    1842    1789    1788    1763    1764
       8    1868    1867    1842    1843    1790    1789    1764    1765
       8    1869    1868    1843    1844    1791    1790    1765    1766
       8    1870    1869    1844    1845    1792    1791    1766    1767
       8    1871    1870    1845    1799    1793    1792    1767    1721
       8    1847    1871    1799    1798    1769    1793    1721    1720
       8    1872    1873    1874    1875    1794    1795    1796    1797
       8    1874    1876    1877    1875    1796    1798    1799    1797
       8    1878    1873    1872    1879    1800    1795    1794    1801
       8    1872    1880    1881    1879    1794    1802    1803    1801
       8    1882    1883    1884    1878    1804    1805    1806    1800
       8    1885    1886    1883    1882    1807    1808    1805    1804
       8    1879    1885    1882    1878    1801    1807    1804    1800
       8    1887    1888    1880    1889    1809    1810    1802    1811
       8    1890    1891    1888    1887    1812    1813    1810    1809
       8    1892    1893    1891    1890    1814    1815    1813    1812
       8    1894    1892    1890    1895    1816    1814    1812    1817
       8    1896    1881    1880    1888    1818    1803    1802    1810
       8    1887    1897    1895    1890    1809    1819    1817    1812
       8    1872    1875    1889    1880    1794    1797    1811    1802
       8    1898    1885    1879    1881    1820    1807    1801    1803
       8    1899    1898    1881    1896    1821    1820    1803    1818
       8    1900    1899    1896    1901    1822    1821    1818    1823
       8    1891    1901    1896    1888    1813    1823    1818    1810
       8    1902    1903    1897    1887    1824    1825    1819    1809
       8    1904    1902    1887    1889    1826    1824    1809    1811
       8    1905    1904    1889    1875    1827    1826    1811    1797
       8    1906    1876    1874    1907    1828    1798    1796    1829
       8    1908    1907    1874    1873    1830    1829    1796    1795
       8    1884    1908    1873    1878    1806    1830    1795    1800
       8    1909    1886    1885    1898    1831    1808    1807    1820
       8    1910    1909    1898    1899    1832    1831    1820    1821
       8    1911    1910    1899    1900    1833    1832    1821    1822
       8    1912    1911    1900    1913    1834    1833    1822    1835
       8    1914    1913    1900    1901    1836    1835    1822    1823
       8    1893    1914    1901    1891    1815    1836    1823    1813
       8    1915    1894    1895    1897    1837    1816    1817    1819
       8    1916    1915    1897    1903    1838    1837    1819    1825
       8    1917    1916    1903    1918    1839    1838    1825    1840
       8    1919    1918    1903    1902    1841    1840    1825    1824
       8    1920    1919    1902    1904    1842    1841    1824    1826
       8    1921    1920    1904    1905    1843    1842    1826    1827
       8    1922    1921    1905    1923    1844    1843    1827    1845
       8    1877    1923    1905    1875    1799    1845    1827    1797
       8    1924    1925    1876    1906    1846    1847    1798    1828
       8    1926    1924    1906    1907    1848    1846    1828    1829
       8    1927    1926    1907    1908    1849    1848    1829    1830
       8    1928    1927    1908    1884    1850    1849    1830    1806
       8    1929    1928    1884    1883    1851    1850    1806    1805
       8    1930    1929    1883    1886    1852    1851    1805    1808
       8    1931    1930    1886    1909    1853    1852    1808    1831
       8    1932    1931    1909    1910    1854    1853    1831    1832
       8    1933    1932    1910    1911    1855    1854    1832    1833
       8    1934    1933    1911    1912    1856    1855    1833    1834
       8    1935    1934    1912    1913    1857    1856    1834    1835
       8    1936    1935    1913    1914    1858    1857    1835    1836
       8    1937    1936    1914    1893    1859    1858    1836    1815
       8    1938    1937    1893    1892    1860    1859    1815    1814
       8    1939    1938    1892    1894    1861    1860    1814    1816
       8    1940    1939    1894    1915    1862    1861    1816    1837
       8    1941    1940    1915    1916    1863    1862    1837    1838
       8    1942    1941    1916    1917    1864    1863    1838    1839
       8    1943    1942    1917    1918    1865    1864    1839    1840
       8    1944    1943    1918    1919    1866    1865    1840    1841
       8    1945    1944    1919    1920    1867    1866    1841    1842
       8    1946    1945    1920    1921    1868    1867    1842    1843
       8    1947    1946    1921    1922    1869    1868    1843    1844
       8    1948    1947    1922    1923    1870    1869    1844    1845
       8    1949    1948    1923    1877    1871    1870    1845    1799
       8    1925    1949    1877    1876    1847    1871    1799    1798
  
CELL_TYPES    3486
       1
       1
       1
       1
       1
       1
       1
       1
       1
       1
       1
       1
       1
       1
       1
       1
       1
       1
       1
       1
       1
       1
       1
       1
       1
       1
       1
       1
       1
       1
       1
       1
       1
       1
       1
       1
       1
       1
       1
       1
       1
       1
       1
       1
       1
       1
       1
       1
       1
       1
       1
       1
       1
       1
       1
       1
       1
       1
       1
       1
       1
       1
       1
       1
       1
       1
       1
       1
       1
       1
       1
       1
       1
       1
       1
       1
       1
       1
       1
       1
       1
       1
       1
       1
       1
       1
       1
       1
       1
       1
       1
       1
       1
       1
       1
       1
       1
       1
       1
       1
       1
       1
       1
       1
       1
       1
       1
       1
       1
       1
       1
       1
       1
       1
       1
       1
       1
       1
       1
       1
       1
       1
       1
       1
       1
       1
       1
       1
       1
       1
       1
       1
       1
       1
       1
       1
       1
       1
       1
       1
       1
       1
       1
       1
       1
       1
       1
       1
       1
       1
       1
       1
       1
       1
       1
       1
       1
       1
       1
       1
       1
       1
       1
       1
       1
       1
       1
       1
       1
       1
       1
       1
       1
       1
       1
       1
       1
       1
       1
       1
       1
       1
       1
       1
       1
       1
       1
       1
       1
       1
       1
       1
       1
       1
       1
       1
       1
       1
       1
       1
       1
       1
       1
       1
       1
       1
       1
       1
       1
       1
       1
       1
       1
       1
       1
       1
       1
       1
       1
       1
       1
       1
       1
       1
       1
       1
       1
       1
       1
       1
       1
       1
       1
       1
       1
       1
       1
       1
       1
       1
       1
       1
       1
       1
       1
       1
       1
       1
       1
       1
       1
       1
       1
       1
       1
       1
       1
       1
       1
       1
       1
       1
       1
       1
       1
       1
       1
       1
       1
       1
       1
       1
       1
       1
       1
       1
       1
       1
       1
       1
       1
       1
       1
       1
       1
       1
       1
       1
       1
       1
       1
       1
       1
       1
       1
       1
       1
       1
       1
       1
       1
       1
       1
       1
       1
       1
       1
       1
       1
       1
       1
       1
       1
       1
       1
       1
       1
       1
       1
       1
       1
       1
       1
       1
       1
       1
       1
       1
       1
       1
       1
       1
       1
       1
       1
       1
       1
       1
       1
       1
       1
       1
       1
       1
       1
       1
       1
       1
       1
       1
       1
       1
       1
       1
       1
       1
       1
       1
       1
       1
       1
       1
       1
       1
       1
       1
       1
       1
       1
       1
       1
       1
       1
       1
       1
       1
       1
       1
       1
       1
       1
       1
       1
       1
       1
       1
       1
       1
       1
       1
       1
       1
       1
       1
       1
       1
       1
       1
       1
       1
       1
       1
       1
       1
       1
       1
       1
       1
       1
       1
       1
       1
       1
       1
       1
       1
       1
       1
       1
       1
       1
       1
       1
       1
       1
       1
       1
       1
       1
       1
       1
       1
       1
       1
       1
       1
       1
       1
       1
       1
       1
       1
       1
       1
       1
       1
       1
       1
       1
       1
       1
       1
       1
       1
       1
       1
       1
       1
       1
       1
       1
       1
       1
       1
       1
       1
       1
       1
       1
       1
       1
       1
       1
       1
       1
       1
       1
       1
       1
       1
       1
       1
       1
       1
       1
       1
       1
       1
       1
       1
       1
       1
       1
       1
       1
       1
       1
       1
       1
       1
       1
       1
       1
       1
       1
       1
       1
       1
       1
       1
       1
       1
       1
       1
       1
       1
       1
       1
       1
       1
       1
       1
       1
       1
       1
       1
       1
       1
       1
       1
       1
       1
       1
       1
       1
       1
       1
       1
       1
       1
       1
       1
       1
       1
       1
       1
       1
       1
       1
       1
       1
       1
       1
       1
       1
       1
       1
       1
       1
       1
       1
       1
       1
       1
       1
       1
       1
       1
       1
       1
       1
       1
       1
       1
       1
       1
       1
       1
       1
       1
       1
       1
       1
       1
       1
       1
       1
       1
       1
       1
       1
       1
       1
       1
       1
       1
       1
       1
       1
       1
       1
       1
       1
       1
       1
       1
       1
       1
       1
       1
       1
       1
       1
       1
       1
       1
       1
       1
       1
       1
       1
       1
       1
       1
       1
       1
       1
       1
       1
       1
       1
       1
       1
       1
       1
       1
       1
       1
       1
       1
       1
       1
       1
       1
       1
       1
       1
       1
       1
       1
       1
       1
       1
       1
       1
       1
       1
       1
       1
       1
       1
       1
       1
       1
       1
       1
       1
       1
       1
       1
       1
       1
       1
       1
       1
       1
       1
       1
       1
       1
       1
       1
       1
       1
       1
       1
       1
       1
       1
       1
       1
       1
       1
       1
       1
       1
       1
       1
       1
       1
       1
       1
       1
       1
       1
       1
       1
       1
       1
       1
       1
       1
       1
       1
       1
       1
       1
       1
       1
       1
       1
       1
       1
       1
       1
       1
       1
       1
       1
       1
       1
       1
       1
       1
       1
       1
       1
       1
       1
       1
       1
       1
       1
       1
       1
       1
       1
       1
       1
       1
       1
       1
       1
       1
       1
       1
       1
       1
       1
       1
       1
       1
       1
       1
       1
       1
       1
       1
       1
       1
       1
       1
       1
       1
       1
       1
       1
       1
       1
       1
       1
       1
       1
       1
       1
       1
       1
       1
       1
       1
       1
       1
       1
       1
       1
       1
       1
       1
       1
       1
       1
       1
       1
       1
       1
       1
       1
       1
       1
       1
       1
       1
       1
       1
       1
       1
       1
       1
       1
       1
       1
       1
       1
       1
       1
       1
       1
       1
       1
       1
       1
       1
       1
       1
       1
       1
       1
       1
       1
       1
       1
       1
       1
       1
       1
       1
       1
       1
       1
       1
       1
       1
       1
       1
       1
       1
       1
       1
       1
       1
       1
       1
       1
       1
       1
       1
       1
       1
       1
       1
       1
       1
       1
       1
       1
       1
       1
       1
       1
       1
       1
       1
       1
       1
       1
       1
       1
       1
       1
       1
       1
       1
       1
       1
       1
       1
       1
       1
       1
       1
       1
       1
       1
       1
       1
       1
       1
       1
       1
       1
       1
       1
       1
       1
       1
       1
       1
       1
       1
       1
       1
       1
       1
       1
       1
       1
       1
       1
       1
       1
       1
       1
       1
       1
       1
       1
       1
       1
       1
       1
       1
       1
       1
       1
       1
       1
       1
       1
       1
       1
       1
       1
       1
       1
       1
       1
       1
       1
       1
       1
       1
       1
       1
       1
       1
       1
       1
       1
       1
       1
       1
       1
       1
       1
       1
       1
       1
       1
       1
       1
       1
       1
       1
       1
       1
       1
       1
       1
       1
       1
       1
       1
       1
       1
       1
       1
       1
       1
       1
       1
       1
       1
       1
       1
       1
       1
       1
       1
       1
       1
       1
       1
       1
       1
       1
       1
       1
       1
       1
       1
       1
       1
       1
       1
       1
       1
       1
       1
       1
       1
       1
       1
       1
       1
       1
       1
       1
       1
       1
       1
       1
       1
       1
       1
       1
       1
       1
       1
       1
       1
       1
       1
       1
       1
       1
       1
       1
       1
       1
       1
       1
       1
       1
       1
       1
       1
       1
       1
       1
       1
       1
       1
       1
       1
       1
       1
       1
       1
       1
       1
       1
       1
       1
       1
       1
       1
       1
       1
       1
       1
       1
       1
       1
       1
       1
       1
       1
       1
       1
       1
       1
       1
       1
       1
       1
       1
       1
       1
       1
       1
       1
       1
       1
       1
       1
       1
       1
       1
       1
       1
       1
       1
       1
       1
       1
       1
       1
       1
       1
       1
       1
       1
       1
       1
       1
       1
       1
       1
       1
       1
       1
       1
       1
       1
       1
       1
       1
       1
       1
       1
       1
       1
       1
       1
       1
       1
       1
       1
       1
       1
       1
       1
       1
       1
       1
       1
       1
       1
       1
       1
       1
       1
       1
       1
       1
       1
       1
       1
       1
       1
       1
       1
       1
       1
       1
       1
       1
       1
       1
       1
       1
       1
       1
       1
       1
       1
       1
       1
       1
       1
       1
       1
       1
       1
       1
       1
       1
       1
       1
       1
       1
       1
       1
       1
       1
       1
       1
       1
       1
       1
       1
       1
       1
       1
       1
       1
       1
       1
       1
       1
       1
       1
       1
       1
       1
       1
       1
       1
       1
       1
       1
       1
       1
       1
       1
       1
       1
       1
       1
       1
       1
       1
       1
       1
       1
       1
       1
       1
       1
       1
       1
       1
       1
       1
       1
       1
       1
       1
       1
       1
       1
       1
       1
       1
       1
       1
       1
       1
       1
       1
       1
       1
       1
       1
       1
       1
       1
       1
       1
       1
       1
       1
       1
       1
       1
       1
       1
       1
       1
       1
       1
       1
       1
       1
       1
       1
       1
       1
       1
       1
       1
       1
       1
       1
       1
       1
       1
       1
       1
       1
       1
       1
       1
       1
       1
       1
       1
       1
       1
       1
       1
       1
       1
       1
       1
       1
       1
       1
       1
       1
       1
       1
       1
       1
       1
       1
       1
       1
       1
       1
       1
       1
       1
       1
       1
       1
       1
       1
       1
       1
       1
       1
       1
       1
       1
       1
       1
       1
       1
       1
       1
       1
       1
       1
       1
       1
       1
       1
       1
       1
       1
       1
       1
       1
       1
       1
       1
       1
       1
       1
       1
       1
       1
       1
       1
       1
       1
       1
       1
       1
       1
       1
       1
       1
       1
       1
       1
       1
       1
       1
       1
       1
       1
       1
       1
       1
       1
       1
       1
       1
       1
       1
       1
       1
       1
       1
       1
       1
       1
       1
       1
       1
       1
       1
       1
       1
       1
       1
       1
       1
       1
       1
       1
       1
       1
       1
       1
       1
       1
       1
       1
       1
       1
       1
       1
       1
       1
       1
       1
       1
       1
       1
       1
       1
       1
       1
       1
       1
       1
       1
       1
       1
       1
       1
       1
       1
       1
       1
       1
       1
       1
       1
       1
       1
       1
       1
       1
       1
       1
       1
       1
       1
       1
       1
       1
       1
       1
       1
       1
       1
       1
       1
       1
       1
       1
       1
       1
       1
       1
       1
       1
       1
       1
       1
       1
       1
       1
       1
       1
       1
       1
       1
       1
       1
       1
       1
       1
       1
       1
       1
       1
       1
       1
       1
       1
       1
       1
       1
       1
       1
       1
       1
       1
       1
       1
       1
       1
       1
       1
       1
       1
       1
       1
       1
       1
       1
       1
       1
       1
       1
       1
       1
       1
       1
       1
       1
       1
       1
       1
       1
       1
       1
       1
       1
       1
       1
       1
       1
       1
       1
       1
       1
       1
       1
       1
       1
       1
       1
       1
       1
       1
       1
       1
       1
       1
       1
       1
       1
       1
       1
       1
       1
       1
       1
       1
       1
       1
       1
       1
       1
       1
       1
       1
       1
       1
       1
       1
       1
       1
       1
       1
       1
       1
       1
       1
       1
       1
       1
       1
       1
       1
       1
       1
       1
       1
       1
       1
       1
       1
       1
       1
       1
       1
       1
       1
       1
       1
       1
       1
       1
       1
       1
       1
       1
       1
       1
       1
       1
       1
       1
       1
       1
       1
       1
       1
       1
       1
       1
       1
       1
       1
       1
       1
       1
       1
       1
       1
       1
       1
       1
       1
       1
       1
       1
       1
       1
       1
       1
       1
       1
       1
       1
       1
       1
       1
       1
       1
       1
       1
       1
       1
       1
       1
       1
       1
       1
       1
       1
       1
       1
       1
       1
       1
       1
       1
       1
       1
       1
       1
       1
       1
       1
       1
       1
       1
       1
       1
       1
       1
       1
       1
       1
       1
       1
       1
       1
       1
       1
       1
       1
       1
       1
       1
       1
       1
       1
       1
       1
       1
       1
       1
       1
       1
       1
       1
       1
       1
       1
       1
       1
       1
       1
       1
       1
       1
       1
       1
       1
       1
       1
       1
       1
       1
       1
       1
       1
       1
       1
       1
       1
       1
       1
       1
       1
       1
       1
       1
       1
       1
       1
       1
       1
       1
       1
       1
       1
       1
       1
       1
       1
       1
       1
       1
       1
       1
       1
       1
       1
       1
       1
       1
       1
       1
       1
       1
       1
       1
       1
       1
       1
       1
       1
       1
       1
       1
       1
       1
       1
       1
       1
       1
       1
       1
       1
       1
       1
       1
       1
       1
       1
       1
       1
       1
       1
       1
       1
       1
       1
       1
       1
       1
       1
       1
       1
       1
       1
       1
       1
       1
       1
       1
       1
       1
       1
       1
       1
       1
       1
       1
       1
       1
       1
       1
       1
       1
       1
       1
       1
       1
       1
       1
       1
       1
       1
       1
       1
       1
       1
       1
       1
       1
       1
       1
       1
       1
       1
       1
       1
       1
       1
       1
       1
       1
       1
       1
       1
       1
       1
       1
       1
       1
       1
       1
       1
       1
       1
       1
       1
       1
       1
       1
       1
       1
       1
       1
       1
       1
       1
       1
       1
       1
       1
       1
       1
       1
       1
       1
       1
       1
       1
       1
       1
       1
       1
       1
       1
       1
       1
       1
       1
      12
      12
      12
      12
      12
      12
      12
      12
      12
      12
      12
      12
      12
      12
      12
      12
      12
      12
      12
      12
      12
      12
      12
      12
      12
      12
      12
      12
      12
      12
      12
      12
      12
      12
      12
      12
      12
      12
      12
      12
      12
      12
      12
      12
      12
      12
      12
      12
      12
      12
      12
      12
      12
      12
      12
      12
      12
      12
      12
      12
      12
      12
      12
      12
      12
      12
      12
      12
      12
      12
      12
      12
      12
      12
      12
      12
      12
      12
      12
      12
      12
      12
      12
      12
      12
      12
      12
      12
      12
      12
      12
      12
      12
      12
      12
      12
      12
      12
      12
      12
      12
      12
      12
      12
      12
      12
      12
      12
      12
      12
      12
      12
      12
      12
      12
      12
      12
      12
      12
      12
      12
      12
      12
      12
      12
      12
      12
      12
      12
      12
      12
      12
      12
      12
      12
      12
      12
      12
      12
      12
      12
      12
      12
      12
      12
      12
      12
      12
      12
      12
      12
      12
      12
      12
      12
      12
      12
      12
      12
      12
      12
      12
      12
      12
      12
      12
      12
      12
      12
      12
      12
      12
      12
      12
      12
      12
      12
      12
      12
      12
      12
      12
      12
      12
      12
      12
      12
      12
      12
      12
      12
      12
      12
      12
      12
      12
      12
      12
      12
      12
      12
      12
      12
      12
      12
      12
      12
      12
      12
      12
      12
      12
      12
      12
      12
      12
      12
      12
      12
      12
      12
      12
      12
      12
      12
      12
      12
      12
      12
      12
      12
      12
      12
      12
      12
      12
      12
      12
      12
      12
      12
      12
      12
      12
      12
      12
      12
      12
      12
      12
      12
      12
      12
      12
      12
      12
      12
      12
      12
      12
      12
      12
      12
      12
      12
      12
      12
      12
      12
      12
      12
      12
      12
      12
      12
      12
      12
      12
      12
      12
      12
      12
      12
      12
      12
      12
      12
      12
      12
      12
      12
      12
      12
      12
      12
      12
      12
      12
      12
      12
      12
      12
      12
      12
      12
      12
      12
      12
      12
      12
      12
      12
      12
      12
      12
      12
      12
      12
      12
      12
      12
      12
      12
      12
      12
      12
      12
      12
      12
      12
      12
      12
      12
      12
      12
      12
      12
      12
      12
      12
      12
      12
      12
      12
      12
      12
      12
      12
      12
      12
      12
      12
      12
      12
      12
      12
      12
      12
      12
      12
      12
      12
      12
      12
      12
      12
      12
      12
      12
      12
      12
      12
      12
      12
      12
      12
      12
      12
      12
      12
      12
      12
      12
      12
      12
      12
      12
      12
      12
      12
      12
      12
      12
      12
      12
      12
      12
      12
      12
      12
      12
      12
      12
      12
      12
      12
      12
      12
      12
      12
      12
      12
      12
      12
      12
      12
      12
      12
      12
      12
      12
      12
      12
      12
      12
      12
      12
      12
      12
      12
      12
      12
      12
      12
      12
      12
      12
      12
      12
      12
      12
      12
      12
      12
      12
      12
      12
      12
      12
      12
      12
      12
      12
      12
      12
      12
      12
      12
      12
      12
      12
      12
      12
      12
      12
      12
      12
      12
      12
      12
      12
      12
      12
      12
      12
      12
      12
      12
      12
      12
      12
      12
      12
      12
      12
      12
      12
      12
      12
      12
      12
      12
      12
      12
      12
      12
      12
      12
      12
      12
      12
      12
      12
      12
      12
      12
      12
      12
      12
      12
      12
      12
      12
      12
      12
      12
      12
      12
      12
      12
      12
      12
      12
      12
      12
      12
      12
      12
      12
      12
      12
      12
      12
      12
      12
      12
      12
      12
      12
      12
      12
      12
      12
      12
      12
      12
      12
      12
      12
      12
      12
      12
      12
      12
      12
      12
      12
      12
      12
      12
      12
      12
      12
      12
      12
      12
      12
      12
      12
      12
      12
      12
      12
      12
      12
      12
      12
      12
      12
      12
      12
      12
      12
      12
      12
      12
      12
      12
      12
      12
      12
      12
      12
      12
      12
      12
      12
      12
      12
      12
      12
      12
      12
      12
      12
      12
      12
      12
      12
      12
      12
      12
      12
      12
      12
      12
      12
      12
      12
      12
      12
      12
      12
      12
      12
      12
      12
      12
      12
      12
      12
      12
      12
      12
      12
      12
      12
      12
      12
      12
      12
      12
      12
      12
      12
      12
      12
      12
      12
      12
      12
      12
      12
      12
      12
      12
      12
      12
      12
      12
      12
      12
      12
      12
      12
      12
      12
      12
      12
      12
      12
      12
      12
      12
      12
      12
      12
      12
      12
      12
      12
      12
      12
      12
      12
      12
      12
      12
      12
      12
      12
      12
      12
      12
      12
      12
      12
      12
      12
      12
      12
      12
      12
      12
      12
      12
      12
      12
      12
      12
      12
      12
      12
      12
      12
      12
      12
      12
      12
      12
      12
      12
      12
      12
      12
      12
      12
      12
      12
      12
      12
      12
      12
      12
      12
      12
      12
      12
      12
      12
      12
      12
      12
      12
      12
      12
      12
      12
      12
      12
      12
      12
      12
      12
      12
      12
      12
      12
      12
      12
      12
      12
      12
      12
      12
      12
      12
      12
      12
      12
      12
      12
      12
      12
      12
      12
      12
      12
      12
      12
      12
      12
      12
      12
      12
      12
      12
      12
      12
      12
      12
      12
      12
      12
      12
      12
      12
      12
      12
      12
      12
      12
      12
      12
      12
      12
      12
      12
      12
      12
      12
      12
      12
      12
      12
      12
      12
      12
      12
      12
      12
      12
      12
      12
      12
      12
      12
      12
      12
      12
      12
      12
      12
      12
      12
      12
      12
      12
      12
      12
      12
      12
      12
      12
      12
      12
      12
      12
      12
      12
      12
      12
      12
      12
      12
      12
      12
      12
      12
      12
      12
      12
      12
      12
      12
      12
      12
      12
      12
      12
      12
      12
      12
      12
      12
      12
      12
      12
      12
      12
      12
      12
      12
      12
      12
      12
      12
      12
      12
      12
      12
      12
      12
      12
      12
      12
      12
      12
      12
      12
      12
      12
      12
      12
      12
      12
      12
      12
      12
      12
      12
      12
      12
      12
      12
      12
      12
      12
      12
      12
      12
      12
      12
      12
      12
      12
      12
      12
      12
      12
      12
      12
      12
      12
      12
      12
      12
      12
      12
      12
      12
      12
      12
      12
      12
      12
      12
      12
      12
      12
      12
      12
      12
      12
      12
      12
      12
      12
      12
      12
      12
      12
      12
      12
      12
      12
      12
      12
      12
      12
      12
      12
      12
      12
      12
      12
      12
      12
      12
      12
      12
      12
      12
      12
      12
      12
      12
      12
      12
      12
      12
      12
      12
      12
      12
      12
      12
      12
      12
      12
      12
      12
      12
      12
      12
      12
      12
      12
      12
      12
      12
      12
      12
      12
      12
      12
      12
      12
      12
      12
      12
      12
      12
      12
      12
      12
      12
      12
      12
      12
      12
      12
      12
      12
      12
      12
      12
      12
      12
      12
      12
      12
      12
      12
      12
      12
      12
      12
      12
      12
      12
      12
      12
      12
      12
      12
      12
      12
      12
      12
      12
      12
      12
      12
      12
      12
      12
      12
      12
      12
      12
      12
      12
      12
      12
      12
      12
      12
      12
      12
      12
      12
      12
      12
      12
      12
      12
      12
      12
      12
      12
      12
      12
      12
      12
      12
      12
      12
      12
      12
      12
      12
      12
      12
      12
      12
      12
      12
      12
      12
      12
      12
      12
      12
      12
      12
      12
      12
      12
      12
      12
      12
      12
      12
      12
      12
      12
      12
      12
      12
      12
      12
      12
      12
      12
      12
      12
      12
      12
      12
      12
      12
      12
      12
      12
      12
      12
      12
      12
      12
      12
      12
      12
      12
      12
      12
      12
      12
      12
      12
      12
      12
      12
      12
      12
      12
      12
      12
      12
      12
      12
      12
      12
      12
      12
      12
      12
      12
      12
      12
      12
      12
      12
      12
      12
      12
      12
      12
      12
      12
      12
      12
      12
      12
      12
      12
      12
      12
      12
      12
      12
      12
      12
      12
      12
      12
      12
      12
      12
      12
      12
      12
      12
      12
      12
      12
      12
      12
      12
      12
      12
      12
      12
      12
      12
      12
      12
      12
      12
      12
      12
      12
      12
      12
      12
      12
      12
      12
      12
      12
      12
      12
      12
      12
      12
      12
      12
      12
      12
      12
      12
      12
      12
      12
      12
      12
      12
      12
      12
      12
      12
      12
      12
      12
      12
      12
      12
      12
      12
      12
      12
      12
      12
      12
      12
      12
      12
      12
      12
      12
      12
      12
      12
      12
      12
      12
      12
      12
      12
      12
      12
      12
      12
      12
      12
      12
      12
      12
      12
      12
      12
      12
      12
      12
      12
      12
      12
      12
      12
      12
      12
      12
      12
      12
      12
      12
      12
      12
      12
      12
      12
      12
      12
      12
      12
      12
      12
      12
      12
      12
      12
      12
      12
      12
      12
      12
      12
      12
      12
      12
      12
      12
      12
      12
      12
      12
      12
      12
      12
      12
      12
      12
      12
      12
      12
      12
      12
      12
      12
      12
      12
      12
      12
      12
      12
      12
      12
      12
      12
      12
      12
      12
      12
      12
      12
      12
      12
      12
      12
      12
      12
      12
      12
      12
      12
      12
      12
      12
      12
      12
      12
      12
      12
      12
      12
      12
      12
      12
      12
      12
      12
      12
      12
      12
      12
      12
      12
      12
      12
      12
      12
      12
      12
      12
      12
      12
      12
      12
      12
      12
      12
      12
      12
      12
      12
      12
      12
      12
      12
      12
      12
      12
      12
      12
      12
      12
      12
      12
      12
      12
      12
      12
      12
      12
      12
      12
      12
      12
      12
      12
      12
      12
      12
      12
      12
      12
      12
      12
      12
      12
      12
      12
      12
      12
      12
      12
      12
      12
      12
      12
      12
      12
      12
      12
      12
      12
      12
      12
      12
      12
      12
      12
      12
      12
      12
      12
      12
      12
      12
      12
      12
      12
      12
      12
      12
      12
      12
      12
      12
      12
      12
      12
      12
      12
      12
      12
      12
      12
      12
      12
      12
      12
      12
      12
      12
      12
      12
      12
      12
      12
      12
      12
      12
      12
      12
      12
      12
      12
      12
      12
      12
      12
      12
      12
      12
      12
  
  
POINT_DATA       1950
  
SCALARS                  material_type  double 1
LOOKUP_TABLE default
                   2
                   2
                   2
                   2
                   2
                   2
                   2
                   2
                   2
                   2
                   2
                   2
                   2
                   2
                   2
                   2
                   2
                   2
                   2
                   2
                   2
                   2
                   2
                   2
                   2
                   2
                   2
                   2
                   2
                   2
                   2
                   2
                   2
                   2
                   2
                   2
                   2
                   2
                   2
                   2
                   2
                   2
                   2
                   2
                   2
                   2
                   2
                   2
                   2
                   2
                   2
                   2
                   2
                   2
                   2
                   2
                   2
                   2
                   2
                   2
                   2
                   2
                   2
                   2
                   2
                   2
                   2
                   2
                   2
                   2
                   2
                   2
                   2
                   2
                   2
                   2
                   2
                   2
                   2
                   2
                   2
                   2
                   2
                   2
                   2
                   2
                   2
                   2
                   2
                   2
                   2
                   2
                   2
                   2
                   2
                   2
                   2
                   2
                   2
                   2
                   2
                   2
                   2
                   2
                   2
                   2
                   2
                   2
                   2
                   2
                   2
                   2
                   2
                   2
                   2
                   2
                   2
                   2
                   2
                   2
                   2
                   2
                   2
                   2
                   2
                   2
                   2
                   2
                   2
                   2
                   2
                   2
                   2
                   2
                   2
                   2
                   2
                   2
                   2
                   2
                   2
                   2
                   2
                   2
                   2
                   2
                   2
                   2
                   2
                   2
                   2
                   2
                   2
                   2
                   2
                   2
                   2
                   2
                   2
                   2
                   2
                   2
                   2
                   2
                   2
                   2
                   2
                   2
                   2
                   2
                   2
                   2
                   2
                   2
                   2
                   2
                   2
                   2
                   2
                   2
                   2
                   2
                   2
                   2
                   2
                   2
                   2
                   2
                   2
                   2
                   2
                   2
                   2
                   2
                   2
                   2
                   2
                   2
                   2
                   2
                   2
                   2
                   2
                   2
                   2
                   2
                   2
                   2
                   2
                   2
                   2
                   2
                   2
                   2
                   2
                   2
                   2
                   2
                   2
                   2
                   2
                   2
                   2
                   2
                   2
                   2
                   2
                   2
                   2
                   2
                   2
                   2
                   2
                   2
                   2
                   2
                   2
                   2
                   2
                   2
                   2
                   2
                   2
                   2
                   2
                   2
                   2
                   2
                   2
                   2
                   2
                   2
                   2
                   2
                   2
                   2
                   2
                   2
                   2
                   2
                   2
                   2
                   2
                   2
                   2
                   2
                   2
                   2
                   2
                   2
                   2
                   2
                   2
                   2
                   2
                   2
                   2
                   2
                   2
                   2
                   2
                   2
                   2
                   2
                   2
                   2
                   2
                   2
                   2
                   2
                   2
                   2
                   2
                   2
                   2
                   2
                   2
                   2
                   2
                   2
                   2
                   2
                   2
                   2
                   2
                   2
                   2
                   2
                   2
                   2
                   2
                   2
                   2
                   2
                   2
                   2
                   2
                   2
                   2
                   2
                   2
                   2
                   2
                   2
                   2
                   2
                   2
                   2
                   2
                   2
                   2
                   2
                   2
                   2
                   2
                   2
                   2
                   2
                   2
                   2
                   2
                   2
                   2
                   2
                   2
                   2
                   2
                   2
                   2
                   2
                   2
                   2
                   2
                   2
                   2
                   2
                   2
                   2
                   2
                   2
                   2
                   2
                   2
                   2
                   2
                   2
                   2
                   2
                   2
                   2
                   2
                   2
                   2
                   2
                   2
                   2
                   2
                   2
                   2
                   2
                   2
                   2
                   2
                   2
                   2
                   2
                   2
                   2
                   2
                   2
                   2
                   2
                   2
                   2
                   2
                   2
                   2
                   2
                   2
                   2
                   2
                   2
                   2
                   2
                   2
                   2
                   2
                   2
                   2
                   2
                   2
                   2
                   2
                   2
                   2
                   2
                   2
                   2
                   2
                   2
                   2
                   2
                   2
                   2
                   2
                   2
                   2
                   2
                   2
                   2
                   2
                   2
                   2
                   2
                   2
                   2
                   2
                   2
                   2
                   2
                   2
                   2
                   2
                   2
                   2
                   2
                   2
                   2
                   2
                   2
                   2
                   2
                   2
                   2
                   2
                   2
                   2
                   2
                   2
                   2
                   2
                   2
                   2
                   2
                   2
                   2
                   2
                   2
                   2
                   2
                   2
                   2
                   2
                   2
                   2
                   2
                   2
                   2
                   2
                   2
                   2
                   2
                   2
                   2
                   2
                   2
                   2
                   2
                   2
                   2
                   2
                   2
                   2
                   2
                   2
                   2
                   2
                   2
                   2
                   2
                   2
                   2
                   2
                   2
                   2
                   2
                   2
                   2
                   2
                   2
                   2
                   2
                   2
                   2
                   2
                   2
                   2
                   2
                   2
                   2
                   2
                   2
                   2
                   2
                   2
                   2
                   2
                   2
                   2
                   2
                   2
                   2
                   2
                   2
                   2
                   2
                   2
                   2
                   2
                   2
                   2
                   2
                   2
                   2
                   2
                   2
                   2
                   2
                   2
                   2
                   2
                   2
                   2
                   2
                   2
                   2
                   2
                   2
                   2
                   2
                   2
                   2
                   2
                   2
                   2
                   2
                   2
                   2
                   2
                   2
                   2
                   2
                   2
                   2
                   2
                   2
                   2
                   2
                   2
                   2
                   2
                   2
                   2
                   2
                   2
                   2
                   2
                   2
                   2
                   2
                   2
                   2
                   2
                   2
                   2
                   2
                   2
                   2
                   2
                   2
                   2
                   2
                   2
                   2
                   2
                   2
                   2
                   2
                   2
                   2
                   2
                   2
                   2
                   2
                   2
                   2
                   2
                   2
                   2
                   2
                   2
                   2
                   2
                   2
                   2
                   2
                   2
                   2
                   2
                   2
                   2
                   2
                   2
                   2
                   2
                   2
                   2
                   2
                   2
                   2
                   2
                   2
                   2
                   2
                   2
                   2
                   2
                   2
                   2
                   2
                   2
                   2
                   2
                   2
                   2
                   2
                   2
                   2
                   2
                   2
                   2
                   2
                   2
                   2
                   2
                   2
                   2
                   2
                   2
                   2
                   2
                   2
                   2
                   2
                   2
                   2
                   2
                   2
                   2
                   2
                   2
                   2
                   2
                   2
                   2
                   2
                   2
                   2
                   2
                   2
                   2
                   2
                   2
                   2
                   2
                   2
                   2
                   2
                   2
                   2
                   2
                   2
                   2
                   2
                   2
                   2
                   2
                   2
                   2
                   2
                   2
                   2
                   2
                   2
                   2
                   2
                   2
                   2
                   2
                   2
                   2
                   2
                   2
                   2
                   2
                   2
                   2
                   2
                   2
                   2
                   2
                   2
                   2
                   2
                   2
                   2
                   2
                   2
                   2
                   2
                   2
                   2
                   2
                   2
                   2
                   2
                   2
                   2
                   2
                   2
                   2
                   2
                   2
                   2
                   2
                   2
                   2
                   2
                   2
                   2
                   2
                   2
                   2
                   2
                   2
                   2
                   2
                   2
                   2
                   2
                   2
                   2
                   2
                   2
                   2
                   2
                   2
                   2
                   2
                   2
                   2
                   2
                   2
                   2
                   2
                   2
                   2
                   2
                   2
                   2
                   2
                   2
                   2
                   2
                   2
                   2
                   2
                   2
                   2
                   2
                   2
                   2
                   2
                   2
                   2
                   2
                   2
                   2
                   2
                   2
                   2
                   2
                   2
                   2
                   2
                   2
                   2
                   2
                   2
                   2
                   2
                   2
                   2
                   2
                   2
                   2
                   2
                   2
                   2
                   2
                   2
                   2
                   2
                   2
                   2
                   2
                   2
                   2
                   2
                   2
                   2
                   2
                   2
                   2
                   2
                   2
                   2
                   2
                   2
                   2
                   2
                   2
                   2
                   2
                   2
                   2
                   2
                   2
                   2
                   2
                   2
                   2
                   2
                   2
                   2
                   2
                   2
                   2
                   2
                   2
                   2
                   2
                   2
                   2
                   2
                   2
                   2
                   2
                   2
                   2
                   2
                   2
                   2
                   2
                   2
                   2
                   2
                   2
                   2
                   2
                   2
                   2
                   2
                   2
                   2
                   2
                   2
                   2
                   2
                   2
                   2
                   2
                   2
                   2
                   2
                   2
                   2
                   2
                   2
                   2
                   2
                   2
                   2
                   2
                   2
                   2
                   2
                   2
                   2
                   2
                   2
                   2
                   2
                   2
                   2
                   2
                   2
                   2
                   2
                   2
                   2
                   2
                   2
                   2
                   2
                   2
                   2
                   2
                   2
                   2
                   2
                   2
                   2
                   2
                   2
                   2
                   2
                   2
                   2
                   2
                   2
                   2
                   2
                   2
                   2
                   2
                   2
                   2
                   2
                   2
                   2
                   2
                   2
                   2
                   2
                   2
                   2
                   2
                   2
                   2
                   2
                   2
                   2
                   2
                   2
                   2
                   2
                   2
                   2
                   2
                   2
                   2
                   2
                   2
                   2
                   2
                   2
                   2
                   2
                   2
                   2
                   2
                   2
                   2
                   2
                   2
                   2
                   2
                   2
                   2
                   2
                   2
                   2
                   2
                   2
                   2
                   2
                   2
                   2
                   2
                   2
                   2
                   2
                   2
                   2
                   2
                   2
                   2
                   2
                   2
                   2
                   2
                   2
                   2
                   2
                   2
                   2
                   2
                   2
                   2
                   2
                   2
                   2
                   2
                   2
                   2
                   2
                   2
                   2
                   2
                   2
                   2
                   2
                   2
                   2
                   2
                   2
                   2
                   2
                   2
                   2
                   2
                   2
                   2
                   2
                   2
                   2
                   2
                   2
                   2
                   2
                   2
                   2
                   2
                   2
                   2
                   2
                   2
                   2
                   2
                   2
                   2
                   2
                   2
                   2
                   2
                   2
                   2
                   2
                   2
                   2
                   2
                   2
                   2
                   2
                   2
                   2
                   2
                   2
                   2
                   2
                   2
                   2
                   2
                   2
                   2
                   2
                   2
                   2
                   2
                   2
                   2
                   2
                   2
                   2
                   2
                   2
                   2
                   2
                   2
                   2
                   2
                   2
                   2
                   2
                   2
                   2
                   2
                   2
                   2
                   2
                   2
                   2
                   2
                   2
                   2
                   2
                   2
                   2
                   2
                   2
                   2
                   2
                   2
                   2
                   2
                   2
                   2
                   2
                   2
                   2
                   2
                   2
                   2
                   2
                   2
                   2
                   2
                   2
                   2
                   2
                   2
                   2
                   2
                   2
                   2
                   2
                   2
                   2
                   2
                   2
                   2
                   2
                   2
                   2
                   2
                   2
                   2
                   2
                   2
                   2
                   2
                   2
                   2
                   2
                   2
                   2
                   2
                   2
                   2
                   2
                   2
                   2
                   2
                   2
                   2
                   2
                   2
                   2
                   2
                   2
                   2
                   2
                   2
                   2
                   2
                   2
                   2
                   2
                   2
                   2
                   2
                   2
                   2
                   2
                   2
                   2
                   2
                   2
                   2
                   2
                   2
                   2
                   2
                   2
                   2
                   2
                   2
                   2
                   2
                   2
                   2
                   2
                   2
                   2
                   2
                   2
                   2
                   2
                   2
                   2
                   2
                   2
                   2
                   2
                   2
                   2
                   2
                   2
                   2
                   2
                   2
                   2
                   2
                   2
                   2
                   2
                   2
                   2
                   2
                   2
                   2
                   2
                   2
                   2
                   2
                   2
                   2
                   2
                   2
                   2
                   2
                   2
                   2
                   2
                   2
                   2
                   2
                   2
                   2
                   2
                   2
                   2
                   2
                   2
                   2
                   2
                   2
                   2
                   2
                   2
                   2
                   2
                   2
                   2
                   2
                   2
                   2
                   2
                   2
                   2
                   2
                   2
                   2
                   2
                   2
                   2
                   2
                   2
                   2
                   2
                   2
                   2
                   2
                   2
                   2
                   2
                   2
                   2
                   2
                   2
                   2
                   2
                   2
                   2
                   2
                   2
                   2
                   2
                   2
                   2
                   2
                   2
                   2
                   2
                   2
                   2
                   2
                   2
                   2
                   2
                   2
                   2
                   2
                   2
                   2
                   2
                   2
                   2
                   2
                   2
                   2
                   2
                   2
                   2
                   2
                   2
                   2
                   2
                   2
                   2
                   2
                   2
                   2
                   2
                   2
                   2
                   2
                   2
                   2
                   2
                   2
                   2
                   2
                   2
                   2
                   2
                   2
                   2
                   2
                   2
                   2
                   2
                   2
                   2
                   2
                   2
                   2
                   2
                   2
                   2
                   2
                   2
                   2
                   2
                   2
                   2
                   2
                   2
                   2
                   2
                   2
                   2
                   2
                   2
                   2
                   2
                   2
                   2
                   2
                   2
                   2
                   2
                   2
                   2
                   2
                   2
                   2
                   2
                   2
                   2
                   2
                   2
                   2
                   2
                   2
                   2
                   2
                   2
                   2
                   2
                   2
                   2
                   2
                   2
                   2
                   2
                   2
                   2
                   2
                   2
                   2
                   2
                   2
                   2
                   2
                   2
                   2
                   2
                   2
                   2
                   2
                   2
                   2
                   2
                   2
                   2
                   2
                   2
                   2
                   2
                   2
                   2
                   2
                   2
                   2
                   2
                   2
                   2
                   2
                   2
                   2
                   2
                   2
                   2
                   2
                   2
                   2
                   2
                   2
                   2
                   2
                   2
                   2
                   2
                   2
                   2
                   2
                   2
                   2
                   2
                   2
                   2
                   2
                   2
                   2
                   2
                   2
                   2
                   2
                   2
                   2
                   2
                   2
                   2
                   2
                   2
                   2
                   2
                   2
                   2
                   2
                   2
                   2
                   2
                   2
                   2
                   2
                   2
                   2
                   2
                   2
                   2
                   2
                   2
                   2
                   2
                   2
                   2
                   2
                   2
                   2
                   2
                   2
                   2
                   2
                   2
                   2
                   2
                   2
                   2
                   2
                   2
                   2
                   2
                   2
                   2
                   2
                   2
                   2
                   2
                   2
                   2
                   2
                   2
                   2
                   2
                   2
                   2
                   2
                   2
                   2
                   2
                   2
                   2
                   2
                   2
                   2
                   2
                   2
                   2
                   2
                   2
                   2
                   2
                   2
                   2
                   2
                   2
                   2
                   2
                   2
                   2
                   2
                   2
                   2
                   2
                   2
                   2
                   2
                   2
                   2
                   2
                   2
                   2
                   2
                   2
                   2
                   2
                   2
                   2
                   2
                   2
                   2
                   2
                   2
                   2
                   2
                   2
                   2
                   2
                   2
                   2
                   2
                   2
                   2
                   2
                   2
                   2
                   2
                   2
                   2
                   2
                   2
                   2
                   2
                   2
                   2
                   2
                   2
                   2
                   2
                   2
                   2
                   2
                   2
                   2
                   2
                   2
                   2
                   2
                   2
                   2
                   2
                   2
                   2
                   2
                   2
                   2
                   2
                   2
                   2
                   2
                   2
                   2
                   2
                   2
                   2
                   2
                   2
                   2
                   2
                   2
                   2
                   2
                   2
                   2
                   2
                   2
                   2
                   2
                   2
                   2
                   2
                   2
                   2
                   2
                   2
                   2
                   2
                   2
                   2
                   2
                   2
                   2
                   2
                   2
                   2
                   2
                   2
                   2
                   2
                   2
                   2
                   2
                   2
                   2
                   2
                   2
                   2
                   2
                   2
                   2
                   2
                   2
                   2
                   2
                   2
                   2
                   2
                   2
                   2
                   2
                   2
                   2
                   2
                   2
                   2
                   2
                   2
                   2
                   2
                   2
                   2
                   2
                   2
                   2
                   2
                   2
                   2
                   2
                   2
                   2
                   2
                   2
                   2
                   2
                   2
                   2
                   2
                   2
                   2
                   2
                   2
                   2
                   2
                   2
                   2
                   2
                   2
                   2
                   2
                   2
                   2
                   2
                   2
                   2
                   2
                   2
                   2
                   2
                   2
                   2
                   2
                   2
                   2
                   2
                   2
                   2
                   2
                   2
                   2
                   2
                   2
                   2
                   2
                   2
                   2
                   2
                   2
                   2
                   2
                   2
                   2
                   2
                   2
                   2
                   2
                   2
                   2
                   2
                   2
                   2
                   2
                   2
                   2
                   2
                   2
                   2
                   2
                   2
                   2
                   2
                   2
                   2
                   2
                   2
                   2
                   2
                   2
                   2
                   2
                   2
                   2
                   2
                   2
                   2
                   2
                   2
                   2
                   2
                   2
                   2
                   2
                   2
                   2
                   2
                   2
                   2
                   2
                   2
                   2
                   2
                   2
                   2
                   2
                   2
                   2
                   2
                   2
                   2
                   2
                   2
                   2
                   2
                   2
                   2
                   2
                   2
                   2
                   2
                   2
                   2
                   2
                   2
                   2
                   2
                   2
                   2
                   2
                   2
                   2
                   2
                   2
                   2
                   2
                   2
                   2
                   2
                   2
                   2
                   2
                   2
                   2
                   2
                   2
                   2
                   2
                   2
                   2
                   2
                   2
                   2
                   2
                   2
                   2
                   2
                   2
                   2
                   2
                   2
                   2
                   2
                   2
                   2
                   2
                   2
                   2
                   2
                   2
                   2
                   2
                   2
                   2
                   2
                   2
                   2
                   2
                   2
                   2
                   2
                   2
                   2
                   2
                   2
                   2
                   2
                   2
                   2
                   2
                   2
                   2
                   2
                   2
                   2
                   2
                   2
                   2
                   2
                   2
                   2
                   2
                   2
                   2
                   2
                   2
                   2
                   2
                   2
                   2
                   2
                   2
                   2
                   2
                   2
                   2
                   2
                   2
                   2
                   2
                   2
                   2
                   2
                   2
                   2
                   2
                   2
                   2
                   2
                   2
  
SCALARS                        node_id  double 1
LOOKUP_TABLE default
                   1
                   2
                   3
                   4
                   5
                   6
                   7
                   8
                   9
                  10
                  11
                  12
                  13
                  14
                  15
                  16
                  17
                  18
                  19
                  20
                  21
                  22
                  23
                  24
                  25
                  26
                  27
                  28
                  29
                  30
                  31
                  32
                  33
                  34
                  35
                  36
                  37
                  38
                  39
                  40
                  41
                  42
                  43
                  44
                  45
                  46
                  47
                  48
                  49
                  50
                  51
                  52
                  53
                  54
                  55
                  56
                  57
                  58
                  59
                  60
                  61
                  62
                  63
                  64
                  65
                  66
                  67
                  68
                  69
                  70
                  71
                  72
                  73
                  74
                  75
                  76
                  77
                  78
                  79
                  80
                  81
                  82
                  83
                  84
                  85
                  86
                  87
                  88
                  89
                  90
                  91
                  92
                  93
                  94
                  95
                  96
                  97
                  98
                  99
                 100
                 101
                 102
                 103
                 104
                 105
                 106
                 107
                 108
                 109
                 110
                 111
                 112
                 113
                 114
                 115
                 116
                 117
                 118
                 119
                 120
                 121
                 122
                 123
                 124
                 125
                 126
                 127
                 128
                 129
                 130
                 131
                 132
                 133
                 134
                 135
                 136
                 137
                 138
                 139
                 140
                 141
                 142
                 143
                 144
                 145
                 146
                 147
                 148
                 149
                 150
                 151
                 152
                 153
                 154
                 155
                 156
                 157
                 158
                 159
                 160
                 161
                 162
                 163
                 164
                 165
                 166
                 167
                 168
                 169
                 170
                 171
                 172
                 173
                 174
                 175
                 176
                 177
                 178
                 179
                 180
                 181
                 182
                 183
                 184
                 185
                 186
                 187
                 188
                 189
                 190
                 191
                 192
                 193
                 194
                 195
                 196
                 197
                 198
                 199
                 200
                 201
                 202
                 203
                 204
                 205
                 206
                 207
                 208
                 209
                 210
                 211
                 212
                 213
                 214
                 215
                 216
                 217
                 218
                 219
                 220
                 221
                 222
                 223
                 224
                 225
                 226
                 227
                 228
                 229
                 230
                 231
                 232
                 233
                 234
                 235
                 236
                 237
                 238
                 239
                 240
                 241
                 242
                 243
                 244
                 245
                 246
                 247
                 248
                 249
                 250
                 251
                 252
                 253
                 254
                 255
                 256
                 257
                 258
                 259
                 260
                 261
                 262
                 263
                 264
                 265
                 266
                 267
                 268
                 269
                 270
                 271
                 272
                 273
                 274
                 275
                 276
                 277
                 278
                 279
                 280
                 281
                 282
                 283
                 284
                 285
                 286
                 287
                 288
                 289
                 290
                 291
                 292
                 293
                 294
                 295
                 296
                 297
                 298
                 299
                 300
                 301
                 302
                 303
                 304
                 305
                 306
                 307
                 308
                 309
                 310
                 311
                 312
                 313
                 314
                 315
                 316
                 317
                 318
                 319
                 320
                 321
                 322
                 323
                 324
                 325
                 326
                 327
                 328
                 329
                 330
                 331
                 332
                 333
                 334
                 335
                 336
                 337
                 338
                 339
                 340
                 341
                 342
                 343
                 344
                 345
                 346
                 347
                 348
                 349
                 350
                 351
                 352
                 353
                 354
                 355
                 356
                 357
                 358
                 359
                 360
                 361
                 362
                 363
                 364
                 365
                 366
                 367
                 368
                 369
                 370
                 371
                 372
                 373
                 374
                 375
                 376
                 377
                 378
                 379
                 380
                 381
                 382
                 383
                 384
                 385
                 386
                 387
                 388
                 389
                 390
                 391
                 392
                 393
                 394
                 395
                 396
                 397
                 398
                 399
                 400
                 401
                 402
                 403
                 404
                 405
                 406
                 407
                 408
                 409
                 410
                 411
                 412
                 413
                 414
                 415
                 416
                 417
                 418
                 419
                 420
                 421
                 422
                 423
                 424
                 425
                 426
                 427
                 428
                 429
                 430
                 431
                 432
                 433
                 434
                 435
                 436
                 437
                 438
                 439
                 440
                 441
                 442
                 443
                 444
                 445
                 446
                 447
                 448
                 449
                 450
                 451
                 452
                 453
                 454
                 455
                 456
                 457
                 458
                 459
                 460
                 461
                 462
                 463
                 464
                 465
                 466
                 467
                 468
                 469
                 470
                 471
                 472
                 473
                 474
                 475
                 476
                 477
                 478
                 479
                 480
                 481
                 482
                 483
                 484
                 485
                 486
                 487
                 488
                 489
                 490
                 491
                 492
                 493
                 494
                 495
                 496
                 497
                 498
                 499
                 500
                 501
                 502
                 503
                 504
                 505
                 506
                 507
                 508
                 509
                 510
                 511
                 512
                 513
                 514
                 515
                 516
                 517
                 518
                 519
                 520
                 521
                 522
                 523
                 524
                 525
                 526
                 527
                 528
                 529
                 530
                 531
                 532
                 533
                 534
                 535
                 536
                 537
                 538
                 539
                 540
                 541
                 542
                 543
                 544
                 545
                 546
                 547
                 548
                 549
                 550
                 551
                 552
                 553
                 554
                 555
                 556
                 557
                 558
                 559
                 560
                 561
                 562
                 563
                 564
                 565
                 566
                 567
                 568
                 569
                 570
                 571
                 572
                 573
                 574
                 575
                 576
                 577
                 578
                 579
                 580
                 581
                 582
                 583
                 584
                 585
                 586
                 587
                 588
                 589
                 590
                 591
                 592
                 593
                 594
                 595
                 596
                 597
                 598
                 599
                 600
                 601
                 602
                 603
                 604
                 605
                 606
                 607
                 608
                 609
                 610
                 611
                 612
                 613
                 614
                 615
                 616
                 617
                 618
                 619
                 620
                 621
                 622
                 623
                 624
                 625
                 626
                 627
                 628
                 629
                 630
                 631
                 632
                 633
                 634
                 635
                 636
                 637
                 638
                 639
                 640
                 641
                 642
                 643
                 644
                 645
                 646
                 647
                 648
                 649
                 650
                 651
                 652
                 653
                 654
                 655
                 656
                 657
                 658
                 659
                 660
                 661
                 662
                 663
                 664
                 665
                 666
                 667
                 668
                 669
                 670
                 671
                 672
                 673
                 674
                 675
                 676
                 677
                 678
                 679
                 680
                 681
                 682
                 683
                 684
                 685
                 686
                 687
                 688
                 689
                 690
                 691
                 692
                 693
                 694
                 695
                 696
                 697
                 698
                 699
                 700
                 701
                 702
                 703
                 704
                 705
                 706
                 707
                 708
                 709
                 710
                 711
                 712
                 713
                 714
                 715
                 716
                 717
                 718
                 719
                 720
                 721
                 722
                 723
                 724
                 725
                 726
                 727
                 728
                 729
                 730
                 731
                 732
                 733
                 734
                 735
                 736
                 737
                 738
                 739
                 740
                 741
                 742
                 743
                 744
                 745
                 746
                 747
                 748
                 749
                 750
                 751
                 752
                 753
                 754
                 755
                 756
                 757
                 758
                 759
                 760
                 761
                 762
                 763
                 764
                 765
                 766
                 767
                 768
                 769
                 770
                 771
                 772
                 773
                 774
                 775
                 776
                 777
                 778
                 779
                 780
                 781
                 782
                 783
                 784
                 785
                 786
                 787
                 788
                 789
                 790
                 791
                 792
                 793
                 794
                 795
                 796
                 797
                 798
                 799
                 800
                 801
                 802
                 803
                 804
                 805
                 806
                 807
                 808
                 809
                 810
                 811
                 812
                 813
                 814
                 815
                 816
                 817
                 818
                 819
                 820
                 821
                 822
                 823
                 824
                 825
                 826
                 827
                 828
                 829
                 830
                 831
                 832
                 833
                 834
                 835
                 836
                 837
                 838
                 839
                 840
                 841
                 842
                 843
                 844
                 845
                 846
                 847
                 848
                 849
                 850
                 851
                 852
                 853
                 854
                 855
                 856
                 857
                 858
                 859
                 860
                 861
                 862
                 863
                 864
                 865
                 866
                 867
                 868
                 869
                 870
                 871
                 872
                 873
                 874
                 875
                 876
                 877
                 878
                 879
                 880
                 881
                 882
                 883
                 884
                 885
                 886
                 887
                 888
                 889
                 890
                 891
                 892
                 893
                 894
                 895
                 896
                 897
                 898
                 899
                 900
                 901
                 902
                 903
                 904
                 905
                 906
                 907
                 908
                 909
                 910
                 911
                 912
                 913
                 914
                 915
                 916
                 917
                 918
                 919
                 920
                 921
                 922
                 923
                 924
                 925
                 926
                 927
                 928
                 929
                 930
                 931
                 932
                 933
                 934
                 935
                 936
                 937
                 938
                 939
                 940
                 941
                 942
                 943
                 944
                 945
                 946
                 947
                 948
                 949
                 950
                 951
                 952
                 953
                 954
                 955
                 956
                 957
                 958
                 959
                 960
                 961
                 962
                 963
                 964
                 965
                 966
                 967
                 968
                 969
                 970
                 971
                 972
                 973
                 974
                 975
                 976
                 977
                 978
                 979
                 980
                 981
                 982
                 983
                 984
                 985
                 986
                 987
                 988
                 989
                 990
                 991
                 992
                 993
                 994
                 995
                 996
                 997
                 998
                 999
                1000
                1001
                1002
                1003
                1004
                1005
                1006
                1007
                1008
                1009
                1010
                1011
                1012
                1013
                1014
                1015
                1016
                1017
                1018
                1019
                1020
                1021
                1022
                1023
                1024
                1025
                1026
                1027
                1028
                1029
                1030
                1031
                1032
                1033
                1034
                1035
                1036
                1037
                1038
                1039
                1040
                1041
                1042
                1043
                1044
                1045
                1046
                1047
                1048
                1049
                1050
                1051
                1052
                1053
                1054
                1055
                1056
                1057
                1058
                1059
                1060
                1061
                1062
                1063
                1064
                1065
                1066
                1067
                1068
                1069
                1070
                1071
                1072
                1073
                1074
                1075
                1076
                1077
                1078
                1079
                1080
                1081
                1082
                1083
                1084
                1085
                1086
                1087
                1088
                1089
                1090
                1091
                1092
                1093
                1094
                1095
                1096
                1097
                1098
                1099
                1100
                1101
                1102
                1103
                1104
                1105
                1106
                1107
                1108
                1109
                1110
                1111
                1112
                1113
                1114
                1115
                1116
                1117
                1118
                1119
                1120
                1121
                1122
                1123
                1124
                1125
                1126
                1127
                1128
                1129
                1130
                1131
                1132
                1133
                1134
                1135
                1136
                1137
                1138
                1139
                1140
                1141
                1142
                1143
                1144
                1145
                1146
                1147
                1148
                1149
                1150
                1151
                1152
                1153
                1154
                1155
                1156
                1157
                1158
                1159
                1160
                1161
                1162
                1163
                1164
                1165
                1166
                1167
                1168
                1169
                1170
                1171
                1172
                1173
                1174
                1175
                1176
                1177
                1178
                1179
                1180
                1181
                1182
                1183
                1184
                1185
                1186
                1187
                1188
                1189
                1190
                1191
                1192
                1193
                1194
                1195
                1196
                1197
                1198
                1199
                1200
                1201
                1202
                1203
                1204
                1205
                1206
                1207
                1208
                1209
                1210
                1211
                1212
                1213
                1214
                1215
                1216
                1217
                1218
                1219
                1220
                1221
                1222
                1223
                1224
                1225
                1226
                1227
                1228
                1229
                1230
                1231
                1232
                1233
                1234
                1235
                1236
                1237
                1238
                1239
                1240
                1241
                1242
                1243
                1244
                1245
                1246
                1247
                1248
                1249
                1250
                1251
                1252
                1253
                1254
                1255
                1256
                1257
                1258
                1259
                1260
                1261
                1262
                1263
                1264
                1265
                1266
                1267
                1268
                1269
                1270
                1271
                1272
                1273
                1274
                1275
                1276
                1277
                1278
                1279
                1280
                1281
                1282
                1283
                1284
                1285
                1286
                1287
                1288
                1289
                1290
                1291
                1292
                1293
                1294
                1295
                1296
                1297
                1298
                1299
                1300
                1301
                1302
                1303
                1304
                1305
                1306
                1307
                1308
                1309
                1310
                1311
                1312
                1313
                1314
                1315
                1316
                1317
                1318
                1319
                1320
                1321
                1322
                1323
                1324
                1325
                1326
                1327
                1328
                1329
                1330
                1331
                1332
                1333
                1334
                1335
                1336
                1337
                1338
                1339
                1340
                1341
                1342
                1343
                1344
                1345
                1346
                1347
                1348
                1349
                1350
                1351
                1352
                1353
                1354
                1355
                1356
                1357
                1358
                1359
                1360
                1361
                1362
                1363
                1364
                1365
                1366
                1367
                1368
                1369
                1370
                1371
                1372
                1373
                1374
                1375
                1376
                1377
                1378
                1379
                1380
                1381
                1382
                1383
                1384
                1385
                1386
                1387
                1388
                1389
                1390
                1391
                1392
                1393
                1394
                1395
                1396
                1397
                1398
                1399
                1400
                1401
                1402
                1403
                1404
                1405
                1406
                1407
                1408
                1409
                1410
                1411
                1412
                1413
                1414
                1415
                1416
                1417
                1418
                1419
                1420
                1421
                1422
                1423
                1424
                1425
                1426
                1427
                1428
                1429
                1430
                1431
                1432
                1433
                1434
                1435
                1436
                1437
                1438
                1439
                1440
                1441
                1442
                1443
                1444
                1445
                1446
                1447
                1448
                1449
                1450
                1451
                1452
                1453
                1454
                1455
                1456
                1457
                1458
                1459
                1460
                1461
                1462
                1463
                1464
                1465
                1466
                1467
                1468
                1469
                1470
                1471
                1472
                1473
                1474
                1475
                1476
                1477
                1478
                1479
                1480
                1481
                1482
                1483
                1484
                1485
                1486
                1487
                1488
                1489
                1490
                1491
                1492
                1493
                1494
                1495
                1496
                1497
                1498
                1499
                1500
                1501
                1502
                1503
                1504
                1505
                1506
                1507
                1508
                1509
                1510
                1511
                1512
                1513
                1514
                1515
                1516
                1517
                1518
                1519
                1520
                1521
                1522
                1523
                1524
                1525
                1526
                1527
                1528
                1529
                1530
                1531
                1532
                1533
                1534
                1535
                1536
                1537
                1538
                1539
                1540
                1541
                1542
                1543
                1544
                1545
                1546
                1547
                1548
                1549
                1550
                1551
                1552
                1553
                1554
                1555
                1556
                1557
                1558
                1559
                1560
                1561
                1562
                1563
                1564
                1565
                1566
                1567
                1568
                1569
                1570
                1571
                1572
                1573
                1574
                1575
                1576
                1577
                1578
                1579
                1580
                1581
                1582
                1583
                1584
                1585
                1586
                1587
                1588
                1589
                1590
                1591
                1592
                1593
                1594
                1595
                1596
                1597
                1598
                1599
                1600
                1601
                1602
                1603
                1604
                1605
                1606
                1607
                1608
                1609
                1610
                1611
                1612
                1613
                1614
                1615
                1616
                1617
                1618
                1619
                1620
                1621
                1622
                1623
                1624
                1625
                1626
                1627
                1628
                1629
                1630
                1631
                1632
                1633
                1634
                1635
                1636
                1637
                1638
                1639
                1640
                1641
                1642
                1643
                1644
                1645
                1646
                1647
                1648
                1649
                1650
                1651
                1652
                1653
                1654
                1655
                1656
                1657
                1658
                1659
                1660
                1661
                1662
                1663
                1664
                1665
                1666
                1667
                1668
                1669
                1670
                1671
                1672
                1673
                1674
                1675
                1676
                1677
                1678
                1679
                1680
                1681
                1682
                1683
                1684
                1685
                1686
                1687
                1688
                1689
                1690
                1691
                1692
                1693
                1694
                1695
                1696
                1697
                1698
                1699
                1700
                1701
                1702
                1703
                1704
                1705
                1706
                1707
                1708
                1709
                1710
                1711
                1712
                1713
                1714
                1715
                1716
                1717
                1718
                1719
                1720
                1721
                1722
                1723
                1724
                1725
                1726
                1727
                1728
                1729
                1730
                1731
                1732
                1733
                1734
                1735
                1736
                1737
                1738
                1739
                1740
                1741
                1742
                1743
                1744
                1745
                1746
                1747
                1748
                1749
                1750
                1751
                1752
                1753
                1754
                1755
                1756
                1757
                1758
                1759
                1760
                1761
                1762
                1763
                1764
                1765
                1766
                1767
                1768
                1769
                1770
                1771
                1772
                1773
                1774
                1775
                1776
                1777
                1778
                1779
                1780
                1781
                1782
                1783
                1784
                1785
                1786
                1787
                1788
                1789
                1790
                1791
                1792
                1793
                1794
                1795
                1796
                1797
                1798
                1799
                1800
                1801
                1802
                1803
                1804
                1805
                1806
                1807
                1808
                1809
                1810
                1811
                1812
                1813
                1814
                1815
                1816
                1817
                1818
                1819
                1820
                1821
                1822
                1823
                1824
                1825
                1826
                1827
                1828
                1829
                1830
                1831
                1832
                1833
                1834
                1835
                1836
                1837
                1838
                1839
                1840
                1841
                1842
                1843
                1844
                1845
                1846
                1847
                1848
                1849
                1850
                1851
                1852
                1853
                1854
                1855
                1856
                1857
                1858
                1859
                1860
                1861
                1862
                1863
                1864
                1865
                1866
                1867
                1868
                1869
                1870
                1871
                1872
                1873
                1874
                1875
                1876
                1877
                1878
                1879
                1880
                1881
                1882
                1883
                1884
                1885
                1886
                1887
                1888
                1889
                1890
                1891
                1892
                1893
                1894
                1895
                1896
                1897
                1898
                1899
                1900
                1901
                1902
                1903
                1904
                1905
                1906
                1907
                1908
                1909
                1910
                1911
                1912
                1913
                1914
                1915
                1916
                1917
                1918
                1919
                1920
                1921
                1922
                1923
                1924
                1925
                1926
                1927
                1928
                1929
                1930
                1931
                1932
                1933
                1934
                1935
                1936
                1937
                1938
                1939
                1940
                1941
                1942
                1943
                1944
                1945
                1946
                1947
                1948
                1949
                1950
  
SCALARS                         bodyid  double 1
LOOKUP_TABLE default
                   1
                   1
                   1
                   1
                   1
                   1
                   1
                   1
                   1
                   1
                   1
                   1
                   1
                   1
                   1
                   1
                   1
                   1
                   1
                   1
                   1
                   1
                   1
                   1
                   1
                   1
                   1
                   1
                   1
                   1
                   1
                   1
                   1
                   1
                   1
                   1
                   1
                   1
                   1
                   1
                   1
                   1
                   1
                   1
                   1
                   1
                   1
                   1
                   1
                   1
                   1
                   1
                   1
                   1
                   1
                   1
                   1
                   1
                   1
                   1
                   1
                   1
                   1
                   1
                   1
                   1
                   1
                   1
                   1
                   1
                   1
                   1
                   1
                   1
                   1
                   1
                   1
                   1
                   1
                   1
                   1
                   1
                   1
                   1
                   1
                   1
                   1
                   1
                   1
                   1
                   1
                   1
                   1
                   1
                   1
                   1
                   1
                   1
                   1
                   1
                   1
                   1
                   1
                   1
                   1
                   1
                   1
                   1
                   1
                   1
                   1
                   1
                   1
                   1
                   1
                   1
                   1
                   1
                   1
                   1
                   1
                   1
                   1
                   1
                   1
                   1
                   1
                   1
                   1
                   1
                   1
                   1
                   1
                   1
                   1
                   1
                   1
                   1
                   1
                   1
                   1
                   1
                   1
                   1
                   1
                   1
                   1
                   1
                   1
                   1
                   1
                   1
                   1
                   1
                   1
                   1
                   1
                   1
                   1
                   1
                   1
                   1
                   1
                   1
                   1
                   1
                   1
                   1
                   1
                   1
                   1
                   1
                   1
                   1
                   1
                   1
                   1
                   1
                   1
                   1
                   1
                   1
                   1
                   1
                   1
                   1
                   1
                   1
                   1
                   1
                   1
                   1
                   1
                   1
                   1
                   1
                   1
                   1
                   1
                   1
                   1
                   1
                   1
                   1
                   1
                   1
                   1
                   1
                   1
                   1
                   1
                   1
                   1
                   1
                   1
                   1
                   1
                   1
                   1
                   1
                   1
                   1
                   1
                   1
                   1
                   1
                   1
                   1
                   1
                   1
                   1
                   1
                   1
                   1
                   1
                   1
                   1
                   1
                   1
                   1
                   1
                   1
                   1
                   1
                   1
                   1
                   1
                   1
                   1
                   1
                   1
                   1
                   1
                   1
                   1
                   1
                   1
                   1
                   1
                   1
                   1
                   1
                   1
                   1
                   1
                   1
                   1
                   1
                   1
                   1
                   1
                   1
                   1
                   1
                   1
                   1
                   1
                   1
                   1
                   1
                   1
                   1
                   1
                   1
                   1
                   1
                   1
                   1
                   1
                   1
                   1
                   1
                   1
                   1
                   1
                   1
                   1
                   1
                   1
                   1
                   1
                   1
                   1
                   1
                   1
                   1
                   1
                   1
                   1
                   1
                   1
                   1
                   1
                   1
                   1
                   1
                   1
                   1
                   1
                   1
                   1
                   1
                   1
                   1
                   1
                   1
                   1
                   1
                   1
                   1
                   1
                   1
                   1
                   1
                   1
                   1
                   1
                   1
                   1
                   1
                   1
                   1
                   1
                   1
                   1
                   1
                   1
                   1
                   1
                   1
                   1
                   1
                   1
                   1
                   1
                   1
                   1
                   1
                   1
                   1
                   1
                   1
                   1
                   1
                   1
                   1
                   1
                   1
                   1
                   1
                   1
                   1
                   1
                   1
                   1
                   1
                   1
                   1
                   1
                   1
                   1
                   1
                   1
                   1
                   1
                   1
                   1
                   1
                   1
                   1
                   1
                   1
                   1
                   1
                   1
                   1
                   1
                   1
                   1
                   1
                   1
                   1
                   1
                   1
                   1
                   1
                   1
                   1
                   1
                   1
                   1
                   1
                   1
                   1
                   1
                   1
                   1
                   1
                   1
                   1
                   1
                   1
                   1
                   1
                   1
                   1
                   1
                   1
                   1
                   1
                   1
                   1
                   1
                   1
                   1
                   1
                   1
                   1
                   1
                   1
                   1
                   1
                   1
                   1
                   1
                   1
                   1
                   1
                   1
                   1
                   1
                   1
                   1
                   1
                   1
                   1
                   1
                   1
                   1
                   1
                   1
                   1
                   1
                   1
                   1
                   1
                   1
                   1
                   1
                   1
                   1
                   1
                   1
                   1
                   1
                   1
                   1
                   1
                   1
                   1
                   1
                   1
                   1
                   1
                   1
                   1
                   1
                   1
                   1
                   1
                   1
                   1
                   1
                   1
                   1
                   1
                   1
                   1
                   1
                   1
                   1
                   1
                   1
                   1
                   1
                   1
                   1
                   1
                   1
                   1
                   1
                   1
                   1
                   1
                   1
                   1
                   1
                   1
                   1
                   1
                   1
                   1
                   1
                   1
                   1
                   1
                   1
                   1
                   1
                   1
                   1
                   1
                   1
                   1
                   1
                   1
                   1
                   1
                   1
                   1
                   1
                   1
                   1
                   1
                   1
                   1
                   1
                   1
                   1
                   1
                   1
                   1
                   1
                   1
                   1
                   1
                   1
                   1
                   1
                   1
                   1
                   1
                   1
                   1
                   1
                   1
                   1
                   1
                   1
                   1
                   1
                   1
                   1
                   1
                   1
                   1
                   1
                   1
                   1
                   1
                   1
                   1
                   1
                   1
                   1
                   1
                   1
                   1
                   1
                   1
                   1
                   1
                   1
                   1
                   1
                   1
                   1
                   1
                   1
                   1
                   1
                   1
                   1
                   1
                   1
                   1
                   1
                   1
                   1
                   1
                   1
                   1
                   1
                   1
                   1
                   1
                   1
                   1
                   1
                   1
                   1
                   1
                   1
                   1
                   1
                   1
                   1
                   1
                   1
                   1
                   1
                   1
                   1
                   1
                   1
                   1
                   1
                   1
                   1
                   1
                   1
                   1
                   1
                   1
                   1
                   1
                   1
                   1
                   1
                   1
                   1
                   1
                   1
                   1
                   1
                   1
                   1
                   1
                   1
                   1
                   1
                   1
                   1
                   1
                   1
                   1
                   1
                   1
                   1
                   1
                   1
                   1
                   1
                   1
                   1
                   1
                   1
                   1
                   1
                   1
                   1
                   1
                   1
                   1
                   1
                   1
                   1
                   1
                   1
                   1
                   1
                   1
                   1
                   1
                   1
                   1
                   1
                   1
                   1
                   1
                   1
                   1
                   1
                   1
                   1
                   1
                   1
                   1
                   1
                   1
                   1
                   1
                   1
                   1
                   1
                   1
                   1
                   1
                   1
                   1
                   1
                   1
                   1
                   1
                   1
                   1
                   1
                   1
                   1
                   1
                   1
                   1
                   1
                   1
                   1
                   1
                   1
                   1
                   1
                   1
                   1
                   1
                   1
                   1
                   1
                   1
                   1
                   1
                   1
                   1
                   1
                   1
                   1
                   1
                   1
                   1
                   1
                   1
                   1
                   1
                   1
                   1
                   1
                   1
                   1
                   1
                   1
                   1
                   1
                   1
                   1
                   1
                   1
                   1
                   1
                   1
                   1
                   1
                   1
                   1
                   1
                   1
                   1
                   1
                   1
                   1
                   1
                   1
                   1
                   1
                   1
                   1
                   1
                   1
                   1
                   1
                   1
                   1
                   1
                   1
                   1
                   1
                   1
                   1
                   1
                   1
                   1
                   1
                   1
                   1
                   1
                   1
                   1
                   1
                   1
                   1
                   1
                   1
                   1
                   1
                   1
                   1
                   1
                   1
                   1
                   1
                   1
                   1
                   1
                   1
                   1
                   1
                   1
                   1
                   1
                   1
                   1
                   1
                   1
                   1
                   1
                   1
                   1
                   1
                   1
                   1
                   1
                   1
                   1
                   1
                   1
                   1
                   1
                   1
                   1
                   1
                   1
                   1
                   1
                   1
                   1
                   1
                   1
                   1
                   1
                   1
                   1
                   1
                   1
                   1
                   1
                   1
                   1
                   1
                   1
                   1
                   1
                   1
                   1
                   1
                   1
                   1
                   1
                   1
                   1
                   1
                   1
                   1
                   1
                   1
                   1
                   1
                   1
                   1
                   1
                   1
                   1
                   1
                   1
                   1
                   1
                   1
                   1
                   1
                   1
                   1
                   1
                   1
                   1
                   1
                   1
                   1
                   1
                   1
                   1
                   1
                   1
                   1
                   1
                   1
                   1
                   1
                   1
                   1
                   1
                   1
                   1
                   1
                   1
                   1
                   1
                   1
                   1
                   1
                   1
                   1
                   1
                   1
                   1
                   1
                   1
                   1
                   1
                   1
                   1
                   1
                   1
                   1
                   1
                   1
                   1
                   1
                   1
                   1
                   1
                   1
                   1
                   1
                   1
                   1
                   1
                   1
                   1
                   1
                   1
                   1
                   1
                   1
                   1
                   1
                   1
                   1
                   1
                   1
                   1
                   1
                   1
                   1
                   1
                   1
                   1
                   1
                   1
                   1
                   1
                   1
                   1
                   1
                   1
                   1
                   1
                   1
                   1
                   1
                   1
                   1
                   1
                   1
                   1
                   1
                   1
                   1
                   1
                   1
                   1
                   1
                   1
                   1
                   1
                   1
                   1
                   1
                   1
                   1
                   1
                   1
                   1
                   1
                   1
                   1
                   1
                   1
                   1
                   1
                   1
                   1
                   1
                   1
                   1
                   1
                   1
                   1
                   1
                   1
                   1
                   1
                   1
                   1
                   1
                   1
                   1
                   1
                   1
                   1
                   1
                   1
                   1
                   1
                   1
                   1
                   1
                   1
                   1
                   1
                   1
                   1
                   1
                   1
                   1
                   1
                   1
                   1
                   1
                   1
                   1
                   1
                   1
                   1
                   1
                   1
                   1
                   1
                   1
                   1
                   1
                   1
                   1
                   1
                   1
                   1
                   1
                   1
                   1
                   1
                   1
                   1
                   1
                   1
                   1
                   1
                   1
                   1
                   1
                   1
                   1
                   1
                   1
                   1
                   1
                   1
                   1
                   1
                   1
                   1
                   1
                   1
                   1
                   1
                   1
                   1
                   1
                   1
                   1
                   1
                   1
                   1
                   1
                   1
                   1
                   1
                   1
                   1
                   1
                   1
                   1
                   1
                   1
                   1
                   1
                   1
                   1
                   1
                   1
                   1
                   1
                   1
                   1
                   1
                   1
                   1
                   1
                   1
                   1
                   1
                   1
                   1
                   1
                   1
                   1
                   1
                   1
                   1
                   1
                   1
                   1
                   1
                   1
                   1
                   1
                   1
                   1
                   1
                   1
                   1
                   1
                   1
                   1
                   1
                   1
                   1
                   1
                   1
                   1
                   1
                   1
                   1
                   1
                   1
                   1
                   1
                   1
                   1
                   1
                   1
                   1
                   1
                   1
                   1
                   1
                   1
                   1
                   1
                   1
                   1
                   1
                   1
                   1
                   1
                   1
                   1
                   1
                   1
                   1
                   1
                   1
                   1
                   1
                   1
                   1
                   1
                   1
                   1
                   1
                   1
                   1
                   1
                   1
                   1
                   1
                   1
                   1
                   1
                   1
                   1
                   1
                   1
                   1
                   1
                   1
                   1
                   1
                   1
                   1
                   1
                   1
                   1
                   1
                   1
                   1
                   1
                   1
                   1
                   1
                   1
                   1
                   1
                   1
                   1
                   1
                   1
                   1
                   1
                   1
                   1
                   1
                   1
                   1
                   1
                   1
                   1
                   1
                   1
                   1
                   1
                   1
                   1
                   1
                   1
                   1
                   1
                   1
                   1
                   1
                   1
                   1
                   1
                   1
                   1
                   1
                   1
                   1
                   1
                   1
                   1
                   1
                   1
                   1
                   1
                   1
                   1
                   1
                   1
                   1
                   1
                   1
                   1
                   1
                   1
                   1
                   1
                   1
                   1
                   1
                   1
                   1
                   1
                   1
                   1
                   1
                   1
                   1
                   1
                   1
                   1
                   1
                   1
                   1
                   1
                   1
                   1
                   1
                   1
                   1
                   1
                   1
                   1
                   1
                   1
                   1
                   1
                   1
                   1
                   1
                   1
                   1
                   1
                   1
                   1
                   1
                   1
                   1
                   1
                   1
                   1
                   1
                   1
                   1
                   1
                   1
                   1
                   1
                   1
                   1
                   1
                   1
                   1
                   1
                   1
                   1
                   1
                   1
                   1
                   1
                   1
                   1
                   1
                   1
                   1
                   1
                   1
                   1
                   1
                   1
                   1
                   1
                   1
                   1
                   1
                   1
                   1
                   1
                   1
                   1
                   1
                   1
                   1
                   1
                   1
                   1
                   1
                   1
                   1
                   1
                   1
                   1
                   1
                   1
                   1
                   1
                   1
                   1
                   1
                   1
                   1
                   1
                   1
                   1
                   1
                   1
                   1
                   1
                   1
                   1
                   1
                   1
                   1
                   1
                   1
                   1
                   1
                   1
                   1
                   1
                   1
                   1
                   1
                   1
                   1
                   1
                   1
                   1
                   1
                   1
                   1
                   1
                   1
                   1
                   1
                   1
                   1
                   1
                   1
                   1
                   1
                   1
                   1
                   1
                   1
                   1
                   1
                   1
                   1
                   1
                   1
                   1
                   1
                   1
                   1
                   1
                   1
                   1
                   1
                   1
                   1
                   1
                   1
                   1
                   1
                   1
                   1
                   1
                   1
                   1
                   1
                   1
                   1
                   1
                   1
                   1
                   1
                   1
                   1
                   1
                   1
                   1
                   1
                   1
                   1
                   1
                   1
                   1
                   1
                   1
                   1
                   1
                   1
                   1
                   1
                   1
                   1
                   1
                   1
                   1
                   1
                   1
                   1
                   1
                   1
                   1
                   1
                   1
                   1
                   1
                   1
                   1
                   1
                   1
                   1
                   1
                   1
                   1
                   1
                   1
                   1
                   1
                   1
                   1
                   1
                   1
                   1
                   1
                   1
                   1
                   1
                   1
                   1
                   1
                   1
                   1
                   1
                   1
                   1
                   1
                   1
                   1
                   1
                   1
                   1
                   1
                   1
                   1
                   1
                   1
                   1
                   1
                   1
                   1
                   1
                   1
                   1
                   1
                   1
                   1
                   1
                   1
                   1
                   1
                   1
                   1
                   1
                   1
                   1
                   1
                   1
                   1
                   1
                   1
                   1
                   1
                   1
                   1
                   1
                   1
                   1
                   1
                   1
                   1
                   1
                   1
                   1
                   1
                   1
                   1
                   1
                   1
                   1
                   1
                   1
                   1
                   1
                   1
                   1
                   1
                   1
                   1
                   1
                   1
                   1
                   1
                   1
                   1
                   1
                   1
                   1
                   1
                   1
                   1
                   1
                   1
                   1
                   1
                   1
                   1
                   1
                   1
                   1
                   1
                   1
                   1
                   1
                   1
                   1
                   1
                   1
                   1
                   1
                   1
                   1
                   1
                   1
                   1
                   1
                   1
                   1
                   1
                   1
                   1
                   1
                   1
                   1
                   1
                   1
                   1
                   1
                   1
                   1
                   1
                   1
                   1
                   1
                   1
                   1
                   1
                   1
                   1
                   1
                   1
                   1
                   1
                   1
                   1
                   1
                   1
                   1
                   1
                   1
                   1
                   1
                   1
                   1
                   1
                   1
                   1
                   1
                   1
                   1
                   1
                   1
                   1
                   1
                   1
                   1
                   1
                   1
                   1
                   1
                   1
                   1
                   1
                   1
                   1
                   1
                   1
                   1
                   1
                   1
                   1
                   1
                   1
                   1
                   1
                   1
                   1
                   1
                   1
                   1
                   1
                   1
                   1
                   1
                   1
                   1
                   1
                   1
                   1
                   1
                   1
                   1
                   1
                   1
                   1
                   1
                   1
                   1
                   1
                   1
                   1
                   1
                   1
                   1
                   1
                   1
                   1
                   1
                   1
                   1
                   1
                   1
                   1
                   1
                   1
                   1
                   1
                   1
                   1
                   1
                   1
                   1
                   1
                   1
                   1
                   1
                   1
                   1
                   1
                   1
                   1
                   1
                   1
                   1
                   1
                   1
                   1
                   1
                   1
                   1
                   1
                   1
                   1
                   1
                   1
                   1
                   1
                   1
                   1
                   1
                   1
                   1
                   1
                   1
                   1
                   1
                   1
                   1
                   1
                   1
                   1
                   1
                   1
                   1
                   1
                   1
                   1
                   1
                   1
                   1
                   1
                   1
                   1
                   1
                   1
                   1
                   1
                   1
                   1
                   1
                   1
                   1
                   1
                   1
                   1
                   1
                   1
                   1
                   1
                   1
                   1
                   1
                   1
                   1
                   1
                   1
                   1
                   1
                   1
                   1
                   1
                   1
                   1
                   1
                   1
                   1
                   1
                   1
                   1
                   1
                   1
                   1
                   1
                   1
                   1
                   1
                   1
                   1
                   1
                   1
                   1
                   1
                   1
                   1
                   1
                   1
                   1
                   1
                   1
                   1
                   1
                   1
                   1
                   1
                   1
                   1
                   1
                   1
                   1
                   1
                   1
                   1
                   1
                   1
                   1
                   1
                   1
                   1
                   1
                   1
                   1
                   1
                   1
                   1
                   1
                   1
                   1
                   1
                   1
                   1
                   1
                   1
                   1
                   1
                   1
                   1
                   1
                   1
                   1
                   1
                   1
                   1
                   1
                   1
                   1
                   1
                   1
                   1
                   1
                   1
                   1
                   1
                   1
                   1
                   1
                   1
                   1
                   1
                   1
                   1
                   1
                   1
                   1
                   1
                   1
                   1
                   1
                   1
                   1
                   1
                   1
                   1
                   1
                   1
                   1
                   1
                   1
                   1
                   1
                   1
                   1
                   1
                   1
                   1
  
SCALARS                  material_type  double 1
LOOKUP_TABLE default
                   2
                   2
                   2
                   2
                   2
                   2
                   2
                   2
                   2
                   2
                   2
                   2
                   2
                   2
                   2
                   2
                   2
                   2
                   2
                   2
                   2
                   2
                   2
                   2
                   2
                   2
                   2
                   2
                   2
                   2
                   2
                   2
                   2
                   2
                   2
                   2
                   2
                   2
                   2
                   2
                   2
                   2
                   2
                   2
                   2
                   2
                   2
                   2
                   2
                   2
                   2
                   2
                   2
                   2
                   2
                   2
                   2
                   2
                   2
                   2
                   2
                   2
                   2
                   2
                   2
                   2
                   2
                   2
                   2
                   2
                   2
                   2
                   2
                   2
                   2
                   2
                   2
                   2
                   2
                   2
                   2
                   2
                   2
                   2
                   2
                   2
                   2
                   2
                   2
                   2
                   2
                   2
                   2
                   2
                   2
                   2
                   2
                   2
                   2
                   2
                   2
                   2
                   2
                   2
                   2
                   2
                   2
                   2
                   2
                   2
                   2
                   2
                   2
                   2
                   2
                   2
                   2
                   2
                   2
                   2
                   2
                   2
                   2
                   2
                   2
                   2
                   2
                   2
                   2
                   2
                   2
                   2
                   2
                   2
                   2
                   2
                   2
                   2
                   2
                   2
                   2
                   2
                   2
                   2
                   2
                   2
                   2
                   2
                   2
                   2
                   2
                   2
                   2
                   2
                   2
                   2
                   2
                   2
                   2
                   2
                   2
                   2
                   2
                   2
                   2
                   2
                   2
                   2
                   2
                   2
                   2
                   2
                   2
                   2
                   2
                   2
                   2
                   2
                   2
                   2
                   2
                   2
                   2
                   2
                   2
                   2
                   2
                   2
                   2
                   2
                   2
                   2
                   2
                   2
                   2
                   2
                   2
                   2
                   2
                   2
                   2
                   2
                   2
                   2
                   2
                   2
                   2
                   2
                   2
                   2
                   2
                   2
                   2
                   2
                   2
                   2
                   2
                   2
                   2
                   2
                   2
                   2
                   2
                   2
                   2
                   2
                   2
                   2
                   2
                   2
                   2
                   2
                   2
                   2
                   2
                   2
                   2
                   2
                   2
                   2
                   2
                   2
                   2
                   2
                   2
                   2
                   2
                   2
                   2
                   2
                   2
                   2
                   2
                   2
                   2
                   2
                   2
                   2
                   2
                   2
                   2
                   2
                   2
                   2
                   2
                   2
                   2
                   2
                   2
                   2
                   2
                   2
                   2
                   2
                   2
                   2
                   2
                   2
                   2
                   2
                   2
                   2
                   2
                   2
                   2
                   2
                   2
                   2
                   2
                   2
                   2
                   2
                   2
                   2
                   2
                   2
                   2
                   2
                   2
                   2
                   2
                   2
                   2
                   2
                   2
                   2
                   2
                   2
                   2
                   2
                   2
                   2
                   2
                   2
                   2
                   2
                   2
                   2
                   2
                   2
                   2
                   2
                   2
                   2
                   2
                   2
                   2
                   2
                   2
                   2
                   2
                   2
                   2
                   2
                   2
                   2
                   2
                   2
                   2
                   2
                   2
                   2
                   2
                   2
                   2
                   2
                   2
                   2
                   2
                   2
                   2
                   2
                   2
                   2
                   2
                   2
                   2
                   2
                   2
                   2
                   2
                   2
                   2
                   2
                   2
                   2
                   2
                   2
                   2
                   2
                   2
                   2
                   2
                   2
                   2
                   2
                   2
                   2
                   2
                   2
                   2
                   2
                   2
                   2
                   2
                   2
                   2
                   2
                   2
                   2
                   2
                   2
                   2
                   2
                   2
                   2
                   2
                   2
                   2
                   2
                   2
                   2
                   2
                   2
                   2
                   2
                   2
                   2
                   2
                   2
                   2
                   2
                   2
                   2
                   2
                   2
                   2
                   2
                   2
                   2
                   2
                   2
                   2
                   2
                   2
                   2
                   2
                   2
                   2
                   2
                   2
                   2
                   2
                   2
                   2
                   2
                   2
                   2
                   2
                   2
                   2
                   2
                   2
                   2
                   2
                   2
                   2
                   2
                   2
                   2
                   2
                   2
                   2
                   2
                   2
                   2
                   2
                   2
                   2
                   2
                   2
                   2
                   2
                   2
                   2
                   2
                   2
                   2
                   2
                   2
                   2
                   2
                   2
                   2
                   2
                   2
                   2
                   2
                   2
                   2
                   2
                   2
                   2
                   2
                   2
                   2
                   2
                   2
                   2
                   2
                   2
                   2
                   2
                   2
                   2
                   2
                   2
                   2
                   2
                   2
                   2
                   2
                   2
                   2
                   2
                   2
                   2
                   2
                   2
                   2
                   2
                   2
                   2
                   2
                   2
                   2
                   2
                   2
                   2
                   2
                   2
                   2
                   2
                   2
                   2
                   2
                   2
                   2
                   2
                   2
                   2
                   2
                   2
                   2
                   2
                   2
                   2
                   2
                   2
                   2
                   2
                   2
                   2
                   2
                   2
                   2
                   2
                   2
                   2
                   2
                   2
                   2
                   2
                   2
                   2
                   2
                   2
                   2
                   2
                   2
                   2
                   2
                   2
                   2
                   2
                   2
                   2
                   2
                   2
                   2
                   2
                   2
                   2
                   2
                   2
                   2
                   2
                   2
                   2
                   2
                   2
                   2
                   2
                   2
                   2
                   2
                   2
                   2
                   2
                   2
                   2
                   2
                   2
                   2
                   2
                   2
                   2
                   2
                   2
                   2
                   2
                   2
                   2
                   2
                   2
                   2
                   2
                   2
                   2
                   2
                   2
                   2
                   2
                   2
                   2
                   2
                   2
                   2
                   2
                   2
                   2
                   2
                   2
                   2
                   2
                   2
                   2
                   2
                   2
                   2
                   2
                   2
                   2
                   2
                   2
                   2
                   2
                   2
                   2
                   2
                   2
                   2
                   2
                   2
                   2
                   2
                   2
                   2
                   2
                   2
                   2
                   2
                   2
                   2
                   2
                   2
                   2
                   2
                   2
                   2
                   2
                   2
                   2
                   2
                   2
                   2
                   2
                   2
                   2
                   2
                   2
                   2
                   2
                   2
                   2
                   2
                   2
                   2
                   2
                   2
                   2
                   2
                   2
                   2
                   2
                   2
                   2
                   2
                   2
                   2
                   2
                   2
                   2
                   2
                   2
                   2
                   2
                   2
                   2
                   2
                   2
                   2
                   2
                   2
                   2
                   2
                   2
                   2
                   2
                   2
                   2
                   2
                   2
                   2
                   2
                   2
                   2
                   2
                   2
                   2
                   2
                   2
                   2
                   2
                   2
                   2
                   2
                   2
                   2
                   2
                   2
                   2
                   2
                   2
                   2
                   2
                   2
                   2
                   2
                   2
                   2
                   2
                   2
                   2
                   2
                   2
                   2
                   2
                   2
                   2
                   2
                   2
                   2
                   2
                   2
                   2
                   2
                   2
                   2
                   2
                   2
                   2
                   2
                   2
                   2
                   2
                   2
                   2
                   2
                   2
                   2
                   2
                   2
                   2
                   2
                   2
                   2
                   2
                   2
                   2
                   2
                   2
                   2
                   2
                   2
                   2
                   2
                   2
                   2
                   2
                   2
                   2
                   2
                   2
                   2
                   2
                   2
                   2
                   2
                   2
                   2
                   2
                   2
                   2
                   2
                   2
                   2
                   2
                   2
                   2
                   2
                   2
                   2
                   2
                   2
                   2
                   2
                   2
                   2
                   2
                   2
                   2
                   2
                   2
                   2
                   2
                   2
                   2
                   2
                   2
                   2
                   2
                   2
                   2
                   2
                   2
                   2
                   2
                   2
                   2
                   2
                   2
                   2
                   2
                   2
                   2
                   2
                   2
                   2
                   2
                   2
                   2
                   2
                   2
                   2
                   2
                   2
                   2
                   2
                   2
                   2
                   2
                   2
                   2
                   2
                   2
                   2
                   2
                   2
                   2
                   2
                   2
                   2
                   2
                   2
                   2
                   2
                   2
                   2
                   2
                   2
                   2
                   2
                   2
                   2
                   2
                   2
                   2
                   2
                   2
                   2
                   2
                   2
                   2
                   2
                   2
                   2
                   2
                   2
                   2
                   2
                   2
                   2
                   2
                   2
                   2
                   2
                   2
                   2
                   2
                   2
                   2
                   2
                   2
                   2
                   2
                   2
                   2
                   2
                   2
                   2
                   2
                   2
                   2
                   2
                   2
                   2
                   2
                   2
                   2
                   2
                   2
                   2
                   2
                   2
                   2
                   2
                   2
                   2
                   2
                   2
                   2
                   2
                   2
                   2
                   2
                   2
                   2
                   2
                   2
                   2
                   2
                   2
                   2
                   2
                   2
                   2
                   2
                   2
                   2
                   2
                   2
                   2
                   2
                   2
                   2
                   2
                   2
                   2
                   2
                   2
                   2
                   2
                   2
                   2
                   2
                   2
                   2
                   2
                   2
                   2
                   2
                   2
                   2
                   2
                   2
                   2
                   2
                   2
                   2
                   2
                   2
                   2
                   2
                   2
                   2
                   2
                   2
                   2
                   2
                   2
                   2
                   2
                   2
                   2
                   2
                   2
                   2
                   2
                   2
                   2
                   2
                   2
                   2
                   2
                   2
                   2
                   2
                   2
                   2
                   2
                   2
                   2
                   2
                   2
                   2
                   2
                   2
                   2
                   2
                   2
                   2
                   2
                   2
                   2
                   2
                   2
                   2
                   2
                   2
                   2
                   2
                   2
                   2
                   2
                   2
                   2
                   2
                   2
                   2
                   2
                   2
                   2
                   2
                   2
                   2
                   2
                   2
                   2
                   2
                   2
                   2
                   2
                   2
                   2
                   2
                   2
                   2
                   2
                   2
                   2
                   2
                   2
                   2
                   2
                   2
                   2
                   2
                   2
                   2
                   2
                   2
                   2
                   2
                   2
                   2
                   2
                   2
                   2
                   2
                   2
                   2
                   2
                   2
                   2
                   2
                   2
                   2
                   2
                   2
                   2
                   2
                   2
                   2
                   2
                   2
                   2
                   2
                   2
                   2
                   2
                   2
                   2
                   2
                   2
                   2
                   2
                   2
                   2
                   2
                   2
                   2
                   2
                   2
                   2
                   2
                   2
                   2
                   2
                   2
                   2
                   2
                   2
                   2
                   2
                   2
                   2
                   2
                   2
                   2
                   2
                   2
                   2
                   2
                   2
                   2
                   2
                   2
                   2
                   2
                   2
                   2
                   2
                   2
                   2
                   2
                   2
                   2
                   2
                   2
                   2
                   2
                   2
                   2
                   2
                   2
                   2
                   2
                   2
                   2
                   2
                   2
                   2
                   2
                   2
                   2
                   2
                   2
                   2
                   2
                   2
                   2
                   2
                   2
                   2
                   2
                   2
                   2
                   2
                   2
                   2
                   2
                   2
                   2
                   2
                   2
                   2
                   2
                   2
                   2
                   2
                   2
                   2
                   2
                   2
                   2
                   2
                   2
                   2
                   2
                   2
                   2
                   2
                   2
                   2
                   2
                   2
                   2
                   2
                   2
                   2
                   2
                   2
                   2
                   2
                   2
                   2
                   2
                   2
                   2
                   2
                   2
                   2
                   2
                   2
                   2
                   2
                   2
                   2
                   2
                   2
                   2
                   2
                   2
                   2
                   2
                   2
                   2
                   2
                   2
                   2
                   2
                   2
                   2
                   2
                   2
                   2
                   2
                   2
                   2
                   2
                   2
                   2
                   2
                   2
                   2
                   2
                   2
                   2
                   2
                   2
                   2
                   2
                   2
                   2
                   2
                   2
                   2
                   2
                   2
                   2
                   2
                   2
                   2
                   2
                   2
                   2
                   2
                   2
                   2
                   2
                   2
                   2
                   2
                   2
                   2
                   2
                   2
                   2
                   2
                   2
                   2
                   2
                   2
                   2
                   2
                   2
                   2
                   2
                   2
                   2
                   2
                   2
                   2
                   2
                   2
                   2
                   2
                   2
                   2
                   2
                   2
                   2
                   2
                   2
                   2
                   2
                   2
                   2
                   2
                   2
                   2
                   2
                   2
                   2
                   2
                   2
                   2
                   2
                   2
                   2
                   2
                   2
                   2
                   2
                   2
                   2
                   2
                   2
                   2
                   2
                   2
                   2
                   2
                   2
                   2
                   2
                   2
                   2
                   2
                   2
                   2
                   2
                   2
                   2
                   2
                   2
                   2
                   2
                   2
                   2
                   2
                   2
                   2
                   2
                   2
                   2
                   2
                   2
                   2
                   2
                   2
                   2
                   2
                   2
                   2
                   2
                   2
                   2
                   2
                   2
                   2
                   2
                   2
                   2
                   2
                   2
                   2
                   2
                   2
                   2
                   2
                   2
                   2
                   2
                   2
                   2
                   2
                   2
                   2
                   2
                   2
                   2
                   2
                   2
                   2
                   2
                   2
                   2
                   2
                   2
                   2
                   2
                   2
                   2
                   2
                   2
                   2
                   2
                   2
                   2
                   2
                   2
                   2
                   2
                   2
                   2
                   2
                   2
                   2
                   2
                   2
                   2
                   2
                   2
                   2
                   2
                   2
                   2
                   2
                   2
                   2
                   2
                   2
                   2
                   2
                   2
                   2
                   2
                   2
                   2
                   2
                   2
                   2
                   2
                   2
                   2
                   2
                   2
                   2
                   2
                   2
                   2
                   2
                   2
                   2
                   2
                   2
                   2
                   2
                   2
                   2
                   2
                   2
                   2
                   2
                   2
                   2
                   2
                   2
                   2
                   2
                   2
                   2
                   2
                   2
                   2
                   2
                   2
                   2
                   2
                   2
                   2
                   2
                   2
                   2
                   2
                   2
                   2
                   2
                   2
                   2
                   2
                   2
                   2
                   2
                   2
                   2
                   2
                   2
                   2
                   2
                   2
                   2
                   2
                   2
                   2
                   2
                   2
                   2
                   2
                   2
                   2
                   2
                   2
                   2
                   2
                   2
                   2
                   2
                   2
                   2
                   2
                   2
                   2
                   2
                   2
                   2
                   2
                   2
                   2
                   2
                   2
                   2
                   2
                   2
                   2
                   2
                   2
                   2
                   2
                   2
                   2
                   2
                   2
                   2
                   2
                   2
                   2
                   2
                   2
                   2
                   2
                   2
                   2
                   2
                   2
                   2
                   2
                   2
                   2
                   2
                   2
                   2
                   2
                   2
                   2
                   2
                   2
                   2
                   2
                   2
                   2
                   2
                   2
                   2
                   2
                   2
                   2
                   2
                   2
                   2
                   2
                   2
                   2
                   2
                   2
                   2
                   2
                   2
                   2
                   2
                   2
                   2
                   2
                   2
                   2
                   2
                   2
                   2
                   2
                   2
                   2
                   2
                   2
                   2
                   2
                   2
                   2
                   2
                   2
                   2
                   2
                   2
                   2
                   2
                   2
                   2
                   2
                   2
                   2
                   2
                   2
                   2
                   2
                   2
                   2
                   2
                   2
                   2
                   2
                   2
                   2
                   2
                   2
                   2
                   2
                   2
                   2
                   2
                   2
                   2
                   2
                   2
                   2
                   2
                   2
                   2
                   2
                   2
                   2
                   2
                   2
                   2
                   2
                   2
                   2
                   2
                   2
                   2
                   2
                   2
                   2
                   2
                   2
                   2
                   2
                   2
                   2
                   2
                   2
                   2
                   2
                   2
                   2
                   2
                   2
                   2
                   2
                   2
                   2
                   2
                   2
                   2
                   2
                   2
                   2
                   2
                   2
                   2
                   2
                   2
                   2
                   2
                   2
                   2
                   2
                   2
                   2
                   2
                   2
                   2
                   2
                   2
                   2
                   2
                   2
                   2
                   2
                   2
                   2
                   2
                   2
                   2
                   2
                   2
                   2
                   2
                   2
                   2
                   2
                   2
                   2
                   2
                   2
                   2
                   2
                   2
                   2
                   2
                   2
                   2
                   2
                   2
                   2
                   2
                   2
                   2
                   2
                   2
                   2
                   2
                   2
                   2
                   2
                   2
                   2
                   2
                   2
                   2
                   2
                   2
                   2
                   2
                   2
                   2
                   2
                   2
                   2
                   2
                   2
                   2
                   2
                   2
                   2
                   2
                   2
                   2
                   2
                   2
                   2
                   2
                   2
                   2
                   2
                   2
                   2
                   2
                   2
                   2
                   2
                   2
                   2
                   2
                   2
                   2
                   2
                   2
                   2
                   2
                   2
                   2
                   2
                   2
                   2
                   2
                   2
                   2
                   2
                   2
                   2
                   2
                   2
                   2
                   2
                   2
                   2
                   2
                   2
                   2
                   2
                   2
                   2
                   2
                   2
                   2
                   2
                   2
                   2
                   2
                   2
                   2
                   2
                   2
                   2
                   2
                   2
                   2
                   2
                   2
                   2
                   2
                   2
                   2
                   2
                   2
                   2
                   2
                   2
                   2
                   2
                   2
                   2
                   2
                   2
                   2
                   2
                   2
                   2
                   2
                   2
                   2
                   2
                   2
                   2
                   2
                   2
                   2
                   2
                   2
                   2
                   2
                   2
                   2
                   2
                   2
                   2
                   2
                   2
                   2
                   2
                   2
                   2
                   2
                   2
                   2
                   2
                   2
                   2
                   2
                   2
                   2
                   2
                   2
                   2
                   2
                   2
                   2
                   2
                   2
                   2
                   2
                   2
                   2
                   2
                   2
                   2
                   2
                   2
                   2
                   2
                   2
                   2
                   2
                   2
                   2
                   2
                   2
                   2
                   2
                   2
                   2
                   2
                   2
                   2
                   2
                   2
                   2
                   2
                   2
                   2
                   2
                   2
                   2
                   2
                   2
                   2
                   2
                   2
                   2
  
SCALARS                       fixity_x  double 1
LOOKUP_TABLE default
                   0
                   0
                   0
                   0
                   0
                   0
                   0
                   0
                   0
                   0
                   0
                   0
                   0
                   0
                   0
                   0
                   0
                   0
                   0
                   0
                   0
                   0
                   0
                   0
                   0
                   0
                   0
                   0
                   0
                   0
                   0
                   0
                   0
                   0
                   0
                   0
                   0
                   0
                   0
                   0
                   0
                   0
                   0
                   0
                   0
                   0
                   0
                   0
                   0
                   0
                   0
                   0
                   0
                   0
                   0
                   0
                   0
                   0
                   0
                   0
                   0
                   0
                   0
                   0
                   0
                   0
                   0
                   0
                   0
                   0
                   0
                   0
                   0
                   0
                   0
                   0
                   0
                   0
                   0
                   0
                   0
                   0
                   0
                   0
                   0
                   0
                   0
                   0
                   0
                   0
                   0
                   0
                   0
                   0
                   0
                   0
                   0
                   0
                   0
                   0
                   0
                   0
                   0
                   0
                   0
                   0
                   0
                   0
                   0
                   0
                   0
                   0
                   0
                   0
                   0
                   0
                   0
                   0
                   0
                   0
                   0
                   0
                   0
                   0
                   0
                   0
                   0
                   0
                   0
                   0
                   0
                   0
                   0
                   0
                   0
                   0
                   0
                   0
                   0
                   0
                   0
                   0
                   0
                   0
                   0
                   0
                   0
                   0
                   0
                   0
                   0
                   0
                   0
                   0
                   0
                   0
                   0
                   0
                   0
                   0
                   0
                   0
                   0
                   0
                   0
                   0
                   0
                   0
                   0
                   0
                   0
                   0
                   0
                   0
                   0
                   0
                   0
                   0
                   0
                   0
                   0
                   0
                   0
                   0
                   0
                   0
                   0
                   0
                   0
                   0
                   0
                   0
                   0
                   0
                   0
                   0
                   0
                   0
                   0
                   0
                   0
                   0
                   0
                   0
                   0
                   0
                   0
                   0
                   0
                   0
                   0
                   0
                   0
                   0
                   0
                   0
                   0
                   0
                   0
                   0
                   0
                   0
                   0
                   0
                   0
                   0
                   0
                   0
                   0
                   0
                   0
                   0
                   0
                   0
                   0
                   0
                   0
                   0
                   0
                   0
                   0
                   0
                   0
                   0
                   0
                   0
                   0
                   0
                   0
                   0
                   0
                   0
                   0
                   0
                   0
                   0
                   0
                   0
                   0
                   0
                   0
                   0
                   0
                   0
                   0
                   0
                   0
                   0
                   0
                   0
                   0
                   0
                   0
                   0
                   0
                   0
                   0
                   0
                   0
                   0
                   0
                   0
                   0
                   0
                   0
                   0
                   0
                   0
                   0
                   0
                   0
                   0
                   0
                   0
                   0
                   0
                   0
                   0
                   0
                   0
                   0
                   0
                   0
                   0
                   0
                   0
                   0
                   0
                   0
                   0
                   0
                   0
                   0
                   0
                   0
                   0
                   0
                   0
                   0
                   0
                   0
                   0
                   0
                   0
                   0
                   0
                   0
                   0
                   0
                   0
                   0
                   0
                   0
                   0
                   0
                   0
                   0
                   0
                   0
                   0
                   0
                   0
                   0
                   0
                   0
                   0
                   0
                   0
                   0
                   0
                   0
                   0
                   0
                   0
                   0
                   0
                   0
                   0
                   0
                   0
                   0
                   0
                   0
                   0
                   0
                   0
                   0
                   0
                   0
                   0
                   0
                   0
                   0
                   0
                   0
                   0
                   0
                   0
                   0
                   0
                   0
                   0
                   0
                   0
                   0
                   0
                   0
                   0
                   0
                   0
                   0
                   0
                   0
                   0
                   0
                   0
                   0
                   0
                   0
                   0
                   0
                   0
                   0
                   0
                   0
                   0
                   0
                   0
                   0
                   0
                   0
                   0
                   0
                   0
                   0
                   0
                   0
                   0
                   0
                   0
                   0
                   0
                   0
                   0
                   0
                   0
                   0
                   0
                   0
                   0
                   0
                   0
                   0
                   0
                   0
                   0
                   0
                   0
                   0
                   0
                   0
                   0
                   0
                   0
                   0
                   0
                   0
                   0
                   0
                   0
                   0
                   0
                   0
                   0
                   0
                   0
                   0
                   0
                   0
                   0
                   0
                   0
                   0
                   0
                   0
                   0
                   0
                   0
                   0
                   0
                   0
                   0
                   0
                   0
                   0
                   0
                   0
                   0
                   0
                   0
                   0
                   0
                   0
                   0
                   0
                   0
                   0
                   0
                   0
                   0
                   0
                   0
                   0
                   0
                   0
                   0
                   0
                   0
                   0
                   0
                   0
                   0
                   0
                   0
                   0
                   0
                   0
                   0
                   0
                   0
                   0
                   0
                   0
                   0
                   0
                   0
                   0
                   0
                   0
                   0
                   0
                   0
                   0
                   0
                   0
                   0
                   0
                   0
                   0
                   0
                   0
                   0
                   0
                   0
                   0
                   0
                   0
                   0
                   0
                   0
                   0
                   0
                   0
                   0
                   0
                   0
                   0
                   0
                   0
                   0
                   0
                   0
                   0
                   0
                   0
                   0
                   0
                   0
                   0
                   0
                   0
                   0
                   0
                   0
                   0
                   0
                   0
                   0
                   0
                   0
                   0
                   0
                   0
                   0
                   0
                   0
                   0
                   0
                   0
                   0
                   0
                   0
                   0
                   0
                   0
                   0
                   0
                   0
                   0
                   0
                   0
                   0
                   0
                   0
                   0
                   0
                   0
                   0
                   0
                   0
                   0
                   0
                   0
                   0
                   0
                   0
                   0
                   0
                   0
                   0
                   0
                   0
                   0
                   0
                   0
                   0
                   0
                   0
                   0
                   0
                   0
                   0
                   0
                   0
                   0
                   0
                   0
                   0
                   0
                   0
                   0
                   0
                   0
                   0
                   0
                   0
                   0
                   0
                   0
                   0
                   0
                   0
                   0
                   0
                   0
                   0
                   0
                   0
                   0
                   0
                   0
                   0
                   0
                   0
                   0
                   0
                   0
                   0
                   0
                   0
                   0
                   0
                   0
                   0
                   0
                   0
                   0
                   0
                   0
                   0
                   0
                   0
                   0
                   0
                   0
                   0
                   0
                   0
                   0
                   0
                   0
                   0
                   0
                   0
                   0
                   0
                   0
                   0
                   0
                   0
                   0
                   0
                   0
                   0
                   0
                   0
                   0
                   0
                   0
                   0
                   0
                   0
                   0
                   0
                   0
                   0
                   0
                   0
                   0
                   0
                   0
                   0
                   0
                   0
                   0
                   0
                   0
                   0
                   0
                   0
                   0
                   0
                   0
                   0
                   0
                   0
                   0
                   0
                   0
                   0
                   0
                   0
                   0
                   0
                   0
                   0
                   0
                   0
                   0
                   0
                   0
                   0
                   0
                   0
                   0
                   0
                   0
                   0
                   0
                   0
                   0
                   0
                   0
                   0
                   0
                   0
                   0
                   0
                   0
                   0
                   0
                   0
                   0
                   0
                   0
                   0
                   0
                   0
                   0
                   0
                   0
                   0
                   0
                   0
                   0
                   0
                   0
                   0
                   0
                   0
                   0
                   0
                   0
                   0
                   0
                   0
                   0
                   0
                   0
                   0
                   0
                   0
                   0
                   0
                   0
                   0
                   0
                   0
                   0
                   0
                   0
                   0
                   0
                   0
                   0
                   0
                   0
                   0
                   0
                   0
                   0
                   0
                   0
                   0
                   0
                   0
                   0
                   0
                   0
                   0
                   0
                   0
                   0
                   0
                   0
                   0
                   0
                   0
                   0
                   0
                   0
                   0
                   0
                   0
                   0
                   0
                   0
                   0
                   0
                   0
                   0
                   0
                   0
                   0
                   0
                   0
                   0
                   0
                   0
                   0
                   0
                   0
                   0
                   0
                   0
                   0
                   0
                   0
                   0
                   0
                   0
                   0
                   0
                   0
                   0
                   0
                   0
                   0
                   0
                   0
                   0
                   0
                   0
                   0
                   0
                   0
                   0
                   0
                   0
                   0
                   0
                   0
                   0
                   0
                   0
                   0
                   0
                   0
                   0
                   0
                   0
                   0
                   0
                   0
                   0
                   0
                   0
                   0
                   0
                   0
                   0
                   0
                   0
                   0
                   0
                   0
                   0
                   0
                   0
                   0
                   0
                   0
                   0
                   0
                   0
                   0
                   0
                   0
                   0
                   0
                   0
                   0
                   0
                   0
                   0
                   0
                   0
                   0
                   0
                   0
                   0
                   0
                   0
                   0
                   0
                   0
                   0
                   0
                   0
                   0
                   0
                   0
                   0
                   0
                   0
                   0
                   0
                   0
                   0
                   0
                   0
                   0
                   0
                   0
                   0
                   0
                   0
                   0
                   0
                   0
                   0
                   0
                   0
                   0
                   0
                   0
                   0
                   0
                   0
                   0
                   0
                   0
                   0
                   0
                   0
                   0
                   0
                   0
                   0
                   0
                   0
                   0
                   0
                   0
                   0
                   0
                   0
                   0
                   0
                   0
                   0
                   0
                   0
                   0
                   0
                   0
                   0
                   0
                   0
                   0
                   0
                   0
                   0
                   0
                   0
                   0
                   0
                   0
                   0
                   0
                   0
                   0
                   0
                   0
                   0
                   0
                   0
                   0
                   0
                   0
                   0
                   0
                   0
                   0
                   0
                   0
                   0
                   0
                   0
                   0
                   0
                   0
                   0
                   0
                   0
                   0
                   0
                   0
                   0
                   0
                   0
                   0
                   0
                   0
                   0
                   0
                   0
                   0
                   0
                   0
                   0
                   0
                   0
                   0
                   0
                   0
                   0
                   0
                   0
                   0
                   0
                   0
                   0
                   0
                   0
                   0
                   0
                   0
                   0
                   0
                   0
                   0
                   0
                   0
                   0
                   0
                   0
                   0
                   0
                   0
                   0
                   0
                   0
                   0
                   0
                   0
                   0
                   0
                   0
                   0
                   0
                   0
                   0
                   0
                   0
                   0
                   0
                   0
                   0
                   0
                   0
                   0
                   0
                   0
                   0
                   0
                   0
                   0
                   0
                   0
                   0
                   0
                   0
                   0
                   0
                   0
                   0
                   0
                   0
                   0
                   0
                   0
                   0
                   0
                   0
                   0
                   0
                   0
                   0
                   0
                   0
                   0
                   0
                   0
                   0
                   0
                   0
                   0
                   0
                   0
                   0
                   0
                   0
                   0
                   0
                   0
                   0
                   0
                   0
                   0
                   0
                   0
                   0
                   0
                   0
                   0
                   0
                   0
                   0
                   0
                   0
                   0
                   0
                   0
                   0
                   0
                   0
                   0
                   0
                   0
                   0
                   0
                   0
                   0
                   0
                   0
                   0
                   0
                   0
                   0
                   0
                   0
                   0
                   0
                   0
                   0
                   0
                   0
                   0
                   0
                   0
                   0
                   0
                   0
                   0
                   0
                   0
                   0
                   0
                   0
                   0
                   0
                   0
                   0
                   0
                   0
                   0
                   0
                   0
                   0
                   0
                   0
                   0
                   0
                   0
                   0
                   0
                   0
                   0
                   0
                   0
                   0
                   0
                   0
                   0
                   0
                   0
                   0
                   0
                   0
                   0
                   0
                   0
                   0
                   0
                   0
                   0
                   0
                   0
                   0
                   0
                   0
                   0
                   0
                   0
                   0
                   0
                   0
                   0
                   0
                   0
                   0
                   0
                   0
                   0
                   0
                   0
                   0
                   0
                   0
                   0
                   0
                   0
                   0
                   0
                   0
                   0
                   0
                   0
                   0
                   0
                   0
                   0
                   0
                   0
                   0
                   0
                   0
                   0
                   0
                   0
                   0
                   0
                   0
                   0
                   0
                   0
                   0
                   0
                   0
                   0
                   0
                   0
                   0
                   0
                   0
                   0
                   0
                   0
                   0
                   0
                   0
                   0
                   0
                   0
                   0
                   0
                   0
                   0
                   0
                   0
                   0
                   0
                   0
                   0
                   0
                   0
                   0
                   0
                   0
                   0
                   0
                   0
                   0
                   0
                   0
                   0
                   0
                   0
                   0
                   0
                   0
                   0
                   0
                   0
                   0
                   0
                   0
                   0
                   0
                   0
                   0
                   0
                   0
                   0
                   0
                   0
                   0
                   0
                   0
                   0
                   0
                   0
                   0
                   0
                   0
                   0
                   0
                   0
                   0
                   0
                   0
                   0
                   0
                   0
                   0
                   0
                   0
                   0
                   0
                   0
                   0
                   0
                   0
                   0
                   0
                   0
                   0
                   0
                   0
                   0
                   0
                   0
                   0
                   0
                   0
                   0
                   0
                   0
                   0
                   0
                   0
                   0
                   0
                   0
                   0
                   0
                   0
                   0
                   0
                   0
                   0
                   0
                   0
                   0
                   0
                   0
                   0
                   0
                   0
                   0
                   0
                   0
                   0
                   0
                   0
                   0
                   0
                   0
                   0
                   0
                   0
                   0
                   0
                   0
                   0
                   0
                   0
                   0
                   0
                   0
                   0
                   0
                   0
                   0
                   0
                   0
                   0
                   0
                   0
                   0
                   0
                   0
                   0
                   0
                   0
                   0
                   0
                   0
                   0
                   0
                   0
                   0
                   0
                   0
                   0
                   0
                   0
                   0
                   0
                   0
                   0
                   0
                   0
                   0
                   0
                   0
                   0
                   0
                   0
                   0
                   0
                   0
                   0
                   0
                   0
                   0
                   0
                   0
                   0
                   0
                   0
                   0
                   0
                   0
                   0
                   0
                   0
                   0
                   0
                   0
                   0
                   0
                   0
                   0
                   0
                   0
                   0
                   0
                   0
                   0
                   0
                   0
                   0
                   0
                   0
                   0
                   0
                   0
                   0
                   0
                   0
                   0
                   0
                   0
                   0
                   0
                   0
                   0
                   0
                   0
                   0
                   0
                   0
                   0
                   0
                   0
                   0
                   0
                   0
                   0
                   0
                   0
                   0
                   0
                   0
                   0
                   0
                   0
                   0
                   0
                   0
                   0
                   0
                   0
                   0
                   0
                   0
                   0
                   0
                   0
                   0
                   0
                   0
                   0
                   0
                   0
                   0
                   0
                   0
                   0
                   0
                   0
                   0
                   0
                   0
                   0
                   0
                   0
                   0
                   0
                   0
                   0
                   0
                   0
                   0
                   0
                   0
                   0
                   0
                   0
                   0
                   0
                   0
                   0
                   0
                   0
                   0
                   0
                   0
                   0
                   0
                   0
                   0
                   0
                   0
                   0
                   0
                   0
                   0
                   0
                   0
                   0
                   0
                   0
                   0
                   0
                   0
                   0
                   0
                   0
                   0
                   0
                   0
                   0
                   0
                   0
                   0
                   0
                   0
                   0
                   0
                   0
                   0
                   0
                   0
                   0
                   0
                   0
                   0
                   0
                   0
                   0
                   0
                   0
                   0
                   0
                   0
                   0
                   0
                   0
                   0
                   0
                   0
                   0
                   0
                   0
                   0
                   0
                   0
                   0
                   0
                   0
                   0
                   0
                   0
                   0
                   0
                   0
                   0
                   0
                   0
                   0
                   0
                   0
                   0
                   0
                   0
                   0
                   0
                   0
                   0
                   0
                   0
                   0
                   0
                   0
                   0
                   0
                   0
                   0
                   0
                   0
                   0
                   0
                   0
                   0
                   0
                   0
                   0
                   0
                   0
                   0
                   0
                   0
                   0
                   0
                   0
                   0
                   0
                   0
                   0
                   0
                   0
                   0
                   0
                   0
                   0
                   0
                   0
                   0
                   0
                   0
                   0
                   0
                   0
                   0
                   0
                   0
                   0
                   0
                   0
                   0
                   0
                   0
                   0
                   0
                   0
                   0
                   0
                   0
                   0
                   0
                   0
                   0
                   0
                   0
                   0
                   0
                   0
                   0
                   0
                   0
                   0
                   0
                   0
                   0
                   0
                   0
                   0
                   0
                   0
                   0
                   0
                   0
                   0
                   0
                   0
                   0
                   0
                   0
                   0
                   0
                   0
                   0
                   0
                   0
                   0
                   0
                   0
                   0
                   0
                   0
                   0
                   0
                   0
                   0
                   0
                   0
                   0
                   0
                   0
                   0
                   0
                   0
                   0
                   0
                   0
                   0
                   0
                   0
                   0
                   0
                   0
                   0
                   0
                   0
                   0
                   0
                   0
                   0
                   0
                   0
                   0
                   0
                   0
                   0
                   0
                   0
                   0
                   0
                   0
                   0
                   0
                   0
                   0
                   0
                   0
                   0
                   0
                   0
                   0
                   0
                   0
                   0
                   0
                   0
                   0
                   0
                   0
                   0
                   0
                   0
                   0
                   0
                   0
                   0
                   0
                   0
                   0
                   0
                   0
                   0
                   0
                   0
                   0
                   0
                   0
                   0
                   0
                   0
                   0
                   0
                   0
                   0
                   0
                   0
                   0
                   0
                   0
                   0
                   0
                   0
                   0
                   0
                   0
                   0
                   0
                   0
                   0
                   0
                   0
                   0
                   0
                   0
                   0
                   0
                   0
                   0
                   0
                   0
                   0
                   0
                   0
                   0
                   0
                   0
                   0
                   0
                   0
                   0
                   0
                   0
                   0
                   0
                   0
                   0
                   0
                   0
                   0
                   0
                   0
                   0
                   0
                   0
                   0
                   0
                   0
                   0
                   0
                   0
                   0
                   0
                   0
                   0
                   0
                   0
                   0
                   0
                   0
                   0
                   0
                   0
                   0
                   0
                   0
                   0
                   0
                   0
                   0
                   0
                   0
                   0
                   0
                   0
                   0
                   0
                   0
                   0
                   0
                   0
                   0
                   0
                   0
                   0
                   0
                   0
                   0
                   0
                   0
  
SCALARS                       fixity_y  double 1
LOOKUP_TABLE default
                   0
                   0
                   0
                   0
                   0
                   0
                   0
                   0
                   0
                   0
                   0
                   0
                   0
                   0
                   0
                   0
                   0
                   0
                   0
                   0
                   0
                   0
                   0
                   0
                   0
                   0
                   0
                   0
                   0
                   0
                   0
                   0
                   0
                   0
                   0
                   0
                   0
                   0
                   0
                   0
                   0
                   0
                   0
                   0
                   0
                   0
                   0
                   0
                   0
                   0
                   0
                   0
                   0
                   0
                   0
                   0
                   0
                   0
                   0
                   0
                   0
                   0
                   0
                   0
                   0
                   0
                   0
                   0
                   0
                   0
                   0
                   0
                   0
                   0
                   0
                   0
                   0
                   0
                   0
                   0
                   0
                   0
                   0
                   0
                   0
                   0
                   0
                   0
                   0
                   0
                   0
                   0
                   0
                   0
                   0
                   0
                   0
                   0
                   0
                   0
                   0
                   0
                   0
                   0
                   0
                   0
                   0
                   0
                   0
                   0
                   0
                   0
                   0
                   0
                   0
                   0
                   0
                   0
                   0
                   0
                   0
                   0
                   0
                   0
                   0
                   0
                   0
                   0
                   0
                   0
                   0
                   0
                   0
                   0
                   0
                   0
                   0
                   0
                   0
                   0
                   0
                   0
                   0
                   0
                   0
                   0
                   0
                   0
                   0
                   0
                   0
                   0
                   0
                   0
                   0
                   0
                   0
                   0
                   0
                   0
                   0
                   0
                   0
                   0
                   0
                   0
                   0
                   0
                   0
                   0
                   0
                   0
                   0
                   0
                   0
                   0
                   0
                   0
                   0
                   0
                   0
                   0
                   0
                   0
                   0
                   0
                   0
                   0
                   0
                   0
                   0
                   0
                   0
                   0
                   0
                   0
                   0
                   0
                   0
                   0
                   0
                   0
                   0
                   0
                   0
                   0
                   0
                   0
                   0
                   0
                   0
                   0
                   0
                   0
                   0
                   0
                   0
                   0
                   0
                   0
                   0
                   0
                   0
                   0
                   0
                   0
                   0
                   0
                   0
                   0
                   0
                   0
                   0
                   0
                   0
                   0
                   0
                   0
                   0
                   0
                   0
                   0
                   0
                   0
                   0
                   0
                   0
                   0
                   0
                   0
                   0
                   0
                   0
                   0
                   0
                   0
                   0
                   0
                   0
                   0
                   0
                   0
                   0
                   0
                   0
                   0
                   0
                   0
                   0
                   0
                   0
                   0
                   0
                   0
                   0
                   0
                   0
                   0
                   0
                   0
                   0
                   0
                   0
                   0
                   0
                   0
                   0
                   0
                   0
                   0
                   0
                   0
                   0
                   0
                   0
                   0
                   0
                   0
                   0
                   0
                   0
                   0
                   0
                   0
                   0
                   0
                   0
                   0
                   0
                   0
                   0
                   0
                   0
                   0
                   0
                   0
                   0
                   0
                   0
                   0
                   0
                   0
                   0
                   0
                   0
                   0
                   0
                   0
                   0
                   0
                   0
                   0
                   0
                   0
                   0
                   0
                   0
                   0
                   0
                   0
                   0
                   0
                   0
                   0
                   0
                   0
                   0
                   0
                   0
                   0
                   0
                   0
                   0
                   0
                   0
                   0
                   0
                   0
                   0
                   0
                   0
                   0
                   0
                   0
                   0
                   0
                   0
                   0
                   0
                   0
                   0
                   0
                   0
                   0
                   0
                   0
                   0
                   0
                   0
                   0
                   0
                   0
                   0
                   0
                   0
                   0
                   0
                   0
                   0
                   0
                   0
                   0
                   0
                   0
                   0
                   0
                   0
                   0
                   0
                   0
                   0
                   0
                   0
                   0
                   0
                   0
                   0
                   0
                   0
                   0
                   0
                   0
                   0
                   0
                   0
                   0
                   0
                   0
                   0
                   0
                   0
                   0
                   0
                   0
                   0
                   0
                   0
                   0
                   0
                   0
                   0
                   0
                   0
                   0
                   0
                   0
                   0
                   0
                   0
                   0
                   0
                   0
                   0
                   0
                   0
                   0
                   0
                   0
                   0
                   0
                   0
                   0
                   0
                   0
                   0
                   0
                   0
                   0
                   0
                   0
                   0
                   0
                   0
                   0
                   0
                   0
                   0
                   0
                   0
                   0
                   0
                   0
                   0
                   0
                   0
                   0
                   0
                   0
                   0
                   0
                   0
                   0
                   0
                   0
                   0
                   0
                   0
                   0
                   0
                   0
                   0
                   0
                   0
                   0
                   0
                   0
                   0
                   0
                   0
                   0
                   0
                   0
                   0
                   0
                   0
                   0
                   0
                   0
                   0
                   0
                   0
                   0
                   0
                   0
                   0
                   0
                   0
                   0
                   0
                   0
                   0
                   0
                   0
                   0
                   0
                   0
                   0
                   0
                   0
                   0
                   0
                   0
                   0
                   0
                   0
                   0
                   0
                   0
                   0
                   0
                   0
                   0
                   0
                   0
                   0
                   0
                   0
                   0
                   0
                   0
                   0
                   0
                   0
                   0
                   0
                   0
                   0
                   0
                   0
                   0
                   0
                   0
                   0
                   0
                   0
                   0
                   0
                   0
                   0
                   0
                   0
                   0
                   0
                   0
                   0
                   0
                   0
                   0
                   0
                   0
                   0
                   0
                   0
                   0
                   0
                   0
                   0
                   0
                   0
                   0
                   0
                   0
                   0
                   0
                   0
                   0
                   0
                   0
                   0
                   0
                   0
                   0
                   0
                   0
                   0
                   0
                   0
                   0
                   0
                   0
                   0
                   0
                   0
                   0
                   0
                   0
                   0
                   0
                   0
                   0
                   0
                   0
                   0
                   0
                   0
                   0
                   0
                   0
                   0
                   0
                   0
                   0
                   0
                   0
                   0
                   0
                   0
                   0
                   0
                   0
                   0
                   0
                   0
                   0
                   0
                   0
                   0
                   0
                   0
                   0
                   0
                   0
                   0
                   0
                   0
                   0
                   0
                   0
                   0
                   0
                   0
                   0
                   0
                   0
                   0
                   0
                   0
                   0
                   0
                   0
                   0
                   0
                   0
                   0
                   0
                   0
                   0
                   0
                   0
                   0
                   0
                   0
                   0
                   0
                   0
                   0
                   0
                   0
                   0
                   0
                   0
                   0
                   0
                   0
                   0
                   0
                   0
                   0
                   0
                   0
                   0
                   0
                   0
                   0
                   0
                   0
                   0
                   0
                   0
                   0
                   0
                   0
                   0
                   0
                   0
                   0
                   0
                   0
                   0
                   0
                   0
                   0
                   0
                   0
                   0
                   0
                   0
                   0
                   0
                   0
                   0
                   0
                   0
                   0
                   0
                   0
                   0
                   0
                   0
                   0
                   0
                   0
                   0
                   0
                   0
                   0
                   0
                   0
                   0
                   0
                   0
                   0
                   0
                   0
                   0
                   0
                   0
                   0
                   0
                   0
                   0
                   0
                   0
                   0
                   0
                   0
                   0
                   0
                   0
                   0
                   0
                   0
                   0
                   0
                   0
                   0
                   0
                   0
                   0
                   0
                   0
                   0
                   0
                   0
                   0
                   0
                   0
                   0
                   0
                   0
                   0
                   0
                   0
                   0
                   0
                   0
                   0
                   0
                   0
                   0
                   0
                   0
                   0
                   0
                   0
                   0
                   0
                   0
                   0
                   0
                   0
                   0
                   0
                   0
                   0
                   0
                   0
                   0
                   0
                   0
                   0
                   0
                   0
                   0
                   0
                   0
                   0
                   0
                   0
                   0
                   0
                   0
                   0
                   0
                   0
                   0
                   0
                   0
                   0
                   0
                   0
                   0
                   0
                   0
                   0
                   0
                   0
                   0
                   0
                   0
                   0
                   0
                   0
                   0
                   0
                   0
                   0
                   0
                   0
                   0
                   0
                   0
                   0
                   0
                   0
                   0
                   0
                   0
                   0
                   0
                   0
                   0
                   0
                   0
                   0
                   0
                   0
                   0
                   0
                   0
                   0
                   0
                   0
                   0
                   0
                   0
                   0
                   0
                   0
                   0
                   0
                   0
                   0
                   0
                   0
                   0
                   0
                   0
                   0
                   0
                   0
                   0
                   0
                   0
                   0
                   0
                   0
                   0
                   0
                   0
                   0
                   0
                   0
                   0
                   0
                   0
                   0
                   0
                   0
                   0
                   0
                   0
                   0
                   0
                   0
                   0
                   0
                   0
                   0
                   0
                   0
                   0
                   0
                   0
                   0
                   0
                   0
                   0
                   0
                   0
                   0
                   0
                   0
                   0
                   0
                   0
                   0
                   0
                   0
                   0
                   0
                   0
                   0
                   0
                   0
                   0
                   0
                   0
                   0
                   0
                   0
                   0
                   0
                   0
                   0
                   0
                   0
                   0
                   0
                   0
                   0
                   0
                   0
                   0
                   0
                   0
                   0
                   0
                   0
                   0
                   0
                   0
                   0
                   0
                   0
                   0
                   0
                   0
                   0
                   0
                   0
                   0
                   0
                   0
                   0
                   0
                   0
                   0
                   0
                   0
                   0
                   0
                   0
                   0
                   0
                   0
                   0
                   0
                   0
                   0
                   0
                   0
                   0
                   0
                   0
                   0
                   0
                   0
                   0
                   0
                   0
                   0
                   0
                   0
                   0
                   0
                   0
                   0
                   0
                   0
                   0
                   0
                   0
                   0
                   0
                   0
                   0
                   0
                   0
                   0
                   0
                   0
                   0
                   0
                   0
                   0
                   0
                   0
                   0
                   0
                   0
                   0
                   0
                   0
                   0
                   0
                   0
                   0
                   0
                   0
                   0
                   0
                   0
                   0
                   0
                   0
                   0
                   0
                   0
                   0
                   0
                   0
                   0
                   0
                   0
                   0
                   0
                   0
                   0
                   0
                   0
                   0
                   0
                   0
                   0
                   0
                   0
                   0
                   0
                   0
                   0
                   0
                   0
                   0
                   0
                   0
                   0
                   0
                   0
                   0
                   0
                   0
                   0
                   0
                   0
                   0
                   0
                   0
                   0
                   0
                   0
                   0
                   0
                   0
                   0
                   0
                   0
                   0
                   0
                   0
                   0
                   0
                   0
                   0
                   0
                   0
                   0
                   0
                   0
                   0
                   0
                   0
                   0
                   0
                   0
                   0
                   0
                   0
                   0
                   0
                   0
                   0
                   0
                   0
                   0
                   0
                   0
                   0
                   0
                   0
                   0
                   0
                   0
                   0
                   0
                   0
                   0
                   0
                   0
                   0
                   0
                   0
                   0
                   0
                   0
                   0
                   0
                   0
                   0
                   0
                   0
                   0
                   0
                   0
                   0
                   0
                   0
                   0
                   0
                   0
                   0
                   0
                   0
                   0
                   0
                   0
                   0
                   0
                   0
                   0
                   0
                   0
                   0
                   0
                   0
                   0
                   0
                   0
                   0
                   0
                   0
                   0
                   0
                   0
                   0
                   0
                   0
                   0
                   0
                   0
                   0
                   0
                   0
                   0
                   0
                   0
                   0
                   0
                   0
                   0
                   0
                   0
                   0
                   0
                   0
                   0
                   0
                   0
                   0
                   0
                   0
                   0
                   0
                   0
                   0
                   0
                   0
                   0
                   0
                   0
                   0
                   0
                   0
                   0
                   0
                   0
                   0
                   0
                   0
                   0
                   0
                   0
                   0
                   0
                   0
                   0
                   0
                   0
                   0
                   0
                   0
                   0
                   0
                   0
                   0
                   0
                   0
                   0
                   0
                   0
                   0
                   0
                   0
                   0
                   0
                   0
                   0
                   0
                   0
                   0
                   0
                   0
                   0
                   0
                   0
                   0
                   0
                   0
                   0
                   0
                   0
                   0
                   0
                   0
                   0
                   0
                   0
                   0
                   0
                   0
                   0
                   0
                   0
                   0
                   0
                   0
                   0
                   0
                   0
                   0
                   0
                   0
                   0
                   0
                   0
                   0
                   0
                   0
                   0
                   0
                   0
                   0
                   0
                   0
                   0
                   0
                   0
                   0
                   0
                   0
                   0
                   0
                   0
                   0
                   0
                   0
                   0
                   0
                   0
                   0
                   0
                   0
                   0
                   0
                   0
                   0
                   0
                   0
                   0
                   0
                   0
                   0
                   0
                   0
                   0
                   0
                   0
                   0
                   0
                   0
                   0
                   0
                   0
                   0
                   0
                   0
                   0
                   0
                   0
                   0
                   0
                   0
                   0
                   0
                   0
                   0
                   0
                   0
                   0
                   0
                   0
                   0
                   0
                   0
                   0
                   0
                   0
                   0
                   0
                   0
                   0
                   0
                   0
                   0
                   0
                   0
                   0
                   0
                   0
                   0
                   0
                   0
                   0
                   0
                   0
                   0
                   0
                   0
                   0
                   0
                   0
                   0
                   0
                   0
                   0
                   0
                   0
                   0
                   0
                   0
                   0
                   0
                   0
                   0
                   0
                   0
                   0
                   0
                   0
                   0
                   0
                   0
                   0
                   0
                   0
                   0
                   0
                   0
                   0
                   0
                   0
                   0
                   0
                   0
                   0
                   0
                   0
                   0
                   0
                   0
                   0
                   0
                   0
                   0
                   0
                   0
                   0
                   0
                   0
                   0
                   0
                   0
                   0
                   0
                   0
                   0
                   0
                   0
                   0
                   0
                   0
                   0
                   0
                   0
                   0
                   0
                   0
                   0
                   0
                   0
                   0
                   0
                   0
                   0
                   0
                   0
                   0
                   0
                   0
                   0
                   0
                   0
                   0
                   0
                   0
                   0
                   0
                   0
                   0
                   0
                   0
                   0
                   0
                   0
                   0
                   0
                   0
                   0
                   0
                   0
                   0
                   0
                   0
                   0
                   0
                   0
                   0
                   0
                   0
                   0
                   0
                   0
                   0
                   0
                   0
                   0
                   0
                   0
                   0
                   0
                   0
                   0
                   0
                   0
                   0
                   0
                   0
                   0
                   0
                   0
                   0
                   0
                   0
                   0
                   0
                   0
                   0
                   0
                   0
                   0
                   0
                   0
                   0
                   0
                   0
                   0
                   0
                   0
                   0
                   0
                   0
                   0
                   0
                   0
                   0
                   0
                   0
                   0
                   0
                   0
                   0
                   0
                   0
                   0
                   0
                   0
                   0
                   0
                   0
                   0
                   0
                   0
                   0
                   0
                   0
                   0
                   0
                   0
                   0
                   0
                   0
                   0
                   0
                   0
                   0
                   0
                   0
                   0
                   0
                   0
                   0
                   0
                   0
                   0
                   0
                   0
                   0
                   0
                   0
                   0
                   0
                   0
                   0
                   0
                   0
                   0
                   0
                   0
                   0
                   0
                   0
                   0
                   0
                   0
                   0
                   0
                   0
                   0
                   0
                   0
                   0
                   0
                   0
                   0
                   0
                   0
                   0
                   0
                   0
                   0
                   0
                   0
                   0
                   0
                   0
                   0
                   0
                   0
                   0
                   0
                   0
                   0
                   0
                   0
                   0
                   0
                   0
                   0
                   0
                   0
                   0
                   0
                   0
                   0
                   0
                   0
                   0
                   0
                   0
                   0
                   0
                   0
                   0
                   0
                   0
                   0
                   0
                   0
                   0
                   0
                   0
                   0
                   0
                   0
                   0
                   0
                   0
                   0
                   0
                   0
                   0
                   0
                   0
                   0
                   0
                   0
                   0
                   0
                   0
                   0
                   0
                   0
                   0
                   0
                   0
                   0
                   0
                   0
                   0
                   0
                   0
                   0
                   0
                   0
                   0
                   0
                   0
                   0
                   0
                   0
                   0
                   0
                   0
                   0
                   0
                   0
                   0
                   0
                   0
                   0
                   0
                   0
                   0
                   0
                   0
                   0
                   0
                   0
                   0
                   0
                   0
                   0
                   0
                   0
                   0
                   0
                   0
                   0
                   0
                   0
                   0
                   0
                   0
                   0
                   0
                   0
                   0
                   0
                   0
                   0
                   0
                   0
                   0
                   0
                   0
                   0
                   0
                   0
                   0
                   0
                   0
                   0
                   0
                   0
                   0
                   0
                   0
                   0
                   0
                   0
                   0
                   0
                   0
                   0
                   0
                   0
                   0
                   0
                   0
                   0
                   0
                   0
                   0
                   0
                   0
                   0
                   0
                   0
                   0
                   0
                   0
                   0
                   0
                   0
                   0
                   0
                   0
                   0
                   0
                   0
                   0
                   0
                   0
                   0
                   0
                   0
                   0
                   0
                   0
                   0
                   0
                   0
                   0
                   0
                   0
                   0
                   0
                   0
                   0
                   0
                   0
                   0
                   0
                   0
                   0
                   0
                   0
                   0
                   0
                   0
                   0
                   0
                   0
                   0
                   0
                   0
                   0
                   0
                   0
                   0
                   0
                   0
                   0
                   0
                   0
                   0
                   0
                   0
                   0
                   0
                   0
                   0
                   0
                   0
                   0
                   0
                   0
                   0
                   0
                   0
                   0
                   0
                   0
                   0
                   0
                   0
                   0
                   0
                   0
                   0
                   0
                   0
                   0
                   0
                   0
                   0
                   0
                   0
                   0
                   0
                   0
                   0
                   0
                   0
                   0
                   0
                   0
                   0
                   0
                   0
                   0
                   0
                   0
                   0
                   0
                   0
                   0
                   0
                   0
                   0
                   0
                   0
                   0
                   0
                   0
                   0
                   0
                   0
                   0
                   0
                   0
                   0
                   0
                   0
                   0
                   0
                   0
                   0
                   0
                   0
                   0
                   0
                   0
                   0
                   0
                   0
                   0
                   0
                   0
                   0
                   0
                   0
                   0
                   0
                   0
                   0
                   0
                   0
                   0
                   0
  
SCALARS                       fixity_z  double 1
LOOKUP_TABLE default
                   0
                   0
                   0
                   0
                   1
                   1
                   1
                   1
                   0
                   0
                   1
                   1
                   0
                   0
                   1
                   1
                   0
                   0
                   1
                   1
                   0
                   0
                   0
                   1
                   1
                   1
                   0
                   0
                   1
                   1
                   0
                   0
                   0
                   1
                   1
                   1
                   0
                   0
                   1
                   1
                   0
                   0
                   1
                   1
                   0
                   0
                   1
                   1
                   0
                   1
                   0
                   1
                   0
                   1
                   0
                   1
                   0
                   0
                   1
                   1
                   0
                   0
                   1
                   1
                   0
                   1
                   0
                   1
                   0
                   0
                   1
                   1
                   0
                   1
                   0
                   1
                   0
                   1
                   0
                   1
                   0
                   0
                   1
                   1
                   0
                   1
                   0
                   1
                   0
                   1
                   0
                   0
                   1
                   1
                   0
                   1
                   0
                   1
                   0
                   1
                   0
                   0
                   1
                   1
                   0
                   0
                   1
                   1
                   0
                   1
                   0
                   1
                   0
                   1
                   0
                   1
                   0
                   1
                   0
                   1
                   0
                   1
                   0
                   1
                   0
                   1
                   0
                   1
                   0
                   1
                   0
                   1
                   0
                   1
                   0
                   1
                   0
                   1
                   0
                   1
                   0
                   1
                   0
                   1
                   0
                   1
                   0
                   1
                   0
                   1
                   0
                   1
                   0
                   1
                   0
                   1
                   0
                   0
                   0
                   0
                   0
                   0
                   0
                   0
                   0
                   0
                   0
                   0
                   0
                   0
                   0
                   0
                   0
                   0
                   0
                   0
                   0
                   0
                   0
                   0
                   0
                   0
                   0
                   0
                   0
                   0
                   0
                   0
                   0
                   0
                   0
                   0
                   0
                   0
                   0
                   0
                   0
                   0
                   0
                   0
                   0
                   0
                   0
                   0
                   0
                   0
                   0
                   0
                   0
                   0
                   0
                   0
                   0
                   0
                   0
                   0
                   0
                   0
                   0
                   0
                   0
                   0
                   0
                   0
                   0
                   0
                   0
                   0
                   0
                   0
                   0
                   0
                   0
                   0
                   0
                   0
                   0
                   0
                   0
                   0
                   0
                   0
                   0
                   0
                   0
                   0
                   0
                   0
                   0
                   0
                   0
                   0
                   0
                   0
                   0
                   0
                   0
                   0
                   0
                   0
                   0
                   0
                   0
                   0
                   0
                   0
                   0
                   0
                   0
                   0
                   0
                   0
                   0
                   0
                   0
                   0
                   0
                   0
                   0
                   0
                   0
                   0
                   0
                   0
                   0
                   0
                   0
                   0
                   0
                   0
                   0
                   0
                   0
                   0
                   0
                   0
                   0
                   0
                   0
                   0
                   0
                   0
                   0
                   0
                   0
                   0
                   0
                   0
                   0
                   0
                   0
                   0
                   0
                   0
                   0
                   0
                   0
                   0
                   0
                   0
                   0
                   0
                   0
                   0
                   0
                   0
                   0
                   0
                   0
                   0
                   0
                   0
                   0
                   0
                   0
                   0
                   0
                   0
                   0
                   0
                   0
                   0
                   0
                   0
                   0
                   0
                   0
                   0
                   0
                   0
                   0
                   0
                   0
                   0
                   0
                   0
                   0
                   0
                   0
                   0
                   0
                   0
                   0
                   0
                   0
                   0
                   0
                   0
                   0
                   0
                   0
                   0
                   0
                   0
                   0
                   0
                   0
                   0
                   0
                   0
                   0
                   0
                   0
                   0
                   0
                   0
                   0
                   0
                   0
                   0
                   0
                   0
                   0
                   0
                   0
                   0
                   0
                   0
                   0
                   0
                   0
                   0
                   0
                   0
                   0
                   0
                   0
                   0
                   0
                   0
                   0
                   0
                   0
                   0
                   0
                   0
                   0
                   0
                   0
                   0
                   0
                   0
                   0
                   0
                   0
                   0
                   0
                   0
                   0
                   0
                   0
                   0
                   0
                   0
                   0
                   0
                   0
                   0
                   0
                   0
                   0
                   0
                   0
                   0
                   0
                   0
                   0
                   0
                   0
                   0
                   0
                   0
                   0
                   0
                   0
                   0
                   0
                   0
                   0
                   0
                   0
                   0
                   0
                   0
                   0
                   0
                   0
                   0
                   0
                   0
                   0
                   0
                   0
                   0
                   0
                   0
                   0
                   0
                   0
                   0
                   0
                   0
                   0
                   0
                   0
                   0
                   0
                   0
                   0
                   0
                   0
                   0
                   0
                   0
                   0
                   0
                   0
                   0
                   0
                   0
                   0
                   0
                   0
                   0
                   0
                   0
                   0
                   0
                   0
                   0
                   0
                   0
                   0
                   0
                   0
                   0
                   0
                   0
                   0
                   0
                   0
                   0
                   0
                   0
                   0
                   0
                   0
                   0
                   0
                   0
                   0
                   0
                   0
                   0
                   0
                   0
                   0
                   0
                   0
                   0
                   0
                   0
                   0
                   0
                   0
                   0
                   0
                   0
                   0
                   0
                   0
                   0
                   0
                   0
                   0
                   0
                   0
                   0
                   0
                   0
                   0
                   0
                   0
                   0
                   0
                   0
                   0
                   0
                   0
                   0
                   0
                   0
                   0
                   0
                   0
                   0
                   0
                   0
                   0
                   0
                   0
                   0
                   0
                   0
                   0
                   0
                   0
                   0
                   0
                   0
                   0
                   0
                   0
                   0
                   0
                   0
                   0
                   0
                   0
                   0
                   0
                   0
                   0
                   0
                   0
                   0
                   0
                   0
                   0
                   0
                   0
                   0
                   0
                   0
                   0
                   0
                   0
                   0
                   0
                   0
                   0
                   0
                   0
                   0
                   0
                   0
                   0
                   0
                   0
                   0
                   0
                   0
                   0
                   0
                   0
                   0
                   0
                   0
                   0
                   0
                   0
                   0
                   0
                   0
                   0
                   0
                   0
                   0
                   0
                   0
                   0
                   0
                   0
                   0
                   0
                   0
                   0
                   0
                   0
                   0
                   0
                   0
                   0
                   0
                   0
                   0
                   0
                   0
                   0
                   0
                   0
                   0
                   0
                   0
                   0
                   0
                   0
                   0
                   0
                   0
                   0
                   0
                   0
                   0
                   0
                   0
                   0
                   0
                   0
                   0
                   0
                   0
                   0
                   0
                   0
                   0
                   0
                   0
                   0
                   0
                   0
                   0
                   0
                   0
                   0
                   0
                   0
                   0
                   0
                   0
                   0
                   0
                   0
                   0
                   0
                   0
                   0
                   0
                   0
                   0
                   0
                   0
                   0
                   0
                   0
                   0
                   0
                   0
                   0
                   0
                   0
                   0
                   0
                   0
                   0
                   0
                   0
                   0
                   0
                   0
                   0
                   0
                   0
                   0
                   0
                   0
                   0
                   0
                   0
                   0
                   0
                   0
                   0
                   0
                   0
                   0
                   0
                   0
                   0
                   0
                   0
                   0
                   0
                   0
                   0
                   0
                   0
                   0
                   0
                   0
                   0
                   0
                   0
                   0
                   0
                   0
                   0
                   0
                   0
                   0
                   0
                   0
                   0
                   0
                   0
                   0
                   0
                   0
                   0
                   0
                   0
                   0
                   0
                   0
                   0
                   0
                   0
                   0
                   0
                   0
                   0
                   0
                   0
                   0
                   0
                   0
                   0
                   0
                   0
                   0
                   0
                   0
                   0
                   0
                   0
                   0
                   0
                   0
                   0
                   0
                   0
                   0
                   0
                   0
                   0
                   0
                   0
                   0
                   0
                   0
                   0
                   0
                   0
                   0
                   0
                   0
                   0
                   0
                   0
                   0
                   0
                   0
                   0
                   0
                   0
                   0
                   0
                   0
                   0
                   0
                   0
                   0
                   0
                   0
                   0
                   0
                   0
                   0
                   0
                   0
                   0
                   0
                   0
                   0
                   0
                   0
                   0
                   0
                   0
                   0
                   0
                   0
                   0
                   0
                   0
                   0
                   0
                   0
                   0
                   0
                   0
                   0
                   0
                   0
                   0
                   0
                   0
                   0
                   0
                   0
                   0
                   0
                   0
                   0
                   0
                   0
                   0
                   0
                   0
                   0
                   0
                   0
                   0
                   0
                   0
                   0
                   0
                   0
                   0
                   0
                   0
                   0
                   0
                   0
                   0
                   0
                   0
                   0
                   0
                   0
                   0
                   0
                   0
                   0
                   0
                   0
                   0
                   0
                   0
                   0
                   0
                   0
                   0
                   0
                   0
                   0
                   0
                   0
                   0
                   0
                   0
                   0
                   0
                   0
                   0
                   0
                   0
                   0
                   0
                   0
                   0
                   0
                   0
                   0
                   0
                   0
                   0
                   0
                   0
                   0
                   0
                   0
                   0
                   0
                   0
                   0
                   0
                   0
                   0
                   0
                   0
                   0
                   0
                   0
                   0
                   0
                   0
                   0
                   0
                   0
                   0
                   0
                   0
                   0
                   0
                   0
                   0
                   0
                   0
                   0
                   0
                   0
                   0
                   0
                   0
                   0
                   0
                   0
                   0
                   0
                   0
                   0
                   0
                   0
                   0
                   0
                   0
                   0
                   0
                   0
                   0
                   0
                   0
                   0
                   0
                   0
                   0
                   0
                   0
                   0
                   0
                   0
                   0
                   0
                   0
                   0
                   0
                   0
                   0
                   0
                   0
                   0
                   0
                   0
                   0
                   0
                   0
                   0
                   0
                   0
                   0
                   0
                   0
                   0
                   0
                   0
                   0
                   0
                   0
                   0
                   0
                   0
                   0
                   0
                   0
                   0
                   0
                   0
                   0
                   0
                   0
                   0
                   0
                   0
                   0
                   0
                   0
                   0
                   0
                   0
                   0
                   0
                   0
                   0
                   0
                   0
                   0
                   0
                   0
                   0
                   0
                   0
                   0
                   0
                   0
                   0
                   0
                   0
                   0
                   0
                   0
                   0
                   0
                   0
                   0
                   0
                   0
                   0
                   0
                   0
                   0
                   0
                   0
                   0
                   0
                   0
                   0
                   0
                   0
                   0
                   0
                   0
                   0
                   0
                   0
                   0
                   0
                   0
                   0
                   0
                   0
                   0
                   0
                   0
                   0
                   0
                   0
                   0
                   0
                   0
                   0
                   0
                   0
                   0
                   0
                   0
                   0
                   0
                   0
                   0
                   0
                   0
                   0
                   0
                   0
                   0
                   0
                   0
                   0
                   0
                   0
                   0
                   0
                   0
                   0
                   0
                   0
                   0
                   0
                   0
                   0
                   0
                   0
                   0
                   0
                   0
                   0
                   0
                   0
                   0
                   0
                   0
                   0
                   0
                   0
                   0
                   0
                   0
                   0
                   0
                   0
                   0
                   0
                   0
                   0
                   0
                   0
                   0
                   0
                   0
                   0
                   0
                   0
                   0
                   0
                   0
                   0
                   0
                   0
                   0
                   0
                   0
                   0
                   0
                   0
                   0
                   0
                   0
                   0
                   0
                   0
                   0
                   0
                   0
                   0
                   0
                   0
                   0
                   0
                   0
                   0
                   0
                   0
                   0
                   0
                   0
                   0
                   0
                   0
                   0
                   0
                   0
                   0
                   0
                   0
                   0
                   0
                   0
                   0
                   0
                   0
                   0
                   0
                   0
                   0
                   0
                   0
                   0
                   0
                   0
                   0
                   0
                   0
                   0
                   0
                   0
                   0
                   0
                   0
                   0
                   0
                   0
                   0
                   0
                   0
                   0
                   0
                   0
                   0
                   0
                   0
                   0
                   0
                   0
                   0
                   0
                   0
                   0
                   0
                   0
                   0
                   0
                   0
                   0
                   0
                   0
                   0
                   0
                   0
                   0
                   0
                   0
                   0
                   0
                   0
                   0
                   0
                   0
                   0
                   0
                   0
                   0
                   0
                   0
                   0
                   0
                   0
                   0
                   0
                   0
                   0
                   0
                   0
                   0
                   0
                   0
                   0
                   0
                   0
                   0
                   0
                   0
                   0
                   0
                   0
                   0
                   0
                   0
                   0
                   0
                   0
                   0
                   0
                   0
                   0
                   0
                   0
                   0
                   0
                   0
                   0
                   0
                   0
                   0
                   0
                   0
                   0
                   0
                   0
                   0
                   0
                   0
                   0
                   0
                   0
                   0
                   0
                   0
                   0
                   0
                   0
                   0
                   0
                   0
                   0
                   0
                   0
                   0
                   0
                   0
                   0
                   0
                   0
                   0
                   0
                   0
                   0
                   0
                   0
                   0
                   0
                   0
                   0
                   0
                   0
                   0
                   0
                   0
                   0
                   0
                   0
                   0
                   0
                   0
                   0
                   0
                   0
                   0
                   0
                   0
                   0
                   0
                   0
                   0
                   0
                   0
                   0
                   0
                   0
                   0
                   0
                   0
                   0
                   0
                   0
                   0
                   0
                   0
                   0
                   0
                   0
                   0
                   0
                   0
                   0
                   0
                   0
                   0
                   0
                   0
                   0
                   0
                   0
                   0
                   0
                   0
                   0
                   0
                   0
                   0
                   0
                   0
                   0
                   0
                   0
                   0
                   0
                   0
                   0
                   0
                   0
                   0
                   0
                   0
                   0
                   0
                   0
                   0
                   0
                   0
                   0
                   0
                   0
                   0
                   0
                   0
                   0
                   0
                   0
                   0
                   0
                   0
                   0
                   0
                   0
                   0
                   0
                   0
                   0
                   0
                   0
                   0
                   0
                   0
                   0
                   0
                   0
                   0
                   0
                   0
                   0
                   0
                   0
                   0
                   0
                   0
                   0
                   0
                   0
                   0
                   0
                   0
                   0
                   0
                   0
                   0
                   0
                   0
                   0
                   0
                   0
                   0
                   0
                   0
                   0
                   0
                   0
                   0
                   0
                   0
                   0
                   0
                   0
                   0
                   0
                   0
                   0
                   0
                   0
                   0
                   0
                   0
                   0
                   0
                   0
                   0
                   0
                   0
                   0
                   0
                   0
                   0
                   0
                   0
                   0
                   0
                   0
                   0
                   0
                   0
                   0
                   0
                   0
                   0
                   0
                   0
                   0
                   0
                   0
                   0
                   0
                   0
                   0
                   0
                   0
                   0
                   0
                   0
                   0
                   0
                   0
                   0
                   0
                   0
                   0
                   0
                   0
                   0
                   0
                   0
                   0
                   0
                   0
                   0
                   0
                   0
                   0
                   0
                   0
                   0
                   0
                   0
                   0
                   0
                   0
                   0
                   0
                   0
                   0
                   0
                   0
                   0
                   0
                   0
                   0
                   0
                   0
                   0
                   0
                   0
                   0
                   0
                   0
                   0
                   0
                   0
                   0
                   0
                   0
                   0
                   0
                   0
                   0
                   0
                   0
                   0
                   0
                   0
                   0
                   0
                   0
                   0
                   0
                   0
                   0
                   0
                   0
                   0
                   0
                   0
                   0
                   0
                   0
                   0
                   0
                   0
                   0
                   0
                   0
                   0
                   0
                   0
                   0
                   0
                   0
                   0
                   0
                   0
                   0
                   0
                   0
                   0
                   0
                   0
                   0
                   0
                   0
                   0
                   0
                   0
                   0
                   0
                   0
                   0
                   0
                   0
                   0
                   0
                   0
                   0
                   0
                   0
                   0
                   0
                   0
                   0
                   0
                   0
                   0
                   0
                   0
                   0
                   0
                   0
                   0
                   0
                   0
                   0
                   0
                   0
                   0
                   0
                   0
                   0
                   0
                   0
                   0
                   0
                   0
                   0
                   0
                   0
                   0
                   0
                   0
                   0
                   0
                   0
                   0
                   0
                   0
                   0
                   0
                   0
                   0
                   0
                   0
                   0
                   0
                   0
                   0
                   0
                   0
                   0
                   0
                   0
                   0
                   0
                   0
                   0
                   0
                   0
                   0
                   0
                   0
                   0
                   0
                   0
                   0
                   0
                   0
                   0
                   0
                   0
                   0
                   0
                   0
                   0
                   0
                   0
                   0
                   0
                   0
                   0
                   0
                   0
                   0
                   0
                   0
                   0
                   0
                   0
                   0
                   0
                   0
                   0
                   0
                   0
                   0
                   0
                   0
                   0
                   0
                   0
                   0
                   0
                   0
                   0
                   0
                   0
                   0
                   0
                   0
                   0
                   0
                   0
                   0
                   0
                   0
                   0
                   0
                   0
                   0
                   0
                   0
                   0
                   0
                   0
                   0
                   0
                   0
                   0
                   0
                   0
                   0
                   0
                   0
                   0
                   0
                   0
                   0
                   0
                   0
                   0
                   0
                   0
                   0
                   0
                   0
                   0
                   0
                   0
                   0
                   0
                   0
                   0
                   0
                   0
                   0
                   0
                   0
                   0
                   0
                   0
                   0
                   0
                   0
                   0
                   0
                   0
                   0
                   0
                   0
                   0
                   0
                   0
                   0
                   0
                   0
                   0
                   0
                   0
                   0
                   0
                   0
                   0
                   0
                   0
                   0
                   0
                   0
                   0
                   0
                   0
                   0
                   0
                   0
                   0
                   0
                   0
                   0
                   0
                   0
                   0
                   0
                   0
                   0
                   0
                   0
                   0
                   0
                   0
                   0
                   0
                   0
                   0
                   0
                   0
                   0
                   0
                   0
                   0
                   0
                   0
                   0
                   0
                   0
                   0
                   0
                   0
                   0
                   0
                   0
                   0
                   0
                   0
                   0
                   0
                   0
                   0
                   0
                   0
                   0
                   0
                   0
                   0
                   0
                   0
                   0
                   0
                   0
                   0
                   0
                   0
                   0
                   0
                   0
                   0
                   0
                   0
                   0
                   0
                   0
                   0
                   0
                   0
                   0
                   0
                   0
                   0
  
SCALARS                         Ispace  double 1
LOOKUP_TABLE default
                  12
                  12
                  12
                  12
                  12
                  12
                  12
                  12
                  12
                  12
                  12
                  12
                  12
                  11
                  12
                  11
                  11
                  11
                  11
                  11
                  11
                  12
                  12
                  11
                  12
                  12
                  11
                  11
                  11
                  11
                  11
                  11
                  11
                  11
                  11
                  11
                  11
                  11
                  11
                  11
                  11
                  11
                  11
                  11
                  11
                  11
                  11
                  11
                  11
                  11
                  11
                  11
                  11
                  11
                  11
                  11
                  11
                  11
                  11
                  11
                  11
                  11
                  11
                  11
                  11
                  11
                  12
                  12
                  12
                  12
                  12
                  12
                  12
                  12
                  11
                  11
                  11
                  11
                  11
                  11
                  11
                  11
                  11
                  11
                  11
                  11
                  11
                  11
                  11
                  11
                  11
                  11
                  11
                  11
                  11
                  11
                  12
                  12
                  12
                  12
                  12
                  12
                  12
                  12
                  12
                  12
                  12
                  12
                  12
                  12
                  12
                  12
                  12
                  12
                  12
                  12
                  11
                  11
                  11
                  11
                  11
                  11
                  11
                  11
                  11
                  11
                  11
                  11
                  11
                  11
                  11
                  11
                  11
                  11
                  11
                  11
                  11
                  11
                  11
                  11
                  11
                  11
                  11
                  11
                  11
                  11
                  12
                  12
                  12
                  12
                  12
                  12
                  12
                  12
                  12
                  12
                  12
                  12
                  12
                  12
                  12
                  12
                  12
                  11
                  11
                  11
                  11
                  12
                  12
                  11
                  11
                  11
                  11
                  11
                  11
                  11
                  11
                  11
                  11
                  11
                  11
                  11
                  11
                  11
                  11
                  11
                  11
                  11
                  11
                  12
                  12
                  12
                  12
                  11
                  11
                  11
                  11
                  11
                  11
                  11
                  11
                  11
                  11
                  11
                  12
                  12
                  12
                  12
                  12
                  12
                  12
                  12
                  12
                  12
                  11
                  11
                  11
                  11
                  11
                  11
                  11
                  11
                  11
                  11
                  11
                  11
                  11
                  11
                  11
                  12
                  12
                  12
                  12
                  12
                  12
                  12
                  12
                  12
                  12
                  12
                  12
                  11
                  11
                  11
                  11
                  12
                  12
                  11
                  11
                  11
                  11
                  11
                  11
                  11
                  11
                  11
                  11
                  11
                  11
                  11
                  11
                  11
                  11
                  11
                  11
                  11
                  11
                  12
                  12
                  12
                  12
                  11
                  11
                  11
                  11
                  11
                  11
                  11
                  11
                  11
                  11
                  11
                  12
                  12
                  12
                  12
                  12
                  12
                  12
                  12
                  12
                  12
                  11
                  11
                  11
                  11
                  11
                  11
                  11
                  11
                  11
                  11
                  11
                  11
                  11
                  11
                  11
                  12
                  12
                  12
                  12
                  12
                  12
                  12
                  12
                  12
                  12
                  12
                  12
                  11
                  11
                  11
                  11
                  12
                  12
                  11
                  11
                  11
                  11
                  11
                  11
                  11
                  11
                  11
                  11
                  11
                  11
                  11
                  11
                  11
                  11
                  11
                  11
                  11
                  11
                  12
                  12
                  12
                  12
                  11
                  11
                  11
                  11
                  11
                  11
                  11
                  11
                  11
                  11
                  11
                  12
                  12
                  12
                  12
                  12
                  12
                  12
                  12
                  12
                  12
                  11
                  11
                  11
                  11
                  11
                  11
                  11
                  11
                  11
                  11
                  11
                  11
                  11
                  11
                  11
                  12
                  12
                  12
                  12
                  12
                  12
                  12
                  12
                  12
                  12
                  12
                  12
                  11
                  11
                  11
                  11
                  12
                  12
                  11
                  11
                  11
                  11
                  11
                  11
                  11
                  11
                  11
                  11
                  11
                  11
                  11
                  11
                  11
                  11
                  11
                  11
                  11
                  11
                  12
                  12
                  12
                  12
                  11
                  11
                  11
                  11
                  11
                  11
                  11
                  11
                  11
                  11
                  11
                  12
                  12
                  12
                  12
                  12
                  12
                  12
                  12
                  12
                  12
                  11
                  11
                  11
                  11
                  11
                  11
                  11
                  11
                  11
                  11
                  11
                  11
                  11
                  11
                  11
                  12
                  12
                  12
                  12
                  12
                  12
                  12
                  12
                  12
                  12
                  12
                  12
                  11
                  11
                  11
                  11
                  12
                  12
                  11
                  11
                  11
                  11
                  11
                  11
                  11
                  11
                  11
                  11
                  11
                  11
                  11
                  11
                  11
                  11
                  11
                  11
                  11
                  11
                  12
                  12
                  12
                  12
                  11
                  11
                  11
                  11
                  11
                  11
                  11
                  11
                  11
                  11
                  11
                  12
                  12
                  12
                  12
                  12
                  12
                  12
                  12
                  12
                  12
                  11
                  11
                  11
                  11
                  11
                  11
                  11
                  11
                  11
                  11
                  11
                  11
                  11
                  11
                  11
                  12
                  12
                  12
                  12
                  12
                  12
                  12
                  12
                  12
                  12
                  12
                  12
                  11
                  11
                  11
                  11
                  12
                  12
                  11
                  11
                  11
                  11
                  11
                  11
                  11
                  11
                  11
                  11
                  11
                  11
                  11
                  11
                  11
                  11
                  11
                  11
                  11
                  11
                  12
                  12
                  12
                  12
                  11
                  11
                  11
                  11
                  11
                  11
                  11
                  11
                  11
                  11
                  11
                  12
                  12
                  12
                  12
                  12
                  12
                  12
                  12
                  12
                  12
                  11
                  11
                  11
                  11
                  11
                  11
                  11
                  11
                  11
                  11
                  11
                  11
                  11
                  11
                  11
                  12
                  12
                  12
                  12
                  12
                  12
                  12
                  12
                  12
                  12
                  12
                  12
                  11
                  11
                  11
                  11
                  12
                  12
                  11
                  11
                  11
                  11
                  11
                  11
                  11
                  11
                  11
                  11
                  11
                  11
                  11
                  11
                  11
                  11
                  11
                  11
                  11
                  11
                  12
                  12
                  12
                  12
                  11
                  11
                  11
                  11
                  11
                  11
                  11
                  11
                  11
                  11
                  11
                  12
                  12
                  12
                  12
                  12
                  12
                  12
                  12
                  12
                  12
                  11
                  11
                  11
                  11
                  11
                  11
                  11
                  11
                  11
                  11
                  11
                  11
                  11
                  11
                  11
                  12
                  12
                  12
                  12
                  12
                  12
                  12
                  12
                  12
                  12
                  12
                  12
                  11
                  11
                  11
                  11
                  12
                  12
                  11
                  11
                  11
                  11
                  11
                  11
                  11
                  11
                  11
                  11
                  11
                  11
                  11
                  11
                  11
                  11
                  11
                  11
                  11
                  11
                  12
                  12
                  12
                  12
                  11
                  11
                  11
                  11
                  11
                  11
                  11
                  11
                  11
                  11
                  11
                  12
                  12
                  12
                  12
                  12
                  12
                  12
                  12
                  12
                  12
                  11
                  11
                  11
                  11
                  11
                  11
                  11
                  11
                  11
                  11
                  11
                  11
                  11
                  11
                  11
                  12
                  12
                  12
                  12
                  12
                  12
                  12
                  12
                  12
                  12
                  12
                  12
                  11
                  11
                  11
                  11
                  12
                  12
                  11
                  11
                  11
                  11
                  11
                  11
                  11
                  11
                  11
                  11
                  11
                  11
                  11
                  11
                  11
                  11
                  11
                  11
                  11
                  11
                  12
                  12
                  12
                  12
                  11
                  11
                  11
                  11
                  11
                  11
                  11
                  11
                  11
                  11
                  11
                  12
                  12
                  12
                  12
                  12
                  12
                  12
                  12
                  12
                  12
                  11
                  11
                  11
                  11
                  11
                  11
                  11
                  11
                  11
                  11
                  11
                  11
                  11
                  11
                  11
                  12
                  12
                  12
                  12
                  12
                  12
                  12
                  12
                  12
                  12
                  12
                  12
                  11
                  11
                  11
                  11
                  12
                  12
                  11
                  11
                  11
                  11
                  11
                  11
                  11
                  11
                  11
                  11
                  11
                  11
                  11
                  11
                  11
                  11
                  11
                  11
                  11
                  11
                  12
                  12
                  12
                  12
                  11
                  11
                  11
                  11
                  11
                  11
                  11
                  11
                  11
                  11
                  11
                  12
                  12
                  12
                  12
                  12
                  12
                  12
                  12
                  12
                  12
                  11
                  11
                  11
                  11
                  11
                  11
                  11
                  11
                  11
                  11
                  11
                  11
                  11
                  11
                  11
                  12
                  12
                  12
                  12
                  12
                  12
                  12
                  12
                  12
                  12
                  12
                  12
                  11
                  11
                  11
                  11
                  12
                  12
                  11
                  11
                  11
                  11
                  11
                  11
                  11
                  11
                  11
                  11
                  11
                  11
                  11
                  11
                  11
                  11
                  11
                  11
                  11
                  11
                  12
                  12
                  12
                  12
                  11
                  11
                  11
                  11
                  11
                  11
                  11
                  11
                  11
                  11
                  11
                  12
                  12
                  12
                  12
                  12
                  12
                  12
                  12
                  12
                  12
                  11
                  11
                  11
                  11
                  11
                  11
                  11
                  11
                  11
                  11
                  11
                  11
                  11
                  11
                  11
                  12
                  12
                  12
                  12
                  12
                  12
                  12
                  12
                  12
                  12
                  12
                  12
                  11
                  11
                  11
                  11
                  12
                  12
                  11
                  11
                  11
                  11
                  11
                  11
                  11
                  11
                  11
                  11
                  11
                  11
                  11
                  11
                  11
                  11
                  11
                  11
                  11
                  11
                  12
                  12
                  12
                  12
                  11
                  11
                  11
                  11
                  11
                  11
                  11
                  11
                  11
                  11
                  11
                  12
                  12
                  12
                  12
                  12
                  12
                  12
                  12
                  12
                  12
                  11
                  11
                  11
                  11
                  11
                  11
                  11
                  11
                  11
                  11
                  11
                  11
                  11
                  11
                  11
                  12
                  12
                  12
                  12
                  12
                  12
                  12
                  12
                  12
                  12
                  12
                  12
                  11
                  11
                  11
                  11
                  12
                  12
                  11
                  11
                  11
                  11
                  11
                  11
                  11
                  11
                  11
                  11
                  11
                  11
                  11
                  11
                  11
                  11
                  11
                  11
                  11
                  11
                  12
                  12
                  12
                  12
                  11
                  11
                  11
                  11
                  11
                  11
                  11
                  11
                  11
                  11
                  11
                  12
                  12
                  12
                  12
                  12
                  12
                  12
                  12
                  12
                  12
                  11
                  11
                  11
                  11
                  11
                  11
                  11
                  11
                  11
                  11
                  11
                  11
                  11
                  11
                  11
                  12
                  12
                  12
                  12
                  12
                  12
                  12
                  12
                  12
                  12
                  12
                  12
                  11
                  11
                  11
                  11
                  12
                  12
                  11
                  11
                  11
                  11
                  11
                  11
                  11
                  11
                  11
                  11
                  11
                  11
                  11
                  11
                  11
                  11
                  11
                  11
                  11
                  11
                  12
                  12
                  12
                  12
                  11
                  11
                  11
                  11
                  11
                  11
                  11
                  11
                  11
                  11
                  11
                  12
                  12
                  12
                  12
                  12
                  12
                  12
                  12
                  12
                  12
                  11
                  11
                  11
                  11
                  11
                  11
                  11
                  11
                  11
                  11
                  11
                  11
                  11
                  11
                  11
                  12
                  12
                  12
                  12
                  12
                  12
                  12
                  12
                  12
                  12
                  12
                  12
                  11
                  11
                  11
                  11
                  12
                  12
                  11
                  11
                  11
                  11
                  11
                  11
                  11
                  11
                  11
                  11
                  11
                  11
                  11
                  11
                  11
                  11
                  11
                  11
                  11
                  11
                  12
                  12
                  12
                  12
                  11
                  11
                  11
                  11
                  11
                  11
                  11
                  11
                  11
                  11
                  11
                  12
                  12
                  12
                  12
                  12
                  12
                  12
                  12
                  12
                  12
                  11
                  11
                  11
                  11
                  11
                  11
                  11
                  11
                  11
                  11
                  11
                  11
                  11
                  11
                  11
                  12
                  12
                  12
                  12
                  12
                  12
                  12
                  12
                  12
                  12
                  12
                  12
                  11
                  11
                  11
                  11
                  12
                  12
                  11
                  11
                  11
                  11
                  11
                  11
                  11
                  11
                  11
                  11
                  11
                  11
                  11
                  11
                  11
                  11
                  11
                  11
                  11
                  11
                  12
                  12
                  12
                  12
                  11
                  11
                  11
                  11
                  11
                  11
                  11
                  11
                  11
                  11
                  11
                  12
                  12
                  12
                  12
                  12
                  12
                  12
                  12
                  12
                  12
                  11
                  11
                  11
                  11
                  11
                  11
                  11
                  11
                  11
                  11
                  11
                  11
                  11
                  11
                  11
                  12
                  12
                  12
                  12
                  12
                  12
                  12
                  12
                  12
                  12
                  12
                  12
                  11
                  11
                  11
                  11
                  12
                  12
                  11
                  11
                  11
                  11
                  11
                  11
                  11
                  11
                  11
                  11
                  11
                  11
                  11
                  11
                  11
                  11
                  11
                  11
                  11
                  11
                  12
                  12
                  12
                  12
                  11
                  11
                  11
                  11
                  11
                  11
                  11
                  11
                  11
                  11
                  11
                  12
                  12
                  12
                  12
                  12
                  12
                  12
                  12
                  12
                  12
                  11
                  11
                  11
                  11
                  11
                  11
                  11
                  11
                  11
                  11
                  11
                  11
                  11
                  11
                  11
                  12
                  12
                  12
                  12
                  12
                  12
                  12
                  12
                  12
                  12
                  12
                  12
                  11
                  11
                  11
                  11
                  12
                  12
                  11
                  11
                  11
                  11
                  11
                  11
                  11
                  11
                  11
                  11
                  11
                  11
                  11
                  11
                  11
                  11
                  11
                  11
                  11
                  11
                  12
                  12
                  12
                  12
                  11
                  11
                  11
                  11
                  11
                  11
                  11
                  11
                  11
                  11
                  11
                  12
                  12
                  12
                  12
                  12
                  12
                  12
                  12
                  12
                  12
                  11
                  11
                  11
                  11
                  11
                  11
                  11
                  11
                  11
                  11
                  11
                  11
                  11
                  11
                  11
                  12
                  12
                  12
                  12
                  12
                  12
                  12
                  12
                  12
                  12
                  12
                  12
                  11
                  11
                  11
                  11
                  12
                  12
                  11
                  11
                  11
                  11
                  11
                  11
                  11
                  11
                  11
                  11
                  11
                  11
                  11
                  11
                  11
                  11
                  11
                  11
                  11
                  11
                  12
                  12
                  12
                  12
                  11
                  11
                  11
                  11
                  11
                  11
                  11
                  11
                  11
                  11
                  11
                  12
                  12
                  12
                  12
                  12
                  12
                  12
                  12
                  12
                  12
                  11
                  11
                  11
                  11
                  11
                  11
                  11
                  11
                  11
                  11
                  11
                  11
                  11
                  11
                  11
                  12
                  12
                  12
                  12
                  12
                  12
                  12
                  12
                  12
                  12
                  12
                  12
                  11
                  11
                  11
                  11
                  12
                  12
                  11
                  11
                  11
                  11
                  11
                  11
                  11
                  11
                  11
                  11
                  11
                  11
                  11
                  11
                  11
                  11
                  11
                  11
                  11
                  11
                  12
                  12
                  12
                  12
                  11
                  11
                  11
                  11
                  11
                  11
                  11
                  11
                  11
                  11
                  11
                  12
                  12
                  12
                  12
                  12
                  12
                  12
                  12
                  12
                  12
                  11
                  11
                  11
                  11
                  11
                  11
                  11
                  11
                  11
                  11
                  11
                  11
                  11
                  11
                  11
                  12
                  12
                  12
                  12
                  12
                  12
                  12
                  12
                  12
                  12
                  12
                  12
                  11
                  11
                  11
                  11
                  12
                  12
                  11
                  11
                  11
                  11
                  11
                  11
                  11
                  11
                  11
                  11
                  11
                  11
                  11
                  11
                  11
                  11
                  11
                  11
                  11
                  11
                  12
                  12
                  12
                  12
                  11
                  11
                  11
                  11
                  11
                  11
                  11
                  11
                  11
                  11
                  11
                  12
                  12
                  12
                  12
                  12
                  12
                  12
                  12
                  12
                  12
                  11
                  11
                  11
                  11
                  11
                  11
                  11
                  11
                  11
                  11
                  11
                  11
                  11
                  11
                  11
                  12
                  12
                  12
                  12
                  12
                  12
                  12
                  12
                  12
                  12
                  12
                  12
                  11
                  11
                  11
                  11
                  12
                  12
                  11
                  11
                  11
                  11
                  11
                  11
                  11
                  11
                  11
                  11
                  11
                  11
                  11
                  11
                  11
                  11
                  11
                  11
                  11
                  11
                  12
                  12
                  12
                  12
                  11
                  11
                  11
                  11
                  11
                  11
                  11
                  11
                  11
                  11
                  11
                  12
                  12
                  12
                  12
                  12
                  12
                  12
                  12
                  12
                  12
                  11
                  11
                  11
                  11
                  11
                  11
                  11
                  11
                  11
                  11
                  11
                  11
                  11
                  11
                  11
                  12
                  12
                  12
                  12
                  12
                  12
                  12
                  12
                  12
                  12
                  12
                  12
                  11
                  11
                  11
                  11
                  12
                  12
                  11
                  11
                  11
                  11
                  11
                  11
                  11
                  11
                  11
                  11
                  11
                  11
                  11
                  11
                  11
                  11
                  11
                  11
                  11
                  11
                  12
                  12
                  12
                  12
                  11
                  11
                  11
                  11
                  11
                  11
                  11
                  11
                  11
                  11
                  11
                  12
                  12
                  12
                  12
                  12
                  12
                  12
                  12
                  12
                  12
                  11
                  11
                  11
                  11
                  11
                  11
                  11
                  11
                  11
                  11
                  11
                  11
                  11
                  11
                  11
                  12
                  12
                  12
                  12
                  12
  
SCALARS                         Jspace  double 1
LOOKUP_TABLE default
                  11
                  12
                  11
                  11
                  11
                  12
                  11
                  11
                  11
                  11
                  11
                  11
                  12
                  12
                  12
                  12
                  11
                  12
                  11
                  12
                  12
                  12
                  12
                  12
                  12
                  12
                  12
                  12
                  12
                  12
                  11
                  11
                  11
                  11
                  11
                  11
                  11
                  11
                  11
                  11
                  11
                  11
                  11
                  11
                  11
                  11
                  11
                  11
                  11
                  11
                  11
                  11
                  12
                  12
                  12
                  12
                  12
                  11
                  12
                  11
                  11
                  11
                  11
                  11
                  11
                  11
                  11
                  11
                  11
                  12
                  11
                  12
                  12
                  12
                  12
                  12
                  12
                  12
                  12
                  12
                  12
                  12
                  12
                  12
                  11
                  11
                  11
                  11
                  11
                  11
                  11
                  11
                  11
                  11
                  11
                  11
                  11
                  11
                  11
                  11
                  11
                  11
                  11
                  11
                  11
                  11
                  11
                  11
                  12
                  12
                  12
                  12
                  12
                  12
                  12
                  12
                  12
                  12
                  12
                  12
                  12
                  12
                  12
                  12
                  12
                  12
                  12
                  12
                  11
                  11
                  11
                  11
                  11
                  11
                  11
                  11
                  11
                  11
                  11
                  11
                  11
                  11
                  11
                  11
                  11
                  11
                  11
                  11
                  11
                  11
                  11
                  11
                  11
                  11
                  11
                  11
                  11
                  12
                  11
                  11
                  11
                  11
                  12
                  12
                  11
                  12
                  12
                  12
                  12
                  12
                  12
                  11
                  11
                  11
                  11
                  11
                  11
                  11
                  11
                  11
                  11
                  11
                  12
                  12
                  12
                  11
                  11
                  11
                  11
                  11
                  11
                  12
                  12
                  12
                  12
                  12
                  12
                  12
                  11
                  11
                  11
                  11
                  11
                  11
                  11
                  11
                  11
                  11
                  11
                  11
                  12
                  12
                  12
                  12
                  12
                  12
                  12
                  12
                  12
                  12
                  11
                  11
                  11
                  11
                  11
                  11
                  11
                  11
                  11
                  11
                  11
                  11
                  11
                  11
                  11
                  12
                  11
                  11
                  11
                  11
                  12
                  12
                  11
                  12
                  12
                  12
                  12
                  12
                  12
                  11
                  11
                  11
                  11
                  11
                  11
                  11
                  11
                  11
                  11
                  11
                  12
                  12
                  12
                  11
                  11
                  11
                  11
                  11
                  11
                  12
                  12
                  12
                  12
                  12
                  12
                  12
                  11
                  11
                  11
                  11
                  11
                  11
                  11
                  11
                  11
                  11
                  11
                  11
                  12
                  12
                  12
                  12
                  12
                  12
                  12
                  12
                  12
                  12
                  11
                  11
                  11
                  11
                  11
                  11
                  11
                  11
                  11
                  11
                  11
                  11
                  11
                  11
                  11
                  12
                  11
                  11
                  11
                  11
                  12
                  12
                  11
                  12
                  12
                  12
                  12
                  12
                  12
                  11
                  11
                  11
                  11
                  11
                  11
                  11
                  11
                  11
                  11
                  11
                  12
                  12
                  12
                  11
                  11
                  11
                  11
                  11
                  11
                  12
                  12
                  12
                  12
                  12
                  12
                  12
                  11
                  11
                  11
                  11
                  11
                  11
                  11
                  11
                  11
                  11
                  11
                  11
                  12
                  12
                  12
                  12
                  12
                  12
                  12
                  12
                  12
                  12
                  11
                  11
                  11
                  11
                  11
                  11
                  11
                  11
                  11
                  11
                  11
                  11
                  11
                  11
                  11
                  12
                  11
                  11
                  11
                  11
                  12
                  12
                  11
                  12
                  12
                  12
                  12
                  12
                  12
                  11
                  11
                  11
                  11
                  11
                  11
                  11
                  11
                  11
                  11
                  11
                  12
                  12
                  12
                  11
                  11
                  11
                  11
                  11
                  11
                  12
                  12
                  12
                  12
                  12
                  12
                  12
                  11
                  11
                  11
                  11
                  11
                  11
                  11
                  11
                  11
                  11
                  11
                  11
                  12
                  12
                  12
                  12
                  12
                  12
                  12
                  12
                  12
                  12
                  11
                  11
                  11
                  11
                  11
                  11
                  11
                  11
                  11
                  11
                  11
                  11
                  11
                  11
                  11
                  12
                  11
                  11
                  11
                  11
                  12
                  12
                  11
                  12
                  12
                  12
                  12
                  12
                  12
                  11
                  11
                  11
                  11
                  11
                  11
                  11
                  11
                  11
                  11
                  11
                  12
                  12
                  12
                  11
                  11
                  11
                  11
                  11
                  11
                  12
                  12
                  12
                  12
                  12
                  12
                  12
                  11
                  11
                  11
                  11
                  11
                  11
                  11
                  11
                  11
                  11
                  11
                  11
                  12
                  12
                  12
                  12
                  12
                  12
                  12
                  12
                  12
                  12
                  11
                  11
                  11
                  11
                  11
                  11
                  11
                  11
                  11
                  11
                  11
                  11
                  11
                  11
                  11
                  12
                  11
                  11
                  11
                  11
                  12
                  12
                  11
                  12
                  12
                  12
                  12
                  12
                  12
                  11
                  11
                  11
                  11
                  11
                  11
                  11
                  11
                  11
                  11
                  11
                  12
                  12
                  12
                  11
                  11
                  11
                  11
                  11
                  11
                  12
                  12
                  12
                  12
                  12
                  12
                  12
                  11
                  11
                  11
                  11
                  11
                  11
                  11
                  11
                  11
                  11
                  11
                  11
                  12
                  12
                  12
                  12
                  12
                  12
                  12
                  12
                  12
                  12
                  11
                  11
                  11
                  11
                  11
                  11
                  11
                  11
                  11
                  11
                  11
                  11
                  11
                  11
                  11
                  12
                  11
                  11
                  11
                  11
                  12
                  12
                  11
                  12
                  12
                  12
                  12
                  12
                  12
                  11
                  11
                  11
                  11
                  11
                  11
                  11
                  11
                  11
                  11
                  11
                  12
                  12
                  12
                  11
                  11
                  11
                  11
                  11
                  11
                  12
                  12
                  12
                  12
                  12
                  12
                  12
                  11
                  11
                  11
                  11
                  11
                  11
                  11
                  11
                  11
                  11
                  11
                  11
                  12
                  12
                  12
                  12
                  12
                  12
                  12
                  12
                  12
                  12
                  11
                  11
                  11
                  11
                  11
                  11
                  11
                  11
                  11
                  11
                  11
                  11
                  11
                  11
                  11
                  12
                  11
                  11
                  11
                  11
                  12
                  12
                  11
                  12
                  12
                  12
                  12
                  12
                  12
                  11
                  11
                  11
                  11
                  11
                  11
                  11
                  11
                  11
                  11
                  11
                  12
                  12
                  12
                  11
                  11
                  11
                  11
                  11
                  11
                  12
                  12
                  12
                  12
                  12
                  12
                  12
                  11
                  11
                  11
                  11
                  11
                  11
                  11
                  11
                  11
                  11
                  11
                  11
                  12
                  12
                  12
                  12
                  12
                  12
                  12
                  12
                  12
                  12
                  11
                  11
                  11
                  11
                  11
                  11
                  11
                  11
                  11
                  11
                  11
                  11
                  11
                  11
                  11
                  12
                  11
                  11
                  11
                  11
                  12
                  12
                  11
                  12
                  12
                  12
                  12
                  12
                  12
                  11
                  11
                  11
                  11
                  11
                  11
                  11
                  11
                  11
                  11
                  11
                  12
                  12
                  12
                  11
                  11
                  11
                  11
                  11
                  11
                  12
                  12
                  12
                  12
                  12
                  12
                  12
                  11
                  11
                  11
                  11
                  11
                  11
                  11
                  11
                  11
                  11
                  11
                  11
                  12
                  12
                  12
                  12
                  12
                  12
                  12
                  12
                  12
                  12
                  11
                  11
                  11
                  11
                  11
                  11
                  11
                  11
                  11
                  11
                  11
                  11
                  11
                  11
                  11
                  12
                  11
                  11
                  11
                  11
                  12
                  12
                  11
                  12
                  12
                  12
                  12
                  12
                  12
                  11
                  11
                  11
                  11
                  11
                  11
                  11
                  11
                  11
                  11
                  11
                  12
                  12
                  12
                  11
                  11
                  11
                  11
                  11
                  11
                  12
                  12
                  12
                  12
                  12
                  12
                  12
                  11
                  11
                  11
                  11
                  11
                  11
                  11
                  11
                  11
                  11
                  11
                  11
                  12
                  12
                  12
                  12
                  12
                  12
                  12
                  12
                  12
                  12
                  11
                  11
                  11
                  11
                  11
                  11
                  11
                  11
                  11
                  11
                  11
                  11
                  11
                  11
                  11
                  12
                  11
                  11
                  11
                  11
                  12
                  12
                  11
                  12
                  12
                  12
                  12
                  12
                  12
                  11
                  11
                  11
                  11
                  11
                  11
                  11
                  11
                  11
                  11
                  11
                  12
                  12
                  12
                  11
                  11
                  11
                  11
                  11
                  11
                  12
                  12
                  12
                  12
                  12
                  12
                  12
                  11
                  11
                  11
                  11
                  11
                  11
                  11
                  11
                  11
                  11
                  11
                  11
                  12
                  12
                  12
                  12
                  12
                  12
                  12
                  12
                  12
                  12
                  11
                  11
                  11
                  11
                  11
                  11
                  11
                  11
                  11
                  11
                  11
                  11
                  11
                  11
                  11
                  12
                  11
                  11
                  11
                  11
                  12
                  12
                  11
                  12
                  12
                  12
                  12
                  12
                  12
                  11
                  11
                  11
                  11
                  11
                  11
                  11
                  11
                  11
                  11
                  11
                  12
                  12
                  12
                  11
                  11
                  11
                  11
                  11
                  11
                  12
                  12
                  12
                  12
                  12
                  12
                  12
                  11
                  11
                  11
                  11
                  11
                  11
                  11
                  11
                  11
                  11
                  11
                  11
                  12
                  12
                  12
                  12
                  12
                  12
                  12
                  12
                  12
                  12
                  11
                  11
                  11
                  11
                  11
                  11
                  11
                  11
                  11
                  11
                  11
                  11
                  11
                  11
                  11
                  12
                  11
                  11
                  11
                  11
                  12
                  12
                  11
                  12
                  12
                  12
                  12
                  12
                  12
                  11
                  11
                  11
                  11
                  11
                  11
                  11
                  11
                  11
                  11
                  11
                  12
                  12
                  12
                  11
                  11
                  11
                  11
                  11
                  11
                  12
                  12
                  12
                  12
                  12
                  12
                  12
                  11
                  11
                  11
                  11
                  11
                  11
                  11
                  11
                  11
                  11
                  11
                  11
                  12
                  12
                  12
                  12
                  12
                  12
                  12
                  12
                  12
                  12
                  11
                  11
                  11
                  11
                  11
                  11
                  11
                  11
                  11
                  11
                  11
                  11
                  11
                  11
                  11
                  12
                  11
                  11
                  11
                  11
                  12
                  12
                  11
                  12
                  12
                  12
                  12
                  12
                  12
                  11
                  11
                  11
                  11
                  11
                  11
                  11
                  11
                  11
                  11
                  11
                  12
                  12
                  12
                  11
                  11
                  11
                  11
                  11
                  11
                  12
                  12
                  12
                  12
                  12
                  12
                  12
                  11
                  11
                  11
                  11
                  11
                  11
                  11
                  11
                  11
                  11
                  11
                  11
                  12
                  12
                  12
                  12
                  12
                  12
                  12
                  12
                  12
                  12
                  11
                  11
                  11
                  11
                  11
                  11
                  11
                  11
                  11
                  11
                  11
                  11
                  11
                  11
                  11
                  12
                  11
                  11
                  11
                  11
                  12
                  12
                  11
                  12
                  12
                  12
                  12
                  12
                  12
                  11
                  11
                  11
                  11
                  11
                  11
                  11
                  11
                  11
                  11
                  11
                  12
                  12
                  12
                  11
                  11
                  11
                  11
                  11
                  11
                  12
                  12
                  12
                  12
                  12
                  12
                  12
                  11
                  11
                  11
                  11
                  11
                  11
                  11
                  11
                  11
                  11
                  11
                  11
                  12
                  12
                  12
                  12
                  12
                  12
                  12
                  12
                  12
                  12
                  11
                  11
                  11
                  11
                  11
                  11
                  11
                  11
                  11
                  11
                  11
                  11
                  11
                  11
                  11
                  12
                  11
                  11
                  11
                  11
                  12
                  12
                  11
                  12
                  12
                  12
                  12
                  12
                  12
                  11
                  11
                  11
                  11
                  11
                  11
                  11
                  11
                  11
                  11
                  11
                  12
                  12
                  12
                  11
                  11
                  11
                  11
                  11
                  11
                  12
                  12
                  12
                  12
                  12
                  12
                  12
                  11
                  11
                  11
                  11
                  11
                  11
                  11
                  11
                  11
                  11
                  11
                  11
                  12
                  12
                  12
                  12
                  12
                  12
                  12
                  12
                  12
                  12
                  11
                  11
                  11
                  11
                  11
                  11
                  11
                  11
                  11
                  11
                  11
                  11
                  11
                  11
                  11
                  12
                  11
                  11
                  11
                  11
                  12
                  12
                  11
                  12
                  12
                  12
                  12
                  12
                  12
                  11
                  11
                  11
                  11
                  11
                  11
                  11
                  11
                  11
                  11
                  11
                  12
                  12
                  12
                  11
                  11
                  11
                  11
                  11
                  11
                  12
                  12
                  12
                  12
                  12
                  12
                  12
                  11
                  11
                  11
                  11
                  11
                  11
                  11
                  11
                  11
                  11
                  11
                  11
                  12
                  12
                  12
                  12
                  12
                  12
                  12
                  12
                  12
                  12
                  11
                  11
                  11
                  11
                  11
                  11
                  11
                  11
                  11
                  11
                  11
                  11
                  11
                  11
                  11
                  12
                  11
                  11
                  11
                  11
                  12
                  12
                  11
                  12
                  12
                  12
                  12
                  12
                  12
                  11
                  11
                  11
                  11
                  11
                  11
                  11
                  11
                  11
                  11
                  11
                  12
                  12
                  12
                  11
                  11
                  11
                  11
                  11
                  11
                  12
                  12
                  12
                  12
                  12
                  12
                  12
                  11
                  11
                  11
                  11
                  11
                  11
                  11
                  11
                  11
                  11
                  11
                  11
                  12
                  12
                  12
                  12
                  12
                  12
                  12
                  12
                  12
                  12
                  11
                  11
                  11
                  11
                  11
                  11
                  11
                  11
                  11
                  11
                  11
                  11
                  11
                  11
                  11
                  12
                  11
                  11
                  11
                  11
                  12
                  12
                  11
                  12
                  12
                  12
                  12
                  12
                  12
                  11
                  11
                  11
                  11
                  11
                  11
                  11
                  11
                  11
                  11
                  11
                  12
                  12
                  12
                  11
                  11
                  11
                  11
                  11
                  11
                  12
                  12
                  12
                  12
                  12
                  12
                  12
                  11
                  11
                  11
                  11
                  11
                  11
                  11
                  11
                  11
                  11
                  11
                  11
                  12
                  12
                  12
                  12
                  12
                  12
                  12
                  12
                  12
                  12
                  11
                  11
                  11
                  11
                  11
                  11
                  11
                  11
                  11
                  11
                  11
                  11
                  11
                  11
                  11
                  12
                  11
                  11
                  11
                  11
                  12
                  12
                  11
                  12
                  12
                  12
                  12
                  12
                  12
                  11
                  11
                  11
                  11
                  11
                  11
                  11
                  11
                  11
                  11
                  11
                  12
                  12
                  12
                  11
                  11
                  11
                  11
                  11
                  11
                  12
                  12
                  12
                  12
                  12
                  12
                  12
                  11
                  11
                  11
                  11
                  11
                  11
                  11
                  11
                  11
                  11
                  11
                  11
                  12
                  12
                  12
                  12
                  12
                  12
                  12
                  12
                  12
                  12
                  11
                  11
                  11
                  11
                  11
                  11
                  11
                  11
                  11
                  11
                  11
                  11
                  11
                  11
                  11
                  12
                  11
                  11
                  11
                  11
                  12
                  12
                  11
                  12
                  12
                  12
                  12
                  12
                  12
                  11
                  11
                  11
                  11
                  11
                  11
                  11
                  11
                  11
                  11
                  11
                  12
                  12
                  12
                  11
                  11
                  11
                  11
                  11
                  11
                  12
                  12
                  12
                  12
                  12
                  12
                  12
                  11
                  11
                  11
                  11
                  11
                  11
                  11
                  11
                  11
                  11
                  11
                  11
                  12
                  12
                  12
                  12
                  12
                  12
                  12
                  12
                  12
                  12
                  11
                  11
                  11
                  11
                  11
                  11
                  11
                  11
                  11
                  11
                  11
                  11
                  11
                  11
                  11
                  12
                  11
                  11
                  11
                  11
                  12
                  12
                  11
                  12
                  12
                  12
                  12
                  12
                  12
                  11
                  11
                  11
                  11
                  11
                  11
                  11
                  11
                  11
                  11
                  11
                  12
                  12
                  12
                  11
                  11
                  11
                  11
                  11
                  11
                  12
                  12
                  12
                  12
                  12
                  12
                  12
                  11
                  11
                  11
                  11
                  11
                  11
                  11
                  11
                  11
                  11
                  11
                  11
                  12
                  12
                  12
                  12
                  12
                  12
                  12
                  12
                  12
                  12
                  11
                  11
                  11
                  11
                  11
                  11
                  11
                  11
                  11
                  11
                  11
                  11
                  11
                  11
                  11
                  12
                  11
                  11
                  11
                  11
                  12
                  12
                  11
                  12
                  12
                  12
                  12
                  12
                  12
                  11
                  11
                  11
                  11
                  11
                  11
                  11
                  11
                  11
                  11
                  11
                  12
                  12
                  12
                  11
                  11
                  11
                  11
                  11
                  11
                  12
                  12
                  12
                  12
                  12
                  12
                  12
                  11
                  11
                  11
                  11
                  11
                  11
                  11
                  11
                  11
                  11
                  11
                  11
                  12
                  12
                  12
                  12
                  12
                  12
                  12
                  12
                  12
                  12
                  11
                  11
                  11
                  11
                  11
                  11
                  11
                  11
                  11
                  11
                  11
                  11
                  11
                  11
  
SCALARS                         Kspace  double 1
LOOKUP_TABLE default
                  11
                  11
                  11
                  11
                  11
                  11
                  11
                  11
                  11
                  11
                  11
                  11
                  11
                  11
                  11
                  11
                  11
                  11
                  11
                  11
                  11
                  11
                  11
                  11
                  11
                  11
                  11
                  11
                  11
                  11
                  11
                  11
                  11
                  11
                  11
                  11
                  11
                  11
                  11
                  11
                  11
                  11
                  11
                  11
                  11
                  11
                  11
                  11
                  11
                  11
                  11
                  11
                  11
                  11
                  11
                  11
                  11
                  11
                  11
                  11
                  11
                  11
                  11
                  11
                  11
                  11
                  11
                  11
                  11
                  11
                  11
                  11
                  11
                  11
                  11
                  11
                  11
                  11
                  11
                  11
                  11
                  11
                  11
                  11
                  11
                  11
                  11
                  11
                  11
                  11
                  11
                  11
                  11
                  11
                  11
                  11
                  11
                  11
                  11
                  11
                  11
                  11
                  11
                  11
                  11
                  11
                  11
                  11
                  11
                  11
                  11
                  11
                  11
                  11
                  11
                  11
                  11
                  11
                  11
                  11
                  11
                  11
                  11
                  11
                  11
                  11
                  11
                  11
                  11
                  11
                  11
                  11
                  11
                  11
                  11
                  11
                  11
                  11
                  11
                  11
                  11
                  11
                  11
                  11
                  11
                  11
                  11
                  11
                  11
                  11
                  11
                  11
                  11
                  11
                  11
                  11
                  11
                  11
                  11
                  11
                  11
                  11
                  11
                  11
                  11
                  11
                  11
                  11
                  11
                  11
                  11
                  11
                  11
                  11
                  11
                  11
                  11
                  11
                  11
                  11
                  11
                  11
                  11
                  11
                  11
                  11
                  11
                  11
                  11
                  11
                  11
                  11
                  11
                  11
                  11
                  11
                  11
                  11
                  11
                  11
                  11
                  11
                  11
                  11
                  11
                  11
                  11
                  11
                  11
                  11
                  11
                  11
                  11
                  11
                  11
                  11
                  11
                  11
                  11
                  11
                  11
                  11
                  11
                  11
                  11
                  11
                  11
                  11
                  11
                  11
                  11
                  11
                  11
                  11
                  11
                  11
                  11
                  11
                  11
                  11
                  11
                  11
                  11
                  11
                  11
                  11
                  11
                  11
                  11
                  11
                  11
                  11
                  11
                  11
                  11
                  11
                  11
                  11
                  11
                  11
                  11
                  11
                  11
                  11
                  11
                  11
                  11
                  11
                  11
                  11
                  11
                  11
                  11
                  11
                  11
                  11
                  11
                  11
                  11
                  11
                  11
                  11
                  11
                  11
                  11
                  11
                  11
                  11
                  11
                  11
                  11
                  11
                  11
                  11
                  11
                  11
                  11
                  11
                  11
                  11
                  11
                  11
                  11
                  11
                  11
                  11
                  11
                  11
                  11
                  11
                  11
                  11
                  12
                  12
                  12
                  12
                  12
                  12
                  12
                  12
                  12
                  12
                  12
                  12
                  12
                  12
                  12
                  12
                  12
                  12
                  12
                  12
                  12
                  12
                  12
                  12
                  12
                  12
                  12
                  12
                  12
                  12
                  12
                  12
                  12
                  12
                  12
                  12
                  12
                  12
                  12
                  12
                  12
                  12
                  12
                  12
                  12
                  12
                  12
                  12
                  12
                  12
                  12
                  12
                  12
                  12
                  12
                  12
                  12
                  12
                  12
                  12
                  12
                  12
                  12
                  12
                  12
                  12
                  12
                  12
                  12
                  12
                  12
                  12
                  12
                  12
                  12
                  12
                  12
                  12
                  12
                  12
                  12
                  12
                  12
                  12
                  12
                  12
                  12
                  12
                  12
                  12
                  12
                  12
                  12
                  12
                  12
                  12
                  12
                  12
                  12
                  12
                  12
                  12
                  12
                  12
                  12
                  12
                  12
                  12
                  12
                  12
                  12
                  12
                  12
                  12
                  12
                  12
                  12
                  12
                  12
                  12
                  12
                  12
                  12
                  12
                  12
                  12
                  12
                  12
                  12
                  12
                  12
                  12
                  12
                  12
                  12
                  12
                  12
                  12
                  12
                  12
                  12
                  12
                  12
                  12
                  12
                  12
                  12
                  12
                  12
                  12
                  12
                  12
                  12
                  12
                  12
                  12
                  12
                  12
                  12
                  12
                  12
                  12
                  12
                  12
                  12
                  12
                  12
                  12
                  12
                  12
                  12
                  12
                  12
                  12
                  12
                  12
                  12
                  12
                  12
                  12
                  12
                  12
                  12
                  12
                  12
                  12
                  12
                  12
                  12
                  12
                  12
                  12
                  12
                  12
                  12
                  12
                  12
                  12
                  12
                  12
                  12
                  12
                  12
                  12
                  12
                  12
                  12
                  12
                  12
                  12
                  12
                  12
                  12
                  12
                  12
                  12
                  12
                  12
                  12
                  12
                  12
                  12
                  12
                  12
                  12
                  12
                  12
                  12
                  12
                  12
                  12
                  12
                  12
                  12
                  13
                  13
                  13
                  13
                  13
                  13
                  13
                  13
                  13
                  13
                  13
                  13
                  13
                  13
                  13
                  13
                  13
                  13
                  13
                  13
                  13
                  13
                  13
                  13
                  13
                  13
                  13
                  13
                  13
                  13
                  13
                  13
                  13
                  13
                  13
                  13
                  13
                  13
                  13
                  13
                  13
                  13
                  13
                  13
                  13
                  13
                  13
                  13
                  13
                  13
                  13
                  13
                  13
                  13
                  13
                  13
                  13
                  13
                  13
                  13
                  13
                  13
                  13
                  13
                  13
                  13
                  13
                  13
                  13
                  13
                  13
                  13
                  13
                  13
                  13
                  13
                  13
                  13
                  13
                  13
                  13
                  13
                  13
                  13
                  13
                  13
                  13
                  13
                  13
                  13
                  13
                  13
                  13
                  13
                  13
                  13
                  13
                  13
                  13
                  13
                  13
                  13
                  13
                  13
                  13
                  13
                  13
                  13
                  13
                  13
                  13
                  13
                  13
                  13
                  13
                  13
                  13
                  13
                  13
                  13
                  13
                  13
                  13
                  13
                  13
                  13
                  13
                  13
                  13
                  13
                  13
                  13
                  13
                  13
                  13
                  13
                  13
                  13
                  13
                  13
                  13
                  13
                  13
                  13
                  13
                  13
                  13
                  13
                  13
                  13
                  13
                  13
                  13
                  13
                  13
                  13
                  13
                  13
                  13
                  13
                  13
                  13
                  13
                  13
                  13
                  13
                  13
                  13
                  13
                  13
                  13
                  13
                  13
                  13
                  13
                  13
                  13
                  13
                  13
                  13
                  13
                  13
                  13
                  13
                  13
                  13
                  13
                  13
                  13
                  13
                  13
                  13
                  13
                  13
                  13
                  13
                  13
                  13
                  13
                  13
                  13
                  13
                  13
                  13
                  13
                  13
                  13
                  13
                  13
                  13
                  13
                  13
                  13
                  13
                  13
                  13
                  13
                  13
                  13
                  13
                  13
                  13
                  13
                  13
                  13
                  13
                  13
                  13
                  13
                  13
                  13
                  13
                  13
                  13
                  14
                  14
                  14
                  14
                  14
                  14
                  14
                  14
                  14
                  14
                  14
                  14
                  14
                  14
                  14
                  14
                  14
                  14
                  14
                  14
                  14
                  14
                  14
                  14
                  14
                  14
                  14
                  14
                  14
                  14
                  14
                  14
                  14
                  14
                  14
                  14
                  14
                  14
                  14
                  14
                  14
                  14
                  14
                  14
                  14
                  14
                  14
                  14
                  14
                  14
                  14
                  14
                  14
                  14
                  14
                  14
                  14
                  14
                  14
                  14
                  14
                  14
                  14
                  14
                  14
                  14
                  14
                  14
                  14
                  14
                  14
                  14
                  14
                  14
                  14
                  14
                  14
                  14
                  14
                  14
                  14
                  14
                  14
                  14
                  14
                  14
                  14
                  14
                  14
                  14
                  14
                  14
                  14
                  14
                  14
                  14
                  14
                  14
                  14
                  14
                  14
                  14
                  14
                  14
                  14
                  14
                  14
                  14
                  14
                  14
                  14
                  14
                  14
                  14
                  14
                  14
                  14
                  14
                  14
                  14
                  14
                  14
                  14
                  14
                  14
                  14
                  14
                  14
                  14
                  14
                  14
                  14
                  14
                  14
                  14
                  14
                  14
                  14
                  14
                  14
                  14
                  14
                  14
                  14
                  14
                  14
                  14
                  14
                  14
                  14
                  14
                  14
                  14
                  14
                  14
                  14
                  14
                  14
                  14
                  14
                  14
                  14
                  14
                  14
                  14
                  14
                  14
                  14
                  14
                  14
                  14
                  14
                  14
                  14
                  14
                  14
                  14
                  14
                  14
                  14
                  14
                  14
                  14
                  14
                  14
                  14
                  14
                  14
                  14
                  14
                  14
                  14
                  14
                  14
                  14
                  14
                  14
                  14
                  14
                  14
                  14
                  14
                  14
                  14
                  14
                  14
                  14
                  14
                  14
                  14
                  14
                  14
                  14
                  14
                  14
                  14
                  14
                  14
                  14
                  14
                  14
                  14
                  14
                  14
                  14
                  14
                  14
                  14
                  14
                  14
                  14
                  14
                  14
                  14
                  15
                  15
                  15
                  15
                  15
                  15
                  15
                  15
                  15
                  15
                  15
                  15
                  15
                  15
                  15
                  15
                  15
                  15
                  15
                  15
                  15
                  15
                  15
                  15
                  15
                  15
                  15
                  15
                  15
                  15
                  15
                  15
                  15
                  15
                  15
                  15
                  15
                  15
                  15
                  15
                  15
                  15
                  15
                  15
                  15
                  15
                  15
                  15
                  15
                  15
                  15
                  15
                  15
                  15
                  15
                  15
                  15
                  15
                  15
                  15
                  15
                  15
                  15
                  15
                  15
                  15
                  15
                  15
                  15
                  15
                  15
                  15
                  15
                  15
                  15
                  15
                  15
                  15
                  15
                  15
                  15
                  15
                  15
                  15
                  15
                  15
                  15
                  15
                  15
                  15
                  15
                  15
                  15
                  15
                  15
                  15
                  15
                  15
                  15
                  15
                  15
                  15
                  15
                  15
                  15
                  15
                  15
                  15
                  15
                  15
                  15
                  15
                  15
                  15
                  15
                  15
                  15
                  15
                  15
                  15
                  15
                  15
                  15
                  15
                  15
                  15
                  15
                  15
                  15
                  15
                  15
                  15
                  15
                  15
                  15
                  15
                  15
                  15
                  15
                  15
                  15
                  15
                  15
                  15
                  15
                  15
                  15
                  15
                  15
                  15
                  15
                  15
                  15
                  15
                  15
                  15
                  15
                  15
                  15
                  15
                  15
                  15
                  15
                  15
                  15
                  15
                  15
                  15
                  15
                  15
                  15
                  15
                  15
                  15
                  15
                  15
                  15
                  15
                  15
                  15
                  15
                  15
                  15
                  15
                  15
                  15
                  15
                  15
                  15
                  15
                  15
                  15
                  15
                  15
                  15
                  15
                  15
                  15
                  15
                  15
                  15
                  15
                  15
                  15
                  15
                  15
                  15
                  15
                  15
                  15
                  15
                  15
                  15
                  15
                  15
                  15
                  15
                  15
                  15
                  15
                  15
                  15
                  15
                  15
                  15
                  15
                  15
                  15
                  15
                  15
                  15
                  15
                  15
                  15
                  15
                  15
                  15
                  15
                  15
                  15
                  15
                  15
                  15
                  15
                  15
                  15
                  15
                  15
                  15
                  15
                  15
                  15
                  15
                  15
                  15
                  15
                  15
                  15
                  15
                  15
                  15
                  15
                  15
                  15
                  15
                  15
                  15
                  15
                  15
                  15
                  15
                  15
                  15
                  15
                  15
                  15
                  15
                  15
                  15
                  15
                  15
                  15
                  15
                  15
                  15
                  15
                  15
                  15
                  15
                  15
                  15
                  15
                  15
                  15
                  15
                  15
                  15
                  15
                  15
                  15
                  15
                  15
                  15
                  15
                  15
                  15
                  15
                  15
                  15
                  15
                  15
                  15
                  16
                  16
                  16
                  16
                  16
                  16
                  16
                  16
                  16
                  16
                  16
                  16
                  16
                  16
                  16
                  16
                  16
                  16
                  16
                  16
                  16
                  16
                  16
                  16
                  16
                  16
                  16
                  16
                  16
                  16
                  16
                  16
                  16
                  16
                  16
                  16
                  16
                  16
                  16
                  16
                  16
                  16
                  16
                  16
                  16
                  16
                  16
                  16
                  16
                  16
                  16
                  16
                  16
                  16
                  16
                  16
                  16
                  16
                  16
                  16
                  16
                  16
                  16
                  16
                  16
                  16
                  16
                  16
                  16
                  16
                  16
                  16
                  16
                  16
                  16
                  16
                  16
                  16
                  16
                  16
                  16
                  16
                  16
                  16
                  16
                  16
                  16
                  16
                  16
                  16
                  16
                  16
                  16
                  16
                  16
                  16
                  16
                  16
                  16
                  16
                  16
                  16
                  16
                  16
                  16
                  16
                  16
                  16
                  16
                  16
                  16
                  16
                  16
                  16
                  16
                  16
                  16
                  16
                  16
                  16
                  16
                  16
                  16
                  16
                  16
                  16
                  16
                  16
                  16
                  16
                  16
                  16
                  16
                  16
                  16
                  16
                  16
                  16
                  16
                  16
                  16
                  16
                  16
                  16
                  16
                  16
                  16
                  16
                  16
                  16
                  16
                  16
                  16
                  16
                  16
                  16
                  16
                  16
                  16
                  16
                  16
                  16
                  16
                  16
                  16
                  16
                  16
                  16
                  16
                  16
                  16
                  16
                  16
                  16
                  16
                  16
                  16
                  16
                  16
                  16
                  16
                  16
                  16
                  16
                  16
                  16
                  16
                  16
                  16
                  16
                  16
                  16
                  16
                  16
                  16
                  16
                  16
                  16
                  16
                  16
                  16
                  16
                  16
                  16
                  16
                  16
                  16
                  16
                  16
                  16
                  16
                  16
                  16
                  16
                  16
                  16
                  16
                  16
                  16
                  16
                  16
                  16
                  16
                  16
                  16
                  16
                  16
                  16
                  16
                  16
                  16
                  16
                  16
                  16
                  17
                  17
                  17
                  17
                  17
                  17
                  17
                  17
                  17
                  17
                  17
                  17
                  17
                  17
                  17
                  17
                  17
                  17
                  17
                  17
                  17
                  17
                  17
                  17
                  17
                  17
                  17
                  17
                  17
                  17
                  17
                  17
                  17
                  17
                  17
                  17
                  17
                  17
                  17
                  17
                  17
                  17
                  17
                  17
                  17
                  17
                  17
                  17
                  17
                  17
                  17
                  17
                  17
                  17
                  17
                  17
                  17
                  17
                  17
                  17
                  17
                  17
                  17
                  17
                  17
                  17
                  17
                  17
                  17
                  17
                  17
                  17
                  17
                  17
                  17
                  17
                  17
                  17
                  17
                  17
                  17
                  17
                  17
                  17
                  17
                  17
                  17
                  17
                  17
                  17
                  17
                  17
                  17
                  17
                  17
                  17
                  17
                  17
                  17
                  17
                  17
                  17
                  17
                  17
                  17
                  17
                  17
                  17
                  17
                  17
                  17
                  17
                  17
                  17
                  17
                  17
                  17
                  17
                  17
                  17
                  17
                  17
                  17
                  17
                  17
                  17
                  17
                  17
                  17
                  17
                  17
                  17
                  17
                  17
                  17
                  17
                  17
                  17
                  17
                  17
                  17
                  17
                  17
                  17
                  17
                  17
                  17
                  17
                  17
                  17
                  17
                  17
                  17
                  17
                  17
                  17
                  17
                  17
                  17
                  17
                  17
                  17
                  17
                  17
                  17
                  17
                  17
                  17
                  17
                  17
                  17
                  17
                  17
                  17
                  17
                  17
                  17
                  17
                  17
                  17
                  17
                  17
                  17
                  17
                  17
                  17
                  17
                  17
                  17
                  17
                  17
                  17
                  17
                  17
                  17
                  17
                  17
                  17
                  17
                  17
                  17
                  17
                  17
                  17
                  17
                  17
                  17
                  17
                  17
                  17
                  17
                  17
                  17
                  17
                  17
                  17
                  17
                  17
                  17
                  17
                  17
                  17
                  17
                  17
                  17
                  17
                  17
                  17
                  17
                  17
                  17
                  17
                  17
                  17
                  18
                  18
                  18
                  18
                  18
                  18
                  18
                  18
                  18
                  18
                  18
                  18
                  18
                  18
                  18
                  18
                  18
                  18
                  18
                  18
                  18
                  18
                  18
                  18
                  18
                  18
                  18
                  18
                  18
                  18
                  18
                  18
                  18
                  18
                  18
                  18
                  18
                  18
                  18
                  18
                  18
                  18
                  18
                  18
                  18
                  18
                  18
                  18
                  18
                  18
                  18
                  18
                  18
                  18
                  18
                  18
                  18
                  18
                  18
                  18
                  18
                  18
                  18
                  18
                  18
                  18
                  18
                  18
                  18
                  18
                  18
                  18
                  18
                  18
                  18
                  18
                  18
                  18
                  18
                  18
                  18
                  18
                  18
                  18
                  18
                  18
                  18
                  18
                  18
                  18
                  18
                  18
                  18
                  18
                  18
                  18
                  18
                  18
                  18
                  18
                  18
                  18
                  18
                  18
                  18
                  18
                  18
                  18
                  18
                  18
                  18
                  18
                  18
                  18
                  18
                  18
                  18
                  18
                  18
                  18
                  18
                  18
                  18
                  18
                  18
                  18
                  18
                  18
                  18
                  18
                  18
                  18
                  18
                  18
                  18
                  18
                  18
                  18
                  18
                  18
                  18
                  18
                  18
                  18
                  18
                  18
                  18
                  18
                  18
                  18
                  18
                  18
                  18
                  18
                  18
                  18
  
SCALARS                 displacement_x  double 1
LOOKUP_TABLE default
        -0.11585E-03
        -0.16220E-03
        -0.15525E-03
        -0.10553E-03
        -0.16238E-04
        -0.10782E-02
        -0.64904E-03
        -0.56276E-03
        -0.15983E-03
        -0.12831E-03
         0.31329E-04
        -0.74145E-03
        -0.17113E-03
        -0.13100E-03
        -0.47182E-04
        -0.62728E-03
        -0.52165E-04
        -0.76459E-04
         0.51462E-05
        -0.49828E-03
        -0.18109E-03
        -0.19592E-03
        -0.15843E-03
        -0.10500E-03
        -0.92565E-03
        -0.71724E-03
        -0.14761E-03
        -0.19441E-03
        -0.70312E-04
        -0.96972E-03
        -0.10444E-04
        -0.20020E-04
        -0.46144E-04
         0.53570E-05
        -0.74960E-04
        -0.20678E-03
         0.42075E-05
        -0.38718E-04
         0.84422E-06
        -0.12951E-04
        -0.42179E-04
        -0.92212E-04
        -0.52647E-04
         0.88969E-06
        -0.22618E-04
        -0.19730E-05
        -0.16516E-04
        -0.34084E-04
        -0.74687E-04
         0.15934E-04
        -0.13803E-04
        -0.27399E-04
        -0.11138E-03
        -0.89818E-04
        -0.13534E-03
        -0.14852E-03
        -0.19866E-03
        -0.12660E-03
        -0.93823E-05
        -0.84262E-03
        -0.25688E-04
        -0.35147E-04
        -0.23719E-04
        -0.35800E-03
        -0.24285E-04
        -0.31413E-04
        -0.49068E-04
        -0.12818E-04
        -0.14564E-03
        -0.14010E-03
        -0.42948E-04
        -0.73334E-03
        -0.13343E-03
        -0.37873E-04
        -0.16605E-03
        -0.75483E-04
        -0.20302E-03
        -0.14268E-03
        -0.28009E-03
        -0.27102E-03
        -0.34907E-03
        -0.28311E-03
        -0.36039E-03
        -0.79771E-03
        -0.17970E-03
        -0.10753E-03
        -0.10534E-04
         0.36338E-04
        -0.89662E-05
         0.99157E-04
        -0.30389E-05
        -0.25436E-04
         0.68645E-04
        -0.72636E-03
        -0.12570E-05
         0.39952E-04
         0.17490E-04
         0.50691E-04
         0.13900E-04
         0.10966E-03
         0.69269E-05
        -0.64742E-04
         0.16558E-03
        -0.77349E-03
        -0.11999E-03
        -0.22501E-03
         0.13776E-03
        -0.14356E-02
        -0.63361E-04
         0.11741E-04
        -0.32703E-04
         0.11762E-05
        -0.55166E-04
        -0.17512E-04
        -0.12747E-03
        -0.18746E-03
        -0.19179E-03
        -0.34871E-03
        -0.22222E-03
        -0.19464E-03
        -0.30114E-03
        -0.24211E-03
        -0.43607E-03
        -0.40064E-03
        -0.51678E-03
        -0.60817E-03
        -0.41543E-03
        -0.34082E-03
        -0.28771E-03
        -0.24180E-04
        -0.23065E-03
        -0.13411E-04
        -0.15734E-03
         0.13168E-03
        -0.68559E-04
         0.26542E-03
         0.21851E-04
         0.35303E-03
         0.77846E-04
         0.56187E-03
         0.71887E-04
         0.65682E-03
         0.67877E-04
         0.56812E-03
         0.99825E-04
         0.59584E-03
         0.12515E-03
         0.80880E-03
         0.11913E-03
         0.83696E-03
         0.97888E-04
         0.77692E-03
         0.12183E-04
         0.39320E-03
        -0.10096E-03
         0.21982E-03
         0.84266E-04
         0.10250E-03
         0.12477E-03
         0.10667E-03
         0.19194E-03
         0.19129E-03
         0.10925E-03
         0.10415E-03
         0.92754E-04
         0.10633E-03
         0.11308E-03
         0.10347E-03
         0.11578E-03
         0.10877E-03
         0.85041E-04
         0.11417E-03
         0.10916E-03
         0.89006E-04
         0.12559E-03
         0.10556E-03
         0.10598E-03
         0.76811E-04
         0.12936E-03
         0.13415E-03
         0.10100E-03
         0.13683E-03
         0.96222E-04
         0.80312E-04
         0.63380E-04
         0.85410E-04
         0.12433E-03
         0.14912E-03
         0.12690E-03
         0.16931E-03
         0.22303E-03
         0.17782E-03
         0.13678E-03
         0.55881E-04
         0.32751E-04
         0.17641E-04
         0.21663E-05
         0.32083E-04
         0.53572E-04
         0.15316E-03
         0.18353E-03
         0.20895E-03
         0.18015E-03
         0.16232E-03
         0.18340E-03
         0.24154E-03
         0.29476E-03
         0.24289E-03
         0.33565E-03
         0.30455E-03
         0.28028E-03
         0.18054E-03
         0.10463E-03
         0.58025E-04
         0.18052E-04
        -0.21343E-04
        -0.58395E-04
        -0.89544E-04
        -0.89359E-04
        -0.48604E-04
        -0.19297E-06
         0.33877E-04
         0.74888E-04
         0.12780E-03
         0.19475E-03
         0.25955E-03
         0.27184E-03
         0.22819E-03
         0.20640E-03
         0.25932E-03
         0.35991E-03
         0.41210E-03
         0.34779E-03
         0.28343E-03
         0.12046E-03
         0.13999E-03
         0.14871E-03
         0.11943E-03
         0.19213E-03
         0.16806E-03
         0.15663E-03
         0.14378E-03
         0.11364E-03
         0.12883E-03
         0.16411E-03
         0.15708E-03
         0.15506E-03
         0.15272E-03
         0.14474E-03
         0.12285E-03
         0.11573E-03
         0.10714E-03
         0.13266E-03
         0.12018E-03
         0.15525E-03
         0.14141E-03
         0.17088E-03
         0.14986E-03
         0.12524E-03
         0.14922E-03
         0.13763E-03
         0.14173E-03
         0.15321E-03
         0.12909E-03
         0.12714E-03
         0.15398E-03
         0.12513E-03
         0.14999E-03
         0.22914E-03
         0.19409E-03
         0.16069E-03
         0.13110E-03
         0.14303E-03
         0.16771E-03
         0.17998E-03
         0.16412E-03
         0.14499E-03
         0.17906E-03
         0.19104E-03
         0.20188E-03
         0.17013E-03
         0.14706E-03
         0.15916E-03
         0.19561E-03
         0.22219E-03
         0.18954E-03
         0.31501E-03
         0.26820E-03
         0.27042E-03
         0.18728E-03
         0.13811E-03
         0.12339E-03
         0.11917E-03
         0.11475E-03
         0.13172E-03
         0.16946E-03
         0.19153E-03
         0.18905E-03
         0.20116E-03
         0.22074E-03
         0.23125E-03
         0.22891E-03
         0.23133E-03
         0.24985E-03
         0.25079E-03
         0.20720E-03
         0.17567E-03
         0.20481E-03
         0.26516E-03
         0.28360E-03
         0.24439E-03
         0.22424E-03
         0.42882E-04
         0.42156E-04
         0.31563E-04
         0.27628E-04
         0.11978E-04
        -0.12094E-04
         0.52265E-04
         0.50195E-04
         0.41753E-04
         0.46710E-04
         0.58844E-04
         0.63262E-04
         0.50648E-04
         0.56180E-04
         0.65730E-04
         0.44290E-04
         0.42213E-04
         0.36860E-04
         0.51407E-04
         0.50020E-04
         0.75551E-04
         0.77073E-04
         0.71524E-04
         0.58067E-04
         0.51003E-04
         0.50871E-04
         0.55711E-04
         0.68149E-04
         0.85486E-04
         0.62654E-04
         0.31289E-04
         0.34652E-04
         0.20865E-04
        -0.50067E-06
         0.18369E-04
         0.27159E-04
         0.36650E-04
         0.68885E-04
         0.87090E-04
         0.11056E-03
         0.12275E-03
         0.10393E-03
         0.85879E-04
         0.55326E-04
         0.32162E-04
         0.98996E-05
         0.72132E-05
         0.95146E-07
        -0.15540E-04
        -0.43287E-04
        -0.75787E-04
        -0.47167E-04
         0.26570E-05
        -0.15899E-04
         0.88872E-05
         0.26029E-04
         0.46678E-04
         0.68668E-04
         0.86176E-04
         0.94232E-04
         0.11853E-03
         0.14925E-03
         0.14929E-03
         0.13396E-03
         0.13743E-03
         0.14900E-03
         0.13673E-03
         0.98660E-04
         0.52558E-04
         0.11619E-04
        -0.16123E-04
        -0.33637E-04
        -0.52785E-04
        -0.86788E-04
        -0.13322E-03
        -0.15940E-03
        -0.13527E-03
        -0.73394E-04
        -0.12989E-05
        -0.29302E-05
        -0.11032E-04
        -0.87563E-05
        -0.29500E-04
        -0.41376E-04
         0.40362E-05
         0.34047E-05
         0.20570E-05
         0.63909E-05
         0.10712E-04
         0.18382E-04
         0.70504E-05
         0.11336E-04
         0.24227E-04
         0.79148E-05
         0.76663E-05
         0.12738E-05
         0.13897E-04
         0.18251E-04
         0.31217E-04
         0.39426E-04
         0.23953E-04
         0.16169E-04
         0.16815E-04
         0.10406E-04
         0.16696E-04
         0.31720E-04
         0.50609E-04
         0.32209E-04
        -0.12621E-05
        -0.29987E-05
        -0.95104E-05
        -0.29418E-04
        -0.31106E-04
        -0.19286E-04
        -0.60662E-05
         0.32569E-04
         0.50517E-04
         0.71085E-04
         0.81735E-04
         0.67571E-04
         0.51802E-04
         0.90860E-05
        -0.11871E-04
        -0.31008E-04
        -0.26242E-04
        -0.26294E-04
        -0.39116E-04
        -0.64968E-04
        -0.92528E-04
        -0.68139E-04
        -0.55472E-04
        -0.61220E-04
        -0.42333E-04
        -0.14977E-04
         0.99869E-05
         0.31535E-04
         0.48282E-04
         0.58815E-04
         0.80106E-04
         0.10223E-03
         0.99869E-04
         0.84524E-04
         0.83333E-04
         0.86752E-04
         0.69853E-04
         0.36088E-04
        -0.28831E-05
        -0.39720E-04
        -0.60429E-04
        -0.62454E-04
        -0.67619E-04
        -0.95114E-04
        -0.13786E-03
        -0.16055E-03
        -0.13925E-03
        -0.93836E-04
        -0.40782E-05
        -0.35405E-05
        -0.52937E-05
        -0.43944E-05
        -0.90496E-05
        -0.11163E-04
        -0.51016E-06
        -0.13879E-05
        -0.23234E-05
         0.73099E-06
         0.28579E-05
         0.64338E-05
         0.14660E-05
         0.35539E-05
         0.10136E-04
         0.24172E-05
         0.19193E-05
        -0.12467E-05
         0.54366E-05
         0.90145E-05
         0.13695E-04
         0.20263E-04
         0.98658E-05
         0.67090E-05
         0.83239E-05
         0.47166E-05
         0.78327E-05
         0.18616E-04
         0.32521E-04
         0.19229E-04
         0.63545E-06
        -0.20410E-07
        -0.19576E-05
        -0.69413E-05
        -0.92918E-05
        -0.68074E-05
        -0.33872E-05
         0.17377E-04
         0.31252E-04
         0.47123E-04
         0.56298E-04
         0.45057E-04
         0.31235E-04
         0.37776E-05
        -0.44972E-05
        -0.11591E-04
        -0.82843E-05
        -0.66899E-05
        -0.88452E-05
        -0.14250E-04
        -0.20522E-04
        -0.15937E-04
        -0.14826E-04
        -0.17750E-04
        -0.13166E-04
        -0.70622E-05
         0.18823E-05
         0.11322E-04
         0.20004E-04
         0.30106E-04
         0.49194E-04
         0.68701E-04
         0.72238E-04
         0.57913E-04
         0.47144E-04
         0.42757E-04
         0.30498E-04
         0.12871E-04
        -0.43867E-05
        -0.18793E-04
        -0.24470E-04
        -0.21551E-04
        -0.19667E-04
        -0.23781E-04
        -0.31045E-04
        -0.35653E-04
        -0.33243E-04
        -0.25465E-04
        -0.82225E-06
        -0.35460E-06
        -0.19021E-06
         0.15848E-06
        -0.53780E-08
         0.78882E-06
         0.35397E-06
         0.67501E-07
        -0.68848E-06
         0.68788E-06
         0.12369E-05
         0.13800E-05
        -0.17571E-06
         0.18228E-05
         0.33899E-05
         0.13417E-05
         0.91567E-06
         0.23914E-06
         0.21538E-05
         0.40266E-05
         0.43637E-05
         0.83595E-05
         0.24836E-05
         0.25343E-05
         0.40360E-05
         0.22972E-05
         0.40239E-05
         0.93449E-05
         0.16705E-04
         0.93888E-05
         0.16548E-05
         0.10673E-05
         0.15613E-05
         0.18938E-05
        -0.96008E-07
        -0.71181E-06
        -0.11698E-05
         0.79258E-05
         0.15908E-04
         0.25085E-04
         0.31258E-04
         0.24329E-04
         0.15436E-04
         0.67484E-06
        -0.17593E-05
        -0.39893E-05
        -0.17187E-05
         0.25501E-08
         0.12455E-05
         0.24995E-05
         0.32329E-05
         0.23676E-05
        -0.35908E-06
        -0.17549E-05
        -0.34953E-05
        -0.57253E-05
        -0.34931E-05
         0.63188E-07
         0.39751E-05
         0.11405E-04
         0.24836E-04
         0.38349E-04
         0.43470E-04
         0.34522E-04
         0.22788E-04
         0.15526E-04
         0.74466E-05
        -0.55744E-06
        -0.64083E-05
        -0.10089E-04
        -0.10248E-04
        -0.74084E-05
        -0.44640E-05
        -0.16885E-05
         0.18126E-05
         0.39576E-05
         0.24164E-05
        -0.10277E-05
         0.26622E-06
         0.32636E-06
         0.40531E-06
         0.73270E-06
         0.96653E-08
         0.61858E-06
         0.43243E-06
         0.58505E-06
         0.74696E-07
         0.71756E-06
         0.52986E-06
        -0.55880E-06
        -0.11115E-05
         0.10851E-05
         0.63177E-06
         0.83810E-06
         0.60803E-06
         0.51150E-06
         0.89871E-06
         0.18126E-05
         0.71042E-06
         0.31690E-05
        -0.50128E-06
         0.76755E-06
         0.19727E-05
         0.86514E-06
         0.21335E-05
         0.44254E-05
         0.79733E-05
         0.43728E-05
         0.87483E-06
         0.15695E-06
         0.10312E-05
         0.13712E-05
        -0.29915E-06
        -0.68446E-06
        -0.13101E-05
         0.30931E-05
         0.71950E-05
         0.12086E-04
         0.15849E-04
         0.12304E-04
         0.73656E-05
        -0.12551E-05
        -0.23859E-05
        -0.37665E-05
        -0.19645E-05
        -0.68107E-06
         0.20638E-06
         0.10647E-05
         0.15403E-05
         0.14365E-05
        -0.12304E-05
        -0.22356E-05
        -0.41741E-05
        -0.66871E-05
        -0.57873E-05
        -0.40982E-05
        -0.22660E-05
         0.20565E-05
         0.10086E-04
         0.18691E-04
         0.23211E-04
         0.18995E-04
         0.10805E-04
         0.42659E-05
        -0.13785E-05
        -0.55500E-05
        -0.80003E-05
        -0.91666E-05
        -0.87168E-05
        -0.69275E-05
        -0.49429E-05
        -0.30667E-05
        -0.76735E-06
         0.11705E-05
         0.82804E-06
        -0.15178E-05
         0.46754E-06
         0.44209E-06
         0.36503E-06
         0.64037E-06
        -0.51082E-06
        -0.28223E-06
         0.43307E-06
         0.68384E-06
         0.26850E-06
         0.67114E-06
         0.31522E-06
        -0.10866E-05
        -0.12162E-05
         0.77363E-06
        -0.50424E-06
         0.66320E-06
         0.49372E-06
         0.48601E-06
         0.51202E-06
         0.91765E-06
        -0.51192E-06
         0.89457E-06
        -0.11987E-05
         0.27547E-06
         0.10984E-05
         0.45913E-06
         0.12550E-05
         0.22160E-05
         0.39886E-05
         0.21385E-05
         0.54671E-06
        -0.41300E-07
         0.57859E-06
         0.53853E-06
        -0.78979E-06
        -0.80074E-06
        -0.12055E-05
         0.67487E-06
         0.29280E-05
         0.59436E-05
         0.84149E-05
         0.63803E-05
         0.33892E-05
        -0.15022E-05
        -0.21506E-05
        -0.31906E-05
        -0.18271E-05
        -0.10504E-05
        -0.75033E-06
        -0.59824E-06
        -0.77313E-06
        -0.25202E-06
        -0.21621E-05
        -0.33001E-05
        -0.42830E-05
        -0.62338E-05
        -0.58925E-05
        -0.51830E-05
        -0.48293E-05
        -0.30399E-05
         0.20345E-05
         0.88028E-05
         0.13027E-04
         0.10271E-04
         0.42040E-05
        -0.73168E-06
        -0.42624E-05
        -0.61711E-05
        -0.72013E-05
        -0.76339E-05
        -0.72434E-05
        -0.62115E-05
        -0.52715E-05
        -0.46705E-05
        -0.37512E-05
        -0.26232E-05
        -0.24973E-05
        -0.34879E-05
         0.46666E-06
         0.41198E-06
         0.34653E-06
         0.63542E-06
        -0.54573E-06
        -0.34224E-06
         0.39029E-06
         0.71015E-06
         0.29697E-06
         0.67483E-06
         0.23117E-06
        -0.13501E-05
        -0.13636E-05
         0.69778E-06
        -0.95891E-06
         0.63417E-06
         0.46494E-06
         0.47901E-06
         0.37716E-06
         0.57868E-06
        -0.11942E-05
        -0.28088E-06
        -0.16983E-05
         0.67987E-07
         0.80724E-06
         0.35533E-06
         0.99380E-06
         0.14354E-05
         0.23955E-05
         0.12386E-05
         0.61931E-06
         0.34883E-07
         0.64217E-06
         0.57773E-06
        -0.80720E-06
        -0.81371E-06
        -0.12613E-05
        -0.22029E-06
         0.13697E-05
         0.35593E-05
         0.52448E-05
         0.36607E-05
         0.14223E-05
        -0.17847E-05
        -0.21602E-05
        -0.29848E-05
        -0.15031E-05
        -0.72000E-06
        -0.52554E-06
        -0.49731E-06
        -0.77656E-06
        -0.29798E-06
        -0.21844E-05
        -0.33468E-05
        -0.42871E-05
        -0.63004E-05
        -0.62159E-05
        -0.58421E-05
        -0.60417E-05
        -0.51621E-05
        -0.97988E-06
         0.50331E-05
         0.85570E-05
         0.56630E-05
         0.23102E-06
        -0.37948E-05
        -0.62242E-05
        -0.72435E-05
        -0.77253E-05
        -0.77880E-05
        -0.70650E-05
        -0.56415E-05
        -0.45581E-05
        -0.42220E-05
        -0.36436E-05
        -0.27211E-05
        -0.27445E-05
        -0.36967E-05
         0.45205E-06
         0.30771E-06
         0.27596E-06
         0.67175E-06
        -0.56460E-06
        -0.15806E-06
         0.29107E-06
         0.74661E-06
         0.30759E-06
         0.73411E-06
         0.11962E-06
        -0.17745E-05
        -0.18100E-05
         0.70877E-06
        -0.12726E-05
         0.61483E-06
         0.45736E-06
         0.50283E-06
         0.21477E-06
         0.44717E-06
        -0.18145E-05
        -0.78591E-06
        -0.26087E-05
        -0.28436E-06
         0.77148E-06
         0.10417E-06
         0.10109E-05
         0.12987E-05
         0.20039E-05
         0.10033E-05
         0.65842E-06
        -0.21568E-06
         0.77998E-06
         0.83484E-06
        -0.93439E-06
        -0.10673E-05
        -0.16599E-05
        -0.54658E-06
         0.92240E-06
         0.29264E-05
         0.44112E-05
         0.29303E-05
         0.82915E-06
        -0.27658E-05
        -0.31549E-05
        -0.40950E-05
        -0.20165E-05
        -0.77448E-06
        -0.30944E-06
        -0.37288E-07
        -0.84828E-07
         0.19794E-06
        -0.23594E-05
        -0.34016E-05
        -0.49867E-05
        -0.74119E-05
        -0.74438E-05
        -0.70939E-05
        -0.71876E-05
        -0.63776E-05
        -0.23040E-05
         0.37590E-05
         0.73588E-05
         0.44230E-05
        -0.10394E-05
        -0.51911E-05
        -0.80524E-05
        -0.96709E-05
        -0.10398E-04
        -0.10433E-04
        -0.93435E-05
        -0.70746E-05
        -0.50657E-05
        -0.41074E-05
        -0.29750E-05
        -0.15830E-05
        -0.17696E-05
        -0.33504E-05
         0.46355E-06
         0.29908E-06
         0.24320E-06
         0.68577E-06
        -0.58208E-06
        -0.38554E-07
         0.32925E-06
         0.81238E-06
         0.30639E-06
         0.77625E-06
         0.18341E-06
        -0.17882E-05
        -0.18850E-05
         0.80236E-06
        -0.12602E-05
         0.58803E-06
         0.42678E-06
         0.50340E-06
         0.15610E-06
         0.43895E-06
        -0.18250E-05
        -0.55497E-06
        -0.28142E-05
        -0.39520E-06
         0.77757E-06
        -0.15063E-07
         0.10755E-05
         0.13368E-05
         0.21944E-05
         0.10953E-05
         0.59240E-06
        -0.43366E-06
         0.78804E-06
         0.95468E-06
        -0.99765E-06
        -0.11739E-05
        -0.17865E-05
        -0.59374E-06
         0.84778E-06
         0.31029E-05
         0.50817E-05
         0.36148E-05
         0.13389E-05
        -0.31220E-05
        -0.36752E-05
        -0.48402E-05
        -0.25771E-05
        -0.11436E-05
        -0.44495E-06
         0.13065E-06
         0.33620E-06
         0.51963E-06
        -0.24103E-05
        -0.34423E-05
        -0.52724E-05
        -0.78928E-05
        -0.78473E-05
        -0.73728E-05
        -0.74359E-05
        -0.67681E-05
        -0.28016E-05
         0.38136E-05
         0.87246E-05
         0.62706E-05
         0.50864E-06
        -0.44036E-05
        -0.79504E-05
        -0.10149E-04
        -0.11297E-04
        -0.11616E-04
        -0.10714E-04
        -0.84836E-05
        -0.62657E-05
        -0.47507E-05
        -0.28019E-05
        -0.81717E-06
        -0.10590E-05
        -0.30795E-05
         0.54170E-06
         0.45630E-06
         0.39143E-06
         0.75804E-06
        -0.42125E-06
         0.82851E-07
         0.51439E-06
         0.89388E-06
         0.31502E-06
         0.77486E-06
         0.39384E-06
        -0.14013E-05
        -0.15286E-05
         0.91945E-06
        -0.10030E-05
         0.59300E-06
         0.39014E-06
         0.51026E-06
         0.19789E-06
         0.40487E-06
        -0.16351E-05
        -0.44129E-06
        -0.25560E-05
        -0.28661E-06
         0.69874E-06
         0.41440E-07
         0.10925E-05
         0.12258E-05
         0.19284E-05
         0.96451E-06
         0.52489E-06
        -0.46701E-06
         0.73590E-06
         0.98569E-06
        -0.77976E-06
        -0.96634E-06
        -0.15447E-05
        -0.45039E-06
         0.76411E-06
         0.26886E-05
         0.43747E-05
         0.31645E-05
         0.12536E-05
        -0.29265E-05
        -0.36163E-05
        -0.49136E-05
        -0.27609E-05
        -0.14215E-05
        -0.68633E-06
         0.69998E-07
         0.41861E-06
         0.63542E-06
        -0.21153E-05
        -0.32733E-05
        -0.50343E-05
        -0.76172E-05
        -0.71702E-05
        -0.65600E-05
        -0.69200E-05
        -0.62794E-05
        -0.26064E-05
         0.31667E-05
         0.73048E-05
         0.52635E-05
         0.65767E-06
        -0.39319E-05
        -0.74139E-05
        -0.95044E-05
        -0.10787E-04
        -0.11394E-04
        -0.10805E-04
        -0.88851E-05
        -0.69939E-05
        -0.54573E-05
        -0.30225E-05
        -0.67368E-06
        -0.87098E-06
        -0.29357E-05
         0.59921E-06
         0.60991E-06
         0.56858E-06
         0.81929E-06
        -0.19599E-06
         0.12269E-06
         0.64785E-06
         0.90725E-06
         0.31461E-06
         0.72204E-06
         0.49051E-06
        -0.11331E-05
        -0.11133E-05
         0.89392E-06
        -0.98719E-06
         0.57963E-06
         0.34615E-06
         0.51921E-06
         0.18059E-06
         0.25566E-06
        -0.16680E-05
        -0.92439E-06
        -0.24128E-05
        -0.24617E-06
         0.54510E-06
         0.82544E-07
         0.95816E-06
         0.86597E-06
         0.10269E-05
         0.50845E-06
         0.52388E-06
        -0.38469E-06
         0.70639E-06
         0.92632E-06
        -0.41098E-06
        -0.59601E-06
        -0.11331E-05
        -0.65888E-06
         0.12244E-06
         0.12042E-05
         0.18585E-05
         0.11569E-05
         0.48510E-08
        -0.26996E-05
        -0.33274E-05
        -0.45604E-05
        -0.25652E-05
        -0.13824E-05
        -0.77986E-06
        -0.12834E-06
         0.12836E-06
         0.47860E-06
        -0.15526E-05
        -0.29743E-05
        -0.42698E-05
        -0.65948E-05
        -0.60510E-05
        -0.58112E-05
        -0.67613E-05
        -0.65655E-05
        -0.37084E-05
         0.29188E-06
         0.25147E-05
         0.63767E-06
        -0.24095E-05
        -0.50336E-05
        -0.74341E-05
        -0.90724E-05
        -0.10083E-04
        -0.10607E-04
        -0.10126E-04
        -0.83906E-05
        -0.68062E-05
        -0.56000E-05
        -0.33968E-05
        -0.12155E-05
        -0.12992E-05
        -0.30051E-05
         0.59787E-06
         0.63057E-06
         0.64448E-06
         0.84957E-06
        -0.26146E-07
         0.12840E-06
         0.61610E-06
         0.84565E-06
         0.32206E-06
         0.66150E-06
         0.37854E-06
        -0.12582E-05
        -0.10270E-05
         0.71320E-06
        -0.13524E-05
         0.59414E-06
         0.34754E-06
         0.56449E-06
         0.16857E-06
         0.20082E-06
        -0.16999E-05
        -0.12116E-05
        -0.22720E-05
        -0.20752E-06
         0.46611E-06
         0.17197E-06
         0.70501E-06
         0.49075E-06
         0.37702E-06
         0.27765E-06
         0.64885E-06
        -0.15550E-06
         0.79559E-06
         0.91674E-06
        -0.91767E-07
        -0.30752E-06
        -0.90122E-06
        -0.13133E-05
        -0.89921E-06
        -0.24826E-06
         0.19675E-07
        -0.43930E-07
        -0.67527E-06
        -0.23772E-05
        -0.28052E-05
        -0.39070E-05
        -0.21567E-05
        -0.11515E-05
        -0.69773E-06
        -0.26293E-06
        -0.21058E-06
         0.29026E-06
        -0.95878E-06
        -0.26313E-05
        -0.33923E-05
        -0.57020E-05
        -0.55809E-05
        -0.59155E-05
        -0.74137E-05
        -0.79592E-05
        -0.60817E-05
        -0.30315E-05
        -0.89571E-06
        -0.17618E-05
        -0.40392E-05
        -0.57662E-05
        -0.74419E-05
        -0.86142E-05
        -0.91655E-05
        -0.93521E-05
        -0.89887E-05
        -0.77259E-05
        -0.64937E-05
        -0.55820E-05
        -0.38447E-05
        -0.19781E-05
        -0.18239E-05
        -0.30326E-05
         0.61099E-06
         0.55370E-06
         0.57624E-06
         0.87212E-06
        -0.80607E-07
         0.14732E-06
         0.51556E-06
         0.83712E-06
         0.39172E-06
         0.70658E-06
         0.24352E-06
        -0.15501E-05
        -0.13115E-05
         0.62100E-06
        -0.16451E-05
         0.69428E-06
         0.45180E-06
         0.64133E-06
         0.29711E-06
         0.37020E-06
        -0.15007E-05
        -0.87349E-06
        -0.20529E-05
        -0.49956E-07
         0.57639E-06
         0.33394E-06
         0.63368E-06
         0.51928E-06
         0.70795E-06
         0.55268E-06
         0.78136E-06
         0.31946E-07
         0.91310E-06
         0.99558E-06
        -0.20390E-06
        -0.43457E-06
        -0.10998E-05
        -0.16492E-05
        -0.11166E-05
         0.12107E-07
         0.97774E-06
         0.92832E-06
         0.11201E-07
        -0.21283E-05
        -0.25255E-05
        -0.36123E-05
        -0.19394E-05
        -0.98857E-06
        -0.56317E-06
        -0.19927E-06
        -0.22800E-06
         0.31512E-06
        -0.10762E-05
        -0.26055E-05
        -0.34897E-05
        -0.60652E-05
        -0.62498E-05
        -0.65733E-05
        -0.80921E-05
        -0.88110E-05
        -0.67687E-05
        -0.26787E-05
         0.10691E-05
         0.76063E-06
        -0.24210E-05
        -0.51225E-05
        -0.70680E-05
        -0.82355E-05
        -0.87792E-05
        -0.89407E-05
        -0.85993E-05
        -0.74850E-05
        -0.63564E-05
        -0.55062E-05
        -0.39550E-05
        -0.21770E-05
        -0.18094E-05
        -0.28600E-05
         0.65607E-06
         0.57708E-06
         0.52530E-06
         0.86904E-06
        -0.21313E-06
         0.95620E-07
         0.60841E-06
         0.94014E-06
         0.44564E-06
         0.79072E-06
         0.40631E-06
        -0.13254E-05
        -0.12343E-05
         0.79753E-06
        -0.13229E-05
         0.74534E-06
         0.50262E-06
         0.66391E-06
         0.35953E-06
         0.42936E-06
        -0.14376E-05
        -0.67258E-06
        -0.21028E-05
        -0.16285E-07
         0.62511E-06
         0.36023E-06
         0.78118E-06
         0.64336E-06
         0.93405E-06
         0.64314E-06
         0.77625E-06
         0.13832E-07
         0.89800E-06
         0.97276E-06
        -0.41330E-06
        -0.56798E-06
        -0.11325E-05
        -0.13256E-05
        -0.78805E-06
         0.51845E-06
         0.18361E-05
         0.15622E-05
         0.40239E-06
        -0.22221E-05
        -0.26371E-05
        -0.37420E-05
        -0.20215E-05
        -0.10506E-05
        -0.61826E-06
        -0.25763E-06
        -0.28038E-06
         0.28706E-06
        -0.14291E-05
        -0.28195E-05
        -0.37873E-05
        -0.62515E-05
        -0.62513E-05
        -0.62154E-05
        -0.74091E-05
        -0.80702E-05
        -0.60208E-05
        -0.14575E-05
         0.29738E-05
         0.26709E-05
        -0.11665E-05
        -0.45613E-05
        -0.70740E-05
        -0.85849E-05
        -0.92485E-05
        -0.93525E-05
        -0.88482E-05
        -0.76496E-05
        -0.64729E-05
        -0.56128E-05
        -0.40974E-05
        -0.22524E-05
        -0.18021E-05
        -0.29085E-05
         0.70231E-06
         0.75776E-06
         0.67553E-06
         0.89826E-06
        -0.10660E-06
         0.68292E-07
         0.83092E-06
         0.99908E-06
         0.40546E-06
         0.75229E-06
         0.70198E-06
        -0.65716E-06
        -0.65468E-06
         0.97979E-06
        -0.64862E-06
         0.60186E-06
         0.39492E-06
         0.61189E-06
         0.93442E-07
         0.21578E-06
        -0.20037E-05
        -0.11215E-05
        -0.27860E-05
        -0.41184E-06
         0.50841E-06
         0.48459E-07
         0.86854E-06
         0.59598E-06
         0.66939E-06
         0.40163E-06
         0.63829E-06
        -0.21586E-06
         0.81842E-06
         0.93170E-06
        -0.15935E-06
        -0.24559E-06
        -0.68275E-06
        -0.73536E-06
        -0.50751E-06
         0.35007E-06
         0.13267E-05
         0.10463E-05
        -0.39542E-07
        -0.27921E-05
        -0.29861E-05
        -0.39352E-05
        -0.21720E-05
        -0.11593E-05
        -0.69621E-06
        -0.32467E-06
        -0.36292E-06
         0.20652E-06
        -0.10740E-05
        -0.28046E-05
        -0.32321E-05
        -0.53123E-05
        -0.49000E-05
        -0.46170E-05
        -0.55217E-05
        -0.62349E-05
        -0.50043E-05
        -0.15270E-05
         0.22399E-05
         0.19565E-05
        -0.18070E-05
        -0.55027E-05
        -0.83585E-05
        -0.99471E-05
        -0.10253E-04
        -0.97838E-05
        -0.89332E-05
        -0.77033E-05
        -0.64913E-05
        -0.56102E-05
        -0.41399E-05
        -0.23678E-05
        -0.21067E-05
        -0.32310E-05
         0.67656E-06
         0.87313E-06
         0.84829E-06
         0.92670E-06
         0.18074E-06
         0.20607E-06
         0.90942E-06
         0.93827E-06
         0.31767E-06
         0.63703E-06
         0.76685E-06
        -0.36145E-06
        -0.24048E-06
         0.95058E-06
        -0.40838E-06
         0.41615E-06
         0.25793E-06
         0.54282E-06
        -0.18678E-06
        -0.34681E-08
        -0.24047E-05
        -0.15428E-05
        -0.32633E-05
        -0.79449E-06
         0.35653E-06
        -0.26769E-06
         0.78726E-06
         0.40680E-06
         0.20042E-06
         0.11779E-06
         0.59761E-06
        -0.33680E-06
         0.88034E-06
         0.10828E-05
         0.34743E-06
         0.22866E-06
        -0.21161E-06
        -0.53057E-06
        -0.61320E-06
        -0.35134E-06
        -0.11785E-07
        -0.88690E-08
        -0.70844E-06
        -0.31906E-05
        -0.31200E-05
        -0.37620E-05
        -0.19251E-05
        -0.81072E-06
        -0.27087E-06
         0.11806E-06
         0.43610E-07
         0.41303E-06
        -0.23539E-06
        -0.23370E-05
        -0.22167E-05
        -0.40931E-05
        -0.37009E-05
        -0.37251E-05
        -0.46318E-05
        -0.52464E-05
        -0.47910E-05
        -0.28713E-05
        -0.42955E-06
        -0.57989E-06
        -0.33162E-05
        -0.62230E-05
        -0.88209E-05
        -0.10392E-04
        -0.10501E-04
        -0.96650E-05
        -0.84066E-05
        -0.68513E-05
        -0.53924E-05
        -0.44115E-05
        -0.31138E-05
        -0.17510E-05
        -0.19600E-05
        -0.31545E-05
         0.80584E-06
         0.11004E-05
         0.12940E-05
         0.12584E-05
         0.10721E-05
         0.11432E-05
         0.10093E-05
         0.10150E-05
         0.34772E-06
         0.62573E-06
         0.71609E-06
        -0.68984E-06
        -0.29634E-06
         0.88052E-06
        -0.89129E-06
         0.48701E-06
         0.23748E-06
         0.66678E-06
        -0.71431E-07
        -0.25316E-07
        -0.19506E-05
        -0.13376E-05
        -0.27090E-05
        -0.55816E-06
         0.21790E-06
        -0.27801E-07
         0.61021E-06
        -0.27752E-08
        -0.51750E-06
        -0.14821E-06
         0.10072E-05
         0.17799E-06
         0.14038E-05
         0.19011E-05
         0.13437E-05
         0.85958E-06
         0.34573E-07
        -0.11920E-05
        -0.16769E-05
        -0.19215E-05
        -0.19012E-05
        -0.10459E-05
        -0.99140E-06
        -0.26123E-05
        -0.23259E-05
        -0.25525E-05
        -0.73578E-06
         0.40801E-06
         0.10884E-05
         0.17286E-05
         0.18976E-05
         0.17567E-05
         0.13249E-05
        -0.76084E-06
        -0.12396E-05
        -0.39117E-05
        -0.41125E-05
        -0.47122E-05
        -0.60832E-05
        -0.70083E-05
        -0.73547E-05
        -0.65361E-05
        -0.40284E-05
        -0.23245E-05
        -0.33546E-05
        -0.51985E-05
        -0.73371E-05
        -0.88720E-05
        -0.90929E-05
        -0.82026E-05
        -0.65000E-05
        -0.44194E-05
        -0.27381E-05
        -0.15653E-05
        -0.75144E-07
         0.10650E-05
         0.27473E-06
        -0.14405E-05
         0.13813E-05
         0.18767E-05
         0.26176E-05
         0.23384E-05
         0.35415E-05
         0.37466E-05
         0.15230E-05
         0.15046E-05
         0.71968E-06
         0.93415E-06
         0.88113E-06
        -0.11998E-05
        -0.18008E-06
         0.96224E-06
        -0.19841E-05
         0.10805E-05
         0.56363E-06
         0.12610E-05
         0.71236E-06
         0.41364E-06
        -0.40622E-06
        -0.44191E-06
        -0.55774E-06
         0.71362E-06
         0.30202E-06
         0.12617E-05
         0.40556E-06
        -0.68996E-06
        -0.18730E-05
        -0.29575E-06
         0.23484E-05
         0.19745E-05
         0.29398E-05
         0.42004E-05
         0.42129E-05
         0.27723E-05
         0.89331E-06
        -0.29630E-05
        -0.43005E-05
        -0.54484E-05
        -0.61303E-05
        -0.32819E-05
        -0.12777E-05
        -0.26986E-06
         0.32608E-06
         0.70864E-06
         0.22081E-05
         0.32149E-05
         0.42384E-05
         0.56318E-05
         0.65003E-05
         0.53431E-05
         0.58865E-05
         0.33974E-05
         0.20182E-05
        -0.29669E-05
        -0.48222E-05
        -0.67369E-05
        -0.96830E-05
        -0.12184E-04
        -0.14206E-04
        -0.14874E-04
        -0.12046E-04
        -0.68555E-05
        -0.35758E-05
        -0.31367E-05
        -0.38827E-05
        -0.45544E-05
        -0.48449E-05
        -0.40368E-05
        -0.18905E-05
         0.54558E-06
         0.23158E-05
         0.39716E-05
         0.62902E-05
         0.75665E-05
         0.59416E-05
         0.30652E-05
         0.28650E-05
         0.37108E-05
         0.50022E-05
         0.40469E-05
         0.74941E-05
         0.72131E-05
         0.32208E-05
         0.30912E-05
         0.20239E-05
         0.23431E-05
         0.23201E-05
        -0.26771E-06
         0.13499E-05
         0.22414E-05
        -0.16129E-05
         0.27161E-05
         0.20567E-05
         0.25468E-05
         0.30737E-05
         0.26602E-05
         0.35441E-05
         0.34134E-05
         0.35960E-05
         0.36688E-05
         0.19122E-05
         0.38503E-05
         0.14704E-05
         0.56425E-06
        -0.48149E-07
         0.19918E-05
         0.41071E-05
         0.43333E-05
         0.46527E-05
         0.65356E-05
         0.90207E-05
         0.64228E-05
         0.33108E-05
        -0.30653E-05
        -0.43587E-05
        -0.48618E-05
        -0.49351E-05
        -0.87350E-06
         0.21699E-05
         0.33819E-05
         0.33737E-05
         0.35268E-05
         0.46182E-05
         0.52628E-05
         0.63685E-05
         0.83944E-05
         0.10052E-04
         0.89057E-05
         0.13397E-04
         0.10336E-04
         0.86169E-05
         0.85383E-06
        -0.35192E-05
        -0.68426E-05
        -0.10924E-04
        -0.14530E-04
        -0.17017E-04
        -0.16823E-04
        -0.12340E-04
        -0.49133E-05
         0.16627E-05
         0.39680E-05
         0.33962E-05
         0.17710E-05
        -0.27494E-06
        -0.70492E-06
         0.12335E-05
         0.33672E-05
         0.45782E-05
         0.59432E-05
         0.89209E-05
         0.11714E-04
         0.11497E-04
         0.94715E-05
         0.10285E-05
         0.17075E-05
         0.18232E-05
         0.47815E-06
         0.25987E-05
         0.75247E-06
         0.12306E-05
         0.92475E-06
         0.18251E-06
         0.19481E-06
         0.68804E-06
        -0.37945E-07
         0.11799E-05
         0.63231E-06
        -0.59410E-06
        -0.12904E-05
        -0.71947E-06
        -0.22049E-06
        -0.32962E-05
        -0.24360E-05
        -0.10173E-04
        -0.85095E-05
        -0.11819E-04
        -0.53975E-05
        -0.73895E-06
        -0.46110E-05
         0.21189E-06
        -0.66736E-06
        -0.18074E-05
        -0.21304E-05
        -0.32589E-05
        -0.64532E-05
        -0.26303E-05
        -0.26314E-05
         0.37135E-05
         0.32525E-05
         0.25504E-05
        -0.82892E-06
        -0.11091E-05
        -0.16692E-05
        -0.30012E-05
        -0.43449E-05
        -0.64928E-05
        -0.12307E-04
        -0.13838E-04
        -0.16691E-04
        -0.12276E-04
        -0.99422E-05
        -0.97488E-05
        -0.94269E-05
        -0.84449E-05
        -0.30652E-05
         0.62435E-05
         0.55100E-05
         0.62652E-05
         0.37806E-05
         0.36517E-06
        -0.20917E-05
        -0.42865E-05
        -0.53276E-05
        -0.43467E-05
        -0.31681E-05
        -0.46927E-05
        -0.10423E-04
        -0.18237E-04
        -0.25119E-04
        -0.28718E-04
        -0.29633E-04
        -0.30125E-04
        -0.30328E-04
        -0.28407E-04
        -0.25139E-04
        -0.24177E-04
        -0.25786E-04
        -0.23868E-04
        -0.15242E-04
        -0.47477E-05
         0.26147E-05
        -0.11249E-04
        -0.12017E-04
        -0.15819E-04
        -0.16081E-04
        -0.22855E-04
        -0.26741E-04
        -0.13131E-04
        -0.13573E-04
        -0.11960E-04
        -0.14041E-04
        -0.13064E-04
        -0.88610E-05
        -0.86428E-05
        -0.12707E-04
        -0.69035E-05
        -0.22225E-04
        -0.17397E-04
        -0.14405E-04
        -0.34722E-04
        -0.30123E-04
        -0.67291E-04
        -0.62939E-04
        -0.72926E-04
        -0.46384E-04
        -0.19058E-04
        -0.42291E-04
        -0.12242E-04
        -0.16938E-04
        -0.27053E-04
        -0.30461E-04
        -0.32167E-04
        -0.48110E-04
        -0.29485E-04
        -0.35077E-04
        -0.24665E-04
        -0.17419E-04
        -0.96589E-05
        -0.41500E-05
        -0.66875E-05
        -0.16657E-04
        -0.29088E-04
        -0.42975E-04
        -0.56017E-04
        -0.71820E-04
        -0.74053E-04
        -0.81909E-04
        -0.67231E-04
        -0.57666E-04
        -0.58689E-04
        -0.63239E-04
        -0.64830E-04
        -0.44268E-04
        -0.31382E-04
        -0.26062E-04
        -0.18406E-04
        -0.29772E-05
         0.26141E-06
         0.83334E-06
         0.31843E-05
         0.77732E-05
         0.10991E-04
         0.11995E-05
        -0.26109E-04
        -0.65322E-04
        -0.10893E-03
        -0.13739E-03
        -0.14259E-03
        -0.13476E-03
        -0.12472E-03
        -0.11915E-03
        -0.11478E-03
        -0.10575E-03
        -0.10193E-03
        -0.10819E-03
        -0.10873E-03
        -0.90154E-04
        -0.58739E-04
        -0.31835E-04
  
SCALARS                 displacement_y  double 1
LOOKUP_TABLE default
        -0.24125E-05
         0.49031E-04
         0.99862E-04
         0.27458E-04
        -0.16162E-03
        -0.71626E-04
        -0.14392E-03
        -0.18179E-03
         0.33566E-03
         0.31427E-03
         0.37106E-04
         0.12790E-03
         0.73156E-04
         0.26306E-04
         0.44665E-04
         0.12163E-03
        -0.12657E-04
        -0.44869E-06
         0.52785E-04
         0.12006E-04
         0.92965E-04
         0.16349E-03
         0.16664E-03
         0.20237E-03
         0.20369E-03
         0.16626E-03
         0.46894E-04
         0.86030E-04
         0.30469E-04
         0.63343E-04
        -0.14065E-04
        -0.64044E-05
        -0.14885E-04
        -0.11702E-04
        -0.70499E-04
         0.34425E-04
        -0.21263E-04
        -0.38590E-05
        -0.15966E-04
        -0.54670E-04
        -0.13618E-03
        -0.15750E-03
         0.10769E-03
         0.23575E-03
        -0.17073E-03
        -0.59296E-04
         0.37982E-05
        -0.17840E-04
        -0.46091E-05
        -0.37945E-04
        -0.43669E-04
         0.46794E-04
        -0.19057E-05
        -0.27601E-04
        -0.46740E-04
        -0.37610E-04
        -0.14856E-03
        -0.38003E-04
         0.85691E-04
         0.71806E-04
        -0.73334E-07
        -0.26241E-04
         0.23667E-04
         0.20774E-03
         0.21442E-04
        -0.19274E-03
         0.11071E-03
         0.20928E-04
         0.38274E-03
         0.23295E-03
         0.33086E-03
         0.13584E-03
         0.16209E-03
         0.92148E-04
        -0.20584E-04
        -0.32917E-04
        -0.15088E-03
        -0.10250E-03
        -0.35856E-03
         0.41242E-04
        -0.65324E-03
        -0.47860E-03
        -0.98044E-04
         0.68150E-04
        -0.28449E-03
         0.24612E-03
        -0.18207E-03
        -0.99565E-04
        -0.15401E-03
        -0.49822E-05
        -0.11306E-03
        -0.12577E-04
         0.21262E-03
         0.17841E-03
         0.49067E-04
        -0.88441E-04
         0.12502E-03
        -0.64847E-04
         0.24962E-03
         0.70083E-04
         0.41855E-03
         0.36393E-03
         0.37485E-03
         0.17892E-03
         0.70617E-03
         0.83549E-03
         0.14057E-02
         0.13282E-02
         0.47794E-03
         0.58911E-03
         0.33947E-03
         0.36757E-03
         0.32993E-03
         0.48047E-03
         0.30961E-03
         0.43532E-03
         0.18909E-03
         0.30677E-03
        -0.37225E-04
        -0.25175E-04
        -0.36423E-03
        -0.26083E-03
        -0.91120E-03
        -0.12396E-02
        -0.14567E-02
        -0.24030E-02
        -0.14913E-02
        -0.21652E-02
        -0.10864E-02
        -0.13587E-02
        -0.71415E-03
        -0.83838E-03
        -0.53500E-03
        -0.67419E-03
        -0.49224E-03
        -0.65917E-03
        -0.52561E-03
        -0.81836E-03
        -0.47469E-03
        -0.11188E-02
        -0.24822E-03
        -0.47420E-03
        -0.37848E-04
        -0.99084E-04
         0.13900E-03
         0.16388E-04
         0.34623E-03
         0.61035E-03
         0.54446E-03
         0.90802E-03
         0.74933E-03
         0.15660E-02
         0.88700E-03
         0.16892E-02
         0.90064E-03
         0.14624E-02
         0.87893E-05
         0.44890E-04
         0.76031E-04
         0.38120E-04
         0.17600E-03
         0.15099E-03
         0.53181E-04
         0.19270E-04
        -0.70403E-05
         0.42984E-05
         0.65308E-04
         0.11625E-03
         0.11505E-03
         0.36906E-04
         0.66248E-04
        -0.14203E-04
        -0.23642E-06
         0.14749E-05
        -0.20024E-04
        -0.17978E-05
        -0.11237E-03
        -0.14347E-03
        -0.12008E-03
        -0.51849E-04
         0.62047E-05
        -0.42508E-04
         0.96098E-05
        -0.28584E-04
        -0.13190E-03
        -0.33436E-04
         0.76742E-05
        -0.24483E-04
         0.35499E-04
         0.69602E-04
         0.19627E-03
         0.13541E-03
         0.10687E-03
        -0.11609E-04
        -0.12555E-03
        -0.31050E-03
        -0.55054E-03
        -0.41070E-03
        -0.25305E-03
        -0.11121E-03
        -0.83201E-04
        -0.45906E-04
         0.91010E-05
         0.53945E-04
         0.78924E-04
         0.95285E-04
         0.12400E-03
         0.13745E-03
         0.31758E-03
         0.36158E-03
         0.23772E-03
         0.19721E-03
         0.21968E-03
         0.22281E-03
         0.13176E-03
        -0.55266E-04
        -0.34777E-03
        -0.77239E-03
        -0.11662E-02
        -0.11921E-02
        -0.89107E-03
        -0.58668E-03
        -0.39908E-03
        -0.30496E-03
        -0.25658E-03
        -0.18679E-03
        -0.71264E-04
         0.47988E-04
         0.12297E-03
         0.13341E-03
         0.11075E-03
         0.14478E-03
         0.25008E-03
         0.33823E-03
         0.14412E-04
         0.26633E-04
         0.28952E-04
         0.27398E-04
         0.21702E-04
         0.40616E-05
         0.32281E-04
         0.17962E-04
         0.75366E-05
         0.16685E-04
         0.41720E-04
         0.72030E-04
         0.63538E-04
         0.31606E-04
         0.51447E-04
         0.20061E-05
         0.14519E-04
         0.16537E-04
        -0.10821E-06
         0.14213E-04
        -0.59059E-04
        -0.93665E-04
        -0.45358E-04
        -0.17014E-04
         0.23516E-04
        -0.12142E-04
         0.23626E-04
        -0.11200E-05
        -0.80112E-04
        -0.62500E-05
         0.19712E-04
         0.25431E-05
         0.32404E-04
         0.19184E-04
         0.28488E-04
         0.35974E-04
         0.46919E-04
         0.69492E-05
        -0.80680E-04
        -0.22597E-03
        -0.40248E-03
        -0.28917E-03
        -0.17507E-03
        -0.28523E-04
        -0.95345E-05
         0.14475E-04
         0.33069E-04
         0.46931E-04
         0.28279E-04
        -0.23565E-04
        -0.76617E-04
        -0.34508E-04
         0.20270E-04
        -0.82232E-05
         0.41002E-04
         0.74308E-04
         0.12017E-03
         0.13896E-03
         0.91564E-04
        -0.31856E-04
        -0.27365E-03
        -0.61686E-03
        -0.87594E-03
        -0.86920E-03
        -0.66715E-03
        -0.42799E-03
        -0.24096E-03
        -0.11874E-03
        -0.45974E-04
        -0.51029E-05
         0.32470E-04
         0.81678E-04
         0.86054E-04
        -0.76543E-05
        -0.15214E-03
        -0.21452E-03
        -0.15877E-03
        -0.69107E-04
         0.14933E-04
         0.14034E-04
         0.55650E-05
         0.15856E-04
        -0.29493E-04
        -0.34705E-04
         0.19562E-04
         0.18639E-04
         0.16011E-04
         0.24523E-04
         0.27407E-04
         0.41111E-04
         0.29902E-04
         0.28835E-04
         0.40388E-04
         0.13121E-04
         0.22756E-04
         0.18453E-04
         0.15069E-04
         0.23906E-04
        -0.15454E-04
        -0.42121E-04
         0.14403E-05
         0.87651E-05
         0.31515E-04
         0.99460E-05
         0.31067E-04
         0.17021E-04
        -0.34032E-04
         0.13006E-04
         0.19877E-04
         0.16047E-04
         0.21930E-04
         0.24680E-05
        -0.29930E-04
        -0.48371E-05
         0.14792E-04
         0.20579E-04
        -0.37341E-04
        -0.13474E-03
        -0.24477E-03
        -0.16495E-03
        -0.92980E-04
         0.14467E-04
         0.22050E-04
         0.30281E-04
         0.30337E-04
         0.29350E-04
         0.89928E-05
        -0.35790E-04
        -0.86758E-04
        -0.59211E-04
        -0.72812E-04
        -0.10935E-03
        -0.28432E-04
         0.16103E-04
         0.53368E-04
         0.73965E-04
         0.62550E-04
        -0.43903E-05
        -0.17449E-03
        -0.41318E-03
        -0.55686E-03
        -0.52565E-03
        -0.40502E-03
        -0.24907E-03
        -0.11239E-03
        -0.17397E-04
         0.36714E-04
         0.50959E-04
         0.48877E-04
         0.56466E-04
         0.43246E-04
        -0.28651E-04
        -0.13668E-03
        -0.20164E-03
        -0.19086E-03
        -0.14763E-03
         0.96617E-05
         0.83123E-05
         0.42788E-05
         0.76659E-05
        -0.72166E-05
        -0.69151E-05
         0.13119E-04
         0.15295E-04
         0.12483E-04
         0.21217E-04
         0.19684E-04
         0.26289E-04
         0.17076E-04
         0.23831E-04
         0.31669E-04
         0.98973E-05
         0.17780E-04
         0.93206E-05
         0.13833E-04
         0.19498E-04
         0.72031E-07
        -0.14225E-04
         0.86005E-05
         0.10812E-04
         0.26091E-04
         0.98681E-05
         0.28197E-04
         0.20823E-04
        -0.10805E-04
         0.15031E-04
         0.92769E-05
         0.10106E-04
         0.96570E-05
         0.52956E-05
        -0.76216E-05
         0.13357E-05
         0.91563E-05
         0.24121E-04
        -0.99203E-05
        -0.70785E-04
        -0.13994E-03
        -0.90001E-04
        -0.44596E-04
         0.14088E-04
         0.15671E-04
         0.16570E-04
         0.13442E-04
         0.12207E-04
         0.84449E-05
        -0.14630E-05
        -0.14677E-04
        -0.10576E-04
        -0.22204E-04
        -0.33226E-04
        -0.50640E-05
         0.12617E-04
         0.28825E-04
         0.42755E-04
         0.45512E-04
         0.11441E-04
        -0.93637E-04
        -0.24412E-03
        -0.33608E-03
        -0.30639E-03
        -0.21575E-03
        -0.11934E-03
        -0.45847E-04
         0.15610E-05
         0.26843E-04
         0.31466E-04
         0.24725E-04
         0.21023E-04
         0.17819E-04
         0.43735E-05
        -0.20436E-04
        -0.41174E-04
        -0.45251E-04
        -0.39844E-04
         0.35143E-05
         0.36155E-05
         0.33019E-05
         0.17229E-05
         0.67284E-05
         0.74613E-05
         0.66309E-05
         0.80242E-05
         0.55052E-05
         0.11499E-04
         0.10875E-04
         0.14705E-04
         0.91420E-05
         0.13744E-04
         0.19666E-04
         0.31866E-05
         0.84651E-05
         0.14745E-05
         0.66485E-05
         0.96812E-05
         0.34645E-05
        -0.26642E-05
         0.64366E-05
         0.54246E-05
         0.13948E-04
         0.38047E-05
         0.16629E-04
         0.13031E-04
        -0.33048E-05
         0.84115E-05
         0.61359E-06
         0.24630E-05
         0.98502E-06
         0.40081E-05
         0.75226E-05
         0.60740E-05
         0.63250E-05
         0.17195E-04
        -0.59250E-06
        -0.32855E-04
        -0.69008E-04
        -0.42715E-04
        -0.18189E-04
         0.74801E-05
         0.69161E-05
         0.60965E-05
         0.28055E-05
         0.20752E-05
         0.48533E-05
         0.98730E-05
         0.14928E-04
         0.10976E-04
         0.11971E-04
         0.14170E-04
         0.11670E-04
         0.12667E-04
         0.16360E-04
         0.23930E-04
         0.30460E-04
         0.16036E-04
        -0.41118E-04
        -0.12240E-03
        -0.17153E-03
        -0.14918E-03
        -0.90164E-04
        -0.39051E-04
        -0.80908E-05
         0.86072E-05
         0.16072E-04
         0.16144E-04
         0.10559E-04
         0.53986E-05
         0.65943E-05
         0.14288E-04
         0.23207E-04
         0.27255E-04
         0.24528E-04
         0.18766E-04
        -0.12764E-06
         0.26142E-06
         0.68204E-06
        -0.11883E-05
         0.54802E-05
         0.54553E-05
         0.16390E-05
         0.20821E-05
         0.89807E-06
         0.35382E-05
         0.36685E-05
         0.60910E-05
         0.34984E-05
         0.48546E-05
         0.89496E-05
        -0.65982E-06
         0.19282E-05
        -0.15406E-05
         0.13646E-05
         0.25110E-05
         0.33354E-05
         0.14308E-05
         0.41289E-05
         0.12880E-05
         0.42716E-05
        -0.61124E-07
         0.60377E-05
         0.45969E-05
        -0.10284E-05
         0.24757E-05
        -0.24252E-05
        -0.10227E-05
        -0.21586E-05
         0.50739E-06
         0.63721E-05
         0.36906E-05
         0.27264E-05
         0.84860E-05
         0.13658E-05
        -0.10626E-04
        -0.22351E-04
        -0.12729E-04
        -0.38646E-05
         0.36144E-05
         0.26257E-05
         0.18639E-05
        -0.81975E-06
        -0.16146E-05
         0.49295E-06
         0.50980E-05
         0.10525E-04
         0.77867E-05
         0.12899E-04
         0.16563E-04
         0.99952E-05
         0.81940E-05
         0.81689E-05
         0.11793E-04
         0.17568E-04
         0.13900E-04
        -0.94603E-05
        -0.40990E-04
        -0.56155E-04
        -0.42725E-04
        -0.18290E-04
        -0.35529E-07
         0.89594E-05
         0.12186E-04
         0.12362E-04
         0.10131E-04
         0.54563E-05
         0.12328E-05
         0.14674E-05
         0.73319E-05
         0.16057E-04
         0.22323E-04
         0.22757E-04
         0.19893E-04
        -0.13369E-05
        -0.10200E-05
        -0.45455E-06
        -0.17214E-05
         0.34664E-05
         0.32317E-05
        -0.58880E-06
        -0.59507E-06
        -0.84298E-06
        -0.18504E-06
         0.11027E-06
         0.16113E-05
         0.90506E-06
         0.32577E-06
         0.26574E-05
        -0.16882E-05
        -0.86253E-06
        -0.19358E-05
        -0.79192E-06
        -0.81410E-06
         0.26301E-05
         0.26091E-05
         0.28052E-05
        -0.25973E-06
        -0.41670E-06
        -0.11258E-05
         0.59890E-06
         0.26901E-06
         0.30125E-07
        -0.54681E-06
        -0.24368E-05
        -0.15677E-05
        -0.22167E-05
        -0.61114E-06
         0.40382E-05
         0.18215E-05
         0.94441E-06
         0.31441E-05
         0.22510E-05
         0.12453E-05
         0.19383E-05
         0.20797E-05
         0.25194E-05
         0.20805E-05
         0.11949E-05
         0.68038E-06
        -0.11849E-05
        -0.17302E-05
        -0.56476E-06
         0.21062E-05
         0.55655E-05
         0.42623E-05
         0.92864E-05
         0.12655E-04
         0.68725E-05
         0.54500E-05
         0.45057E-05
         0.53745E-05
         0.84265E-05
         0.99423E-05
         0.72781E-05
         0.40556E-05
         0.50231E-05
         0.10233E-04
         0.14528E-04
         0.14814E-04
         0.13225E-04
         0.11735E-04
         0.99578E-05
         0.71856E-05
         0.34764E-05
         0.66654E-06
         0.56420E-06
         0.36013E-05
         0.84917E-05
         0.12752E-04
         0.14574E-04
         0.14481E-04
        -0.16431E-05
        -0.14147E-05
        -0.76060E-06
        -0.16165E-05
         0.29129E-05
         0.31268E-05
        -0.13891E-05
        -0.15377E-05
        -0.13594E-05
        -0.16084E-05
        -0.12979E-05
        -0.34864E-06
        -0.15165E-06
        -0.14854E-05
        -0.19428E-06
        -0.17899E-05
        -0.18891E-05
        -0.17948E-05
        -0.16257E-05
        -0.23049E-05
         0.17914E-05
         0.24545E-05
         0.19340E-05
        -0.78973E-06
        -0.24013E-05
        -0.12526E-05
        -0.16826E-05
        -0.17497E-05
         0.17641E-07
        -0.20847E-05
        -0.19915E-05
        -0.13978E-05
        -0.17268E-05
        -0.31178E-06
         0.30693E-05
         0.10537E-05
         0.23367E-06
         0.54006E-06
         0.20178E-05
         0.53867E-05
         0.11177E-04
         0.75590E-05
         0.45361E-05
         0.14297E-05
         0.76308E-06
         0.40783E-06
        -0.92147E-06
        -0.11279E-05
        -0.67037E-08
         0.23115E-05
         0.53991E-05
         0.42204E-05
         0.75353E-05
         0.11377E-04
         0.53195E-05
         0.41794E-05
         0.29226E-05
         0.23339E-05
         0.37494E-05
         0.71989E-05
         0.12700E-04
         0.21010E-04
         0.29198E-04
         0.31401E-04
         0.26979E-04
         0.19092E-04
         0.12978E-04
         0.10023E-04
         0.81161E-05
         0.56113E-05
         0.26153E-05
         0.78758E-06
         0.12167E-05
         0.40265E-05
         0.81980E-05
         0.11887E-04
         0.14025E-04
         0.14034E-04
        -0.17652E-05
        -0.14895E-05
        -0.78182E-06
        -0.16327E-05
         0.30341E-05
         0.35954E-05
        -0.16257E-05
        -0.18832E-05
        -0.16066E-05
        -0.21809E-05
        -0.17887E-05
        -0.10375E-05
        -0.42275E-06
        -0.21656E-05
        -0.12528E-05
        -0.20585E-05
        -0.24268E-05
        -0.18798E-05
        -0.21427E-05
        -0.30308E-05
         0.19910E-05
         0.27837E-05
         0.21138E-05
        -0.10885E-05
        -0.32316E-05
        -0.14846E-05
        -0.25619E-05
        -0.25569E-05
        -0.14378E-06
        -0.27789E-05
        -0.20674E-05
        -0.14996E-05
        -0.17215E-05
        -0.77998E-07
         0.30499E-05
         0.10251E-05
         0.17247E-06
        -0.39583E-06
         0.19680E-05
         0.67218E-05
         0.14071E-04
         0.93122E-05
         0.53960E-05
         0.15106E-05
         0.80350E-06
         0.42751E-06
        -0.92980E-06
        -0.10209E-05
         0.37349E-06
         0.31549E-05
         0.68168E-05
         0.51843E-05
         0.74873E-05
         0.11798E-04
         0.53087E-05
         0.41499E-05
         0.25452E-05
         0.12345E-05
         0.20531E-05
         0.64099E-05
         0.15162E-04
         0.27110E-04
         0.36901E-04
         0.38732E-04
         0.32719E-04
         0.23136E-04
         0.15888E-04
         0.11833E-04
         0.91418E-05
         0.61372E-05
         0.27341E-05
         0.90519E-06
         0.17663E-05
         0.54148E-05
         0.10572E-04
         0.14836E-04
         0.16718E-04
         0.15647E-04
        -0.19176E-05
        -0.15013E-05
        -0.68968E-06
        -0.18436E-05
         0.35625E-05
         0.40844E-05
        -0.17735E-05
        -0.21484E-05
        -0.18452E-05
        -0.25300E-05
        -0.21128E-05
        -0.13473E-05
        -0.36039E-06
        -0.26230E-05
        -0.18169E-05
        -0.24426E-05
        -0.28036E-05
        -0.22014E-05
        -0.23215E-05
        -0.33144E-05
         0.31235E-05
         0.37557E-05
         0.33543E-05
        -0.98014E-06
        -0.36284E-05
        -0.16123E-05
        -0.30222E-05
        -0.28016E-05
        -0.17914E-07
        -0.30043E-05
        -0.24828E-05
        -0.16663E-05
        -0.21281E-05
        -0.22984E-06
         0.37200E-05
         0.14875E-05
         0.48919E-06
        -0.68203E-06
         0.24879E-05
         0.79614E-05
         0.15622E-04
         0.10149E-04
         0.62016E-05
         0.24191E-05
         0.14162E-05
         0.93298E-06
        -0.91712E-06
        -0.11894E-05
         0.39310E-06
         0.36462E-05
         0.79688E-05
         0.59260E-05
         0.87879E-05
         0.13434E-04
         0.65270E-05
         0.51910E-05
         0.30809E-05
         0.10586E-05
         0.14719E-05
         0.67928E-05
         0.18269E-04
         0.32013E-04
         0.40472E-04
         0.41260E-04
         0.36696E-04
         0.27964E-04
         0.20861E-04
         0.16324E-04
         0.12527E-04
         0.84059E-05
         0.40252E-05
         0.15435E-05
         0.24346E-05
         0.68710E-05
         0.12972E-04
         0.17786E-04
         0.19558E-04
         0.17859E-04
        -0.20893E-05
        -0.16263E-05
        -0.68628E-06
        -0.20201E-05
         0.38102E-05
         0.41378E-05
        -0.20629E-05
        -0.24380E-05
        -0.20029E-05
        -0.27921E-05
        -0.25422E-05
        -0.18320E-05
        -0.58167E-06
        -0.30604E-05
        -0.23852E-05
        -0.25582E-05
        -0.29442E-05
        -0.23808E-05
        -0.22727E-05
        -0.33597E-05
         0.35385E-05
         0.40918E-05
         0.38134E-05
        -0.84984E-06
        -0.38530E-05
        -0.16123E-05
        -0.33753E-05
        -0.28934E-05
         0.51457E-06
        -0.29879E-05
        -0.26541E-05
        -0.17044E-05
        -0.23343E-05
        -0.42202E-06
         0.41438E-05
         0.17622E-05
         0.56406E-06
        -0.99557E-06
         0.29705E-05
         0.97090E-05
         0.18625E-04
         0.11915E-04
         0.69186E-05
         0.27330E-05
         0.16503E-05
         0.12390E-05
        -0.77063E-06
        -0.11337E-05
         0.44391E-06
         0.36740E-05
         0.80071E-05
         0.58909E-05
         0.96479E-05
         0.14264E-04
         0.73955E-05
         0.57531E-05
         0.30429E-05
         0.53613E-06
         0.73945E-06
         0.65467E-05
         0.20164E-04
         0.37129E-04
         0.47346E-04
         0.46187E-04
         0.38887E-04
         0.29146E-04
         0.22150E-04
         0.17622E-04
         0.13458E-04
         0.91043E-05
         0.47517E-05
         0.22766E-05
         0.32143E-05
         0.77743E-05
         0.13669E-04
         0.18105E-04
         0.19923E-04
         0.18492E-04
        -0.22325E-05
        -0.18783E-05
        -0.84393E-06
        -0.21213E-05
         0.38931E-05
         0.41743E-05
        -0.23624E-05
        -0.26143E-05
        -0.20357E-05
        -0.29063E-05
        -0.28762E-05
        -0.23346E-05
        -0.10698E-05
        -0.32990E-05
        -0.27535E-05
        -0.25221E-05
        -0.29686E-05
        -0.23896E-05
        -0.23558E-05
        -0.35077E-05
         0.32275E-05
         0.39198E-05
         0.34172E-05
        -0.98673E-06
        -0.40408E-05
        -0.16566E-05
        -0.35808E-05
        -0.31402E-05
         0.54065E-06
        -0.31719E-05
        -0.25747E-05
        -0.16607E-05
        -0.22758E-05
        -0.41234E-06
         0.42075E-05
         0.15779E-05
         0.17491E-06
        -0.11685E-05
         0.29652E-05
         0.10288E-04
         0.20382E-04
         0.13015E-04
         0.72020E-05
         0.24262E-05
         0.15226E-05
         0.12735E-05
        -0.60426E-06
        -0.92348E-06
         0.60032E-06
         0.37125E-05
         0.79460E-05
         0.58716E-05
         0.10002E-04
         0.14856E-04
         0.72347E-05
         0.51033E-05
         0.21788E-05
        -0.34475E-06
         0.36713E-07
         0.66216E-05
         0.20973E-04
         0.39275E-04
         0.52256E-04
         0.50703E-04
         0.40703E-04
         0.29270E-04
         0.21523E-04
         0.16617E-04
         0.12552E-04
         0.86270E-05
         0.47524E-05
         0.25982E-05
         0.36233E-05
         0.79720E-05
         0.13534E-04
         0.17811E-04
         0.19855E-04
         0.18842E-04
        -0.21900E-05
        -0.19466E-05
        -0.92110E-06
        -0.20827E-05
         0.39206E-05
         0.42969E-05
        -0.23993E-05
        -0.25761E-05
        -0.19805E-05
        -0.28625E-05
        -0.28983E-05
        -0.24557E-05
        -0.13544E-05
        -0.32665E-05
        -0.26846E-05
        -0.25084E-05
        -0.29438E-05
        -0.23493E-05
        -0.25257E-05
        -0.36041E-05
         0.26054E-05
         0.36595E-05
         0.27023E-05
        -0.12547E-05
        -0.40379E-05
        -0.17730E-05
        -0.35488E-05
        -0.32295E-05
         0.33722E-06
        -0.32283E-05
        -0.25342E-05
        -0.16981E-05
        -0.22329E-05
        -0.38159E-06
         0.39805E-05
         0.11637E-05
        -0.27245E-06
        -0.99567E-06
         0.28044E-05
         0.96857E-05
         0.19899E-04
         0.13044E-04
         0.73117E-05
         0.19160E-05
         0.12333E-05
         0.10915E-05
        -0.63226E-06
        -0.90344E-06
         0.53906E-06
         0.35607E-05
         0.78009E-05
         0.59165E-05
         0.96476E-05
         0.15165E-04
         0.60227E-05
         0.37261E-05
         0.13347E-05
        -0.72289E-06
         0.15616E-06
         0.75099E-05
         0.21041E-04
         0.37671E-04
         0.51586E-04
         0.52039E-04
         0.41855E-04
         0.28844E-04
         0.19923E-04
         0.14736E-04
         0.11127E-04
         0.78324E-05
         0.43800E-05
         0.24407E-05
         0.34427E-05
         0.74077E-05
         0.12747E-04
         0.17363E-04
         0.19959E-04
         0.19266E-04
        -0.20436E-05
        -0.17736E-05
        -0.84643E-06
        -0.19927E-05
         0.36698E-05
         0.39859E-05
        -0.22121E-05
        -0.24349E-05
        -0.19156E-05
        -0.27441E-05
        -0.26962E-05
        -0.21999E-05
        -0.11842E-05
        -0.30815E-05
        -0.23970E-05
        -0.25311E-05
        -0.28872E-05
        -0.23232E-05
        -0.25969E-05
        -0.35426E-05
         0.20846E-05
         0.34648E-05
         0.20561E-05
        -0.14722E-05
        -0.38870E-05
        -0.19304E-05
        -0.33580E-05
        -0.31013E-05
         0.13342E-06
        -0.31313E-05
        -0.25908E-05
        -0.18297E-05
        -0.22744E-05
        -0.50345E-06
         0.36721E-05
         0.10312E-05
        -0.24560E-06
        -0.81505E-06
         0.25953E-05
         0.86962E-05
         0.18005E-04
         0.12099E-04
         0.71253E-05
         0.13774E-05
         0.86688E-06
         0.87782E-06
        -0.70824E-06
        -0.96892E-06
         0.34822E-06
         0.31432E-05
         0.71103E-05
         0.54098E-05
         0.88890E-05
         0.14253E-04
         0.52614E-05
         0.32588E-05
         0.13522E-05
        -0.41039E-06
         0.59963E-06
         0.75953E-05
         0.19795E-04
         0.34483E-04
         0.46835E-04
         0.49106E-04
         0.41110E-04
         0.27701E-04
         0.17980E-04
         0.12836E-04
         0.96492E-05
         0.69648E-05
         0.41006E-05
         0.24617E-05
         0.33721E-05
         0.68831E-05
         0.11717E-04
         0.16007E-04
         0.18545E-04
         0.18056E-04
        -0.19789E-05
        -0.15788E-05
        -0.61981E-06
        -0.18657E-05
         0.36322E-05
         0.37111E-05
        -0.20551E-05
        -0.23767E-05
        -0.19214E-05
        -0.26924E-05
        -0.25193E-05
        -0.18675E-05
        -0.80935E-06
        -0.29567E-05
        -0.21910E-05
        -0.26053E-05
        -0.28724E-05
        -0.23158E-05
        -0.25705E-05
        -0.34607E-05
         0.20988E-05
         0.33930E-05
         0.20121E-05
        -0.15274E-05
        -0.38171E-05
        -0.20409E-05
        -0.32443E-05
        -0.30543E-05
        -0.14784E-06
        -0.31663E-05
        -0.26310E-05
        -0.19121E-05
        -0.22258E-05
        -0.46496E-06
         0.39153E-05
         0.14628E-05
         0.20153E-06
        -0.83947E-06
         0.23701E-05
         0.80242E-05
         0.16493E-04
         0.10945E-04
         0.65871E-05
         0.13005E-05
         0.81192E-06
         0.90128E-06
        -0.67700E-06
        -0.90769E-06
         0.42619E-06
         0.31018E-05
         0.67346E-05
         0.50062E-05
         0.90833E-05
         0.13452E-04
         0.60868E-05
         0.42044E-05
         0.21135E-05
         0.24984E-06
         0.94431E-06
         0.68915E-05
         0.18464E-04
         0.32648E-04
         0.43310E-04
         0.45398E-04
         0.39065E-04
         0.26918E-04
         0.17635E-04
         0.12763E-04
         0.96989E-05
         0.70548E-05
         0.42701E-05
         0.26924E-05
         0.35900E-05
         0.70588E-05
         0.11585E-04
         0.15107E-04
         0.16898E-04
         0.16449E-04
        -0.19084E-05
        -0.14923E-05
        -0.40878E-06
        -0.15821E-05
         0.37079E-05
         0.37595E-05
        -0.20524E-05
        -0.23664E-05
        -0.19221E-05
        -0.26836E-05
        -0.25277E-05
        -0.19035E-05
        -0.81006E-06
        -0.29481E-05
        -0.22845E-05
        -0.26362E-05
        -0.29299E-05
        -0.21748E-05
        -0.25548E-05
        -0.34349E-05
         0.26276E-05
         0.37243E-05
         0.25595E-05
        -0.14096E-05
        -0.37936E-05
        -0.19794E-05
        -0.32227E-05
        -0.29685E-05
         0.11663E-06
        -0.30649E-05
        -0.24679E-05
        -0.17901E-05
        -0.19299E-05
        -0.13323E-06
         0.41009E-05
         0.17102E-05
         0.33567E-06
        -0.10123E-05
         0.23959E-05
         0.85124E-05
         0.17397E-04
         0.11472E-04
         0.68183E-05
         0.16803E-05
         0.10625E-05
         0.11035E-05
        -0.51363E-06
        -0.70863E-06
         0.66991E-06
         0.32740E-05
         0.66820E-05
         0.50199E-05
         0.92092E-05
         0.12914E-04
         0.65646E-05
         0.45483E-05
         0.21493E-05
         0.17141E-06
         0.60109E-06
         0.60249E-05
         0.18149E-04
         0.33772E-04
         0.45289E-04
         0.46468E-04
         0.39284E-04
         0.27993E-04
         0.19514E-04
         0.14491E-04
         0.10854E-04
         0.76280E-05
         0.45379E-05
         0.28013E-05
         0.35972E-05
         0.69951E-05
         0.11272E-04
         0.14485E-04
         0.16022E-04
         0.15535E-04
        -0.17637E-05
        -0.15188E-05
        -0.50889E-06
        -0.14094E-05
         0.33266E-05
         0.34786E-05
        -0.20296E-05
        -0.22370E-05
        -0.17749E-05
        -0.25925E-05
        -0.24796E-05
        -0.20402E-05
        -0.10957E-05
        -0.28499E-05
        -0.23793E-05
        -0.23293E-05
        -0.28104E-05
        -0.18853E-05
        -0.22667E-05
        -0.32228E-05
         0.32174E-05
         0.42711E-05
         0.31522E-05
        -0.98465E-06
        -0.37254E-05
        -0.15390E-05
        -0.31957E-05
        -0.29558E-05
         0.38207E-06
        -0.28483E-05
        -0.20656E-05
        -0.13562E-05
        -0.16414E-05
        -0.73490E-07
         0.35496E-05
         0.12330E-05
        -0.88725E-07
        -0.11945E-05
         0.23073E-05
         0.89275E-05
         0.18510E-04
         0.12326E-04
         0.74195E-05
         0.21779E-05
         0.14517E-05
         0.13918E-05
        -0.22466E-06
        -0.54672E-06
         0.56314E-06
         0.28499E-05
         0.59709E-05
         0.46030E-05
         0.82661E-05
         0.11930E-04
         0.54224E-05
         0.33584E-05
         0.12574E-05
        -0.43966E-06
        -0.24524E-07
         0.53806E-05
         0.18023E-04
         0.35071E-04
         0.48053E-04
         0.48733E-04
         0.40442E-04
         0.29155E-04
         0.20797E-04
         0.15446E-04
         0.11375E-04
         0.78228E-05
         0.46330E-05
         0.27614E-05
         0.31490E-05
         0.58782E-05
         0.96351E-05
         0.12886E-04
         0.14733E-04
         0.14447E-04
        -0.14787E-05
        -0.13594E-05
        -0.54658E-06
        -0.12174E-05
         0.27425E-05
         0.28827E-05
        -0.17937E-05
        -0.19658E-05
        -0.14826E-05
        -0.23615E-05
        -0.22160E-05
        -0.18662E-05
        -0.10888E-05
        -0.25912E-05
        -0.22084E-05
        -0.18161E-05
        -0.24157E-05
        -0.15127E-05
        -0.17267E-05
        -0.27289E-05
         0.32570E-05
         0.41881E-05
         0.32929E-05
        -0.47198E-06
        -0.34453E-05
        -0.97771E-06
        -0.30413E-05
        -0.28968E-05
         0.39711E-06
        -0.25061E-05
        -0.16154E-05
        -0.86589E-06
        -0.13956E-05
        -0.22440E-06
         0.27315E-05
         0.69967E-06
        -0.34906E-06
        -0.12644E-05
         0.19080E-05
         0.83484E-05
         0.17855E-04
         0.12017E-04
         0.72294E-05
         0.24618E-05
         0.17619E-05
         0.16189E-05
         0.33487E-07
        -0.47896E-06
         0.20319E-06
         0.19448E-05
         0.45229E-05
         0.36279E-05
         0.65978E-05
         0.10326E-04
         0.37482E-05
         0.21500E-05
         0.75393E-06
        -0.54806E-06
        -0.15483E-06
         0.48168E-05
         0.16583E-04
         0.33114E-04
         0.46486E-04
         0.47003E-04
         0.37680E-04
         0.26589E-04
         0.18947E-04
         0.14299E-04
         0.10824E-04
         0.76214E-05
         0.45464E-05
         0.25413E-05
         0.23497E-05
         0.40716E-05
         0.69899E-05
         0.99988E-05
         0.12177E-04
         0.12508E-04
        -0.12057E-05
        -0.11272E-05
        -0.58687E-06
        -0.10184E-05
         0.16528E-05
         0.17427E-05
        -0.15768E-05
        -0.18052E-05
        -0.12073E-05
        -0.21927E-05
        -0.20113E-05
        -0.15432E-05
        -0.82974E-06
        -0.24411E-05
        -0.18454E-05
        -0.14427E-05
        -0.20485E-05
        -0.11368E-05
        -0.14260E-05
        -0.23402E-05
         0.27957E-05
         0.37849E-05
         0.29763E-05
        -0.30758E-06
        -0.31303E-05
        -0.73153E-06
        -0.29041E-05
        -0.26242E-05
         0.10026E-05
        -0.20138E-05
        -0.13116E-05
        -0.66232E-06
        -0.12039E-05
        -0.57116E-06
         0.14881E-05
         0.25315E-06
        -0.25792E-06
        -0.95894E-06
         0.22378E-05
         0.90120E-05
         0.19068E-04
         0.13024E-04
         0.74426E-05
         0.23581E-05
         0.17132E-05
         0.14743E-05
        -0.31711E-07
        -0.66679E-06
        -0.44668E-06
         0.47672E-06
         0.20855E-05
         0.18928E-05
         0.38833E-05
         0.70583E-05
         0.23646E-05
         0.19771E-05
         0.10689E-05
         0.24660E-07
         0.77734E-06
         0.57159E-05
         0.17110E-04
         0.33893E-04
         0.48407E-04
         0.48767E-04
         0.36060E-04
         0.23155E-04
         0.16070E-04
         0.12589E-04
         0.99605E-05
         0.70965E-05
         0.40189E-05
         0.18294E-05
         0.10147E-05
         0.15287E-05
         0.30422E-05
         0.52014E-05
         0.76435E-05
         0.87888E-05
        -0.15899E-05
        -0.16705E-05
        -0.16528E-05
        -0.15718E-05
        -0.14428E-05
        -0.14529E-05
        -0.21271E-05
        -0.23925E-05
        -0.15698E-05
        -0.27284E-05
        -0.25053E-05
        -0.17183E-05
        -0.13091E-05
        -0.29500E-05
        -0.17576E-05
        -0.18563E-05
        -0.24823E-05
        -0.13408E-05
        -0.21486E-05
        -0.30404E-05
         0.17847E-05
         0.28478E-05
         0.18630E-05
        -0.11664E-05
        -0.36230E-05
        -0.14556E-05
        -0.33437E-05
        -0.30068E-05
         0.58033E-06
        -0.26362E-05
        -0.18011E-05
        -0.12954E-05
        -0.18644E-05
        -0.22410E-05
        -0.18374E-05
        -0.16033E-05
        -0.11281E-05
        -0.83043E-06
         0.21972E-05
         0.86873E-05
         0.18685E-04
         0.12718E-04
         0.68103E-05
         0.13719E-05
         0.97147E-06
         0.79910E-06
        -0.88983E-06
        -0.19962E-05
        -0.27151E-05
        -0.33238E-05
        -0.34901E-05
        -0.23823E-05
        -0.20576E-05
        -0.25410E-06
        -0.12052E-05
         0.48413E-06
         0.65297E-06
         0.57798E-06
         0.22990E-05
         0.71815E-05
         0.17539E-04
         0.33060E-04
         0.47662E-04
         0.49859E-04
         0.36748E-04
         0.22652E-04
         0.14979E-04
         0.11135E-04
         0.87326E-05
         0.64717E-05
         0.34613E-05
         0.35850E-06
        -0.22156E-05
        -0.40607E-05
        -0.51780E-05
        -0.46171E-05
        -0.18364E-05
         0.47975E-06
        -0.29220E-05
        -0.31867E-05
        -0.37333E-05
        -0.29043E-05
        -0.62793E-05
        -0.64067E-05
        -0.36865E-05
        -0.39923E-05
        -0.29325E-05
        -0.42605E-05
        -0.39803E-05
        -0.28307E-05
        -0.27709E-05
        -0.44011E-05
        -0.25832E-05
        -0.33989E-05
        -0.41611E-05
        -0.23724E-05
        -0.40850E-05
        -0.50592E-05
         0.16590E-05
         0.29118E-05
         0.16548E-05
        -0.27433E-05
        -0.52910E-05
        -0.28538E-05
        -0.46812E-05
        -0.44860E-05
        -0.12752E-05
        -0.45539E-05
        -0.28675E-05
        -0.19908E-05
        -0.31127E-05
        -0.46458E-05
        -0.67156E-05
        -0.46140E-05
        -0.30417E-05
        -0.15752E-05
         0.96182E-06
         0.64996E-05
         0.16188E-04
         0.11431E-04
         0.65973E-05
         0.13065E-05
         0.15919E-05
         0.19834E-05
        -0.96296E-06
        -0.33712E-05
        -0.54169E-05
        -0.79345E-05
        -0.10547E-04
        -0.83004E-05
        -0.10081E-04
        -0.11211E-04
        -0.61433E-05
        -0.22716E-05
        -0.75959E-06
         0.26599E-06
         0.27075E-05
         0.74946E-05
         0.16112E-04
         0.28838E-04
         0.43585E-04
         0.52391E-04
         0.45364E-04
         0.32007E-04
         0.21958E-04
         0.15603E-04
         0.12234E-04
         0.10358E-04
         0.68302E-05
         0.10515E-05
        -0.49860E-05
        -0.99947E-05
        -0.14543E-04
        -0.16853E-04
        -0.15169E-04
        -0.12332E-04
        -0.90924E-06
        -0.61978E-06
        -0.26158E-06
         0.37362E-06
        -0.36380E-05
        -0.46017E-05
        -0.19172E-05
        -0.27189E-05
        -0.19919E-05
        -0.40165E-05
        -0.26594E-05
        -0.15900E-05
        -0.10309E-05
        -0.35741E-05
        -0.17944E-05
        -0.27822E-05
        -0.50589E-05
        -0.37611E-06
        -0.37326E-05
        -0.62571E-05
         0.11358E-04
         0.12893E-04
         0.12575E-04
         0.69243E-06
        -0.66094E-05
         0.65172E-06
        -0.47737E-05
        -0.51471E-05
         0.33282E-06
        -0.51042E-05
         0.13780E-06
         0.36155E-05
         0.13701E-06
        -0.85178E-06
        -0.27544E-05
        -0.55984E-06
        -0.20478E-06
        -0.13515E-05
         0.15548E-05
         0.10576E-04
         0.28017E-04
         0.23747E-04
         0.18146E-04
         0.12492E-04
         0.13861E-04
         0.15338E-04
         0.73772E-05
         0.12977E-05
        -0.17529E-05
        -0.43733E-05
        -0.82580E-05
        -0.63558E-05
        -0.60014E-05
        -0.12474E-04
        -0.88278E-06
         0.86526E-06
         0.66777E-06
         0.13318E-05
         0.38205E-05
         0.88412E-05
         0.18660E-04
         0.38047E-04
         0.68876E-04
         0.96519E-04
         0.97150E-04
         0.79374E-04
         0.61171E-04
         0.47958E-04
         0.40565E-04
         0.36440E-04
         0.28220E-04
         0.13861E-04
         0.38033E-06
        -0.73906E-05
        -0.12797E-04
        -0.17358E-04
        -0.19276E-04
        -0.17410E-04
         0.99708E-05
         0.12084E-04
         0.15843E-04
         0.14312E-04
         0.15004E-04
         0.11568E-04
         0.85938E-05
         0.64954E-05
         0.57195E-05
         0.20180E-05
         0.64062E-05
         0.66891E-05
         0.91656E-05
         0.40268E-05
         0.46391E-05
         0.44227E-05
        -0.20304E-05
         0.94547E-05
         0.35882E-05
        -0.36134E-05
         0.36953E-04
         0.38507E-04
         0.41597E-04
         0.15287E-04
        -0.49854E-05
         0.15339E-04
        -0.13443E-06
        -0.20488E-05
         0.10515E-04
        -0.12151E-05
         0.12180E-04
         0.21944E-04
         0.12853E-04
         0.15082E-04
         0.18808E-04
         0.18188E-04
         0.13626E-04
         0.29391E-05
         0.77741E-05
         0.28273E-04
         0.64945E-04
         0.59390E-04
         0.48799E-04
         0.42437E-04
         0.45249E-04
         0.47683E-04
         0.30037E-04
         0.16448E-04
         0.12552E-04
         0.12614E-04
         0.95775E-05
         0.10410E-04
         0.19811E-04
         0.66295E-05
         0.22513E-04
         0.16068E-04
         0.97767E-05
         0.79772E-05
         0.94223E-05
         0.14388E-04
         0.30169E-04
         0.70507E-04
         0.13694E-03
         0.19612E-03
         0.20365E-03
         0.17261E-03
         0.13842E-03
         0.11437E-03
         0.10079E-03
         0.91607E-04
         0.73485E-04
         0.43092E-04
         0.16521E-04
         0.59558E-05
         0.36673E-05
        -0.43183E-07
        -0.57462E-05
        -0.47467E-05
  
SCALARS                 displacement_z  double 1
LOOKUP_TABLE default
        -0.34438E-03
        -0.31060E-03
        -0.32583E-03
        -0.36414E-03
        -0.20705E-17
        -0.20847E-17
        -0.20891E-17
        -0.21425E-17
        -0.34577E-03
        -0.40772E-03
        -0.20461E-17
        -0.23369E-17
        -0.29036E-03
        -0.32681E-03
        -0.20857E-17
        -0.21752E-17
        -0.36154E-03
        -0.35300E-03
        -0.19407E-17
        -0.20610E-17
        -0.26054E-03
        -0.18863E-03
        -0.22948E-03
        -0.19066E-17
        -0.13760E-17
        -0.15957E-17
        -0.27655E-03
        -0.15878E-03
        -0.19117E-17
        -0.11491E-17
        -0.35281E-03
        -0.37416E-03
        -0.35895E-03
        -0.20661E-17
        -0.20358E-17
        -0.19107E-17
        -0.36875E-03
        -0.38719E-03
        -0.22814E-17
        -0.21777E-17
        -0.40204E-03
        -0.39612E-03
        -0.21034E-17
        -0.18764E-17
        -0.40491E-03
        -0.36772E-03
        -0.23130E-17
        -0.24209E-17
        -0.36884E-03
        -0.20885E-17
        -0.36906E-03
        -0.24969E-17
        -0.28861E-03
        -0.17583E-17
        -0.28152E-03
        -0.16211E-17
        -0.24670E-03
        -0.36232E-03
        -0.13904E-17
        -0.20637E-17
        -0.38086E-03
        -0.41111E-03
        -0.22429E-17
        -0.27525E-17
        -0.39040E-03
        -0.22412E-17
        -0.41906E-03
        -0.26432E-17
        -0.29588E-03
        -0.27374E-03
        -0.17946E-17
        -0.17750E-17
        -0.25334E-03
        -0.16862E-17
        -0.12250E-03
        -0.83785E-18
        -0.72836E-04
        -0.55802E-18
        -0.12492E-04
        -0.28743E-18
         0.36780E-04
        -0.16073E-03
        -0.12302E-18
        -0.85096E-18
        -0.32237E-03
        -0.15654E-17
        -0.42675E-03
        -0.25708E-17
        -0.48074E-03
        -0.29404E-17
        -0.54185E-03
        -0.50159E-03
        -0.31389E-17
        -0.30356E-17
        -0.47431E-03
        -0.26463E-17
        -0.47755E-03
        -0.26743E-17
        -0.50068E-03
        -0.30000E-17
        -0.52755E-03
        -0.47387E-03
        -0.30381E-17
        -0.28073E-17
        -0.26031E-03
        -0.35618E-03
        -0.12648E-17
        -0.14676E-17
        -0.19473E-03
        -0.10268E-17
        -0.16563E-03
        -0.88999E-18
        -0.13032E-03
        -0.78314E-18
        -0.47801E-04
        -0.54838E-18
         0.59637E-04
        -0.24708E-18
         0.17701E-03
         0.79674E-20
         0.34221E-03
         0.30644E-18
         0.48542E-03
         0.56765E-18
         0.41875E-03
         0.45712E-18
         0.10977E-03
        -0.16020E-18
        -0.21816E-03
        -0.80967E-18
        -0.41121E-03
        -0.11751E-17
        -0.48100E-03
        -0.14148E-17
        -0.50276E-03
        -0.16412E-17
        -0.54219E-03
        -0.18642E-17
        -0.62411E-03
        -0.22665E-17
        -0.67679E-03
        -0.26687E-17
        -0.66135E-03
        -0.25027E-17
        -0.63505E-03
        -0.22229E-17
        -0.63224E-03
        -0.22557E-17
        -0.64103E-03
        -0.24487E-17
        -0.63637E-03
        -0.25198E-17
        -0.57915E-03
        -0.21565E-17
        -0.47063E-03
        -0.17100E-17
        -0.49491E-03
        -0.46005E-03
        -0.47743E-03
        -0.51891E-03
        -0.50737E-03
        -0.56782E-03
        -0.44208E-03
        -0.48356E-03
        -0.51470E-03
        -0.51515E-03
        -0.40968E-03
        -0.31860E-03
        -0.37177E-03
        -0.42915E-03
        -0.27207E-03
        -0.50696E-03
        -0.53116E-03
        -0.51449E-03
        -0.52540E-03
        -0.55064E-03
        -0.57344E-03
        -0.56486E-03
        -0.57295E-03
        -0.52573E-03
        -0.53611E-03
        -0.52844E-03
        -0.44299E-03
        -0.43417E-03
        -0.38782E-03
        -0.52771E-03
        -0.54261E-03
        -0.56999E-03
        -0.54867E-03
        -0.57288E-03
        -0.45715E-03
        -0.42714E-03
        -0.40100E-03
        -0.21246E-03
        -0.14339E-03
        -0.67454E-04
         0.56436E-06
        -0.26489E-03
        -0.47004E-03
        -0.58904E-03
        -0.63185E-03
        -0.67058E-03
        -0.62674E-03
        -0.59087E-03
        -0.58550E-03
        -0.60961E-03
        -0.64363E-03
        -0.62132E-03
        -0.43448E-03
        -0.53787E-03
        -0.35634E-03
        -0.31388E-03
        -0.25717E-03
        -0.13401E-03
         0.40062E-04
         0.24483E-03
         0.49518E-03
         0.67193E-03
         0.54899E-03
         0.11728E-03
        -0.32775E-03
        -0.60243E-03
        -0.69674E-03
        -0.70353E-03
        -0.71495E-03
        -0.75555E-03
        -0.76191E-03
        -0.69312E-03
        -0.61541E-03
        -0.58667E-03
        -0.62177E-03
        -0.69614E-03
        -0.71505E-03
        -0.64603E-03
        -0.51520E-03
        -0.50058E-03
        -0.50940E-03
        -0.52954E-03
        -0.52820E-03
        -0.54413E-03
        -0.49692E-03
        -0.51862E-03
        -0.52635E-03
        -0.53807E-03
        -0.48293E-03
        -0.42661E-03
        -0.46150E-03
        -0.49542E-03
        -0.38903E-03
        -0.52671E-03
        -0.53901E-03
        -0.53007E-03
        -0.53819E-03
        -0.55705E-03
        -0.57727E-03
        -0.57337E-03
        -0.56605E-03
        -0.53817E-03
        -0.55417E-03
        -0.53698E-03
        -0.50358E-03
        -0.49661E-03
        -0.46253E-03
        -0.55035E-03
        -0.54267E-03
        -0.54453E-03
        -0.54084E-03
        -0.53997E-03
        -0.51254E-03
        -0.49527E-03
        -0.47950E-03
        -0.33599E-03
        -0.27888E-03
        -0.22548E-03
        -0.17792E-03
        -0.37049E-03
        -0.50978E-03
        -0.55361E-03
        -0.54561E-03
        -0.52579E-03
        -0.51575E-03
        -0.49487E-03
        -0.47733E-03
        -0.47873E-03
        -0.49050E-03
        -0.53615E-03
        -0.51956E-03
        -0.55171E-03
        -0.48617E-03
        -0.45384E-03
        -0.40202E-03
        -0.30293E-03
        -0.15141E-03
         0.39103E-04
         0.25344E-03
         0.36773E-03
         0.23975E-03
        -0.87407E-04
        -0.40826E-03
        -0.61350E-03
        -0.67435E-03
        -0.64222E-03
        -0.58541E-03
        -0.53625E-03
        -0.48684E-03
        -0.40866E-03
        -0.31235E-03
        -0.24928E-03
        -0.28050E-03
        -0.40766E-03
        -0.52349E-03
        -0.56514E-03
        -0.51241E-03
        -0.50951E-03
        -0.51069E-03
        -0.51520E-03
        -0.51582E-03
        -0.50962E-03
        -0.51314E-03
        -0.52145E-03
        -0.51739E-03
        -0.53136E-03
        -0.51114E-03
        -0.48503E-03
        -0.50140E-03
        -0.51807E-03
        -0.46261E-03
        -0.51771E-03
        -0.52572E-03
        -0.51764E-03
        -0.52654E-03
        -0.53966E-03
        -0.55130E-03
        -0.55344E-03
        -0.53786E-03
        -0.52459E-03
        -0.54204E-03
        -0.51937E-03
        -0.52251E-03
        -0.51862E-03
        -0.50031E-03
        -0.54317E-03
        -0.51766E-03
        -0.51173E-03
        -0.51440E-03
        -0.50534E-03
        -0.51878E-03
        -0.51403E-03
        -0.50860E-03
        -0.42699E-03
        -0.38839E-03
        -0.35725E-03
        -0.33364E-03
        -0.44966E-03
        -0.52388E-03
        -0.51787E-03
        -0.49676E-03
        -0.47100E-03
        -0.47487E-03
        -0.46708E-03
        -0.45131E-03
        -0.44115E-03
        -0.43737E-03
        -0.48435E-03
        -0.53151E-03
        -0.52337E-03
        -0.52897E-03
        -0.51310E-03
        -0.48081E-03
        -0.42170E-03
        -0.32183E-03
        -0.18647E-03
        -0.35338E-04
         0.34839E-04
        -0.73997E-04
        -0.28871E-03
        -0.46952E-03
        -0.58153E-03
        -0.60872E-03
        -0.57278E-03
        -0.51267E-03
        -0.45712E-03
        -0.41868E-03
        -0.38012E-03
        -0.32273E-03
        -0.26770E-03
        -0.26956E-03
        -0.34654E-03
        -0.43898E-03
        -0.49823E-03
        -0.50435E-03
        -0.50364E-03
        -0.50156E-03
        -0.50125E-03
        -0.50144E-03
        -0.49756E-03
        -0.50807E-03
        -0.51232E-03
        -0.50730E-03
        -0.51861E-03
        -0.50933E-03
        -0.49769E-03
        -0.50350E-03
        -0.51364E-03
        -0.48594E-03
        -0.50373E-03
        -0.51276E-03
        -0.50255E-03
        -0.51136E-03
        -0.52172E-03
        -0.52427E-03
        -0.52946E-03
        -0.51534E-03
        -0.50836E-03
        -0.52598E-03
        -0.50360E-03
        -0.51716E-03
        -0.51626E-03
        -0.50678E-03
        -0.52790E-03
        -0.50052E-03
        -0.49938E-03
        -0.49914E-03
        -0.49584E-03
        -0.50443E-03
        -0.50444E-03
        -0.50434E-03
        -0.46416E-03
        -0.44022E-03
        -0.42205E-03
        -0.40876E-03
        -0.47805E-03
        -0.51787E-03
        -0.50481E-03
        -0.49614E-03
        -0.48913E-03
        -0.49039E-03
        -0.48790E-03
        -0.48185E-03
        -0.47663E-03
        -0.47378E-03
        -0.48829E-03
        -0.50956E-03
        -0.50249E-03
        -0.51216E-03
        -0.50793E-03
        -0.49563E-03
        -0.46830E-03
        -0.41186E-03
        -0.32296E-03
        -0.22100E-03
        -0.17571E-03
        -0.24776E-03
        -0.38342E-03
        -0.48808E-03
        -0.54308E-03
        -0.55199E-03
        -0.53283E-03
        -0.50631E-03
        -0.48588E-03
        -0.47667E-03
        -0.47102E-03
        -0.45633E-03
        -0.43560E-03
        -0.42849E-03
        -0.44545E-03
        -0.47226E-03
        -0.49178E-03
        -0.49840E-03
        -0.49821E-03
        -0.49633E-03
        -0.49532E-03
        -0.49634E-03
        -0.49662E-03
        -0.50111E-03
        -0.50323E-03
        -0.50001E-03
        -0.50685E-03
        -0.50252E-03
        -0.49828E-03
        -0.49945E-03
        -0.50484E-03
        -0.49308E-03
        -0.49645E-03
        -0.50300E-03
        -0.49540E-03
        -0.50123E-03
        -0.50765E-03
        -0.50676E-03
        -0.51148E-03
        -0.50189E-03
        -0.49892E-03
        -0.51113E-03
        -0.49627E-03
        -0.50723E-03
        -0.50777E-03
        -0.50376E-03
        -0.51254E-03
        -0.49449E-03
        -0.49551E-03
        -0.49447E-03
        -0.49555E-03
        -0.49683E-03
        -0.49727E-03
        -0.49837E-03
        -0.48164E-03
        -0.46939E-03
        -0.46110E-03
        -0.45482E-03
        -0.48980E-03
        -0.50832E-03
        -0.49813E-03
        -0.49709E-03
        -0.49858E-03
        -0.49841E-03
        -0.49825E-03
        -0.49840E-03
        -0.49916E-03
        -0.50039E-03
        -0.49814E-03
        -0.49789E-03
        -0.49797E-03
        -0.49882E-03
        -0.49898E-03
        -0.49675E-03
        -0.48755E-03
        -0.46118E-03
        -0.41106E-03
        -0.35270E-03
        -0.33108E-03
        -0.37111E-03
        -0.44310E-03
        -0.49682E-03
        -0.51816E-03
        -0.51759E-03
        -0.50873E-03
        -0.50107E-03
        -0.49907E-03
        -0.50212E-03
        -0.50675E-03
        -0.50915E-03
        -0.50923E-03
        -0.50828E-03
        -0.50614E-03
        -0.50326E-03
        -0.50007E-03
        -0.49605E-03
        -0.49611E-03
        -0.49527E-03
        -0.49466E-03
        -0.49603E-03
        -0.49722E-03
        -0.49740E-03
        -0.49812E-03
        -0.49664E-03
        -0.49953E-03
        -0.49824E-03
        -0.49729E-03
        -0.49706E-03
        -0.49919E-03
        -0.49594E-03
        -0.49500E-03
        -0.49778E-03
        -0.49445E-03
        -0.49694E-03
        -0.49966E-03
        -0.49890E-03
        -0.50200E-03
        -0.49651E-03
        -0.49583E-03
        -0.50128E-03
        -0.49483E-03
        -0.50038E-03
        -0.50121E-03
        -0.50098E-03
        -0.50242E-03
        -0.49433E-03
        -0.49485E-03
        -0.49463E-03
        -0.49624E-03
        -0.49568E-03
        -0.49560E-03
        -0.49623E-03
        -0.49221E-03
        -0.48874E-03
        -0.48773E-03
        -0.48766E-03
        -0.49852E-03
        -0.50295E-03
        -0.49524E-03
        -0.49551E-03
        -0.49707E-03
        -0.49738E-03
        -0.49812E-03
        -0.49963E-03
        -0.50184E-03
        -0.50411E-03
        -0.50019E-03
        -0.49618E-03
        -0.49856E-03
        -0.49578E-03
        -0.49624E-03
        -0.49644E-03
        -0.49471E-03
        -0.48636E-03
        -0.46774E-03
        -0.44731E-03
        -0.44399E-03
        -0.46281E-03
        -0.48873E-03
        -0.50465E-03
        -0.50684E-03
        -0.50249E-03
        -0.49772E-03
        -0.49537E-03
        -0.49632E-03
        -0.49954E-03
        -0.50377E-03
        -0.50798E-03
        -0.51211E-03
        -0.51503E-03
        -0.51352E-03
        -0.50823E-03
        -0.50270E-03
        -0.49569E-03
        -0.49567E-03
        -0.49539E-03
        -0.49529E-03
        -0.49628E-03
        -0.49762E-03
        -0.49606E-03
        -0.49620E-03
        -0.49581E-03
        -0.49636E-03
        -0.49635E-03
        -0.49635E-03
        -0.49586E-03
        -0.49660E-03
        -0.49684E-03
        -0.49540E-03
        -0.49590E-03
        -0.49517E-03
        -0.49564E-03
        -0.49613E-03
        -0.49580E-03
        -0.49741E-03
        -0.49497E-03
        -0.49532E-03
        -0.49655E-03
        -0.49521E-03
        -0.49696E-03
        -0.49768E-03
        -0.49928E-03
        -0.49730E-03
        -0.49528E-03
        -0.49529E-03
        -0.49553E-03
        -0.49673E-03
        -0.49552E-03
        -0.49521E-03
        -0.49546E-03
        -0.49735E-03
        -0.49879E-03
        -0.50167E-03
        -0.50493E-03
        -0.50282E-03
        -0.49999E-03
        -0.49474E-03
        -0.49499E-03
        -0.49567E-03
        -0.49632E-03
        -0.49715E-03
        -0.49846E-03
        -0.50042E-03
        -0.50256E-03
        -0.49996E-03
        -0.49567E-03
        -0.49872E-03
        -0.49464E-03
        -0.49477E-03
        -0.49523E-03
        -0.49609E-03
        -0.49678E-03
        -0.49680E-03
        -0.49907E-03
        -0.50599E-03
        -0.51240E-03
        -0.51234E-03
        -0.50755E-03
        -0.50092E-03
        -0.49611E-03
        -0.49388E-03
        -0.49334E-03
        -0.49411E-03
        -0.49601E-03
        -0.49876E-03
        -0.50179E-03
        -0.50527E-03
        -0.50870E-03
        -0.50944E-03
        -0.50679E-03
        -0.50276E-03
        -0.49575E-03
        -0.49571E-03
        -0.49558E-03
        -0.49571E-03
        -0.49649E-03
        -0.49801E-03
        -0.49577E-03
        -0.49565E-03
        -0.49567E-03
        -0.49524E-03
        -0.49580E-03
        -0.49609E-03
        -0.49561E-03
        -0.49573E-03
        -0.49722E-03
        -0.49573E-03
        -0.49527E-03
        -0.49563E-03
        -0.49519E-03
        -0.49462E-03
        -0.49451E-03
        -0.49521E-03
        -0.49461E-03
        -0.49530E-03
        -0.49467E-03
        -0.49560E-03
        -0.49564E-03
        -0.49616E-03
        -0.49828E-03
        -0.49502E-03
        -0.49590E-03
        -0.49582E-03
        -0.49612E-03
        -0.49716E-03
        -0.49552E-03
        -0.49519E-03
        -0.49538E-03
        -0.49935E-03
        -0.50261E-03
        -0.50681E-03
        -0.51124E-03
        -0.50400E-03
        -0.49828E-03
        -0.49495E-03
        -0.49534E-03
        -0.49590E-03
        -0.49660E-03
        -0.49744E-03
        -0.49864E-03
        -0.50042E-03
        -0.50246E-03
        -0.50022E-03
        -0.49546E-03
        -0.49892E-03
        -0.49436E-03
        -0.49449E-03
        -0.49494E-03
        -0.49653E-03
        -0.50070E-03
        -0.50834E-03
        -0.51949E-03
        -0.52994E-03
        -0.53131E-03
        -0.52125E-03
        -0.50803E-03
        -0.49795E-03
        -0.49351E-03
        -0.49285E-03
        -0.49331E-03
        -0.49420E-03
        -0.49584E-03
        -0.49830E-03
        -0.50113E-03
        -0.50434E-03
        -0.50753E-03
        -0.50863E-03
        -0.50688E-03
        -0.50327E-03
        -0.49575E-03
        -0.49574E-03
        -0.49560E-03
        -0.49575E-03
        -0.49656E-03
        -0.49833E-03
        -0.49573E-03
        -0.49548E-03
        -0.49557E-03
        -0.49480E-03
        -0.49567E-03
        -0.49606E-03
        -0.49559E-03
        -0.49545E-03
        -0.49743E-03
        -0.49572E-03
        -0.49494E-03
        -0.49566E-03
        -0.49491E-03
        -0.49396E-03
        -0.49409E-03
        -0.49452E-03
        -0.49440E-03
        -0.49518E-03
        -0.49389E-03
        -0.49563E-03
        -0.49516E-03
        -0.49551E-03
        -0.49763E-03
        -0.49404E-03
        -0.49606E-03
        -0.49602E-03
        -0.49629E-03
        -0.49750E-03
        -0.49547E-03
        -0.49518E-03
        -0.49540E-03
        -0.50016E-03
        -0.50398E-03
        -0.50828E-03
        -0.51268E-03
        -0.50386E-03
        -0.49753E-03
        -0.49494E-03
        -0.49554E-03
        -0.49629E-03
        -0.49704E-03
        -0.49801E-03
        -0.49946E-03
        -0.50158E-03
        -0.50394E-03
        -0.50106E-03
        -0.49532E-03
        -0.49911E-03
        -0.49425E-03
        -0.49447E-03
        -0.49491E-03
        -0.49672E-03
        -0.50223E-03
        -0.51292E-03
        -0.52739E-03
        -0.53816E-03
        -0.53650E-03
        -0.52334E-03
        -0.50854E-03
        -0.49783E-03
        -0.49315E-03
        -0.49251E-03
        -0.49316E-03
        -0.49440E-03
        -0.49640E-03
        -0.49923E-03
        -0.50280E-03
        -0.50691E-03
        -0.51068E-03
        -0.51159E-03
        -0.50888E-03
        -0.50421E-03
        -0.49567E-03
        -0.49565E-03
        -0.49549E-03
        -0.49559E-03
        -0.49648E-03
        -0.49850E-03
        -0.49558E-03
        -0.49533E-03
        -0.49542E-03
        -0.49451E-03
        -0.49546E-03
        -0.49581E-03
        -0.49530E-03
        -0.49523E-03
        -0.49754E-03
        -0.49557E-03
        -0.49467E-03
        -0.49548E-03
        -0.49471E-03
        -0.49359E-03
        -0.49399E-03
        -0.49432E-03
        -0.49426E-03
        -0.49504E-03
        -0.49343E-03
        -0.49550E-03
        -0.49488E-03
        -0.49518E-03
        -0.49723E-03
        -0.49348E-03
        -0.49592E-03
        -0.49588E-03
        -0.49617E-03
        -0.49759E-03
        -0.49531E-03
        -0.49500E-03
        -0.49519E-03
        -0.50089E-03
        -0.50517E-03
        -0.50932E-03
        -0.51327E-03
        -0.50348E-03
        -0.49711E-03
        -0.49471E-03
        -0.49530E-03
        -0.49613E-03
        -0.49708E-03
        -0.49834E-03
        -0.50018E-03
        -0.50270E-03
        -0.50547E-03
        -0.50180E-03
        -0.49506E-03
        -0.49915E-03
        -0.49389E-03
        -0.49396E-03
        -0.49424E-03
        -0.49631E-03
        -0.50324E-03
        -0.51671E-03
        -0.53379E-03
        -0.54422E-03
        -0.53896E-03
        -0.52332E-03
        -0.50875E-03
        -0.49831E-03
        -0.49334E-03
        -0.49227E-03
        -0.49258E-03
        -0.49384E-03
        -0.49617E-03
        -0.49975E-03
        -0.50457E-03
        -0.51000E-03
        -0.51444E-03
        -0.51497E-03
        -0.51109E-03
        -0.50510E-03
        -0.49561E-03
        -0.49560E-03
        -0.49545E-03
        -0.49551E-03
        -0.49648E-03
        -0.49852E-03
        -0.49549E-03
        -0.49521E-03
        -0.49534E-03
        -0.49432E-03
        -0.49536E-03
        -0.49578E-03
        -0.49522E-03
        -0.49512E-03
        -0.49778E-03
        -0.49551E-03
        -0.49453E-03
        -0.49538E-03
        -0.49468E-03
        -0.49340E-03
        -0.49397E-03
        -0.49412E-03
        -0.49427E-03
        -0.49504E-03
        -0.49313E-03
        -0.49544E-03
        -0.49480E-03
        -0.49517E-03
        -0.49755E-03
        -0.49321E-03
        -0.49582E-03
        -0.49576E-03
        -0.49610E-03
        -0.49758E-03
        -0.49530E-03
        -0.49496E-03
        -0.49512E-03
        -0.50168E-03
        -0.50669E-03
        -0.51162E-03
        -0.51618E-03
        -0.50455E-03
        -0.49709E-03
        -0.49464E-03
        -0.49514E-03
        -0.49595E-03
        -0.49700E-03
        -0.49844E-03
        -0.50044E-03
        -0.50301E-03
        -0.50581E-03
        -0.50194E-03
        -0.49511E-03
        -0.49931E-03
        -0.49380E-03
        -0.49384E-03
        -0.49418E-03
        -0.49647E-03
        -0.50427E-03
        -0.51965E-03
        -0.53934E-03
        -0.55202E-03
        -0.54616E-03
        -0.52644E-03
        -0.50893E-03
        -0.49795E-03
        -0.49329E-03
        -0.49228E-03
        -0.49243E-03
        -0.49357E-03
        -0.49596E-03
        -0.49989E-03
        -0.50528E-03
        -0.51118E-03
        -0.51554E-03
        -0.51569E-03
        -0.51155E-03
        -0.50537E-03
        -0.49559E-03
        -0.49560E-03
        -0.49548E-03
        -0.49550E-03
        -0.49666E-03
        -0.49867E-03
        -0.49547E-03
        -0.49517E-03
        -0.49532E-03
        -0.49425E-03
        -0.49535E-03
        -0.49588E-03
        -0.49531E-03
        -0.49513E-03
        -0.49808E-03
        -0.49548E-03
        -0.49449E-03
        -0.49536E-03
        -0.49463E-03
        -0.49327E-03
        -0.49379E-03
        -0.49389E-03
        -0.49411E-03
        -0.49496E-03
        -0.49294E-03
        -0.49536E-03
        -0.49478E-03
        -0.49507E-03
        -0.49762E-03
        -0.49299E-03
        -0.49574E-03
        -0.49568E-03
        -0.49607E-03
        -0.49761E-03
        -0.49547E-03
        -0.49505E-03
        -0.49522E-03
        -0.50223E-03
        -0.50735E-03
        -0.51266E-03
        -0.51802E-03
        -0.50534E-03
        -0.49708E-03
        -0.49453E-03
        -0.49511E-03
        -0.49600E-03
        -0.49696E-03
        -0.49830E-03
        -0.50028E-03
        -0.50294E-03
        -0.50581E-03
        -0.50204E-03
        -0.49539E-03
        -0.49984E-03
        -0.49396E-03
        -0.49412E-03
        -0.49456E-03
        -0.49687E-03
        -0.50521E-03
        -0.52182E-03
        -0.54201E-03
        -0.55548E-03
        -0.55116E-03
        -0.52936E-03
        -0.50936E-03
        -0.49757E-03
        -0.49283E-03
        -0.49196E-03
        -0.49231E-03
        -0.49370E-03
        -0.49624E-03
        -0.49994E-03
        -0.50487E-03
        -0.51052E-03
        -0.51505E-03
        -0.51552E-03
        -0.51171E-03
        -0.50584E-03
        -0.49556E-03
        -0.49558E-03
        -0.49555E-03
        -0.49555E-03
        -0.49688E-03
        -0.49890E-03
        -0.49539E-03
        -0.49509E-03
        -0.49531E-03
        -0.49419E-03
        -0.49528E-03
        -0.49590E-03
        -0.49523E-03
        -0.49503E-03
        -0.49823E-03
        -0.49542E-03
        -0.49448E-03
        -0.49533E-03
        -0.49454E-03
        -0.49321E-03
        -0.49351E-03
        -0.49370E-03
        -0.49385E-03
        -0.49482E-03
        -0.49290E-03
        -0.49525E-03
        -0.49459E-03
        -0.49481E-03
        -0.49746E-03
        -0.49298E-03
        -0.49565E-03
        -0.49562E-03
        -0.49598E-03
        -0.49759E-03
        -0.49562E-03
        -0.49513E-03
        -0.49520E-03
        -0.50210E-03
        -0.50661E-03
        -0.51173E-03
        -0.51754E-03
        -0.50549E-03
        -0.49716E-03
        -0.49439E-03
        -0.49514E-03
        -0.49621E-03
        -0.49702E-03
        -0.49811E-03
        -0.49990E-03
        -0.50257E-03
        -0.50560E-03
        -0.50213E-03
        -0.49559E-03
        -0.50028E-03
        -0.49407E-03
        -0.49416E-03
        -0.49450E-03
        -0.49713E-03
        -0.50634E-03
        -0.52281E-03
        -0.54065E-03
        -0.55247E-03
        -0.55009E-03
        -0.53040E-03
        -0.50988E-03
        -0.49718E-03
        -0.49217E-03
        -0.49145E-03
        -0.49215E-03
        -0.49396E-03
        -0.49680E-03
        -0.50020E-03
        -0.50432E-03
        -0.50920E-03
        -0.51376E-03
        -0.51502E-03
        -0.51198E-03
        -0.50641E-03
        -0.49561E-03
        -0.49561E-03
        -0.49566E-03
        -0.49562E-03
        -0.49698E-03
        -0.49883E-03
        -0.49537E-03
        -0.49511E-03
        -0.49535E-03
        -0.49425E-03
        -0.49524E-03
        -0.49587E-03
        -0.49516E-03
        -0.49499E-03
        -0.49811E-03
        -0.49541E-03
        -0.49454E-03
        -0.49535E-03
        -0.49452E-03
        -0.49330E-03
        -0.49337E-03
        -0.49362E-03
        -0.49380E-03
        -0.49478E-03
        -0.49308E-03
        -0.49524E-03
        -0.49456E-03
        -0.49480E-03
        -0.49732E-03
        -0.49319E-03
        -0.49563E-03
        -0.49566E-03
        -0.49591E-03
        -0.49741E-03
        -0.49576E-03
        -0.49521E-03
        -0.49518E-03
        -0.50161E-03
        -0.50562E-03
        -0.51017E-03
        -0.51560E-03
        -0.50493E-03
        -0.49717E-03
        -0.49443E-03
        -0.49528E-03
        -0.49644E-03
        -0.49716E-03
        -0.49809E-03
        -0.49961E-03
        -0.50197E-03
        -0.50479E-03
        -0.50170E-03
        -0.49574E-03
        -0.50028E-03
        -0.49412E-03
        -0.49402E-03
        -0.49433E-03
        -0.49716E-03
        -0.50626E-03
        -0.52149E-03
        -0.53725E-03
        -0.54701E-03
        -0.54492E-03
        -0.52861E-03
        -0.50947E-03
        -0.49656E-03
        -0.49175E-03
        -0.49138E-03
        -0.49235E-03
        -0.49435E-03
        -0.49724E-03
        -0.50058E-03
        -0.50432E-03
        -0.50845E-03
        -0.51231E-03
        -0.51346E-03
        -0.51095E-03
        -0.50601E-03
        -0.49570E-03
        -0.49568E-03
        -0.49579E-03
        -0.49573E-03
        -0.49711E-03
        -0.49868E-03
        -0.49541E-03
        -0.49520E-03
        -0.49544E-03
        -0.49441E-03
        -0.49525E-03
        -0.49575E-03
        -0.49513E-03
        -0.49503E-03
        -0.49773E-03
        -0.49547E-03
        -0.49467E-03
        -0.49544E-03
        -0.49463E-03
        -0.49349E-03
        -0.49355E-03
        -0.49379E-03
        -0.49398E-03
        -0.49487E-03
        -0.49331E-03
        -0.49533E-03
        -0.49467E-03
        -0.49489E-03
        -0.49711E-03
        -0.49334E-03
        -0.49574E-03
        -0.49579E-03
        -0.49599E-03
        -0.49736E-03
        -0.49598E-03
        -0.49532E-03
        -0.49517E-03
        -0.50098E-03
        -0.50491E-03
        -0.50911E-03
        -0.51382E-03
        -0.50394E-03
        -0.49698E-03
        -0.49461E-03
        -0.49547E-03
        -0.49658E-03
        -0.49726E-03
        -0.49817E-03
        -0.49960E-03
        -0.50168E-03
        -0.50409E-03
        -0.50120E-03
        -0.49610E-03
        -0.50031E-03
        -0.49422E-03
        -0.49385E-03
        -0.49414E-03
        -0.49679E-03
        -0.50486E-03
        -0.51859E-03
        -0.53412E-03
        -0.54379E-03
        -0.54078E-03
        -0.52561E-03
        -0.50856E-03
        -0.49661E-03
        -0.49211E-03
        -0.49177E-03
        -0.49273E-03
        -0.49466E-03
        -0.49732E-03
        -0.50047E-03
        -0.50426E-03
        -0.50835E-03
        -0.51162E-03
        -0.51197E-03
        -0.50939E-03
        -0.50520E-03
        -0.49583E-03
        -0.49583E-03
        -0.49601E-03
        -0.49598E-03
        -0.49733E-03
        -0.49877E-03
        -0.49561E-03
        -0.49537E-03
        -0.49553E-03
        -0.49458E-03
        -0.49549E-03
        -0.49599E-03
        -0.49537E-03
        -0.49526E-03
        -0.49776E-03
        -0.49555E-03
        -0.49473E-03
        -0.49563E-03
        -0.49466E-03
        -0.49360E-03
        -0.49371E-03
        -0.49407E-03
        -0.49405E-03
        -0.49491E-03
        -0.49346E-03
        -0.49540E-03
        -0.49491E-03
        -0.49515E-03
        -0.49736E-03
        -0.49351E-03
        -0.49591E-03
        -0.49586E-03
        -0.49623E-03
        -0.49754E-03
        -0.49629E-03
        -0.49557E-03
        -0.49536E-03
        -0.50097E-03
        -0.50522E-03
        -0.50966E-03
        -0.51438E-03
        -0.50423E-03
        -0.49726E-03
        -0.49466E-03
        -0.49543E-03
        -0.49634E-03
        -0.49705E-03
        -0.49804E-03
        -0.49948E-03
        -0.50145E-03
        -0.50368E-03
        -0.50106E-03
        -0.49651E-03
        -0.50037E-03
        -0.49456E-03
        -0.49407E-03
        -0.49449E-03
        -0.49702E-03
        -0.50420E-03
        -0.51743E-03
        -0.53432E-03
        -0.54543E-03
        -0.54204E-03
        -0.52620E-03
        -0.50911E-03
        -0.49724E-03
        -0.49250E-03
        -0.49195E-03
        -0.49277E-03
        -0.49443E-03
        -0.49670E-03
        -0.49953E-03
        -0.50325E-03
        -0.50734E-03
        -0.51043E-03
        -0.51081E-03
        -0.50847E-03
        -0.50471E-03
        -0.49595E-03
        -0.49602E-03
        -0.49619E-03
        -0.49617E-03
        -0.49742E-03
        -0.49876E-03
        -0.49587E-03
        -0.49553E-03
        -0.49559E-03
        -0.49466E-03
        -0.49585E-03
        -0.49649E-03
        -0.49582E-03
        -0.49558E-03
        -0.49819E-03
        -0.49566E-03
        -0.49475E-03
        -0.49582E-03
        -0.49468E-03
        -0.49363E-03
        -0.49373E-03
        -0.49418E-03
        -0.49405E-03
        -0.49495E-03
        -0.49350E-03
        -0.49547E-03
        -0.49516E-03
        -0.49532E-03
        -0.49759E-03
        -0.49358E-03
        -0.49603E-03
        -0.49585E-03
        -0.49637E-03
        -0.49758E-03
        -0.49646E-03
        -0.49583E-03
        -0.49570E-03
        -0.50138E-03
        -0.50573E-03
        -0.51039E-03
        -0.51539E-03
        -0.50476E-03
        -0.49751E-03
        -0.49461E-03
        -0.49523E-03
        -0.49588E-03
        -0.49666E-03
        -0.49761E-03
        -0.49894E-03
        -0.50083E-03
        -0.50300E-03
        -0.50081E-03
        -0.49667E-03
        -0.50022E-03
        -0.49499E-03
        -0.49467E-03
        -0.49525E-03
        -0.49771E-03
        -0.50448E-03
        -0.51782E-03
        -0.53557E-03
        -0.54781E-03
        -0.54467E-03
        -0.52771E-03
        -0.50968E-03
        -0.49741E-03
        -0.49251E-03
        -0.49186E-03
        -0.49250E-03
        -0.49385E-03
        -0.49578E-03
        -0.49825E-03
        -0.50143E-03
        -0.50500E-03
        -0.50814E-03
        -0.50924E-03
        -0.50760E-03
        -0.50425E-03
        -0.49605E-03
        -0.49615E-03
        -0.49631E-03
        -0.49633E-03
        -0.49738E-03
        -0.49855E-03
        -0.49601E-03
        -0.49561E-03
        -0.49569E-03
        -0.49473E-03
        -0.49603E-03
        -0.49678E-03
        -0.49612E-03
        -0.49570E-03
        -0.49833E-03
        -0.49587E-03
        -0.49489E-03
        -0.49603E-03
        -0.49487E-03
        -0.49382E-03
        -0.49383E-03
        -0.49419E-03
        -0.49421E-03
        -0.49515E-03
        -0.49359E-03
        -0.49566E-03
        -0.49515E-03
        -0.49518E-03
        -0.49743E-03
        -0.49372E-03
        -0.49618E-03
        -0.49593E-03
        -0.49645E-03
        -0.49745E-03
        -0.49651E-03
        -0.49602E-03
        -0.49597E-03
        -0.50111E-03
        -0.50491E-03
        -0.50941E-03
        -0.51468E-03
        -0.50457E-03
        -0.49747E-03
        -0.49472E-03
        -0.49518E-03
        -0.49561E-03
        -0.49638E-03
        -0.49718E-03
        -0.49821E-03
        -0.49981E-03
        -0.50172E-03
        -0.50016E-03
        -0.49661E-03
        -0.49982E-03
        -0.49533E-03
        -0.49526E-03
        -0.49588E-03
        -0.49822E-03
        -0.50455E-03
        -0.51697E-03
        -0.53305E-03
        -0.54470E-03
        -0.54334E-03
        -0.52701E-03
        -0.50863E-03
        -0.49656E-03
        -0.49222E-03
        -0.49188E-03
        -0.49247E-03
        -0.49354E-03
        -0.49512E-03
        -0.49719E-03
        -0.49961E-03
        -0.50220E-03
        -0.50497E-03
        -0.50660E-03
        -0.50589E-03
        -0.50336E-03
        -0.49624E-03
        -0.49632E-03
        -0.49653E-03
        -0.49667E-03
        -0.49738E-03
        -0.49839E-03
        -0.49608E-03
        -0.49564E-03
        -0.49591E-03
        -0.49478E-03
        -0.49603E-03
        -0.49686E-03
        -0.49630E-03
        -0.49559E-03
        -0.49814E-03
        -0.49622E-03
        -0.49516E-03
        -0.49643E-03
        -0.49513E-03
        -0.49411E-03
        -0.49388E-03
        -0.49426E-03
        -0.49435E-03
        -0.49540E-03
        -0.49376E-03
        -0.49598E-03
        -0.49497E-03
        -0.49510E-03
        -0.49772E-03
        -0.49406E-03
        -0.49658E-03
        -0.49622E-03
        -0.49681E-03
        -0.49752E-03
        -0.49654E-03
        -0.49617E-03
        -0.49617E-03
        -0.50057E-03
        -0.50431E-03
        -0.50935E-03
        -0.51547E-03
        -0.50543E-03
        -0.49788E-03
        -0.49493E-03
        -0.49529E-03
        -0.49541E-03
        -0.49617E-03
        -0.49689E-03
        -0.49768E-03
        -0.49887E-03
        -0.50031E-03
        -0.49948E-03
        -0.49643E-03
        -0.49925E-03
        -0.49544E-03
        -0.49561E-03
        -0.49637E-03
        -0.49862E-03
        -0.50448E-03
        -0.51608E-03
        -0.53141E-03
        -0.54388E-03
        -0.54494E-03
        -0.52884E-03
        -0.50844E-03
        -0.49564E-03
        -0.49168E-03
        -0.49177E-03
        -0.49252E-03
        -0.49336E-03
        -0.49433E-03
        -0.49564E-03
        -0.49740E-03
        -0.49934E-03
        -0.50160E-03
        -0.50341E-03
        -0.50367E-03
        -0.50218E-03
        -0.49639E-03
        -0.49642E-03
        -0.49676E-03
        -0.49714E-03
        -0.49734E-03
        -0.49815E-03
        -0.49601E-03
        -0.49557E-03
        -0.49601E-03
        -0.49471E-03
        -0.49585E-03
        -0.49663E-03
        -0.49622E-03
        -0.49541E-03
        -0.49778E-03
        -0.49658E-03
        -0.49514E-03
        -0.49698E-03
        -0.49498E-03
        -0.49387E-03
        -0.49322E-03
        -0.49373E-03
        -0.49386E-03
        -0.49531E-03
        -0.49367E-03
        -0.49624E-03
        -0.49482E-03
        -0.49501E-03
        -0.49784E-03
        -0.49397E-03
        -0.49718E-03
        -0.49648E-03
        -0.49737E-03
        -0.49762E-03
        -0.49655E-03
        -0.49632E-03
        -0.49627E-03
        -0.50001E-03
        -0.50369E-03
        -0.50905E-03
        -0.51596E-03
        -0.50626E-03
        -0.49806E-03
        -0.49473E-03
        -0.49495E-03
        -0.49421E-03
        -0.49506E-03
        -0.49582E-03
        -0.49646E-03
        -0.49722E-03
        -0.49808E-03
        -0.49845E-03
        -0.49622E-03
        -0.49840E-03
        -0.49563E-03
        -0.49587E-03
        -0.49639E-03
        -0.49836E-03
        -0.50378E-03
        -0.51424E-03
        -0.52855E-03
        -0.54156E-03
        -0.54550E-03
        -0.53218E-03
        -0.50983E-03
        -0.49463E-03
        -0.49003E-03
        -0.49040E-03
        -0.49155E-03
        -0.49191E-03
        -0.49125E-03
        -0.49062E-03
        -0.49145E-03
        -0.49324E-03
        -0.49560E-03
        -0.49835E-03
        -0.50031E-03
        -0.50036E-03
        -0.49641E-03
        -0.49654E-03
        -0.49714E-03
        -0.49769E-03
        -0.49738E-03
        -0.49759E-03
        -0.49590E-03
        -0.49539E-03
        -0.49585E-03
        -0.49448E-03
        -0.49572E-03
        -0.49640E-03
        -0.49611E-03
        -0.49539E-03
        -0.49776E-03
        -0.49689E-03
        -0.49469E-03
        -0.49759E-03
        -0.49427E-03
        -0.49310E-03
        -0.49163E-03
        -0.49306E-03
        -0.49228E-03
        -0.49473E-03
        -0.49342E-03
        -0.49633E-03
        -0.49502E-03
        -0.49555E-03
        -0.49913E-03
        -0.49397E-03
        -0.49785E-03
        -0.49633E-03
        -0.49799E-03
        -0.49751E-03
        -0.49697E-03
        -0.49684E-03
        -0.49653E-03
        -0.50024E-03
        -0.50440E-03
        -0.51088E-03
        -0.51952E-03
        -0.50955E-03
        -0.49948E-03
        -0.49349E-03
        -0.49311E-03
        -0.49033E-03
        -0.49180E-03
        -0.49305E-03
        -0.49376E-03
        -0.49407E-03
        -0.49415E-03
        -0.49655E-03
        -0.49670E-03
        -0.49727E-03
        -0.49664E-03
        -0.49643E-03
        -0.49615E-03
        -0.49769E-03
        -0.50307E-03
        -0.51295E-03
        -0.52696E-03
        -0.54192E-03
        -0.55073E-03
        -0.54150E-03
        -0.51594E-03
        -0.49475E-03
        -0.48670E-03
        -0.48640E-03
        -0.48768E-03
        -0.48661E-03
        -0.48270E-03
        -0.47899E-03
        -0.47905E-03
        -0.48159E-03
        -0.48501E-03
        -0.48990E-03
        -0.49462E-03
        -0.49715E-03
        -0.49707E-03
        -0.49795E-03
        -0.49918E-03
        -0.49915E-03
        -0.49916E-03
        -0.49767E-03
        -0.49689E-03
        -0.49556E-03
        -0.49566E-03
        -0.49385E-03
        -0.49681E-03
        -0.49842E-03
        -0.49800E-03
        -0.49612E-03
        -0.50026E-03
        -0.49765E-03
        -0.49354E-03
        -0.49880E-03
        -0.49290E-03
        -0.49124E-03
        -0.48850E-03
        -0.49269E-03
        -0.48883E-03
        -0.49372E-03
        -0.49249E-03
        -0.49640E-03
        -0.49579E-03
        -0.49789E-03
        -0.50603E-03
        -0.49469E-03
        -0.49852E-03
        -0.49503E-03
        -0.49866E-03
        -0.49727E-03
        -0.50009E-03
        -0.49990E-03
        -0.49889E-03
        -0.50423E-03
        -0.51245E-03
        -0.52625E-03
        -0.54328E-03
        -0.52618E-03
        -0.50658E-03
        -0.48999E-03
        -0.48744E-03
        -0.48014E-03
        -0.48365E-03
        -0.48666E-03
        -0.48824E-03
        -0.48869E-03
        -0.48829E-03
        -0.49407E-03
        -0.50075E-03
        -0.49756E-03
        -0.50151E-03
        -0.50017E-03
        -0.49926E-03
        -0.50131E-03
        -0.50822E-03
        -0.52125E-03
        -0.54318E-03
        -0.57280E-03
        -0.59494E-03
        -0.58333E-03
        -0.53962E-03
        -0.49856E-03
        -0.47995E-03
        -0.47668E-03
        -0.47648E-03
        -0.47152E-03
        -0.46190E-03
        -0.45427E-03
        -0.45508E-03
        -0.46105E-03
        -0.46845E-03
        -0.47801E-03
        -0.48743E-03
        -0.49371E-03
        -0.49920E-03
        -0.50177E-03
        -0.50428E-03
        -0.50256E-03
        -0.50421E-03
        -0.49967E-03
        -0.49980E-03
        -0.49651E-03
        -0.49582E-03
        -0.49266E-03
        -0.49974E-03
        -0.50364E-03
        -0.50299E-03
        -0.49783E-03
        -0.50600E-03
        -0.49937E-03
        -0.49143E-03
        -0.50135E-03
        -0.49078E-03
        -0.48749E-03
        -0.48304E-03
        -0.49140E-03
        -0.48320E-03
        -0.49228E-03
        -0.49030E-03
        -0.49648E-03
        -0.49705E-03
        -0.50280E-03
        -0.52204E-03
        -0.49610E-03
        -0.49927E-03
        -0.49211E-03
        -0.49956E-03
        -0.49715E-03
        -0.50735E-03
        -0.50690E-03
        -0.50461E-03
        -0.51311E-03
        -0.53161E-03
        -0.56265E-03
        -0.59665E-03
        -0.56268E-03
        -0.52091E-03
        -0.48385E-03
        -0.47718E-03
        -0.46266E-03
        -0.46954E-03
        -0.47565E-03
        -0.47903E-03
        -0.48058E-03
        -0.48064E-03
        -0.49167E-03
        -0.50951E-03
        -0.50102E-03
        -0.51129E-03
        -0.50822E-03
        -0.50714E-03
        -0.51102E-03
        -0.52133E-03
        -0.54246E-03
        -0.58417E-03
        -0.64453E-03
        -0.68885E-03
        -0.66546E-03
        -0.58267E-03
        -0.50408E-03
        -0.46822E-03
        -0.46080E-03
        -0.45777E-03
        -0.44656E-03
        -0.42886E-03
        -0.41632E-03
        -0.41870E-03
        -0.43061E-03
        -0.44586E-03
        -0.46367E-03
        -0.48062E-03
        -0.49227E-03
  
SCALARS                     velocity_x  double 1
LOOKUP_TABLE default
         0.00000E+00
        -0.18164E+01
        -0.35064E+02
         0.12108E+02
        -0.21737E+02
        -0.21696E+04
        -0.13332E+04
        -0.11174E+04
        -0.11674E+04
         0.71101E+02
         0.12945E+03
        -0.14376E+04
        -0.14385E+04
        -0.74282E+02
        -0.84271E+02
        -0.12802E+04
        -0.69534E+03
         0.44504E+02
        -0.12744E+01
        -0.99039E+03
        -0.30443E+04
        -0.96785E+02
        -0.75330E+02
        -0.14588E+03
        -0.17762E+04
        -0.10797E+04
        -0.57923E+03
        -0.97472E+02
        -0.21623E+03
        -0.18803E+04
        -0.44973E+03
         0.13432E+02
         0.30450E+02
         0.73320E+01
        -0.14713E+03
        -0.41583E+03
        -0.16845E+03
        -0.63006E+01
         0.15131E+02
        -0.23293E+02
        -0.65415E+02
        -0.36034E+02
        -0.11454E+03
         0.26478E+01
        -0.15945E+02
        -0.65354E+01
        -0.24030E+02
        -0.59696E+02
        -0.16423E+02
         0.23105E+02
        -0.58036E+03
        -0.57020E+02
        -0.22791E+03
        -0.22896E+03
        -0.10911E+04
        -0.37878E+03
        -0.12369E+04
        -0.24853E+03
        -0.34708E+02
        -0.17001E+04
        -0.26095E+03
        -0.10727E+03
        -0.45020E+02
        -0.72824E+03
        -0.38445E+03
        -0.62634E+02
        -0.19241E+03
        -0.81308E+02
        -0.22371E+04
         0.78950E+02
         0.60277E+02
        -0.14281E+04
        -0.67675E+03
        -0.92458E+01
        -0.45051E+03
        -0.14772E+03
        -0.91580E+03
        -0.30445E+03
        -0.10558E+04
        -0.61240E+03
        -0.12668E+04
        -0.31690E+03
        -0.86598E+03
        -0.14946E+04
        -0.71327E+03
        -0.30483E+03
        -0.68805E+03
         0.15547E+03
        -0.76133E+03
         0.32583E+03
        -0.14027E+04
         0.18235E+03
         0.24647E+03
        -0.14429E+04
        -0.33721E+03
         0.12122E+03
        -0.28963E+03
         0.26570E+03
        -0.99643E+03
         0.63595E+03
        -0.15920E+04
         0.47292E+03
         0.69121E+03
        -0.12805E+04
        -0.19194E+04
         0.18988E+03
         0.66518E+03
        -0.28271E+04
        -0.14787E+04
         0.27369E+03
        -0.67637E+03
         0.10554E+02
        -0.18463E+03
        -0.39521E+03
         0.27268E+03
        -0.10335E+04
         0.63188E+03
        -0.14270E+04
         0.48933E+03
        -0.11760E+04
         0.33738E+03
        -0.12368E+04
        -0.94094E+01
        -0.13399E+04
        -0.16923E+04
        -0.12939E+04
        -0.17039E+04
        -0.75362E+03
        -0.14783E+04
        -0.25945E+03
        -0.15445E+04
        -0.20142E+03
        -0.16563E+04
         0.22107E+03
        -0.16537E+04
         0.67535E+03
        -0.13891E+04
         0.10048E+04
        -0.11834E+04
         0.16150E+04
        -0.21007E+04
         0.19684E+04
        -0.16589E+04
         0.18297E+04
        -0.12727E+04
         0.19956E+04
        -0.15281E+04
         0.39359E+04
        -0.22419E+04
         0.51963E+04
        -0.17223E+04
         0.55280E+04
        -0.16336E+04
         0.27302E+04
        -0.18028E+04
         0.11358E+04
        -0.91260E+03
         0.63536E+03
         0.50171E+03
         0.36783E+03
         0.63128E+03
         0.58744E+03
         0.12097E+04
         0.38916E+03
         0.48910E+03
         0.89037E+03
         0.20171E+04
         0.56923E+03
         0.21839E+03
         0.36808E+03
         0.62373E+03
         0.18657E+03
         0.50645E+03
         0.39444E+03
         0.91350E+03
         0.26541E+03
         0.33131E+03
         0.19328E+03
         0.15423E+03
         0.75254E+03
         0.37676E+03
         0.78874E+03
         0.62616E+03
         0.68174E+03
         0.71182E+03
         0.46213E+03
         0.28798E+03
         0.68302E+03
         0.42742E+03
         0.53987E+03
         0.14885E+04
         0.71694E+03
         0.64039E+03
         0.38962E+03
         0.41913E+03
         0.48400E+03
         0.61962E+03
         0.35237E+03
         0.37162E+03
         0.25720E+03
         0.70493E+03
         0.12438E+04
         0.79582E+03
         0.58011E+03
         0.66827E+03
         0.11642E+04
         0.22524E+04
         0.13253E+04
         0.29948E+04
         0.13948E+04
         0.20264E+04
         0.85366E+03
         0.28816E+03
        -0.21996E+03
        -0.65463E+03
        -0.89642E+03
        -0.10253E+04
        -0.11407E+04
        -0.54072E+03
         0.24711E+03
         0.53002E+03
         0.50553E+03
         0.69611E+03
         0.97412E+03
         0.13044E+04
         0.17188E+04
         0.22779E+04
         0.16141E+04
         0.12753E+04
         0.20669E+04
         0.37736E+04
         0.51214E+04
         0.38038E+04
         0.25036E+04
         0.89981E+03
         0.33546E+03
         0.20823E+03
         0.14863E+03
         0.35412E+03
         0.17008E+03
         0.30731E+03
         0.21559E+03
         0.22169E+03
         0.35633E+03
         0.81508E+03
         0.30495E+03
         0.16921E+03
         0.17081E+03
         0.34682E+03
         0.14205E+03
         0.23591E+03
         0.19434E+03
         0.42855E+03
         0.17656E+03
         0.24020E+03
         0.16825E+03
         0.30757E+03
         0.29241E+03
         0.16437E+03
         0.40671E+03
         0.29547E+03
         0.35014E+03
         0.34164E+03
         0.15911E+03
         0.22910E+03
         0.42386E+03
         0.21062E+03
         0.33749E+03
         0.52104E+03
         0.22959E+03
         0.21732E+03
         0.15065E+03
         0.21436E+03
         0.24394E+03
         0.44522E+03
         0.22370E+03
         0.13084E+03
         0.37651E+03
         0.22386E+03
         0.33781E+03
         0.13646E+03
         0.14214E+03
         0.17446E+03
         0.21208E+03
         0.93701E+02
        -0.13228E+03
         0.17198E+03
         0.21909E+03
         0.64798E+02
         0.22361E+03
         0.15595E+03
         0.87955E+02
         0.69443E+02
         0.17062E+00
        -0.15022E+03
        -0.30164E+02
         0.65101E+02
         0.21917E+03
         0.39841E+03
         0.41561E+03
         0.52965E+03
         0.46978E+03
         0.30474E+03
         0.21160E+03
         0.11265E+03
        -0.33301E+01
        -0.10878E+03
        -0.28151E+03
        -0.27931E+03
        -0.74388E+03
        -0.58401E+03
        -0.37770E+03
        -0.15249E+03
         0.32956E+02
         0.61362E+01
        -0.31430E+02
        -0.87290E+01
        -0.13411E+03
        -0.27724E+03
         0.28641E+02
         0.18598E+02
         0.11031E+02
         0.91226E+02
         0.57412E+02
         0.85982E+02
         0.45083E+02
         0.67691E+02
         0.59092E+02
         0.18040E+02
         0.85454E+01
         0.21739E+02
         0.83584E+01
         0.32687E+02
         0.41375E+02
         0.11629E+03
        -0.57344E+01
         0.21203E+01
         0.39898E+02
         0.14007E+02
         0.83271E+02
         0.11490E+03
         0.77538E+02
         0.61888E+02
        -0.48044E+00
         0.57717E+01
        -0.29458E+02
        -0.24841E+03
        -0.18828E+03
        -0.63914E+02
        -0.13768E+02
         0.10911E+03
         0.14320E+03
         0.20165E+03
         0.87396E+02
         0.90686E+02
         0.20883E+03
        -0.69305E+02
        -0.22042E+03
        -0.18739E+03
        -0.13151E+03
        -0.19199E+03
        -0.24223E+03
        -0.85094E+03
        -0.72838E+03
        -0.12804E+04
        -0.39619E+03
        -0.88472E+03
        -0.23390E+03
        -0.19923E+02
         0.12435E+03
         0.28240E+03
         0.66159E+02
         0.82466E+02
         0.37136E+01
        -0.14406E+03
        -0.42168E+02
         0.10013E+03
         0.25129E+03
         0.31447E+03
         0.16922E+03
        -0.67733E+02
        -0.34210E+03
        -0.58816E+03
        -0.51488E+03
        -0.50836E+03
        -0.88185E+03
        -0.18740E+04
        -0.29620E+04
        -0.21582E+04
        -0.15510E+04
        -0.41620E+03
        -0.10548E+02
        -0.12685E+02
        -0.10636E+02
        -0.22181E+02
        -0.52779E+02
        -0.11699E+03
        -0.16859E+01
         0.53973E+01
        -0.17298E+01
         0.42355E+02
         0.31092E+02
         0.48924E+02
         0.18801E+02
         0.47134E+02
         0.52136E+02
        -0.11516E+02
         0.11800E+01
        -0.20448E+02
        -0.59570E+01
         0.18738E+02
         0.33287E+02
         0.10609E+03
         0.15468E+02
        -0.53250E+01
         0.43478E+02
        -0.46504E+01
         0.71659E+02
         0.14309E+03
         0.14754E+03
         0.55381E+02
        -0.13147E+02
        -0.55641E+01
        -0.32491E+02
        -0.10611E+03
        -0.55645E+02
        -0.18588E+02
        -0.30262E+01
         0.16210E+03
         0.25963E+03
         0.42740E+03
         0.22863E+03
         0.18194E+03
         0.18797E+03
        -0.10809E+02
        -0.42524E+02
        -0.32430E+02
        -0.27253E+02
        -0.51726E+02
        -0.68437E+02
        -0.21566E+03
        -0.18077E+03
        -0.32289E+03
        -0.16303E+03
        -0.23577E+03
        -0.39714E+02
         0.19104E+02
         0.88808E+02
         0.19344E+03
         0.15526E+03
         0.17653E+03
         0.20141E+03
         0.16878E+02
        -0.12636E+02
         0.15652E+03
         0.30283E+03
         0.30080E+03
         0.18681E+03
         0.46385E+02
        -0.74543E+02
        -0.15347E+03
        -0.10741E+03
        -0.74152E+02
        -0.20247E+03
        -0.43974E+03
        -0.70535E+03
        -0.55394E+03
        -0.45503E+03
        -0.12552E+03
        -0.95626E+01
        -0.11476E+01
         0.26945E+01
        -0.24286E+01
         0.60380E+00
         0.49388E+00
        -0.30406E+01
         0.12798E+01
        -0.12545E+02
         0.11617E+02
         0.83866E+01
         0.21097E+02
         0.12297E+02
         0.19768E+02
         0.29037E+02
        -0.15207E+02
        -0.94699E+01
        -0.14488E+02
        -0.68934E+01
         0.29573E+01
         0.19510E+02
         0.49364E+02
         0.17514E+02
        -0.33373E+01
         0.16968E+02
        -0.62170E+01
         0.30628E+02
         0.66517E+02
         0.76447E+02
         0.28302E+02
         0.57789E+01
         0.33306E+01
         0.10407E+02
         0.69645E+01
         0.13767E+01
         0.44386E+01
         0.46329E+01
         0.84024E+02
         0.15594E+03
         0.25194E+03
         0.13018E+03
         0.72795E+02
         0.94917E+02
         0.94417E+01
         0.23809E+02
         0.22005E+02
         0.22141E+02
         0.31638E+02
         0.13359E+02
         0.43913E+02
         0.32302E+02
         0.51992E+02
        -0.10880E+02
        -0.16821E+02
        -0.11423E+02
         0.31574E+01
         0.35083E+02
         0.60620E+02
         0.50628E+02
         0.15779E+03
         0.22540E+03
         0.16726E+03
         0.16966E+03
         0.84027E+02
         0.15235E+03
         0.12951E+03
         0.81275E+02
         0.28873E+02
         0.99424E+01
         0.17865E+02
         0.41727E+02
         0.38784E+02
         0.52872E+02
         0.14098E+03
         0.15022E+03
         0.77272E+02
         0.15642E+02
        -0.64103E+01
        -0.50317E+01
        -0.98376E+00
         0.21242E+01
        -0.50876E+00
         0.41504E+01
         0.14251E+02
        -0.14574E+01
        -0.14000E+01
        -0.11046E+02
        -0.82757E+01
         0.28057E+01
         0.10356E+02
         0.70698E+01
         0.22436E+01
         0.14486E+02
        -0.81979E+01
        -0.77939E+01
        -0.96790E+01
        -0.49915E+01
        -0.33009E+01
         0.10927E+02
         0.24044E+02
         0.10351E+02
        -0.10257E+01
         0.62870E+00
        -0.30135E+01
         0.11833E+02
         0.31829E+02
         0.46157E+02
         0.51649E+01
         0.33608E+01
         0.19809E+01
         0.57668E+01
         0.28058E+02
         0.31604E+01
         0.36939E+01
         0.30206E+01
         0.42563E+02
         0.72090E+02
         0.12777E+03
         0.85764E+02
         0.55165E+02
         0.44067E+02
         0.47360E+01
         0.98346E+01
         0.87114E+01
         0.11161E+02
         0.18209E+02
         0.20416E+02
         0.50729E+02
         0.31645E+02
         0.70445E+02
        -0.16542E+02
        -0.65979E+01
        -0.14972E+02
        -0.11875E+02
         0.58132E+01
         0.10589E+02
         0.68286E+02
         0.12834E+03
         0.16927E+03
         0.23485E+03
         0.17753E+03
         0.13606E+03
         0.10837E+03
         0.73620E+02
         0.20519E+02
        -0.58774E+01
        -0.15091E+02
        -0.12561E+02
         0.48046E+01
         0.15834E+02
         0.48004E+02
         0.73701E+02
         0.95844E+02
         0.83716E+02
         0.47539E+02
         0.24472E+01
        -0.28249E+01
         0.24654E+01
         0.14401E+01
        -0.11344E+01
         0.61414E+00
         0.21041E+01
         0.57942E+00
        -0.12532E+01
        -0.48717E+01
        -0.70312E+01
         0.20326E+01
         0.53545E+01
         0.43398E+01
         0.29429E+00
         0.67753E+01
        -0.17092E+01
        -0.29559E+01
        -0.43948E+01
        -0.66054E+00
        -0.18226E+01
         0.31327E+01
         0.12385E+02
         0.62195E+01
         0.10789E+01
        -0.43677E+01
         0.22302E+01
         0.28771E+01
         0.26940E+01
         0.91784E+01
         0.18116E+01
         0.11767E+01
         0.16727E+01
        -0.16366E+00
         0.18052E+01
        -0.51190E+00
         0.25542E+01
         0.32071E+01
         0.19102E+02
         0.39078E+02
         0.72326E+02
         0.47800E+02
         0.25993E+02
         0.24547E+02
         0.16875E+01
        -0.41828E+00
        -0.19743E+01
         0.27547E+00
         0.17221E+01
         0.29230E+01
         0.85516E+01
         0.46580E+01
         0.12153E+02
        -0.21398E+02
        -0.21834E+02
        -0.26034E+02
        -0.19889E+02
        -0.93178E+01
        -0.11334E+00
         0.21085E+02
         0.64633E+02
         0.10480E+03
         0.10881E+03
         0.12189E+03
         0.72988E+02
         0.69744E+02
         0.24973E+02
        -0.12886E+02
        -0.31107E+02
        -0.37976E+02
        -0.39740E+02
        -0.23271E+02
        -0.16155E+02
        -0.73025E+01
        -0.86461E+01
         0.82554E+01
         0.86426E+01
        -0.89052E+00
        -0.45623E+01
         0.53966E+00
         0.34983E+01
         0.31532E+01
         0.14961E+01
         0.10384E+01
         0.26330E+01
         0.20802E+01
        -0.45155E+00
        -0.24380E+01
        -0.82043E+01
         0.18538E+01
         0.51773E+01
         0.51113E+01
         0.26570E+00
         0.40949E+01
         0.63344E+00
        -0.14704E+01
        -0.18829E+01
         0.23941E+00
        -0.13838E+01
         0.24629E+01
         0.39816E+01
         0.29581E+01
         0.16473E+01
        -0.33159E+01
         0.25728E+01
        -0.20756E+01
        -0.31553E+01
         0.19370E+01
        -0.13813E+01
         0.18546E+01
         0.23676E+01
        -0.10006E+01
        -0.27283E+01
         0.22501E+01
         0.42607E+01
         0.38125E+01
         0.84965E+01
         0.13028E+02
         0.31152E+02
         0.24434E+02
         0.78011E+01
         0.72960E+01
         0.24437E+01
         0.32191E+01
         0.21735E-01
         0.15482E+01
         0.86561E+00
        -0.15290E+00
         0.12179E+01
         0.20066E+01
         0.50634E+01
        -0.18496E+02
        -0.13677E+02
        -0.16491E+02
        -0.17407E+02
        -0.12642E+02
        -0.11582E+02
         0.19954E+01
         0.36329E+02
         0.82203E+02
         0.13411E+03
         0.73554E+02
         0.32139E+02
         0.29111E+02
         0.18628E+00
        -0.14453E+02
        -0.22859E+02
        -0.19601E+02
        -0.24098E+02
        -0.16392E+02
        -0.15835E+02
        -0.16748E+02
        -0.10905E+02
        -0.70053E+01
        -0.20206E+01
        -0.40794E+01
        -0.69342E+01
         0.10266E+01
         0.37161E+01
         0.30626E+01
        -0.27439E+00
         0.42082E+00
        -0.82197E+00
         0.33965E+01
        -0.20081E+00
        -0.22957E+01
        -0.65556E+01
         0.38372E+01
         0.44855E+01
         0.68521E+01
         0.43381E+00
         0.29890E+01
         0.57780E+00
        -0.11962E+01
        -0.16454E+01
         0.12360E+01
        -0.23912E+01
         0.35985E+01
         0.49613E+00
         0.85939E+01
         0.30096E+01
        -0.51081E+01
         0.35251E+01
        -0.21527E+01
        -0.59581E+01
        -0.39911E+01
        -0.36092E+01
         0.20710E+01
         0.26493E+01
         0.34344E+00
        -0.20010E+01
         0.28663E+01
         0.37247E+01
         0.45463E+01
         0.34754E+01
         0.60904E+01
         0.14987E+02
         0.14265E+02
        -0.15787E+01
         0.48465E+00
         0.65527E+01
         0.81062E+01
         0.30802E+01
         0.31642E+01
         0.26069E+01
         0.16645E+01
         0.23931E+01
         0.12911E+01
         0.38526E+00
        -0.13705E+02
        -0.15928E+02
        -0.16946E+02
        -0.16224E+02
        -0.11895E+02
        -0.12063E+02
        -0.49829E+01
         0.23537E+02
         0.62836E+02
         0.92508E+02
         0.57830E+02
         0.14393E+02
         0.58627E+01
        -0.82552E+01
        -0.12123E+02
        -0.12432E+02
        -0.18878E+02
        -0.19347E+02
        -0.60670E+01
        -0.61953E+01
        -0.77191E+01
        -0.85197E+01
        -0.77884E+01
        -0.67004E+01
        -0.91320E+01
        -0.71403E+01
         0.13315E+01
         0.48585E+01
         0.26456E+01
         0.18475E+00
         0.87869E-01
        -0.91658E+00
         0.32223E+01
        -0.13763E-01
        -0.29909E+01
        -0.65147E+01
         0.33190E+01
         0.42739E+01
         0.70395E+01
         0.99668E+00
         0.28868E+01
         0.62872E+00
        -0.18148E+01
        -0.28258E+01
         0.88395E+00
        -0.25425E+01
         0.26932E+01
        -0.18597E+01
         0.53899E+01
         0.26699E+01
        -0.56616E+01
         0.48357E+01
        -0.35849E+01
        -0.65160E+01
        -0.15810E+01
        -0.54048E+01
         0.26307E+01
         0.34836E+01
         0.16533E+00
        -0.14942E+01
         0.31027E+01
         0.37933E+01
         0.35098E+01
         0.32276E+01
         0.27461E+01
         0.35834E+01
         0.51448E+01
        -0.28058E+01
        -0.41161E+01
         0.58587E+01
         0.67383E+01
         0.30797E+01
         0.43502E+01
         0.43656E+01
         0.24157E+01
         0.73873E+01
         0.49842E+01
         0.59647E+01
        -0.17216E+02
        -0.29675E+02
        -0.22851E+02
        -0.24834E+02
        -0.23699E+02
        -0.21794E+02
        -0.77093E+01
         0.15635E+02
         0.51840E+02
         0.55382E+02
         0.16690E+02
        -0.53368E+01
        -0.60746E+00
        -0.16435E+02
        -0.28650E+02
        -0.30966E+02
        -0.37050E+02
        -0.38457E+02
        -0.17522E+02
        -0.86776E+01
        -0.56467E+01
         0.91593E+01
         0.21693E+02
         0.17355E+02
        -0.41031E+00
        -0.36993E+01
         0.35320E+00
         0.33454E+01
         0.24000E+01
        -0.28498E+00
         0.33388E+00
        -0.14568E+01
         0.35050E+01
         0.23891E+00
        -0.37614E+01
        -0.78276E+01
         0.40510E+01
         0.56131E+01
         0.87994E+01
         0.67318E+00
         0.28951E+01
         0.40913E-01
        -0.23558E+01
        -0.35611E+01
         0.54571E+00
        -0.35589E+01
         0.18266E+01
        -0.13571E+01
         0.52792E+01
         0.30674E+01
        -0.70341E+01
         0.51729E+01
        -0.21667E+01
        -0.64994E+01
        -0.32808E+01
        -0.47848E+01
         0.20761E+01
         0.29573E+01
        -0.93383E+00
        -0.49931E+01
        -0.15468E+01
         0.31211E+01
         0.46432E+01
         0.53453E+01
         0.84448E+01
         0.10953E+02
         0.12860E+02
         0.83114E+00
        -0.22663E+01
         0.40020E+01
         0.39986E+01
         0.10744E+01
         0.34636E+01
         0.31034E+01
         0.14636E+01
         0.41815E+01
         0.25370E+01
         0.10358E+01
        -0.21676E+02
        -0.24707E+02
        -0.22973E+02
        -0.25780E+02
        -0.24418E+02
        -0.14891E+02
        -0.12122E+02
         0.15036E+02
         0.50869E+02
         0.10667E+03
         0.69323E+02
         0.11144E+02
         0.77466E+01
        -0.91987E+01
        -0.25423E+02
        -0.29881E+02
        -0.36460E+02
        -0.39653E+02
        -0.20697E+02
        -0.12668E+02
        -0.47534E+01
         0.61096E+01
         0.21204E+02
         0.15400E+02
         0.32005E+01
        -0.49006E+01
         0.13658E+01
         0.49306E+01
         0.28019E+01
        -0.24835E+00
        -0.19591E+00
         0.74945E+00
         0.37071E+01
         0.49472E+00
        -0.35037E+01
        -0.54560E+01
         0.59006E+01
         0.61765E+01
         0.86930E+01
         0.28024E+01
         0.41342E+01
        -0.67154E-01
        -0.21316E+01
        -0.36839E+01
         0.60297E+00
        -0.33837E+01
         0.33621E+01
         0.11627E+01
         0.67625E+01
         0.29461E+01
        -0.72415E+01
         0.48103E+01
        -0.74544E+00
        -0.33813E+01
        -0.47566E+01
        -0.56368E+01
         0.26748E+01
         0.28189E+01
        -0.61097E+00
        -0.20095E+01
         0.13155E+01
         0.45264E+01
         0.47451E+01
         0.37490E+01
         0.47791E+01
         0.14297E+02
         0.14073E+02
        -0.64115E-01
        -0.63444E+00
         0.47197E+01
         0.46084E+01
         0.10361E+01
         0.26229E+01
         0.31070E+01
         0.33408E+01
         0.83564E+01
         0.66006E+01
         0.10069E+02
        -0.22409E+02
        -0.20767E+02
        -0.26444E+02
        -0.21501E+02
        -0.13988E+02
        -0.15801E+02
        -0.50538E+01
         0.19434E+02
         0.50755E+02
         0.76974E+02
         0.41362E+02
         0.42622E+02
         0.12552E+02
        -0.65543E+01
        -0.16832E+02
        -0.26531E+02
        -0.33331E+02
        -0.39279E+02
        -0.22578E+02
        -0.14840E+02
        -0.97191E+01
         0.84659E+01
         0.23049E+02
         0.16565E+02
         0.45104E+01
        -0.40543E+01
         0.25663E+01
         0.46604E+01
         0.35449E+01
         0.13550E+01
         0.19829E+01
         0.16445E+01
         0.37115E+01
         0.12291E+00
        -0.28600E+01
        -0.93073E+01
         0.49949E+01
         0.54767E+01
         0.83524E+01
         0.14314E+01
         0.38742E+01
        -0.31846E+00
        -0.21756E+01
        -0.36010E+01
         0.95400E+00
        -0.22499E+01
         0.33951E+01
         0.17080E+01
         0.69780E+01
         0.24763E+01
        -0.51301E+01
         0.39173E+01
        -0.10537E+01
        -0.87512E+01
        -0.60735E+01
        -0.44263E+01
         0.15752E+01
         0.31197E+01
        -0.18373E+01
        -0.21448E+01
         0.20171E+01
         0.48072E+01
         0.57136E+01
         0.22503E+01
         0.85701E+00
         0.65525E+01
         0.88180E+01
        -0.49285E+01
        -0.31484E-01
         0.42532E+01
         0.44301E+01
         0.11895E+01
         0.23005E+01
         0.12485E+01
         0.37064E+01
         0.54227E+01
         0.42344E+01
         0.93152E+01
        -0.20342E+02
        -0.18053E+02
        -0.21782E+02
        -0.16749E+02
        -0.12528E+02
        -0.14831E+02
         0.21912E+01
         0.28564E+02
         0.46795E+02
         0.37037E+02
         0.73289E+01
        -0.18571E+02
         0.11026E+02
        -0.11846E+02
        -0.20483E+02
        -0.28588E+02
        -0.35543E+02
        -0.40579E+02
        -0.17816E+02
        -0.12231E+02
        -0.12470E+02
         0.22999E+01
         0.17308E+02
         0.16798E+02
         0.82317E+01
        -0.97273E+00
         0.92013E+00
         0.19403E+01
         0.34804E+01
         0.14334E+01
         0.33648E+01
         0.56555E+01
         0.22940E+01
         0.31132E+00
        -0.29133E+01
        -0.70201E+01
         0.55357E+01
         0.34736E+01
         0.63975E+01
         0.17328E+01
         0.21842E+01
        -0.16507E+00
        -0.18949E+01
        -0.39770E+01
         0.11096E+01
        -0.19125E+01
         0.26000E+01
         0.16241E+01
         0.46124E+01
         0.21759E+01
        -0.73965E+01
         0.44779E+01
        -0.32190E+01
        -0.70936E+01
        -0.59913E+01
        -0.40891E+01
         0.29933E+01
         0.37300E+01
        -0.12612E+01
         0.10039E+01
         0.29407E+01
         0.32112E+01
         0.35849E+01
        -0.13717E+01
        -0.67677E+01
        -0.10543E+02
        -0.85729E+01
        -0.59734E+01
        -0.61379E+01
         0.46975E+01
         0.55257E+01
         0.25899E+01
         0.38359E+01
         0.36922E+01
         0.15441E+01
         0.46697E+01
         0.48748E+01
         0.15586E+02
        -0.14891E+02
        -0.61220E+01
        -0.12282E+02
        -0.11982E+02
        -0.15866E+02
        -0.18041E+02
        -0.10312E+02
        -0.17519E+01
        -0.20274E+02
        -0.41882E+02
        -0.34773E+02
        -0.33436E+02
        -0.14140E+02
        -0.23038E+02
        -0.28222E+02
        -0.28745E+02
        -0.28452E+02
        -0.31661E+02
        -0.17641E+02
        -0.11062E+02
        -0.92612E+01
        -0.46025E+01
         0.47410E+01
         0.28315E+01
         0.24567E+01
        -0.26543E+01
         0.11733E+01
         0.24084E+01
         0.31078E+01
         0.18068E+00
         0.20077E+01
         0.34036E+01
         0.31268E+01
         0.79611E+00
        -0.24630E+01
        -0.51156E+01
         0.40743E+01
         0.27944E+01
         0.42771E+01
         0.74054E+00
         0.16064E+01
         0.36031E+00
        -0.14493E+01
        -0.34510E+01
         0.12062E+01
        -0.18765E+01
         0.26278E+01
         0.32371E+00
         0.73714E+01
         0.30218E+01
        -0.53344E+01
         0.48994E+01
        -0.33616E+01
        -0.46583E+01
        -0.14803E+01
        -0.37076E+01
         0.29352E+01
         0.45569E+01
         0.38025E-01
        -0.14080E+01
         0.37780E+01
         0.36434E+01
         0.36555E+01
        -0.31933E+01
        -0.42580E+01
        -0.39573E+00
         0.67512E+01
        -0.16185E+01
        -0.25396E+01
         0.60371E+01
         0.74778E+01
         0.36654E+01
         0.44619E+01
         0.42156E+01
         0.30846E+01
         0.64063E+01
         0.49068E+01
         0.11083E+02
        -0.16394E+02
        -0.66855E+01
        -0.22908E+02
        -0.23773E+02
        -0.20500E+02
        -0.22464E+02
        -0.19660E+02
        -0.30801E+01
         0.10848E+02
         0.25093E+02
         0.20818E+02
         0.49751E+01
        -0.91760E+01
        -0.15872E+02
        -0.25743E+02
        -0.23820E+02
        -0.25336E+02
        -0.29797E+02
        -0.14950E+02
        -0.10237E+02
        -0.71929E+01
         0.12728E+01
         0.14951E+02
         0.13441E+02
         0.74607E+01
         0.23270E+00
         0.40733E+00
         0.31303E+01
         0.23069E+01
         0.57987E+00
         0.32989E+01
         0.54189E+01
         0.36997E+01
         0.48488E+00
        -0.25239E+01
        -0.50750E+01
         0.48463E+01
         0.39419E+01
         0.68551E+01
         0.10286E+01
         0.19963E+01
         0.11985E+01
        -0.14125E+01
        -0.26184E+01
         0.18929E+01
        -0.12813E+01
         0.35878E+01
         0.24443E+01
         0.74815E+01
         0.36710E+01
        -0.52418E+01
         0.60726E+01
        -0.24830E+01
        -0.63890E+01
        -0.57156E+01
        -0.41051E+01
         0.41590E+01
         0.45355E+01
         0.92295E+00
         0.18026E+00
         0.14377E+01
         0.31909E+01
         0.35142E+01
         0.48401E+00
         0.91961E+00
        -0.43486E+01
         0.35073E+00
        -0.44478E+01
         0.25395E+01
         0.69158E+01
         0.90633E+01
         0.37210E+01
         0.51352E+01
         0.49112E+01
         0.67729E+01
         0.95059E+01
         0.57198E+01
         0.13347E+02
        -0.16885E+02
        -0.97317E+01
        -0.15570E+02
        -0.23255E+02
        -0.19386E+02
        -0.23996E+02
        -0.20510E+02
        -0.89539E+01
         0.15804E+02
         0.27634E+02
         0.13425E+02
        -0.60632E+01
         0.11141E+02
        -0.17625E+00
        -0.98902E+01
        -0.18174E+02
        -0.25491E+02
        -0.29678E+02
        -0.15930E+02
        -0.10842E+02
        -0.70175E+01
         0.38062E+01
         0.11256E+02
         0.11110E+02
         0.68456E+01
        -0.20278E+00
         0.28388E+01
         0.49908E+01
         0.47057E+01
         0.27406E+01
         0.42220E+01
         0.83434E+01
         0.38619E+01
         0.97104E+00
        -0.16022E+01
        -0.50017E+01
         0.52331E+01
         0.57538E+01
         0.89878E+01
         0.19180E+01
         0.24325E+01
         0.67363E+00
        -0.14238E+01
        -0.20677E+01
         0.11649E+01
        -0.12945E+01
         0.23720E+01
         0.21355E+01
         0.48045E+01
         0.20148E+01
        -0.43385E+01
         0.38986E+01
        -0.14409E+01
        -0.66089E+01
        -0.59432E+01
        -0.17346E+01
         0.35243E+01
         0.32039E+01
         0.16316E+01
         0.33610E+01
         0.37010E+01
         0.66181E+01
         0.64700E+01
        -0.29701E+00
        -0.50617E+01
        -0.10032E+02
        -0.59413E+01
        -0.64025E+01
        -0.11838E+01
         0.54767E+01
         0.67355E+01
         0.20087E+01
         0.39791E+01
         0.48192E+01
         0.55468E+01
         0.10398E+02
         0.79222E+01
         0.17990E+02
        -0.17377E+02
        -0.12415E+02
        -0.19222E+02
        -0.15276E+02
        -0.10390E+02
        -0.12034E+02
        -0.83001E+01
         0.66108E+01
         0.12988E+02
         0.48843E+02
         0.51319E+02
         0.12259E+02
         0.47073E+01
        -0.93019E+01
        -0.25572E+02
        -0.32518E+02
        -0.29004E+02
        -0.30317E+02
        -0.18422E+02
        -0.12342E+02
        -0.10719E+02
         0.33410E-01
         0.12847E+02
         0.10906E+02
         0.43656E+01
        -0.14767E+01
         0.38711E+00
         0.40071E+01
         0.33503E+01
         0.25148E+01
         0.38214E+01
         0.78756E+01
         0.40423E+01
         0.44797E+00
        -0.20175E+01
        -0.73971E+01
         0.48177E+01
         0.50546E+01
         0.70738E+01
         0.15380E+01
         0.23840E+01
         0.13726E+00
        -0.20518E+01
        -0.21108E+01
        -0.14788E+00
        -0.33099E+01
         0.17306E+00
        -0.35154E+01
         0.27585E+01
         0.15258E+01
        -0.47317E+01
         0.25372E+01
        -0.97475E+00
        -0.67341E+01
        -0.39129E+01
        -0.43352E+01
         0.41003E+01
         0.34844E+01
         0.24413E+01
         0.50187E+01
         0.46968E+01
         0.63639E+01
         0.56835E+01
        -0.38241E+00
        -0.41270E+01
        -0.50812E+01
        -0.18877E+01
        -0.16911E+01
        -0.85776E+01
         0.36128E+01
         0.68437E+01
         0.35096E+01
         0.52020E+01
         0.52329E+01
         0.57680E+01
         0.12388E+02
         0.83913E+01
         0.21815E+02
        -0.16251E+02
        -0.85456E+01
        -0.64080E+01
        -0.57585E+01
        -0.69249E+01
        -0.10801E+02
        -0.62499E+01
        -0.74237E+01
        -0.18639E+01
        -0.26726E+01
        -0.23026E+02
        -0.17537E+02
        -0.11893E+02
        -0.23197E+02
        -0.32185E+02
        -0.28946E+02
        -0.29912E+02
        -0.27718E+02
        -0.14650E+02
        -0.79848E+01
        -0.43249E+01
        -0.31682E+01
         0.58089E+01
         0.24906E+01
        -0.24319E+01
        -0.26476E+01
         0.21499E+01
         0.50328E+01
         0.41192E+01
         0.48587E+01
         0.49355E+01
         0.10651E+02
         0.38869E+01
         0.62271E+00
        -0.15500E+01
        -0.54037E+01
         0.42422E+01
         0.62952E+01
         0.84719E+01
         0.10814E+01
         0.19732E+01
         0.87536E+00
        -0.88898E+00
         0.28130E+00
         0.77557E+00
        -0.16073E+01
         0.89924E+00
        -0.16438E+01
         0.54898E+01
         0.13284E+01
        -0.45649E+01
         0.23913E+01
        -0.31933E+01
        -0.82538E+01
        -0.58981E+01
        -0.34337E+01
         0.54095E+01
         0.33754E+01
         0.37140E+01
         0.79595E+01
         0.79467E+01
         0.73983E+01
         0.70489E+01
        -0.39870E+00
        -0.55489E+01
         0.20260E+01
         0.14265E+01
        -0.54927E+01
        -0.79584E+01
         0.34091E+01
         0.59670E+01
         0.54876E+01
         0.62530E+01
         0.80806E+01
         0.63860E+01
         0.15438E+02
         0.85631E+01
         0.23093E+02
        -0.93624E+01
        -0.68211E+01
        -0.10858E+02
        -0.70676E+01
        -0.88617E+01
        -0.99199E+01
        -0.68467E+01
        -0.20637E+01
        -0.14472E+00
         0.87270E+00
         0.44634E+02
         0.12957E+02
         0.52189E+01
        -0.27540E+00
        -0.23393E+02
        -0.26721E+02
        -0.27873E+02
        -0.24986E+02
        -0.88734E+01
        -0.50924E+00
         0.49290E+00
         0.44849E+01
         0.96623E+01
         0.93590E+01
         0.38826E+01
        -0.21558E+01
         0.40866E+01
         0.51810E+01
         0.58109E+01
         0.88321E+01
         0.88401E+01
         0.20518E+02
         0.29704E+01
         0.53776E+00
        -0.98398E+00
        -0.39241E+01
         0.37398E+01
         0.42550E+01
         0.73814E+01
         0.20169E+01
         0.14437E+01
         0.14378E+01
        -0.76061E+00
         0.67864E+00
         0.12029E+01
        -0.14752E+01
         0.12534E+01
         0.24669E+00
         0.46340E+01
         0.26441E+01
        -0.42690E+01
         0.55734E+01
        -0.37174E+01
        -0.84921E+01
        -0.74090E+01
        -0.33110E+01
         0.11839E+02
         0.61453E+01
         0.11249E+02
         0.17631E+02
         0.75866E+01
         0.69727E+01
         0.55544E+01
        -0.22703E+01
        -0.81876E+01
        -0.22292E+02
        -0.17701E+02
        -0.85796E+01
        -0.60078E+01
         0.77794E+01
         0.16029E+02
         0.12670E+02
         0.13485E+02
         0.14031E+02
         0.17089E+02
         0.35291E+02
         0.19716E+02
         0.50289E+02
        -0.85672E+01
         0.50918E+00
        -0.10412E+02
        -0.98296E+01
        -0.11135E+02
        -0.22216E+02
        -0.20819E+02
        -0.23669E+02
        -0.36021E+02
        -0.40656E+02
        -0.29026E+02
        -0.12503E+02
        -0.18563E+02
        -0.17625E+02
        -0.16992E+02
        -0.14236E+02
        -0.14301E+02
        -0.63598E+01
         0.13337E+02
         0.15392E+02
         0.22282E+02
         0.34955E+02
         0.44588E+02
         0.31844E+02
         0.19428E+02
         0.28294E+01
         0.25936E+01
         0.46773E+01
         0.54777E+01
         0.10866E+02
         0.11376E+02
         0.33566E+02
         0.18184E+01
         0.11008E+01
        -0.20187E+00
        -0.63699E+00
         0.25060E+01
        -0.44978E+01
         0.12436E+01
        -0.92707E+00
        -0.32012E+01
         0.92844E+00
        -0.15931E+01
         0.35108E+01
        -0.98310E+00
        -0.45041E+01
         0.81625E+01
         0.10564E+02
         0.14611E+02
         0.23840E+01
        -0.44561E+01
         0.60945E+01
        -0.49271E+01
        -0.92168E+01
        -0.91842E+01
        -0.32445E+01
         0.19093E+02
         0.10102E+02
         0.14686E+02
         0.34062E+02
         0.81104E+01
         0.57890E+01
         0.27128E+01
        -0.14848E+02
        -0.25489E+02
        -0.50237E+02
        -0.31962E+02
        -0.22484E+01
         0.50876E+01
         0.12740E+02
         0.26598E+02
         0.21052E+02
         0.20400E+02
         0.24534E+02
         0.33293E+02
         0.58138E+02
         0.31828E+02
         0.82790E+02
         0.41979E+01
         0.27900E+02
        -0.11027E+02
        -0.22111E+02
        -0.30724E+02
        -0.49458E+02
        -0.54003E+02
        -0.84232E+02
        -0.13691E+03
        -0.17822E+03
        -0.98421E+02
        -0.11743E+02
         0.27417E+02
         0.54324E+02
         0.49373E+02
         0.25495E+02
         0.45315E+01
         0.16720E+02
         0.31285E+02
         0.38323E+02
         0.41692E+02
         0.60448E+02
         0.62790E+02
         0.49836E+02
         0.45269E+02
         0.19354E+02
         0.99249E+01
         0.33120E+01
         0.65809E+00
         0.88672E+01
         0.10617E+02
         0.30335E+02
         0.64724E+01
         0.55925E+01
         0.15236E+02
         0.43891E+02
         0.34350E+01
         0.22045E+01
         0.37477E+01
         0.41599E+01
        -0.73701E+00
         0.19144E+02
         0.11430E+02
         0.11849E+02
         0.21184E+02
         0.20610E+02
         0.51414E+02
         0.86096E+02
         0.74082E+02
         0.20727E+02
         0.76674E+01
         0.30610E+02
         0.99292E+01
         0.27394E+02
         0.41190E+02
         0.19027E+02
         0.30211E+02
         0.18590E+02
         0.14615E+02
         0.29145E+02
         0.54135E+01
        -0.21158E+01
        -0.18993E+01
        -0.30642E+01
         0.90079E+01
         0.57363E+02
         0.50879E+02
         0.77854E+02
         0.94634E+02
         0.44180E+02
         0.52288E+02
         0.21476E+02
         0.21513E+02
         0.24244E+02
         0.30837E+02
         0.36985E+02
         0.17901E+02
         0.64255E+02
         0.20182E+02
         0.64091E+02
        -0.12642E+02
        -0.23761E+02
        -0.22098E+02
        -0.26827E+02
        -0.41875E+02
        -0.46779E+02
        -0.40719E+02
         0.43146E+01
         0.64864E+02
         0.14713E+03
         0.20297E+03
         0.20514E+03
         0.15094E+03
         0.78557E+02
         0.27888E+02
         0.33585E+02
         0.29515E+02
         0.19454E+02
         0.75138E+01
        -0.19943E+02
         0.37386E+01
         0.30225E+02
         0.54003E+02
         0.57956E+02
        -0.40969E+02
        -0.10788E+01
        -0.22338E+01
        -0.40209E+02
        -0.11221E+02
        -0.74252E+02
        -0.51399E+00
        -0.20894E+02
        -0.57037E+02
        -0.17207E+03
         0.10081E+02
         0.18283E+02
         0.24182E+02
        -0.15596E+02
         0.83017E+01
        -0.33030E+02
        -0.47561E+02
        -0.40436E+02
        -0.59065E+02
        -0.77450E+02
        -0.14253E+03
        -0.24528E+03
        -0.21703E+03
        -0.58155E+02
        -0.93159E+02
        -0.65061E+02
        -0.58285E+02
        -0.10554E+03
        -0.11028E+03
        -0.72612E+02
        -0.68509E+02
        -0.50696E+02
        -0.44301E+02
        -0.10389E+03
         0.15113E+02
         0.15654E+02
         0.16471E+02
        -0.60470E+01
        -0.32716E+02
        -0.12382E+03
        -0.11378E+03
        -0.20919E+03
        -0.28358E+03
        -0.12671E+03
        -0.20141E+03
        -0.13556E+03
        -0.10932E+03
        -0.11084E+03
        -0.12854E+03
        -0.18165E+03
        -0.93348E+02
        -0.19424E+03
         0.47684E+02
         0.52761E+01
         0.54786E+02
         0.38849E+02
         0.31157E+02
         0.39479E+02
         0.70784E+02
         0.13399E+03
         0.20590E+03
         0.13932E+03
        -0.10269E+03
        -0.41822E+03
        -0.68384E+03
        -0.79117E+03
        -0.70658E+03
        -0.53605E+03
        -0.45530E+03
        -0.45892E+03
        -0.35142E+03
        -0.34808E+03
        -0.38747E+03
        -0.44273E+03
        -0.36712E+03
        -0.19273E+03
        -0.10481E+03
  
SCALARS                     velocity_y  double 1
LOOKUP_TABLE default
        -0.11962E+03
         0.87331E+02
        -0.11999E+02
        -0.82423E+02
        -0.23629E+03
        -0.29542E+02
        -0.21294E+03
        -0.32066E+03
         0.30158E+03
         0.23575E+03
         0.10831E+03
         0.25414E+03
         0.18684E+03
         0.16742E+03
         0.17800E+03
         0.25685E+03
         0.44068E+02
         0.44758E+01
         0.10150E+03
         0.28027E+02
         0.39663E+03
         0.26940E+03
         0.18800E+03
         0.50386E+03
         0.45488E+03
         0.33601E+03
         0.92338E+02
         0.15528E+03
         0.83664E+02
         0.22364E+03
        -0.14708E+02
        -0.53746E+02
         0.30853E+02
        -0.22782E+02
        -0.14128E+03
         0.70413E+02
        -0.11680E+02
        -0.45818E+02
        -0.33962E+02
        -0.10666E+03
         0.16356E+03
         0.28934E+03
         0.19778E+03
         0.42426E+03
         0.11663E+02
        -0.46793E+02
         0.14117E+01
        -0.40855E+02
        -0.41627E+02
        -0.53433E+02
        -0.39685E+01
         0.76450E+02
        -0.30832E+02
        -0.63626E+02
        -0.24435E+02
        -0.10886E+03
         0.60525E+02
         0.10687E+03
         0.71076E+02
         0.13674E+03
        -0.23790E+02
         0.13571E+03
         0.53828E+02
         0.39312E+03
        -0.10830E+03
        -0.33714E+03
         0.22166E+03
         0.57088E+02
         0.43660E+03
         0.21980E+03
         0.64334E+03
         0.25711E+03
         0.13282E+03
         0.16904E+03
        -0.18457E+03
        -0.33932E+03
        -0.28864E+03
        -0.73174E+03
        -0.22930E+03
        -0.37732E+03
        -0.59658E+03
        -0.61020E+02
        -0.59035E+03
         0.15677E+02
         0.29875E+03
         0.42565E+03
        -0.12900E+03
        -0.20519E+03
        -0.65887E+02
        -0.46994E+01
         0.14729E+03
         0.14792E+03
         0.43981E+03
         0.35373E+03
         0.51445E+02
        -0.13859E+03
         0.20679E+03
        -0.88829E+02
         0.32565E+03
         0.15090E+03
         0.53325E+03
         0.33352E+03
         0.69426E+03
         0.33013E+03
         0.12960E+04
         0.13148E+04
         0.25824E+04
         0.24515E+04
         0.53995E+03
         0.87849E+03
         0.57834E+02
        -0.80300E+01
        -0.84647E+02
        -0.32200E+03
         0.13089E+03
         0.14468E+03
         0.31442E+03
         0.90760E+03
         0.22033E+03
         0.12232E+04
         0.44567E+03
         0.26273E+04
        -0.79046E+03
        -0.62508E+03
        -0.31783E+04
        -0.53390E+04
        -0.28781E+04
        -0.41874E+04
        -0.15242E+04
        -0.24742E+04
        -0.10803E+04
        -0.14991E+04
        -0.79070E+03
        -0.11705E+04
        -0.68615E+03
        -0.11537E+04
        -0.75134E+03
        -0.15035E+04
        -0.86164E+03
        -0.20236E+04
        -0.31158E+03
        -0.71905E+03
         0.25631E+03
        -0.40981E+02
         0.25478E+03
         0.16176E+03
         0.76361E+03
         0.11607E+04
         0.43498E+03
         0.16230E+04
         0.37085E+03
         0.26124E+04
         0.94851E+03
         0.29140E+04
         0.12288E+04
         0.26000E+04
         0.41708E+02
         0.68610E+02
         0.24624E+03
         0.20367E+03
         0.28151E+03
         0.30357E+03
         0.81810E+02
         0.16559E+02
        -0.42642E+02
        -0.47344E+01
         0.19240E+03
         0.24108E+03
         0.18464E+03
         0.49847E+02
         0.84391E+02
        -0.67849E+02
        -0.69319E+02
        -0.17254E+02
         0.13733E+02
         0.11589E+03
         0.20471E+03
         0.37829E+03
        -0.85638E+02
        -0.21994E+03
        -0.53551E+02
        -0.20483E+03
         0.37611E+02
         0.14639E+03
         0.26022E+03
         0.16376E+03
         0.13310E+03
        -0.10341E+03
         0.35549E+03
         0.58969E+03
         0.29796E+03
         0.20615E+03
         0.14542E+03
         0.84908E+01
        -0.37401E+02
        -0.75300E+02
        -0.64710E+03
         0.39466E+01
         0.35803E+03
        -0.17660E+03
        -0.17270E+03
        -0.14060E+03
         0.11479E+03
         0.38693E+03
         0.54152E+03
         0.59273E+03
         0.25412E+03
         0.34067E+03
         0.42718E+03
         0.34715E+03
         0.15456E+03
         0.41675E+02
         0.16242E+03
         0.35394E+03
         0.24127E+03
        -0.19545E+03
        -0.62971E+03
        -0.18254E+04
        -0.37204E+04
        -0.34505E+04
        -0.21180E+04
        -0.14632E+04
        -0.91363E+03
        -0.61032E+03
        -0.40533E+03
        -0.30010E+02
         0.15951E+03
         0.73675E+03
         0.92772E+03
         0.55205E+03
        -0.12685E+04
        -0.32547E+04
        -0.18822E+04
        -0.34359E+03
         0.62057E+02
         0.70786E+02
         0.22487E+03
         0.26071E+03
         0.12686E+03
         0.20753E+03
         0.30106E+02
         0.15051E+02
         0.33513E+02
         0.17594E+02
         0.27213E+02
         0.12630E+03
         0.96548E+02
         0.93021E+02
         0.12268E+03
         0.79714E+00
         0.36141E+02
         0.99560E+02
         0.40869E+02
         0.13721E+03
         0.20592E+03
         0.33160E+03
         0.40410E+02
        -0.58398E+02
         0.80633E+02
        -0.11634E+03
         0.12523E+03
         0.24699E+03
         0.24981E+03
         0.19760E+03
         0.17519E+03
        -0.62467E+02
         0.46690E+03
         0.42273E+03
        -0.19055E+02
         0.11570E+03
         0.93528E+02
         0.17953E+03
         0.12593E+03
         0.69479E+02
        -0.45321E+03
         0.95509E+02
         0.37570E+03
        -0.27867E+02
        -0.20898E+02
        -0.10075E+02
         0.14785E+03
         0.41631E+03
         0.40755E+03
         0.49076E+03
        -0.12984E+03
         0.21827E+03
        -0.78326E+03
        -0.12329E+04
        -0.28579E+03
         0.33343E+02
         0.27952E+03
         0.40854E+03
         0.97810E+02
        -0.33151E+02
        -0.57897E+03
        -0.17577E+04
        -0.25720E+04
        -0.22333E+04
        -0.16885E+04
        -0.11238E+04
        -0.51112E+03
         0.50795E+02
         0.47819E+03
         0.60736E+03
         0.35208E+03
         0.62622E+03
         0.91087E+03
         0.19273E+03
        -0.22095E+04
        -0.37275E+04
        -0.28985E+04
        -0.19732E+04
         0.28144E+02
         0.19788E+02
         0.99067E+02
         0.96361E+02
         0.38717E+02
         0.71253E+02
         0.56395E+01
         0.37722E+02
         0.43895E+02
         0.78002E+02
         0.19647E+02
         0.78413E+02
         0.37523E+02
         0.80824E+02
         0.13023E+03
         0.30817E+02
         0.58370E+02
         0.59964E+02
         0.68011E+02
         0.12752E+03
         0.22005E+03
         0.32720E+03
         0.91768E+02
         0.48690E+02
         0.12619E+03
         0.44032E+01
         0.18126E+03
         0.22605E+03
         0.21521E+03
         0.21644E+03
         0.91542E+02
         0.22094E+02
         0.19316E+03
         0.21345E+03
        -0.16411E+02
         0.42867E+02
         0.36166E+02
         0.20985E+03
         0.19715E+03
         0.79468E+02
        -0.22035E+03
         0.61095E+02
         0.38504E+03
         0.37422E+02
         0.23251E+02
         0.20392E+02
         0.70042E+02
         0.12979E+03
         0.16730E+03
         0.25655E+03
         0.54104E+02
         0.51677E+02
        -0.46270E+03
        -0.74466E+03
        -0.17391E+03
         0.35196E+02
         0.19181E+03
         0.24207E+03
         0.21551E+03
         0.31336E+02
        -0.49223E+03
        -0.15984E+04
        -0.19438E+04
        -0.13555E+04
        -0.13828E+04
        -0.85032E+03
        -0.40427E+03
        -0.48002E+02
         0.19743E+03
         0.22923E+03
         0.76428E+02
         0.14982E+03
         0.33686E+03
         0.13496E+03
        -0.52691E+03
        -0.15537E+04
        -0.13950E+04
        -0.76417E+03
         0.18881E+02
         0.21375E+01
         0.14406E+02
         0.75110E+01
         0.15937E+02
         0.14628E+02
        -0.12874E+01
         0.42210E+02
         0.26099E+02
         0.80553E+02
         0.55755E+02
         0.52288E+02
         0.91374E+01
         0.98760E+02
         0.13370E+03
         0.18469E+02
         0.46478E+02
         0.96871E+00
         0.51287E+02
         0.80271E+02
         0.12852E+03
         0.21587E+03
         0.61152E+02
         0.53088E+02
         0.11101E+03
         0.26899E+02
         0.13049E+03
         0.23014E+03
         0.24532E+03
         0.13945E+03
        -0.36693E+01
         0.11693E+02
        -0.16357E+02
        -0.15326E+02
         0.30620E+02
         0.10553E+02
         0.34503E+01
         0.20312E+03
         0.24230E+03
         0.22643E+03
        -0.79250E+02
         0.16719E+03
         0.25688E+03
         0.32625E+02
         0.12476E+02
        -0.34066E+01
        -0.79432E+01
        -0.12041E+02
        -0.20105E+01
         0.27124E+02
         0.63785E+02
         0.29258E+02
         0.28694E+02
        -0.29423E+01
         0.51557E+02
         0.61436E+02
         0.99702E+02
         0.18083E+03
         0.18440E+03
         0.13892E+03
        -0.26019E+03
        -0.10243E+04
        -0.16821E+04
        -0.14359E+04
        -0.77293E+03
        -0.45988E+03
        -0.21999E+03
        -0.74858E+02
        -0.74048E+01
         0.14144E+02
        -0.24352E+02
        -0.44302E+02
         0.40903E+01
         0.10854E+03
         0.16648E+03
         0.15176E+03
         0.28766E+02
         0.14083E+02
        -0.20111E+01
        -0.80122E+01
        -0.16514E+02
        -0.19882E+02
        -0.29806E+01
        -0.79425E+01
         0.16792E+00
         0.13869E+02
         0.10374E+02
         0.28471E+02
         0.21423E+02
         0.25053E+02
        -0.37009E+00
         0.44777E+02
         0.62562E+02
         0.31182E+01
         0.22840E+02
        -0.13324E+02
         0.22008E+02
         0.36034E+02
         0.49243E+02
         0.88790E+02
         0.19532E+02
         0.20206E+02
         0.56313E+02
         0.47774E+01
         0.65109E+02
         0.10780E+03
         0.12487E+03
         0.63394E+02
        -0.30410E+02
        -0.10425E+02
        -0.44368E+02
        -0.33105E+02
         0.17933E+02
        -0.30684E+01
        -0.52608E+01
         0.12473E+03
         0.15068E+03
         0.11913E+03
        -0.15252E+00
         0.93359E+02
         0.13225E+03
         0.57198E+01
        -0.14987E+01
        -0.44592E+01
        -0.22397E+02
        -0.37677E+02
        -0.20005E+02
        -0.18922E+02
         0.37466E+02
         0.12174E+01
         0.10397E+03
         0.12678E+03
         0.59551E+02
         0.33623E+02
         0.38789E+02
         0.88742E+02
         0.17601E+03
         0.14716E+03
        -0.20200E+03
        -0.71603E+03
        -0.10590E+04
        -0.78296E+03
        -0.37912E+03
        -0.16759E+03
        -0.59648E+02
        -0.36453E+01
         0.12655E+02
         0.23835E+02
         0.10226E+02
        -0.37493E+02
        -0.28261E+02
         0.44253E+02
         0.18366E+03
         0.30289E+03
         0.25093E+03
         0.16824E+03
        -0.67234E+01
        -0.69766E+01
        -0.17840E+02
        -0.14550E+02
        -0.92301E+01
        -0.14489E+02
        -0.12285E+01
         0.32606E+01
         0.21172E+01
         0.12643E+02
        -0.14890E+01
         0.85488E+01
        -0.36631E+01
         0.10950E+02
         0.27077E+02
        -0.28719E+01
         0.64629E+01
        -0.89563E+01
         0.30502E+01
         0.98784E+01
         0.71494E+01
         0.22916E+02
        -0.18320E+01
        -0.50386E+01
         0.16611E+02
        -0.79774E+01
         0.27840E+02
         0.45263E+02
         0.50345E+02
         0.21707E+02
        -0.18281E+02
        -0.14145E+02
        -0.24316E+02
        -0.24423E+02
        -0.63330E+01
        -0.80769E+01
        -0.61718E+01
         0.55763E+02
         0.68967E+02
         0.60229E+02
        -0.55400E+01
         0.44908E+02
         0.44931E+02
        -0.77425E+01
        -0.92136E+01
        -0.12526E+02
        -0.18029E+02
        -0.22427E+02
        -0.17189E+02
        -0.18465E+02
        -0.10635E+00
        -0.12808E+02
         0.35264E+02
         0.73746E+02
         0.22287E+02
         0.16023E+02
         0.16901E+02
         0.41035E+02
         0.11435E+03
         0.99220E+02
        -0.57621E+02
        -0.27930E+03
        -0.38434E+03
        -0.25773E+03
        -0.13285E+03
        -0.30952E+02
         0.19960E+02
         0.31896E+02
         0.28618E+02
         0.31819E+02
         0.16425E+02
        -0.11247E+02
        -0.17650E+02
         0.60492E+01
         0.40345E+02
         0.90525E+02
         0.91972E+02
         0.70504E+02
        -0.64086E+01
        -0.79017E+01
        -0.14018E+02
        -0.99720E+01
        -0.63641E+01
        -0.83563E+01
        -0.45639E+01
        -0.14113E+01
        -0.45913E+00
         0.21369E+01
        -0.75050E+01
        -0.30923E+00
        -0.46703E+01
        -0.12181E+01
         0.14393E+01
        -0.36016E+01
         0.76253E+00
        -0.49738E+01
        -0.24149E+01
        -0.64828E+00
        -0.66909E+01
        -0.12460E+02
        -0.72011E+01
        -0.10449E+02
         0.38115E+01
        -0.95682E+01
         0.38355E+01
         0.49893E+01
         0.11213E+01
         0.21096E+01
        -0.11073E+02
        -0.11656E+02
        -0.12834E+02
        -0.13338E+02
        -0.19577E+01
        -0.84468E+01
        -0.64121E+01
         0.94822E+01
         0.87555E+01
        -0.26333E+01
        -0.15573E+02
        -0.61323E+01
        -0.79547E+01
        -0.67997E+01
        -0.65880E+01
        -0.85709E+01
        -0.94908E+01
        -0.97441E+01
        -0.83888E+01
        -0.81103E+01
        -0.61947E+00
        -0.46534E+01
         0.33888E+02
         0.60563E+02
         0.23518E+02
         0.16415E+02
         0.10090E+02
         0.18796E+02
         0.37433E+02
         0.38959E+02
         0.20569E+02
        -0.14229E+01
        -0.17657E+02
        -0.50672E+01
         0.29231E+02
         0.49279E+02
         0.43318E+02
         0.42717E+02
         0.34582E+02
         0.29813E+02
         0.15520E+02
        -0.48310E+00
        -0.19536E+01
         0.76471E+01
         0.22035E+02
         0.56906E+02
         0.59065E+02
         0.59646E+02
        -0.69783E+01
        -0.72029E+01
        -0.16823E+02
        -0.10181E+02
        -0.51674E+01
        -0.74661E+01
        -0.45347E+01
        -0.24789E+01
        -0.15257E+01
        -0.15088E+01
        -0.10015E+02
        -0.82707E+01
        -0.64962E+01
        -0.57320E+01
        -0.90913E+01
        -0.33258E+01
        -0.24201E+01
        -0.32607E+01
        -0.45146E+01
        -0.71438E+01
        -0.14683E+02
        -0.27888E+02
        -0.55519E+01
        -0.63984E+01
        -0.42128E+01
        -0.54921E+01
        -0.48574E+01
        -0.86981E+01
        -0.18314E+02
        -0.14993E+02
        -0.93655E+01
        -0.90950E+01
        -0.10803E+02
        -0.11124E+02
        -0.71392E+01
        -0.78012E+01
        -0.68679E+01
        -0.89389E+01
        -0.12310E+02
        -0.17426E+02
        -0.12571E+02
        -0.22978E+02
        -0.38794E+02
        -0.49107E+01
        -0.48548E+01
        -0.80368E+01
        -0.93482E+01
        -0.89138E+01
        -0.50078E+01
        -0.43389E+01
         0.46874E+01
        -0.34718E+01
         0.26758E+02
         0.55000E+02
         0.15385E+02
         0.15794E+02
         0.70678E+01
         0.65272E+01
         0.13222E+02
         0.29826E+02
         0.27684E+02
         0.52167E+02
         0.10089E+03
         0.11021E+03
         0.11546E+03
         0.65132E+02
         0.28592E+02
         0.29672E+02
         0.25500E+02
         0.18165E+02
         0.92311E+01
        -0.55727E+00
         0.19552E+01
         0.12139E+02
         0.37868E+02
         0.54858E+02
         0.55154E+02
         0.64706E+02
        -0.63988E+01
        -0.67035E+01
        -0.14228E+02
        -0.10493E+02
        -0.59407E+01
        -0.82249E+01
        -0.55335E+01
        -0.47539E+01
        -0.23527E+01
        -0.38106E+01
        -0.96854E+01
        -0.85733E+01
        -0.69795E+01
        -0.82196E+01
        -0.13165E+02
        -0.30303E+01
        -0.30408E+01
        -0.22794E+01
        -0.68925E+01
        -0.94408E+01
        -0.23230E+02
        -0.37668E+02
        -0.12534E+02
        -0.12224E+02
        -0.84630E+01
        -0.73067E+01
        -0.87229E+01
        -0.16311E+02
        -0.29625E+02
        -0.16819E+02
        -0.92196E+01
        -0.70267E+01
        -0.10031E+02
        -0.11117E+02
        -0.59464E+01
        -0.66218E+01
        -0.54149E+01
        -0.15053E+02
        -0.20070E+02
        -0.29636E+02
        -0.15030E+02
        -0.32033E+02
        -0.46885E+02
        -0.82843E+01
        -0.85666E+01
        -0.93540E+01
        -0.95304E+01
        -0.68105E+01
        -0.66269E+01
        -0.46386E+01
         0.71300E+01
        -0.29583E+01
         0.29127E+02
         0.52290E+02
         0.18060E+02
         0.13008E+02
         0.33246E+01
        -0.17451E+00
         0.64493E+01
         0.11484E+02
         0.33761E+02
         0.90545E+02
         0.18587E+03
         0.19618E+03
         0.14243E+03
         0.86009E+02
         0.58768E+02
         0.37779E+02
         0.26068E+02
         0.22864E+02
         0.30804E+01
        -0.53368E+01
        -0.55216E+00
         0.16347E+02
         0.44446E+02
         0.70915E+02
         0.66917E+02
         0.59142E+02
        -0.74702E+01
        -0.76884E+01
        -0.16113E+02
        -0.11986E+02
        -0.87833E+01
        -0.11326E+02
        -0.49085E+01
        -0.34270E+01
        -0.27746E+01
        -0.38506E+01
        -0.11279E+02
        -0.97026E+01
        -0.72164E+01
        -0.97071E+01
        -0.16445E+02
        -0.52938E+01
        -0.40434E+01
        -0.47029E+01
        -0.10495E+02
        -0.14667E+02
        -0.27656E+02
        -0.44045E+02
        -0.13198E+02
        -0.14826E+02
        -0.92162E+01
        -0.11576E+02
        -0.10039E+02
        -0.17770E+02
        -0.25082E+02
        -0.22113E+02
        -0.12189E+02
        -0.11709E+02
        -0.14911E+02
        -0.17971E+02
        -0.73853E+01
        -0.85538E+01
        -0.55423E+01
        -0.22856E+02
        -0.29553E+02
        -0.41588E+02
        -0.18047E+02
        -0.33489E+02
        -0.54862E+02
        -0.11642E+02
        -0.90509E+01
        -0.11605E+02
        -0.13694E+02
        -0.13691E+02
        -0.13070E+02
        -0.14202E+02
        -0.17114E+01
        -0.11274E+02
         0.35220E+02
         0.63985E+02
         0.25592E+02
         0.21645E+02
         0.11875E+02
         0.21775E+01
        -0.22842E+01
         0.13112E+02
         0.52340E+02
         0.11757E+03
         0.16926E+03
         0.14803E+03
         0.18584E+03
         0.11953E+03
         0.84223E+02
         0.67208E+02
         0.47798E+02
         0.37390E+02
         0.16362E+02
        -0.26724E+01
         0.10965E+01
         0.23587E+02
         0.65282E+02
         0.10875E+03
         0.10499E+03
         0.90350E+02
        -0.67050E+01
        -0.74631E+01
        -0.13806E+02
        -0.12553E+02
        -0.75965E+01
        -0.12311E+02
        -0.48166E+01
        -0.54450E+01
        -0.32282E+01
        -0.53526E+01
        -0.16471E+02
        -0.10870E+02
        -0.83999E+01
        -0.13038E+02
        -0.20116E+02
        -0.52044E+01
        -0.52129E+01
        -0.49873E+01
        -0.96891E+01
        -0.12538E+02
        -0.21921E+02
        -0.37714E+02
        -0.86304E+01
        -0.12003E+02
        -0.12168E+02
        -0.12238E+02
        -0.13974E+02
        -0.21329E+02
        -0.33748E+02
        -0.18307E+02
        -0.12775E+02
        -0.10504E+02
        -0.13906E+02
        -0.16251E+02
        -0.26260E+01
        -0.76102E+01
        -0.56556E+01
        -0.23188E+02
        -0.28726E+02
        -0.30577E+02
        -0.99690E+01
        -0.29567E+02
        -0.47704E+02
        -0.91614E+01
        -0.71663E+01
        -0.10587E+02
        -0.15108E+02
        -0.14498E+02
        -0.13799E+02
        -0.14215E+02
        -0.26539E+01
        -0.11384E+02
         0.35983E+02
         0.58995E+02
         0.28634E+02
         0.25467E+02
         0.87328E+01
        -0.19678E+01
        -0.12259E+01
        -0.83497E+00
         0.46063E+02
         0.16740E+03
         0.26900E+03
         0.21707E+03
         0.16444E+03
         0.10349E+03
         0.74854E+02
         0.59217E+02
         0.41004E+02
         0.32505E+02
         0.16878E+02
         0.20635E+01
         0.99044E+00
         0.27020E+02
         0.56451E+02
         0.86244E+02
         0.90247E+02
         0.84084E+02
        -0.94711E+01
        -0.93113E+01
        -0.19222E+02
        -0.12297E+02
        -0.81050E+01
        -0.11611E+02
        -0.51554E+01
        -0.58996E+01
        -0.24268E+01
        -0.48691E+01
        -0.20659E+02
        -0.12015E+02
        -0.10085E+02
        -0.12357E+02
        -0.21205E+02
        -0.39991E+01
        -0.37334E+01
        -0.43667E+01
        -0.92132E+01
        -0.13596E+02
        -0.27932E+02
        -0.44159E+02
        -0.13943E+02
        -0.13437E+02
        -0.11613E+02
        -0.10424E+02
        -0.12240E+02
        -0.24489E+02
        -0.39530E+02
        -0.24453E+02
        -0.11673E+02
        -0.11896E+02
        -0.13807E+02
        -0.16649E+02
        -0.48724E+01
        -0.97667E+01
        -0.77731E+01
        -0.24839E+02
        -0.38150E+02
        -0.48853E+02
        -0.45237E+01
        -0.33376E+02
        -0.63444E+02
        -0.11082E+02
        -0.87784E+01
        -0.98780E+01
        -0.11241E+02
        -0.13435E+02
        -0.11938E+02
        -0.11897E+02
        -0.36639E+00
        -0.10813E+02
         0.39359E+02
         0.71738E+02
         0.33581E+02
         0.21541E+02
         0.37329E+01
        -0.68121E+01
        -0.16466E+02
        -0.95162E+00
         0.49079E+02
         0.16940E+03
         0.31074E+03
         0.22605E+03
         0.18879E+03
         0.11651E+03
         0.81639E+02
         0.59278E+02
         0.37104E+02
         0.28655E+02
         0.17595E+02
         0.45190E+01
         0.73431E+01
         0.27383E+02
         0.61949E+02
         0.86441E+02
         0.87814E+02
         0.75438E+02
        -0.81407E+01
        -0.84334E+01
        -0.18429E+02
        -0.11262E+02
        -0.86021E+01
        -0.11679E+02
        -0.45285E+01
        -0.59671E+01
        -0.27539E+01
        -0.73167E+01
        -0.16616E+02
        -0.12307E+02
        -0.10141E+02
        -0.15315E+02
        -0.22527E+02
        -0.44105E+01
        -0.39819E+01
        -0.42348E+01
        -0.93173E+01
        -0.13290E+02
        -0.32118E+02
        -0.50293E+02
        -0.15192E+02
        -0.13067E+02
        -0.10672E+02
        -0.95130E+01
        -0.12107E+02
        -0.23026E+02
        -0.45219E+02
        -0.24687E+02
        -0.12438E+02
        -0.12371E+02
        -0.16442E+02
        -0.17699E+02
        -0.54381E+01
        -0.97026E+01
        -0.90369E+01
        -0.30058E+02
        -0.44742E+02
        -0.55350E+02
        -0.19818E+02
        -0.52223E+02
        -0.63205E+02
        -0.11590E+02
        -0.79760E+01
        -0.10041E+02
        -0.12246E+02
        -0.11622E+02
        -0.84734E+01
        -0.97076E+01
         0.22305E+01
        -0.95086E+01
         0.43648E+02
         0.77930E+02
         0.24155E+02
         0.13359E+02
         0.10882E+01
        -0.62958E+01
        -0.16904E+02
         0.14642E+02
         0.65393E+02
         0.13761E+03
         0.34173E+03
         0.28640E+03
         0.19624E+03
         0.11404E+03
         0.74615E+02
         0.49953E+02
         0.35475E+02
         0.29991E+02
         0.14086E+02
         0.19615E+00
         0.49477E+01
         0.24934E+02
         0.56142E+02
         0.94379E+02
         0.10139E+03
         0.92253E+02
        -0.51003E+01
        -0.66883E+01
        -0.15077E+02
        -0.10586E+02
        -0.90780E+01
        -0.12615E+02
        -0.49761E+01
        -0.52085E+01
        -0.22536E+01
        -0.44637E+01
        -0.18899E+02
        -0.11596E+02
        -0.70513E+01
        -0.13012E+02
        -0.21316E+02
        -0.46140E+01
        -0.46540E+01
        -0.54833E+01
        -0.89610E+01
        -0.13084E+02
        -0.29930E+02
        -0.51808E+02
        -0.14349E+02
        -0.11593E+02
        -0.10948E+02
        -0.10222E+02
        -0.12351E+02
        -0.23355E+02
        -0.30100E+02
        -0.25730E+02
        -0.13048E+02
        -0.12277E+02
        -0.15858E+02
        -0.15388E+02
        -0.75308E+01
        -0.74544E+01
        -0.50095E+01
        -0.28142E+02
        -0.34859E+02
        -0.40175E+02
        -0.15470E+02
        -0.35260E+02
        -0.59168E+02
        -0.11528E+02
        -0.84455E+01
        -0.91535E+01
        -0.13213E+02
        -0.13202E+02
        -0.80632E+01
        -0.10343E+02
        -0.96706E+00
        -0.92063E+01
         0.35248E+02
         0.70032E+02
         0.97674E+01
         0.74633E+01
         0.11644E+01
        -0.99221E+01
        -0.20099E+02
         0.43210E+01
         0.54830E+02
         0.16608E+03
         0.26863E+03
         0.23269E+03
         0.21008E+03
         0.11375E+03
         0.66332E+02
         0.45334E+02
         0.24955E+02
         0.22248E+02
         0.14798E+02
         0.30813E+01
         0.84681E+01
         0.18162E+02
         0.43616E+02
         0.72225E+02
         0.88703E+02
         0.82473E+02
        -0.71749E+01
        -0.76611E+01
        -0.16967E+02
        -0.11469E+02
        -0.81597E+01
        -0.10154E+02
        -0.59501E+01
        -0.52711E+01
        -0.20680E+01
        -0.50013E+01
        -0.17207E+02
        -0.11244E+02
        -0.62454E+01
        -0.13329E+02
        -0.19709E+02
        -0.47281E+01
        -0.32678E+01
        -0.54127E+01
        -0.64996E+01
        -0.97845E+01
        -0.21442E+02
        -0.42043E+02
        -0.11179E+02
        -0.13655E+02
        -0.98261E+01
        -0.10882E+02
        -0.12905E+02
        -0.21789E+02
        -0.37121E+02
        -0.24525E+02
        -0.13446E+02
        -0.12550E+02
        -0.16439E+02
        -0.18221E+02
        -0.38148E+01
        -0.75477E+01
        -0.65394E+01
        -0.26481E+02
        -0.35894E+02
        -0.45714E+02
        -0.21047E+02
        -0.40112E+02
        -0.52815E+02
        -0.11058E+02
        -0.95302E+01
        -0.11234E+02
        -0.13134E+02
        -0.12683E+02
        -0.12691E+02
        -0.12486E+02
         0.98379E+00
        -0.88746E+01
         0.38862E+02
         0.66220E+02
         0.23239E+02
         0.17340E+02
         0.62145E+01
        -0.17550E+01
        -0.91962E+01
         0.14133E+02
         0.60426E+02
         0.16434E+03
         0.25330E+03
         0.23878E+03
         0.18372E+03
         0.10345E+03
         0.57349E+02
         0.42681E+02
         0.28368E+02
         0.26238E+02
         0.15262E+02
         0.30728E+01
         0.97225E+01
         0.23797E+02
         0.54954E+02
         0.85519E+02
         0.79869E+02
         0.72977E+02
        -0.72672E+01
        -0.89277E+01
        -0.12136E+02
        -0.80366E+01
        -0.33575E+01
        -0.54739E+01
        -0.66875E+01
        -0.61101E+01
        -0.32353E+01
        -0.46069E+01
        -0.18250E+02
        -0.12866E+02
        -0.77104E+01
        -0.13577E+02
        -0.20459E+02
        -0.61170E+01
        -0.52526E+01
        -0.55739E+01
        -0.95806E+01
        -0.11876E+02
        -0.26001E+02
        -0.41459E+02
        -0.13080E+02
        -0.15512E+02
        -0.10427E+02
        -0.14371E+02
        -0.12841E+02
        -0.20531E+02
        -0.34848E+02
        -0.20607E+02
        -0.13392E+02
        -0.14570E+02
        -0.14215E+02
        -0.10212E+02
        -0.11259E+01
        -0.63196E+01
        -0.53985E+01
        -0.21218E+02
        -0.30066E+02
        -0.42311E+02
        -0.12483E+02
        -0.36832E+02
        -0.51096E+02
        -0.12047E+02
        -0.92452E+01
        -0.11342E+02
        -0.13467E+02
        -0.10386E+02
        -0.63882E+01
        -0.33283E+01
         0.33417E+01
        -0.32407E+01
         0.37963E+02
         0.65496E+02
         0.23354E+02
         0.20234E+02
         0.41568E+01
        -0.65073E+01
        -0.69343E+01
        -0.56194E+01
         0.51744E+02
         0.14700E+03
         0.24783E+03
         0.18924E+03
         0.17784E+03
         0.10222E+03
         0.68234E+02
         0.52058E+02
         0.33987E+02
         0.26041E+02
         0.17411E+02
         0.37734E+01
         0.61430E+01
         0.26569E+02
         0.56083E+02
         0.75371E+02
         0.80488E+02
         0.72850E+02
        -0.68341E+01
        -0.87177E+01
        -0.13786E+02
        -0.87550E+01
        -0.42996E+01
        -0.55110E+01
        -0.65685E+01
        -0.42500E+01
        -0.27260E+01
        -0.52446E+01
        -0.17227E+02
        -0.11425E+02
        -0.89762E+01
        -0.13019E+02
        -0.18686E+02
        -0.47476E+01
        -0.54817E+01
        -0.37277E+01
        -0.10576E+02
        -0.14643E+02
        -0.27113E+02
        -0.41399E+02
        -0.12277E+02
        -0.15926E+02
        -0.10671E+02
        -0.94004E+01
        -0.10873E+02
        -0.21693E+02
        -0.34341E+02
        -0.22444E+02
        -0.10316E+02
        -0.97042E+01
        -0.11043E+02
        -0.98140E+01
        -0.30958E+01
        -0.74388E+01
        -0.70653E+01
        -0.26502E+02
        -0.38470E+02
        -0.49874E+02
        -0.26546E+02
        -0.40334E+02
        -0.50851E+02
        -0.10888E+02
        -0.10320E+02
        -0.87133E+01
        -0.92705E+01
        -0.82717E+01
        -0.73867E+01
        -0.65033E+01
         0.39816E+01
        -0.54035E+01
         0.40415E+02
         0.57234E+02
         0.24790E+02
         0.15888E+02
         0.49328E+00
        -0.75429E+01
        -0.14943E+02
        -0.19731E+01
         0.56599E+02
         0.17598E+03
         0.31589E+03
         0.25708E+03
         0.20476E+03
         0.12445E+03
         0.83022E+02
         0.56970E+02
         0.38612E+02
         0.26103E+02
         0.16107E+02
         0.50341E+01
         0.88361E+01
         0.25848E+02
         0.45765E+02
         0.69187E+02
         0.72433E+02
         0.67270E+02
        -0.53981E+01
        -0.51743E+01
        -0.95203E+01
        -0.66923E+01
        -0.56740E+01
        -0.63875E+01
        -0.42493E+01
        -0.51218E+01
        -0.20692E+01
        -0.49498E+01
        -0.15665E+02
        -0.99627E+01
        -0.68331E+01
        -0.10645E+02
        -0.16120E+02
        -0.35253E+01
        -0.46743E+01
        -0.30009E+01
        -0.75635E+01
        -0.12322E+02
        -0.21075E+02
        -0.34910E+02
        -0.83648E+01
        -0.78989E+01
        -0.10213E+02
        -0.69420E+01
        -0.12650E+02
        -0.21423E+02
        -0.32215E+02
        -0.21433E+02
        -0.88577E+01
        -0.86472E+01
        -0.10619E+02
        -0.82519E+01
        -0.46917E+01
        -0.67565E+01
        -0.52391E+01
        -0.19330E+02
        -0.36773E+02
        -0.48500E+02
        -0.14149E+02
        -0.41191E+02
        -0.47983E+02
        -0.59261E+01
        -0.60854E+01
        -0.66865E+01
        -0.85754E+01
        -0.56565E+01
        -0.47600E+01
        -0.59004E+01
         0.27412E+01
        -0.53094E+01
         0.32832E+02
         0.57080E+02
         0.10568E+02
         0.52491E+01
        -0.33070E+00
        -0.66391E+01
        -0.90026E+01
        -0.30988E+01
         0.37057E+02
         0.12242E+03
         0.22624E+03
         0.18862E+03
         0.14400E+03
         0.10676E+03
         0.69015E+02
         0.48442E+02
         0.32397E+02
         0.29626E+02
         0.21056E+02
         0.74256E+01
         0.60019E+01
         0.12422E+02
         0.28223E+02
         0.46371E+02
         0.54535E+02
         0.51411E+02
        -0.29983E+01
        -0.39230E+01
        -0.63994E+01
        -0.40757E+01
        -0.28502E+01
        -0.47597E+01
        -0.31717E+01
        -0.41121E+01
        -0.48425E+00
        -0.44425E+01
        -0.13666E+02
        -0.86322E+01
        -0.45293E+01
        -0.11090E+02
        -0.13788E+02
        -0.22331E+01
        -0.30600E+01
        -0.89150E+00
        -0.57986E+01
        -0.10083E+02
        -0.12941E+02
        -0.30885E+02
        -0.42474E+01
        -0.83528E+01
        -0.52505E+01
        -0.48570E+01
        -0.10347E+02
        -0.19512E+02
        -0.31037E+02
        -0.15517E+02
        -0.49575E+01
        -0.66820E+01
        -0.53873E+01
        -0.39857E+01
        -0.35379E+01
        -0.31844E+01
        -0.30385E+01
        -0.22981E+02
        -0.38287E+02
        -0.48235E+02
        -0.84516E+01
        -0.31371E+02
        -0.20320E+02
        -0.28493E+01
        -0.29178E+01
        -0.16676E+01
        -0.38550E+01
        -0.30006E+01
        -0.21374E+01
        -0.13730E+01
         0.18151E+01
        -0.41107E+01
         0.13104E+02
         0.34190E+02
         0.11448E+02
         0.12754E+02
         0.57348E+01
        -0.51065E+01
        -0.12390E+02
        -0.71455E+00
         0.43647E+02
         0.14895E+03
         0.26997E+03
         0.23331E+03
         0.15757E+03
         0.85880E+02
         0.47045E+02
         0.49661E+02
         0.35652E+02
         0.28122E+02
         0.16559E+02
         0.59171E+01
         0.72528E+01
         0.84563E+01
         0.15981E+02
         0.28965E+02
         0.35571E+02
         0.42740E+02
        -0.15944E+01
        -0.57020E+00
        -0.31246E+01
        -0.80888E+00
        -0.46690E+01
        -0.36792E+01
        -0.38132E+01
        -0.53329E+01
         0.86947E+00
        -0.58259E+01
        -0.13932E+02
        -0.11419E+02
        -0.40928E+01
        -0.10336E+02
        -0.12724E+02
        -0.12387E+01
        -0.10728E+01
         0.11623E+01
        -0.57204E+01
        -0.92705E+01
        -0.20165E+02
        -0.24162E+02
        -0.69251E+01
        -0.79441E+01
        -0.74110E+01
        -0.66789E+01
        -0.13124E+02
        -0.21202E+02
        -0.36471E+02
        -0.17390E+02
        -0.29975E+01
        -0.80429E+01
         0.54771E-02
        -0.96745E+00
        -0.73096E+01
        -0.37248E+01
        -0.20570E+01
        -0.22117E+02
        -0.33314E+02
        -0.45402E+02
        -0.53569E+01
        -0.34492E+02
        -0.54430E+02
        -0.74023E+01
        -0.57317E+01
        -0.61620E+01
        -0.59765E+01
        -0.22222E+01
        -0.26849E+01
        -0.35923E+01
        -0.11891E+02
        -0.63089E+01
        -0.21077E+02
         0.35489E+01
        -0.66140E+01
         0.73055E+01
         0.15716E+01
        -0.18264E+01
         0.94148E+01
         0.10324E+02
         0.50138E+02
         0.14009E+03
         0.27756E+03
         0.27254E+03
         0.13963E+03
         0.74592E+02
         0.56193E+02
         0.34240E+02
         0.26714E+02
         0.24073E+02
         0.16985E+02
         0.59929E+01
        -0.30600E+01
        -0.18520E+02
        -0.25170E+02
        -0.30746E+02
        -0.94565E+01
         0.97823E+01
        -0.75422E+01
        -0.46571E+01
        -0.38260E+01
         0.36375E+00
        -0.11601E+02
        -0.83902E+01
        -0.12894E+02
        -0.13218E+02
        -0.44389E+01
        -0.13724E+02
        -0.25768E+02
        -0.16942E+02
        -0.93421E+01
        -0.18434E+02
        -0.13893E+02
        -0.69985E+01
        -0.71095E+01
        -0.20058E+01
        -0.12176E+02
        -0.11433E+02
        -0.31393E+02
        -0.45254E+02
        -0.19531E+02
        -0.22673E+02
        -0.12105E+02
        -0.15571E+02
        -0.17506E+02
        -0.18429E+02
        -0.24758E+02
        -0.20756E+02
        -0.41699E+01
        -0.12659E+02
         0.20586E+01
        -0.27200E+01
        -0.22854E+02
        -0.91372E+01
        -0.43997E+01
        -0.19539E+02
        -0.23915E+02
        -0.20598E+02
        -0.12562E+02
        -0.37191E+02
        -0.58137E+02
        -0.16719E+02
        -0.10378E+02
        -0.58147E+01
        -0.73495E+01
        -0.45921E+01
        -0.94212E+01
        -0.13245E+02
        -0.36824E+02
        -0.14350E+02
        -0.77240E+02
        -0.59362E+02
        -0.33293E+02
        -0.75469E+01
        -0.33161E+01
        -0.48928E+00
         0.77678E+01
         0.21396E+02
         0.63111E+02
         0.11796E+03
         0.15247E+03
         0.18482E+03
         0.14912E+03
         0.10333E+03
         0.57903E+02
         0.36086E+02
         0.20283E+02
         0.39145E+02
         0.37778E+02
         0.11193E+02
        -0.22853E+02
        -0.51297E+02
        -0.99608E+02
        -0.12262E+03
        -0.10570E+03
        -0.69439E+02
        -0.17741E+02
        -0.13948E+02
        -0.85011E+01
        -0.26155E+01
        -0.14175E+02
        -0.67065E+01
        -0.19454E+02
        -0.21773E+02
        -0.11432E+02
        -0.23457E+02
        -0.32843E+02
        -0.18118E+02
        -0.14811E+02
        -0.24112E+02
        -0.19153E+02
        -0.14169E+02
        -0.96556E+01
        -0.68011E+01
        -0.25371E+02
        -0.16902E+02
        -0.79106E+02
        -0.10336E+03
        -0.48980E+02
        -0.42867E+02
        -0.14093E+02
        -0.30305E+02
        -0.22430E+02
        -0.23740E+02
        -0.32583E+02
        -0.25442E+02
        -0.86853E+01
        -0.19016E+02
         0.16648E+00
         0.56974E+00
        -0.25933E+02
        -0.11303E+02
        -0.97849E+01
        -0.15980E+02
        -0.12833E+02
        -0.23521E+02
        -0.30000E+02
        -0.65533E+02
        -0.10497E+03
        -0.33243E+02
        -0.14511E+02
        -0.18228E+01
        -0.45952E+01
        -0.24578E+01
        -0.39728E+01
        -0.70605E+01
        -0.33127E+02
        -0.10665E+02
        -0.74152E+02
        -0.10360E+03
        -0.34928E+02
        -0.12900E+02
        -0.96505E+01
         0.39813E+00
         0.74533E+01
         0.25215E+02
         0.37201E+02
         0.40123E+02
         0.94809E+02
         0.20429E+03
         0.23437E+03
         0.21279E+03
         0.17133E+03
         0.10691E+03
         0.62512E+02
         0.79105E+02
         0.86071E+02
         0.36439E+02
        -0.22239E+02
        -0.32494E+02
        -0.81603E+02
        -0.14052E+03
        -0.13600E+03
        -0.11372E+03
         0.19544E+02
         0.25040E+02
         0.66985E+02
         0.46287E+02
         0.74980E+02
         0.71805E+02
         0.22501E+02
         0.18601E+02
         0.13575E+02
         0.32918E+01
         0.33104E+02
         0.11956E+02
         0.10144E+02
         0.69612E+01
        -0.85337E+00
        -0.86809E+01
         0.35624E+01
         0.16657E+02
        -0.41188E+02
        -0.51079E+02
        -0.14934E+03
        -0.23040E+03
        -0.41034E+02
        -0.37513E+02
        -0.95238E+01
        -0.18013E+02
        -0.10740E+02
        -0.32202E+02
        -0.78693E+02
        -0.87964E+02
         0.24054E+02
         0.16705E+02
         0.48429E+02
         0.76984E+02
         0.11466E+03
         0.57934E+02
         0.19802E+02
        -0.22062E+02
        -0.36189E+02
        -0.54247E+02
        -0.27723E+02
        -0.92229E+02
        -0.22408E+03
        -0.32678E+01
         0.51932E+02
         0.11519E+03
         0.44533E+02
         0.36132E+02
         0.44904E+02
         0.82949E+02
         0.10870E+03
         0.81543E+02
         0.13112E+03
         0.12154E+02
         0.13140E+03
         0.48951E+02
         0.11971E+02
         0.11949E+02
         0.16858E+02
         0.32100E+01
        -0.21406E+02
        -0.17076E+01
         0.28147E+03
         0.76497E+03
         0.94268E+03
         0.88026E+03
         0.68924E+03
         0.49828E+03
         0.35296E+03
         0.34879E+03
         0.32842E+03
         0.14226E+03
         0.76856E+01
        -0.26218E+02
        -0.28281E+02
        -0.49169E+02
        -0.74858E+02
        -0.46823E+02
  
SCALARS                     velocity_z  double 1
LOOKUP_TABLE default
        -0.46017E+03
        -0.17894E+03
        -0.31564E+03
        -0.40702E+03
         0.00000E+00
         0.00000E+00
         0.00000E+00
         0.00000E+00
        -0.42557E+03
        -0.54270E+03
         0.00000E+00
         0.00000E+00
        -0.12886E+03
        -0.32784E+03
         0.00000E+00
         0.00000E+00
        -0.41651E+03
        -0.40014E+03
         0.00000E+00
         0.00000E+00
         0.13187E+03
         0.20247E+03
         0.61197E+02
         0.00000E+00
         0.00000E+00
         0.00000E+00
        -0.18000E+03
         0.17400E+03
         0.00000E+00
         0.00000E+00
        -0.44157E+03
        -0.46004E+03
        -0.43445E+03
         0.00000E+00
         0.00000E+00
         0.00000E+00
        -0.41728E+03
        -0.44505E+03
         0.00000E+00
         0.00000E+00
        -0.44955E+03
        -0.49167E+03
         0.00000E+00
         0.00000E+00
        -0.38488E+03
        -0.34014E+03
         0.00000E+00
         0.00000E+00
        -0.54312E+03
         0.00000E+00
        -0.24184E+03
         0.00000E+00
        -0.28072E+03
         0.00000E+00
        -0.28449E+03
         0.00000E+00
        -0.26404E+03
        -0.68825E+03
         0.00000E+00
         0.00000E+00
        -0.31126E+03
        -0.29782E+03
         0.00000E+00
         0.00000E+00
        -0.34832E+03
         0.00000E+00
        -0.60285E+03
         0.00000E+00
        -0.35575E+03
        -0.98337E+02
         0.00000E+00
         0.00000E+00
        -0.57380E+02
         0.00000E+00
         0.31328E+03
         0.00000E+00
         0.31893E+03
         0.00000E+00
         0.37097E+03
         0.00000E+00
         0.53781E+03
        -0.37686E+03
         0.00000E+00
         0.00000E+00
        -0.78306E+03
         0.00000E+00
        -0.26564E+03
         0.00000E+00
        -0.55045E+03
         0.00000E+00
        -0.93433E+03
        -0.55945E+03
         0.00000E+00
         0.00000E+00
        -0.48716E+03
         0.00000E+00
        -0.73820E+03
         0.00000E+00
        -0.85421E+03
         0.00000E+00
        -0.95965E+03
        -0.66360E+03
         0.00000E+00
         0.00000E+00
        -0.31892E+02
        -0.42850E+03
         0.00000E+00
         0.00000E+00
         0.28197E+03
         0.00000E+00
         0.13524E+03
         0.00000E+00
        -0.10836E+03
         0.00000E+00
        -0.20071E+03
         0.00000E+00
        -0.53499E+02
         0.00000E+00
        -0.62588E+02
         0.00000E+00
         0.60769E+03
         0.00000E+00
         0.24915E+04
         0.00000E+00
         0.27666E+04
         0.00000E+00
         0.10737E+04
         0.00000E+00
        -0.14137E+03
         0.00000E+00
        -0.62227E+03
         0.00000E+00
        -0.90083E+03
         0.00000E+00
        -0.95829E+03
         0.00000E+00
        -0.92451E+03
         0.00000E+00
        -0.13520E+04
         0.00000E+00
        -0.18307E+04
         0.00000E+00
        -0.13599E+04
         0.00000E+00
        -0.13054E+04
         0.00000E+00
        -0.73329E+03
         0.00000E+00
        -0.55069E+03
         0.00000E+00
        -0.12510E+04
         0.00000E+00
        -0.13581E+04
         0.00000E+00
        -0.89450E+03
         0.00000E+00
        -0.43323E+03
        -0.27232E+03
        -0.41587E+03
        -0.53650E+03
        -0.54175E+03
        -0.67426E+03
        -0.30692E+03
        -0.41068E+03
        -0.46049E+03
        -0.48396E+03
        -0.11613E+03
        -0.10377E+03
        -0.14544E+03
        -0.35495E+03
         0.41713E+02
        -0.33585E+03
        -0.54920E+03
        -0.36029E+03
        -0.35779E+03
        -0.64134E+03
        -0.47636E+03
        -0.65432E+03
        -0.46184E+03
        -0.24340E+03
        -0.67674E+03
        -0.39829E+03
        -0.45522E+03
        -0.61312E+03
        -0.74188E+03
        -0.80425E+03
        -0.78023E+03
        -0.72118E+03
        -0.87296E+03
        -0.94402E+03
        -0.53574E+03
        -0.21143E+03
        -0.16921E+03
         0.44149E+02
        -0.23805E+01
         0.28143E+02
         0.21636E+03
        -0.63542E+03
        -0.77532E+03
        -0.56802E+03
        -0.72192E+03
        -0.94426E+03
        -0.85495E+03
        -0.93768E+03
        -0.10461E+04
        -0.11209E+04
        -0.11878E+04
        -0.97370E+03
        -0.60830E+03
        -0.74590E+03
        -0.19939E+03
        -0.20793E+03
        -0.13626E+03
         0.16158E+03
         0.66687E+03
         0.11888E+04
         0.18492E+04
         0.31516E+04
         0.31868E+04
         0.12085E+04
        -0.69305E+01
        -0.87483E+03
        -0.11628E+04
        -0.10488E+04
        -0.93131E+03
        -0.76894E+03
        -0.54192E+03
         0.11196E+02
         0.10890E+04
         0.15580E+04
         0.21000E+04
         0.91300E+03
        -0.11538E+04
        -0.13004E+04
        -0.41809E+03
        -0.40685E+03
        -0.42726E+03
        -0.53437E+03
        -0.52889E+03
        -0.67373E+03
        -0.41227E+03
        -0.46526E+03
        -0.43186E+03
        -0.48676E+03
        -0.52917E+03
        -0.47426E+03
        -0.43677E+03
        -0.54058E+03
        -0.46348E+03
        -0.38927E+03
        -0.45075E+03
        -0.43329E+03
        -0.40193E+03
        -0.51879E+03
        -0.50939E+03
        -0.59367E+03
        -0.52923E+03
        -0.41427E+03
        -0.59601E+03
        -0.54543E+03
        -0.59759E+03
        -0.72842E+03
        -0.74200E+03
        -0.68978E+03
        -0.80685E+03
        -0.72271E+03
        -0.88967E+03
        -0.87238E+03
        -0.51516E+03
        -0.43602E+03
        -0.39871E+03
        -0.54190E+03
        -0.46594E+03
        -0.41603E+03
        -0.78098E+02
        -0.61122E+03
        -0.72697E+03
        -0.54265E+03
        -0.58256E+03
        -0.50579E+03
        -0.65310E+03
        -0.80275E+03
        -0.85511E+03
        -0.86257E+03
        -0.82398E+03
        -0.90103E+03
        -0.79993E+03
        -0.87058E+03
        -0.74282E+03
        -0.53777E+03
        -0.31874E+03
        -0.16464E+02
         0.45951E+03
         0.78685E+03
         0.15807E+04
         0.18072E+04
         0.17585E+04
         0.65070E+03
        -0.17395E+03
        -0.85781E+03
        -0.10964E+04
        -0.87811E+03
        -0.37574E+03
         0.29528E+03
         0.65043E+03
         0.67681E+03
         0.17155E+04
         0.26955E+04
         0.38079E+04
         0.22477E+04
         0.27712E+02
        -0.80681E+03
        -0.40621E+03
        -0.40294E+03
        -0.42134E+03
        -0.41610E+03
        -0.43273E+03
        -0.44500E+03
        -0.41379E+03
        -0.44662E+03
        -0.41530E+03
        -0.45956E+03
        -0.54910E+03
        -0.50623E+03
        -0.43646E+03
        -0.53779E+03
        -0.59307E+03
        -0.38267E+03
        -0.42428E+03
        -0.40267E+03
        -0.39323E+03
        -0.47886E+03
        -0.46619E+03
        -0.56203E+03
        -0.44247E+03
        -0.39197E+03
        -0.52940E+03
        -0.41529E+03
        -0.59858E+03
        -0.66038E+03
        -0.72896E+03
        -0.63120E+03
        -0.49699E+03
        -0.43452E+03
        -0.56487E+03
        -0.54636E+03
        -0.47228E+03
        -0.41882E+03
        -0.40590E+03
        -0.57218E+03
        -0.58941E+03
        -0.56648E+03
        -0.55137E+03
        -0.58988E+03
        -0.70179E+03
        -0.44734E+03
        -0.43106E+03
        -0.36765E+03
        -0.40846E+03
        -0.44695E+03
        -0.54017E+03
        -0.53525E+03
        -0.39935E+03
        -0.57970E+03
        -0.62012E+03
        -0.55996E+03
        -0.62729E+03
        -0.52669E+03
        -0.37555E+03
        -0.19524E+03
         0.18589E+03
         0.55972E+03
         0.89887E+03
         0.15715E+04
         0.10807E+04
         0.10160E+02
        -0.22276E+03
        -0.72760E+03
        -0.82951E+03
        -0.70411E+03
        -0.45843E+03
        -0.19420E+03
        -0.94426E+02
        -0.14544E+03
         0.12805E+03
         0.65677E+03
         0.10684E+04
         0.68605E+03
        -0.61210E+02
        -0.39352E+03
        -0.39238E+03
        -0.37773E+03
        -0.37226E+03
        -0.37188E+03
        -0.36969E+03
        -0.36601E+03
        -0.39448E+03
        -0.41180E+03
        -0.39895E+03
        -0.43865E+03
        -0.46522E+03
        -0.46198E+03
        -0.41096E+03
        -0.47639E+03
        -0.50153E+03
        -0.36991E+03
        -0.42122E+03
        -0.36721E+03
        -0.38499E+03
        -0.44313E+03
        -0.42456E+03
        -0.49243E+03
        -0.38418E+03
        -0.35539E+03
        -0.50383E+03
        -0.34382E+03
        -0.51405E+03
        -0.60399E+03
        -0.60250E+03
        -0.55115E+03
        -0.32772E+03
        -0.33698E+03
        -0.33427E+03
        -0.34281E+03
        -0.37024E+03
        -0.37524E+03
        -0.38283E+03
        -0.56325E+03
        -0.60801E+03
        -0.63302E+03
        -0.47984E+03
        -0.65387E+03
        -0.60055E+03
        -0.36586E+03
        -0.35395E+03
        -0.36599E+03
        -0.34137E+03
        -0.33313E+03
        -0.34424E+03
        -0.35313E+03
        -0.35659E+03
        -0.35746E+03
        -0.39524E+03
        -0.35125E+03
        -0.38156E+03
        -0.38248E+03
        -0.36525E+03
        -0.28779E+03
        -0.68492E+02
         0.25874E+03
         0.77204E+03
         0.10961E+04
         0.95993E+03
         0.16088E+03
        -0.33435E+03
        -0.57620E+03
        -0.60042E+03
        -0.51783E+03
        -0.44781E+03
        -0.43953E+03
        -0.49475E+03
        -0.52813E+03
        -0.53137E+03
        -0.48155E+03
        -0.38417E+03
        -0.35194E+03
        -0.36501E+03
        -0.37156E+03
        -0.36818E+03
        -0.37102E+03
        -0.35752E+03
        -0.35398E+03
        -0.35625E+03
        -0.35111E+03
        -0.37880E+03
        -0.38635E+03
        -0.37452E+03
        -0.39841E+03
        -0.40581E+03
        -0.40649E+03
        -0.38614E+03
        -0.41620E+03
        -0.44897E+03
        -0.36003E+03
        -0.38753E+03
        -0.35268E+03
        -0.37112E+03
        -0.39984E+03
        -0.38948E+03
        -0.41580E+03
        -0.37029E+03
        -0.35455E+03
        -0.43426E+03
        -0.34570E+03
        -0.44072E+03
        -0.48153E+03
        -0.52609E+03
        -0.46093E+03
        -0.31963E+03
        -0.33146E+03
        -0.31665E+03
        -0.33071E+03
        -0.36110E+03
        -0.36533E+03
        -0.37305E+03
        -0.48583E+03
        -0.55253E+03
        -0.57089E+03
        -0.51181E+03
        -0.50434E+03
        -0.48612E+03
        -0.36079E+03
        -0.35794E+03
        -0.37134E+03
        -0.35744E+03
        -0.34387E+03
        -0.34524E+03
        -0.34320E+03
        -0.36444E+03
        -0.34756E+03
        -0.35339E+03
        -0.36180E+03
        -0.36100E+03
        -0.37731E+03
        -0.38371E+03
        -0.37315E+03
        -0.24581E+03
         0.28980E+02
         0.40273E+03
         0.58528E+03
         0.44076E+03
        -0.13704E+03
        -0.39653E+03
        -0.46958E+03
        -0.46050E+03
        -0.41001E+03
        -0.38761E+03
        -0.40965E+03
        -0.44555E+03
        -0.46095E+03
        -0.49324E+03
        -0.55393E+03
        -0.61034E+03
        -0.55720E+03
        -0.44916E+03
        -0.38788E+03
        -0.36635E+03
        -0.36764E+03
        -0.35954E+03
        -0.35907E+03
        -0.35823E+03
        -0.35836E+03
        -0.37150E+03
        -0.37274E+03
        -0.36908E+03
        -0.38015E+03
        -0.37531E+03
        -0.38421E+03
        -0.37428E+03
        -0.38415E+03
        -0.40919E+03
        -0.36477E+03
        -0.37301E+03
        -0.35991E+03
        -0.36811E+03
        -0.37883E+03
        -0.37544E+03
        -0.38883E+03
        -0.36900E+03
        -0.36166E+03
        -0.38817E+03
        -0.36104E+03
        -0.40166E+03
        -0.42318E+03
        -0.43137E+03
        -0.40257E+03
        -0.35190E+03
        -0.35926E+03
        -0.34619E+03
        -0.35083E+03
        -0.35700E+03
        -0.36608E+03
        -0.37078E+03
        -0.44485E+03
        -0.46451E+03
        -0.46950E+03
        -0.42478E+03
        -0.42128E+03
        -0.42260E+03
        -0.36515E+03
        -0.36534E+03
        -0.37114E+03
        -0.36531E+03
        -0.36025E+03
        -0.36357E+03
        -0.36505E+03
        -0.37913E+03
        -0.35917E+03
        -0.36339E+03
        -0.37369E+03
        -0.37153E+03
        -0.37462E+03
        -0.37725E+03
        -0.37907E+03
        -0.33214E+03
        -0.21076E+03
        -0.66584E+02
        -0.24235E+01
        -0.13708E+03
        -0.32639E+03
        -0.42033E+03
        -0.43748E+03
        -0.40984E+03
        -0.37750E+03
        -0.36594E+03
        -0.37243E+03
        -0.38352E+03
        -0.39165E+03
        -0.42334E+03
        -0.43081E+03
        -0.47691E+03
        -0.48388E+03
        -0.41809E+03
        -0.39418E+03
        -0.36776E+03
        -0.36841E+03
        -0.36146E+03
        -0.36450E+03
        -0.36389E+03
        -0.36422E+03
        -0.36931E+03
        -0.37006E+03
        -0.36942E+03
        -0.37139E+03
        -0.36626E+03
        -0.37371E+03
        -0.36962E+03
        -0.36955E+03
        -0.37713E+03
        -0.36878E+03
        -0.37053E+03
        -0.36619E+03
        -0.36943E+03
        -0.37120E+03
        -0.36782E+03
        -0.36752E+03
        -0.36691E+03
        -0.36621E+03
        -0.37194E+03
        -0.36742E+03
        -0.37298E+03
        -0.37575E+03
        -0.37303E+03
        -0.37408E+03
        -0.36420E+03
        -0.36736E+03
        -0.36084E+03
        -0.35967E+03
        -0.36245E+03
        -0.36559E+03
        -0.36903E+03
        -0.37934E+03
        -0.38517E+03
        -0.38491E+03
        -0.39041E+03
        -0.37987E+03
        -0.37441E+03
        -0.36795E+03
        -0.36893E+03
        -0.37022E+03
        -0.37010E+03
        -0.36898E+03
        -0.36952E+03
        -0.37035E+03
        -0.37815E+03
        -0.36870E+03
        -0.36250E+03
        -0.38136E+03
        -0.36343E+03
        -0.36737E+03
        -0.36813E+03
        -0.37517E+03
        -0.38974E+03
        -0.37608E+03
        -0.36832E+03
        -0.40323E+03
        -0.41969E+03
        -0.42837E+03
        -0.42397E+03
        -0.39309E+03
        -0.36748E+03
        -0.36035E+03
        -0.36190E+03
        -0.36680E+03
        -0.37151E+03
        -0.37541E+03
        -0.38220E+03
        -0.39811E+03
        -0.42485E+03
        -0.44625E+03
        -0.41985E+03
        -0.39742E+03
        -0.36812E+03
        -0.36893E+03
        -0.36452E+03
        -0.36545E+03
        -0.36582E+03
        -0.36570E+03
        -0.36998E+03
        -0.36917E+03
        -0.36948E+03
        -0.36805E+03
        -0.36601E+03
        -0.36631E+03
        -0.36939E+03
        -0.36533E+03
        -0.36499E+03
        -0.37078E+03
        -0.36879E+03
        -0.36975E+03
        -0.37051E+03
        -0.36626E+03
        -0.36311E+03
        -0.35520E+03
        -0.36829E+03
        -0.36900E+03
        -0.36508E+03
        -0.36951E+03
        -0.36419E+03
        -0.35977E+03
        -0.35292E+03
        -0.35728E+03
        -0.36560E+03
        -0.36861E+03
        -0.36144E+03
        -0.36268E+03
        -0.35731E+03
        -0.36639E+03
        -0.36993E+03
        -0.36444E+03
        -0.36094E+03
        -0.36620E+03
        -0.37998E+03
        -0.35414E+03
        -0.34456E+03
        -0.36923E+03
        -0.37021E+03
        -0.37252E+03
        -0.37072E+03
        -0.36930E+03
        -0.37113E+03
        -0.37291E+03
        -0.38159E+03
        -0.37028E+03
        -0.35980E+03
        -0.38199E+03
        -0.36388E+03
        -0.36618E+03
        -0.36589E+03
        -0.37404E+03
        -0.39632E+03
        -0.42224E+03
        -0.45193E+03
        -0.50013E+03
        -0.52501E+03
        -0.46359E+03
        -0.41650E+03
        -0.35852E+03
        -0.35093E+03
        -0.35962E+03
        -0.36534E+03
        -0.36844E+03
        -0.37199E+03
        -0.37890E+03
        -0.39044E+03
        -0.40374E+03
        -0.42504E+03
        -0.42953E+03
        -0.41935E+03
        -0.40364E+03
        -0.36796E+03
        -0.37080E+03
        -0.36467E+03
        -0.36497E+03
        -0.36407E+03
        -0.36414E+03
        -0.37140E+03
        -0.36899E+03
        -0.36896E+03
        -0.36595E+03
        -0.36600E+03
        -0.36686E+03
        -0.36976E+03
        -0.36389E+03
        -0.36364E+03
        -0.37148E+03
        -0.36908E+03
        -0.37031E+03
        -0.36957E+03
        -0.36473E+03
        -0.36050E+03
        -0.34825E+03
        -0.36516E+03
        -0.36812E+03
        -0.36045E+03
        -0.36984E+03
        -0.35914E+03
        -0.35024E+03
        -0.33967E+03
        -0.35310E+03
        -0.36616E+03
        -0.37023E+03
        -0.36411E+03
        -0.36270E+03
        -0.36024E+03
        -0.36752E+03
        -0.37107E+03
        -0.35993E+03
        -0.35446E+03
        -0.35403E+03
        -0.37303E+03
        -0.34046E+03
        -0.33540E+03
        -0.36928E+03
        -0.37049E+03
        -0.37302E+03
        -0.37117E+03
        -0.37008E+03
        -0.37031E+03
        -0.37250E+03
        -0.38035E+03
        -0.36947E+03
        -0.35971E+03
        -0.38250E+03
        -0.36172E+03
        -0.36844E+03
        -0.36936E+03
        -0.37525E+03
        -0.40184E+03
        -0.43197E+03
        -0.48986E+03
        -0.56599E+03
        -0.59930E+03
        -0.50990E+03
        -0.41704E+03
        -0.36791E+03
        -0.34827E+03
        -0.35551E+03
        -0.36344E+03
        -0.36969E+03
        -0.37748E+03
        -0.38259E+03
        -0.39842E+03
        -0.41323E+03
        -0.44239E+03
        -0.44946E+03
        -0.42125E+03
        -0.40017E+03
        -0.36887E+03
        -0.37045E+03
        -0.36499E+03
        -0.36386E+03
        -0.36272E+03
        -0.36211E+03
        -0.37139E+03
        -0.36968E+03
        -0.36862E+03
        -0.36696E+03
        -0.36678E+03
        -0.36565E+03
        -0.37031E+03
        -0.36500E+03
        -0.36046E+03
        -0.37061E+03
        -0.36699E+03
        -0.36825E+03
        -0.36751E+03
        -0.35975E+03
        -0.35745E+03
        -0.34594E+03
        -0.36484E+03
        -0.36721E+03
        -0.35895E+03
        -0.36937E+03
        -0.35780E+03
        -0.34859E+03
        -0.34757E+03
        -0.34939E+03
        -0.36339E+03
        -0.36830E+03
        -0.35751E+03
        -0.35778E+03
        -0.35775E+03
        -0.36580E+03
        -0.37075E+03
        -0.34709E+03
        -0.34040E+03
        -0.33109E+03
        -0.35276E+03
        -0.33635E+03
        -0.32979E+03
        -0.36855E+03
        -0.37007E+03
        -0.37251E+03
        -0.36937E+03
        -0.36567E+03
        -0.36257E+03
        -0.36438E+03
        -0.37900E+03
        -0.36463E+03
        -0.35643E+03
        -0.37665E+03
        -0.36106E+03
        -0.36546E+03
        -0.36188E+03
        -0.36935E+03
        -0.40205E+03
        -0.45938E+03
        -0.53069E+03
        -0.57819E+03
        -0.55504E+03
        -0.45471E+03
        -0.42139E+03
        -0.36719E+03
        -0.34956E+03
        -0.35600E+03
        -0.36073E+03
        -0.36609E+03
        -0.37309E+03
        -0.38425E+03
        -0.40877E+03
        -0.43906E+03
        -0.48200E+03
        -0.49258E+03
        -0.44796E+03
        -0.40920E+03
        -0.36883E+03
        -0.37008E+03
        -0.36481E+03
        -0.36504E+03
        -0.36399E+03
        -0.36400E+03
        -0.37084E+03
        -0.36990E+03
        -0.36821E+03
        -0.36600E+03
        -0.36517E+03
        -0.36533E+03
        -0.36909E+03
        -0.36127E+03
        -0.35838E+03
        -0.37069E+03
        -0.36676E+03
        -0.36810E+03
        -0.36792E+03
        -0.36011E+03
        -0.36054E+03
        -0.34768E+03
        -0.36663E+03
        -0.36862E+03
        -0.35579E+03
        -0.36924E+03
        -0.35478E+03
        -0.34450E+03
        -0.33280E+03
        -0.34981E+03
        -0.36221E+03
        -0.36826E+03
        -0.35819E+03
        -0.35808E+03
        -0.35809E+03
        -0.36635E+03
        -0.37091E+03
        -0.34928E+03
        -0.33967E+03
        -0.33633E+03
        -0.35639E+03
        -0.33620E+03
        -0.33189E+03
        -0.36915E+03
        -0.36977E+03
        -0.37140E+03
        -0.36884E+03
        -0.36557E+03
        -0.36532E+03
        -0.36549E+03
        -0.37895E+03
        -0.36462E+03
        -0.35855E+03
        -0.37374E+03
        -0.36105E+03
        -0.36445E+03
        -0.36100E+03
        -0.37050E+03
        -0.41079E+03
        -0.46371E+03
        -0.53128E+03
        -0.68434E+03
        -0.65260E+03
        -0.48594E+03
        -0.40524E+03
        -0.36159E+03
        -0.35331E+03
        -0.35972E+03
        -0.36195E+03
        -0.36543E+03
        -0.37197E+03
        -0.38681E+03
        -0.40989E+03
        -0.43783E+03
        -0.46636E+03
        -0.47188E+03
        -0.44325E+03
        -0.40766E+03
        -0.36777E+03
        -0.37024E+03
        -0.36297E+03
        -0.36405E+03
        -0.36299E+03
        -0.36251E+03
        -0.37140E+03
        -0.37006E+03
        -0.36897E+03
        -0.36728E+03
        -0.36379E+03
        -0.36382E+03
        -0.37043E+03
        -0.36235E+03
        -0.35780E+03
        -0.37138E+03
        -0.36788E+03
        -0.36857E+03
        -0.36956E+03
        -0.36135E+03
        -0.35837E+03
        -0.34647E+03
        -0.36518E+03
        -0.36807E+03
        -0.35479E+03
        -0.36970E+03
        -0.35617E+03
        -0.34311E+03
        -0.32146E+03
        -0.34747E+03
        -0.36264E+03
        -0.36640E+03
        -0.35969E+03
        -0.35824E+03
        -0.36117E+03
        -0.36752E+03
        -0.37136E+03
        -0.35482E+03
        -0.33967E+03
        -0.33077E+03
        -0.35806E+03
        -0.32688E+03
        -0.32720E+03
        -0.36848E+03
        -0.36867E+03
        -0.36925E+03
        -0.36737E+03
        -0.36564E+03
        -0.36572E+03
        -0.36784E+03
        -0.38325E+03
        -0.36600E+03
        -0.35883E+03
        -0.38601E+03
        -0.36056E+03
        -0.36504E+03
        -0.36518E+03
        -0.37329E+03
        -0.40158E+03
        -0.48213E+03
        -0.58491E+03
        -0.66971E+03
        -0.69484E+03
        -0.47239E+03
        -0.41141E+03
        -0.35816E+03
        -0.34510E+03
        -0.35358E+03
        -0.36030E+03
        -0.36603E+03
        -0.37863E+03
        -0.38774E+03
        -0.40735E+03
        -0.43066E+03
        -0.46965E+03
        -0.47533E+03
        -0.43860E+03
        -0.40677E+03
        -0.36826E+03
        -0.37002E+03
        -0.36425E+03
        -0.36438E+03
        -0.36401E+03
        -0.36262E+03
        -0.36919E+03
        -0.36815E+03
        -0.36853E+03
        -0.36359E+03
        -0.36407E+03
        -0.36113E+03
        -0.36702E+03
        -0.36065E+03
        -0.35888E+03
        -0.37102E+03
        -0.36732E+03
        -0.36810E+03
        -0.36953E+03
        -0.36124E+03
        -0.35774E+03
        -0.34531E+03
        -0.36382E+03
        -0.36873E+03
        -0.35786E+03
        -0.36822E+03
        -0.35409E+03
        -0.34148E+03
        -0.31842E+03
        -0.34369E+03
        -0.36103E+03
        -0.36520E+03
        -0.35614E+03
        -0.35696E+03
        -0.35853E+03
        -0.36666E+03
        -0.37039E+03
        -0.33812E+03
        -0.32130E+03
        -0.31820E+03
        -0.35193E+03
        -0.31886E+03
        -0.31984E+03
        -0.36667E+03
        -0.36742E+03
        -0.37117E+03
        -0.36882E+03
        -0.36640E+03
        -0.36794E+03
        -0.37096E+03
        -0.38589E+03
        -0.36683E+03
        -0.35928E+03
        -0.38872E+03
        -0.35818E+03
        -0.36304E+03
        -0.36125E+03
        -0.37182E+03
        -0.42456E+03
        -0.50139E+03
        -0.55962E+03
        -0.66928E+03
        -0.71817E+03
        -0.51109E+03
        -0.41027E+03
        -0.36496E+03
        -0.34317E+03
        -0.34847E+03
        -0.35611E+03
        -0.36629E+03
        -0.38412E+03
        -0.38850E+03
        -0.40121E+03
        -0.42669E+03
        -0.46708E+03
        -0.48419E+03
        -0.45493E+03
        -0.41778E+03
        -0.36946E+03
        -0.36886E+03
        -0.36606E+03
        -0.36611E+03
        -0.36422E+03
        -0.36392E+03
        -0.36977E+03
        -0.36902E+03
        -0.36905E+03
        -0.36732E+03
        -0.36454E+03
        -0.36186E+03
        -0.36767E+03
        -0.36067E+03
        -0.35204E+03
        -0.37063E+03
        -0.36730E+03
        -0.36726E+03
        -0.37035E+03
        -0.36240E+03
        -0.35693E+03
        -0.34438E+03
        -0.36424E+03
        -0.36906E+03
        -0.35576E+03
        -0.36799E+03
        -0.35362E+03
        -0.34119E+03
        -0.33083E+03
        -0.34551E+03
        -0.36097E+03
        -0.36471E+03
        -0.35621E+03
        -0.35898E+03
        -0.36066E+03
        -0.36761E+03
        -0.37159E+03
        -0.33801E+03
        -0.32497E+03
        -0.32397E+03
        -0.35559E+03
        -0.33331E+03
        -0.32494E+03
        -0.36623E+03
        -0.36668E+03
        -0.37058E+03
        -0.36856E+03
        -0.36557E+03
        -0.36682E+03
        -0.36802E+03
        -0.38015E+03
        -0.36761E+03
        -0.35984E+03
        -0.38447E+03
        -0.36078E+03
        -0.36375E+03
        -0.36216E+03
        -0.37461E+03
        -0.42851E+03
        -0.50785E+03
        -0.58918E+03
        -0.64942E+03
        -0.64369E+03
        -0.51587E+03
        -0.41525E+03
        -0.34945E+03
        -0.33633E+03
        -0.34820E+03
        -0.35747E+03
        -0.36787E+03
        -0.38462E+03
        -0.39485E+03
        -0.41191E+03
        -0.41475E+03
        -0.43967E+03
        -0.46195E+03
        -0.44724E+03
        -0.41637E+03
        -0.36878E+03
        -0.36918E+03
        -0.36459E+03
        -0.36485E+03
        -0.36425E+03
        -0.36402E+03
        -0.37002E+03
        -0.36950E+03
        -0.36981E+03
        -0.36692E+03
        -0.36236E+03
        -0.36208E+03
        -0.36756E+03
        -0.36013E+03
        -0.35537E+03
        -0.37058E+03
        -0.36898E+03
        -0.36764E+03
        -0.37000E+03
        -0.36444E+03
        -0.36027E+03
        -0.34709E+03
        -0.36513E+03
        -0.36659E+03
        -0.35880E+03
        -0.36685E+03
        -0.35351E+03
        -0.34377E+03
        -0.33278E+03
        -0.34926E+03
        -0.36048E+03
        -0.36578E+03
        -0.35667E+03
        -0.35737E+03
        -0.35996E+03
        -0.36751E+03
        -0.37001E+03
        -0.34076E+03
        -0.32743E+03
        -0.32253E+03
        -0.34993E+03
        -0.33194E+03
        -0.32908E+03
        -0.36709E+03
        -0.36887E+03
        -0.37544E+03
        -0.37023E+03
        -0.36649E+03
        -0.36391E+03
        -0.36720E+03
        -0.38180E+03
        -0.36549E+03
        -0.36430E+03
        -0.39131E+03
        -0.35942E+03
        -0.36184E+03
        -0.36189E+03
        -0.37170E+03
        -0.42338E+03
        -0.48894E+03
        -0.55418E+03
        -0.64175E+03
        -0.64574E+03
        -0.47690E+03
        -0.41165E+03
        -0.35149E+03
        -0.35004E+03
        -0.35429E+03
        -0.36076E+03
        -0.37224E+03
        -0.38732E+03
        -0.39550E+03
        -0.41281E+03
        -0.42377E+03
        -0.46567E+03
        -0.45958E+03
        -0.43315E+03
        -0.41189E+03
        -0.36811E+03
        -0.36900E+03
        -0.36641E+03
        -0.36732E+03
        -0.36826E+03
        -0.36982E+03
        -0.37038E+03
        -0.36940E+03
        -0.36871E+03
        -0.36795E+03
        -0.36418E+03
        -0.36229E+03
        -0.36772E+03
        -0.36224E+03
        -0.35526E+03
        -0.37024E+03
        -0.36713E+03
        -0.36805E+03
        -0.36880E+03
        -0.36285E+03
        -0.35855E+03
        -0.34899E+03
        -0.36490E+03
        -0.36676E+03
        -0.35750E+03
        -0.36718E+03
        -0.35649E+03
        -0.34513E+03
        -0.33834E+03
        -0.35002E+03
        -0.36245E+03
        -0.36606E+03
        -0.35941E+03
        -0.36428E+03
        -0.36457E+03
        -0.36694E+03
        -0.37081E+03
        -0.34817E+03
        -0.34011E+03
        -0.32737E+03
        -0.35539E+03
        -0.33001E+03
        -0.33480E+03
        -0.36733E+03
        -0.36910E+03
        -0.37424E+03
        -0.37050E+03
        -0.36876E+03
        -0.36864E+03
        -0.37156E+03
        -0.38045E+03
        -0.37206E+03
        -0.36879E+03
        -0.39090E+03
        -0.36733E+03
        -0.36296E+03
        -0.36215E+03
        -0.37330E+03
        -0.41067E+03
        -0.46235E+03
        -0.55649E+03
        -0.61872E+03
        -0.59424E+03
        -0.48008E+03
        -0.40712E+03
        -0.35637E+03
        -0.34740E+03
        -0.35481E+03
        -0.36184E+03
        -0.37084E+03
        -0.38304E+03
        -0.38760E+03
        -0.40403E+03
        -0.42564E+03
        -0.44573E+03
        -0.45258E+03
        -0.43476E+03
        -0.41050E+03
        -0.36931E+03
        -0.37035E+03
        -0.36663E+03
        -0.36750E+03
        -0.36931E+03
        -0.36902E+03
        -0.37145E+03
        -0.36978E+03
        -0.36920E+03
        -0.36616E+03
        -0.36539E+03
        -0.36641E+03
        -0.36970E+03
        -0.36345E+03
        -0.36030E+03
        -0.37091E+03
        -0.36710E+03
        -0.36944E+03
        -0.36799E+03
        -0.36110E+03
        -0.35828E+03
        -0.34784E+03
        -0.36414E+03
        -0.36634E+03
        -0.35839E+03
        -0.36941E+03
        -0.35739E+03
        -0.34655E+03
        -0.33144E+03
        -0.35073E+03
        -0.36602E+03
        -0.36836E+03
        -0.36322E+03
        -0.36514E+03
        -0.36521E+03
        -0.36941E+03
        -0.37136E+03
        -0.34599E+03
        -0.33104E+03
        -0.32041E+03
        -0.34089E+03
        -0.33396E+03
        -0.33313E+03
        -0.36852E+03
        -0.36962E+03
        -0.37230E+03
        -0.37171E+03
        -0.37015E+03
        -0.36894E+03
        -0.37172E+03
        -0.38494E+03
        -0.37058E+03
        -0.37283E+03
        -0.39144E+03
        -0.36431E+03
        -0.36366E+03
        -0.36427E+03
        -0.37537E+03
        -0.40814E+03
        -0.47645E+03
        -0.56748E+03
        -0.69474E+03
        -0.67968E+03
        -0.50524E+03
        -0.42161E+03
        -0.35973E+03
        -0.34792E+03
        -0.35381E+03
        -0.35947E+03
        -0.36707E+03
        -0.37945E+03
        -0.38521E+03
        -0.39404E+03
        -0.41623E+03
        -0.43905E+03
        -0.44896E+03
        -0.42899E+03
        -0.40927E+03
        -0.36887E+03
        -0.37109E+03
        -0.36807E+03
        -0.36827E+03
        -0.36843E+03
        -0.36887E+03
        -0.37107E+03
        -0.36895E+03
        -0.36966E+03
        -0.36607E+03
        -0.36557E+03
        -0.36546E+03
        -0.37040E+03
        -0.36428E+03
        -0.36506E+03
        -0.37140E+03
        -0.36627E+03
        -0.37015E+03
        -0.36831E+03
        -0.36121E+03
        -0.36059E+03
        -0.35003E+03
        -0.36666E+03
        -0.36916E+03
        -0.35807E+03
        -0.37011E+03
        -0.35930E+03
        -0.34287E+03
        -0.33957E+03
        -0.34966E+03
        -0.36632E+03
        -0.36911E+03
        -0.36408E+03
        -0.36725E+03
        -0.36610E+03
        -0.36996E+03
        -0.37222E+03
        -0.35725E+03
        -0.33890E+03
        -0.31993E+03
        -0.34133E+03
        -0.32959E+03
        -0.33328E+03
        -0.36984E+03
        -0.37060E+03
        -0.37264E+03
        -0.37132E+03
        -0.37126E+03
        -0.36995E+03
        -0.37181E+03
        -0.38358E+03
        -0.37198E+03
        -0.36795E+03
        -0.39274E+03
        -0.36763E+03
        -0.36675E+03
        -0.36578E+03
        -0.37491E+03
        -0.40126E+03
        -0.44811E+03
        -0.52751E+03
        -0.56993E+03
        -0.59912E+03
        -0.49081E+03
        -0.40642E+03
        -0.34875E+03
        -0.34414E+03
        -0.35276E+03
        -0.35925E+03
        -0.36543E+03
        -0.37240E+03
        -0.37768E+03
        -0.38714E+03
        -0.39176E+03
        -0.41180E+03
        -0.42356E+03
        -0.41509E+03
        -0.40373E+03
        -0.37080E+03
        -0.37187E+03
        -0.37102E+03
        -0.37090E+03
        -0.37211E+03
        -0.37172E+03
        -0.37134E+03
        -0.36856E+03
        -0.37098E+03
        -0.36647E+03
        -0.36552E+03
        -0.36604E+03
        -0.37080E+03
        -0.36288E+03
        -0.36527E+03
        -0.37249E+03
        -0.36893E+03
        -0.37219E+03
        -0.37037E+03
        -0.36411E+03
        -0.36476E+03
        -0.35147E+03
        -0.36780E+03
        -0.37062E+03
        -0.36349E+03
        -0.37183E+03
        -0.35742E+03
        -0.34840E+03
        -0.33529E+03
        -0.35560E+03
        -0.37060E+03
        -0.37169E+03
        -0.36935E+03
        -0.37093E+03
        -0.36778E+03
        -0.37228E+03
        -0.37235E+03
        -0.34326E+03
        -0.32593E+03
        -0.32108E+03
        -0.34925E+03
        -0.33980E+03
        -0.35197E+03
        -0.37200E+03
        -0.37232E+03
        -0.37448E+03
        -0.37441E+03
        -0.37362E+03
        -0.37380E+03
        -0.37565E+03
        -0.38133E+03
        -0.37526E+03
        -0.36818E+03
        -0.38681E+03
        -0.36729E+03
        -0.36936E+03
        -0.36971E+03
        -0.38034E+03
        -0.40240E+03
        -0.46889E+03
        -0.53881E+03
        -0.59996E+03
        -0.65740E+03
        -0.50664E+03
        -0.39326E+03
        -0.34965E+03
        -0.34416E+03
        -0.35545E+03
        -0.36199E+03
        -0.36699E+03
        -0.36964E+03
        -0.37185E+03
        -0.37644E+03
        -0.38401E+03
        -0.39424E+03
        -0.40857E+03
        -0.40852E+03
        -0.40175E+03
        -0.37108E+03
        -0.37290E+03
        -0.37391E+03
        -0.37414E+03
        -0.37361E+03
        -0.37599E+03
        -0.37031E+03
        -0.36872E+03
        -0.37202E+03
        -0.36659E+03
        -0.36644E+03
        -0.36259E+03
        -0.36880E+03
        -0.36469E+03
        -0.36300E+03
        -0.37338E+03
        -0.37052E+03
        -0.37401E+03
        -0.37033E+03
        -0.36557E+03
        -0.36375E+03
        -0.35506E+03
        -0.36824E+03
        -0.36995E+03
        -0.36145E+03
        -0.37334E+03
        -0.35560E+03
        -0.34318E+03
        -0.33035E+03
        -0.35357E+03
        -0.37764E+03
        -0.37797E+03
        -0.37912E+03
        -0.37609E+03
        -0.36819E+03
        -0.37174E+03
        -0.37278E+03
        -0.34761E+03
        -0.33658E+03
        -0.31899E+03
        -0.33923E+03
        -0.33288E+03
        -0.33138E+03
        -0.37204E+03
        -0.37605E+03
        -0.37768E+03
        -0.37839E+03
        -0.37776E+03
        -0.37726E+03
        -0.37866E+03
        -0.37965E+03
        -0.37760E+03
        -0.36293E+03
        -0.38121E+03
        -0.36994E+03
        -0.37331E+03
        -0.37579E+03
        -0.38783E+03
        -0.41664E+03
        -0.45540E+03
        -0.51312E+03
        -0.58546E+03
        -0.64729E+03
        -0.52091E+03
        -0.39522E+03
        -0.35201E+03
        -0.34272E+03
        -0.35653E+03
        -0.36201E+03
        -0.36508E+03
        -0.35800E+03
        -0.34794E+03
        -0.35381E+03
        -0.35395E+03
        -0.35630E+03
        -0.37022E+03
        -0.38668E+03
        -0.39412E+03
        -0.36843E+03
        -0.37066E+03
        -0.37354E+03
        -0.37765E+03
        -0.37378E+03
        -0.37950E+03
        -0.36566E+03
        -0.36495E+03
        -0.36979E+03
        -0.36288E+03
        -0.35808E+03
        -0.36079E+03
        -0.36605E+03
        -0.36290E+03
        -0.36832E+03
        -0.37207E+03
        -0.36671E+03
        -0.37448E+03
        -0.36816E+03
        -0.36274E+03
        -0.36026E+03
        -0.34901E+03
        -0.36457E+03
        -0.36721E+03
        -0.35975E+03
        -0.37525E+03
        -0.35548E+03
        -0.35151E+03
        -0.34436E+03
        -0.35082E+03
        -0.39118E+03
        -0.38925E+03
        -0.39026E+03
        -0.38355E+03
        -0.36438E+03
        -0.37139E+03
        -0.37162E+03
        -0.35246E+03
        -0.35498E+03
        -0.35437E+03
        -0.37239E+03
        -0.35272E+03
        -0.33469E+03
        -0.37169E+03
        -0.37936E+03
        -0.37721E+03
        -0.38527E+03
        -0.39030E+03
        -0.38862E+03
        -0.38398E+03
        -0.37618E+03
        -0.38215E+03
        -0.36204E+03
        -0.37339E+03
        -0.37138E+03
        -0.37131E+03
        -0.36954E+03
        -0.38014E+03
        -0.41050E+03
        -0.44017E+03
        -0.48505E+03
        -0.52758E+03
        -0.57034E+03
        -0.54527E+03
        -0.42065E+03
        -0.34564E+03
        -0.32114E+03
        -0.33075E+03
        -0.34927E+03
        -0.34801E+03
        -0.31349E+03
        -0.27939E+03
        -0.27341E+03
        -0.29423E+03
        -0.28308E+03
        -0.30254E+03
        -0.34798E+03
        -0.37097E+03
        -0.36689E+03
        -0.36891E+03
        -0.37390E+03
        -0.37806E+03
        -0.37499E+03
        -0.38143E+03
        -0.36499E+03
        -0.36376E+03
        -0.36664E+03
        -0.35993E+03
        -0.36117E+03
        -0.36739E+03
        -0.36750E+03
        -0.36292E+03
        -0.37164E+03
        -0.37248E+03
        -0.36306E+03
        -0.37277E+03
        -0.36899E+03
        -0.36111E+03
        -0.35556E+03
        -0.34003E+03
        -0.36665E+03
        -0.37224E+03
        -0.35771E+03
        -0.38272E+03
        -0.36141E+03
        -0.35695E+03
        -0.35047E+03
        -0.34824E+03
        -0.40113E+03
        -0.40284E+03
        -0.39538E+03
        -0.39230E+03
        -0.37677E+03
        -0.37320E+03
        -0.37108E+03
        -0.37287E+03
        -0.37217E+03
        -0.37203E+03
        -0.39765E+03
        -0.35924E+03
        -0.32731E+03
        -0.37604E+03
        -0.38579E+03
        -0.37742E+03
        -0.38847E+03
        -0.39625E+03
        -0.39132E+03
        -0.38704E+03
        -0.37162E+03
        -0.38504E+03
        -0.38470E+03
        -0.37152E+03
        -0.38217E+03
        -0.37388E+03
        -0.36878E+03
        -0.37277E+03
        -0.39797E+03
        -0.41798E+03
        -0.43113E+03
        -0.48273E+03
        -0.59746E+03
        -0.64027E+03
        -0.49781E+03
        -0.36298E+03
        -0.28859E+03
        -0.28337E+03
        -0.31325E+03
        -0.30956E+03
        -0.25200E+03
        -0.21292E+03
        -0.22205E+03
        -0.26179E+03
        -0.24175E+03
        -0.26419E+03
        -0.31915E+03
        -0.35240E+03
        -0.38817E+03
        -0.38880E+03
        -0.41781E+03
        -0.40368E+03
        -0.42734E+03
        -0.41553E+03
        -0.37980E+03
        -0.37633E+03
        -0.37082E+03
        -0.36275E+03
        -0.37900E+03
        -0.38394E+03
        -0.38135E+03
        -0.36738E+03
        -0.38263E+03
        -0.38078E+03
        -0.35458E+03
        -0.38203E+03
        -0.36601E+03
        -0.32797E+03
        -0.31764E+03
        -0.28600E+03
        -0.34810E+03
        -0.39310E+03
        -0.33653E+03
        -0.41746E+03
        -0.35721E+03
        -0.34989E+03
        -0.37345E+03
        -0.29688E+03
        -0.43663E+03
        -0.44421E+03
        -0.43053E+03
        -0.42803E+03
        -0.45459E+03
        -0.40782E+03
        -0.38366E+03
        -0.39077E+03
        -0.41206E+03
        -0.46115E+03
        -0.64264E+03
        -0.44821E+03
        -0.29444E+03
        -0.37487E+03
        -0.39725E+03
        -0.37280E+03
        -0.40348E+03
        -0.42038E+03
        -0.42105E+03
        -0.40689E+03
        -0.37801E+03
        -0.40340E+03
        -0.49452E+03
        -0.39824E+03
        -0.42928E+03
        -0.37750E+03
        -0.38041E+03
        -0.39846E+03
        -0.39660E+03
        -0.39548E+03
        -0.45671E+03
        -0.70472E+03
        -0.11488E+04
        -0.12526E+04
        -0.84516E+03
        -0.36259E+03
        -0.11323E+03
        -0.94107E+02
        -0.14977E+03
        -0.13738E+03
        -0.44393E+02
         0.77571E+01
        -0.65633E+02
        -0.12884E+03
        -0.18092E+03
        -0.23332E+03
        -0.34091E+03
        -0.37945E+03
  
SCALARS                 acceleration_x  double 1
LOOKUP_TABLE default
         0.00000E+00
         0.21682E+09
         0.14112E+09
         0.90913E+08
        -0.45039E+09
        -0.22282E+10
        -0.23084E+10
        -0.12438E+10
        -0.11286E+10
         0.26925E+09
         0.66667E+09
        -0.14645E+10
        -0.14538E+10
         0.37981E+08
         0.10463E+08
        -0.16763E+10
        -0.81755E+09
         0.42105E+08
        -0.60119E+08
        -0.11120E+10
        -0.34336E+10
        -0.12667E+09
         0.10262E+08
         0.41773E+09
        -0.18748E+10
         0.22304E+09
        -0.24295E+09
        -0.15601E+09
        -0.55286E+09
        -0.20277E+10
        -0.31875E+09
         0.15111E+08
         0.41465E+08
        -0.12587E+08
        -0.27220E+08
        -0.45983E+09
        -0.22556E+09
         0.33594E+07
         0.23647E+08
        -0.20273E+08
        -0.69718E+08
        -0.41871E+08
        -0.17305E+09
        -0.30361E+07
        -0.39141E+08
         0.47061E+08
        -0.11800E+07
        -0.51576E+08
        -0.17498E+08
        -0.69640E+08
        -0.56573E+09
        -0.67277E+08
        -0.28212E+09
        -0.19570E+09
        -0.11368E+10
        -0.55626E+09
        -0.13611E+10
        -0.25827E+09
        -0.92032E+08
        -0.21021E+10
        -0.29620E+09
        -0.41082E+09
        -0.83702E+08
        -0.91129E+09
        -0.46133E+09
        -0.33364E+09
        -0.21955E+09
        -0.98383E+09
        -0.22875E+10
         0.30476E+09
         0.58029E+09
        -0.15199E+10
        -0.73043E+09
         0.23214E+09
        -0.45254E+09
         0.59063E+09
        -0.72158E+09
         0.50717E+09
        -0.84439E+09
         0.94549E+08
        -0.12245E+10
        -0.17396E+09
        -0.89653E+09
        -0.11718E+10
        -0.60617E+09
        -0.53080E+09
        -0.72629E+09
         0.36223E+09
        -0.93213E+09
         0.71427E+09
        -0.16402E+10
         0.41144E+09
         0.52847E+09
        -0.15670E+10
        -0.38529E+09
         0.15106E+09
        -0.28807E+09
         0.85312E+09
        -0.88092E+09
         0.28097E+10
        -0.99902E+09
         0.31562E+10
         0.24455E+10
         0.22188E+09
        -0.12544E+10
         0.57023E+09
         0.26614E+10
        -0.31221E+10
        -0.14375E+10
         0.13060E+10
        -0.46336E+09
         0.18665E+09
         0.97926E+09
        -0.14343E+10
         0.45395E+10
        -0.34091E+10
         0.79193E+10
        -0.50271E+10
         0.91436E+10
        -0.68748E+10
         0.12360E+11
        -0.76578E+10
         0.17566E+11
        -0.55726E+10
         0.60113E+10
        -0.57918E+09
        -0.34831E+09
        -0.43621E+07
        -0.61895E+09
        -0.57806E+09
        -0.86877E+09
        -0.74041E+09
        -0.16704E+10
        -0.95820E+08
        -0.22037E+10
         0.96459E+09
        -0.18778E+10
         0.18350E+10
        -0.13379E+10
         0.30200E+10
        -0.21625E+10
         0.39470E+10
        -0.15484E+10
         0.44745E+10
        -0.10620E+10
         0.60439E+10
        -0.60672E+09
         0.20630E+11
         0.42719E+09
         0.34424E+11
         0.30817E+10
         0.40099E+11
         0.15421E+10
         0.21001E+11
        -0.12958E+09
         0.83200E+10
        -0.58393E+09
         0.90751E+09
         0.72655E+09
         0.51537E+09
         0.52524E+09
         0.93119E+09
         0.13057E+10
         0.67893E+09
         0.54782E+09
         0.11858E+10
         0.23133E+10
         0.45158E+09
        -0.49059E+09
         0.20887E+08
         0.67399E+09
        -0.14184E+09
         0.63142E+09
         0.35576E+09
         0.66903E+09
         0.38928E+09
         0.32775E+09
         0.12917E+09
        -0.26060E+08
         0.87379E+09
         0.41336E+09
         0.86242E+09
         0.80298E+09
         0.97216E+09
         0.95524E+09
         0.31117E+09
         0.27951E+09
         0.47398E+09
         0.30534E+09
         0.16671E+09
         0.11032E+10
         0.10863E+10
         0.92827E+09
         0.48281E+09
         0.82771E+08
         0.23803E+09
         0.17567E+09
         0.96932E+08
         0.34558E+09
         0.14445E+09
         0.92207E+09
         0.14943E+10
         0.83325E+09
         0.60145E+09
         0.47939E+09
         0.52462E+09
         0.32113E+10
         0.31466E+10
         0.53471E+10
         0.19497E+10
         0.32446E+10
         0.11139E+10
        -0.18654E+09
        -0.24706E+10
        -0.49553E+10
        -0.69591E+10
        -0.95874E+10
        -0.12460E+11
        -0.76940E+10
        -0.93811E+09
         0.50686E+09
         0.35385E+09
         0.61993E+09
         0.91737E+09
         0.13863E+10
         0.18759E+10
         0.23786E+10
         0.17392E+10
         0.12896E+10
         0.27847E+10
         0.10563E+11
         0.20809E+11
         0.16074E+11
         0.88546E+10
         0.21135E+10
         0.66975E+09
         0.33456E+09
         0.18287E+09
         0.82839E+09
        -0.24887E+09
        -0.92389E+09
         0.16476E+09
         0.30245E+09
         0.48293E+09
         0.11703E+10
         0.29201E+09
        -0.10029E+09
         0.58260E+08
         0.46317E+09
         0.34913E+08
         0.32482E+09
         0.26883E+09
         0.66284E+09
         0.22302E+09
         0.32399E+09
         0.20688E+09
         0.34469E+09
         0.17878E+09
         0.13805E+09
         0.56954E+09
         0.43284E+09
         0.29612E+09
         0.20106E+09
         0.88955E+08
         0.29401E+09
         0.61875E+09
         0.27461E+09
         0.33157E+09
        -0.10241E+08
        -0.22478E+09
         0.10834E+09
         0.15937E+09
        -0.26007E+09
        -0.15961E+09
        -0.10859E+09
        -0.42851E+08
         0.97026E+08
         0.37388E+09
         0.12749E+09
         0.60719E+08
        -0.18456E+09
        -0.11189E+09
        -0.28443E+09
        -0.11582E+10
        -0.45917E+10
        -0.32927E+10
        -0.52961E+10
        -0.15674E+10
        -0.33011E+10
        -0.31782E+09
        -0.21629E+09
        -0.58555E+09
        -0.11911E+10
        -0.16939E+10
        -0.31974E+10
        -0.47583E+10
        -0.40039E+10
        -0.11284E+10
         0.21622E+09
         0.62620E+09
         0.39283E+09
         0.54003E+09
         0.22835E+09
        -0.28369E+09
        -0.12077E+10
        -0.13187E+10
        -0.15214E+10
        -0.20678E+10
        -0.29347E+10
        -0.66031E+10
        -0.97344E+10
        -0.51263E+10
        -0.29331E+10
         0.11351E+09
         0.11603E+08
        -0.30590E+08
         0.88030E+08
        -0.73547E+09
        -0.89934E+09
         0.58219E+08
         0.25746E+08
         0.51160E+08
         0.18254E+09
         0.19797E+09
         0.19951E+09
         0.12505E+09
         0.13320E+09
         0.10213E+09
         0.52976E+08
         0.62588E+08
         0.91025E+08
         0.35254E+08
         0.11537E+09
         0.94894E+08
         0.22927E+09
         0.16122E+07
         0.89712E+06
         0.65189E+08
         0.33512E+08
         0.10128E+09
         0.92488E+08
         0.25591E+08
         0.77653E+08
        -0.12147E+09
        -0.49643E+08
        -0.26760E+09
        -0.61524E+09
        -0.72324E+09
        -0.25950E+09
        -0.58396E+08
         0.14709E+09
         0.11044E+09
        -0.20192E+09
        -0.29649E+09
        -0.63593E+08
         0.31179E+09
        -0.12096E+09
        -0.45125E+09
        -0.45008E+09
        -0.32656E+09
        -0.46197E+09
        -0.75186E+09
        -0.26966E+10
        -0.24182E+10
        -0.50411E+10
        -0.22867E+10
        -0.43529E+10
        -0.11348E+10
        -0.28336E+09
         0.20647E+09
         0.49022E+09
        -0.48642E+09
        -0.50519E+09
        -0.17551E+10
        -0.14916E+10
        -0.84844E+09
        -0.50119E+09
        -0.36106E+09
         0.21155E+09
         0.40559E+09
         0.73195E+08
        -0.56482E+09
        -0.13037E+10
        -0.11443E+10
        -0.74448E+09
        -0.19382E+10
        -0.58849E+10
        -0.13630E+11
        -0.10719E+11
        -0.78633E+10
        -0.66473E+09
         0.44966E+07
        -0.22142E+08
         0.29604E+07
        -0.55168E+07
        -0.16437E+09
        -0.17594E+09
        -0.77264E+07
         0.16908E+08
         0.17551E+08
         0.79898E+08
         0.82088E+08
         0.69019E+08
         0.33983E+08
         0.11020E+09
         0.10963E+09
        -0.49944E+08
        -0.11989E+08
        -0.63129E+08
        -0.19401E+08
         0.63039E+08
         0.92514E+08
         0.25510E+09
         0.10427E+09
         0.38662E+07
         0.10578E+09
        -0.65619E+07
         0.20973E+09
         0.39177E+09
         0.39557E+09
         0.13865E+09
        -0.61651E+08
         0.10418E+08
        -0.45544E+08
        -0.77349E+08
        -0.22995E+09
        -0.56016E+08
         0.17551E+08
         0.34938E+09
         0.45678E+09
         0.55280E+09
         0.13797E+09
         0.35078E+09
         0.40012E+09
         0.58366E+08
         0.82719E+08
         0.54945E+08
         0.18846E+08
        -0.70502E+07
        -0.15461E+09
        -0.59987E+09
        -0.61085E+09
        -0.85109E+09
        -0.51746E+09
        -0.71849E+09
        -0.82928E+08
         0.65805E+08
         0.22055E+09
         0.42317E+09
         0.38496E+08
        -0.18207E+09
        -0.65336E+09
        -0.96620E+09
        -0.81283E+09
        -0.46184E+09
         0.17121E+09
         0.52656E+09
         0.53714E+09
         0.39636E+09
         0.25021E+09
         0.15654E+09
         0.20007E+09
         0.73697E+08
        -0.25233E+09
        -0.91363E+09
        -0.13896E+10
        -0.24380E+10
        -0.19858E+10
        -0.61408E+09
        -0.25198E+08
        -0.13232E+08
         0.10108E+08
        -0.10079E+08
         0.12936E+08
         0.14945E+08
        -0.57051E+07
         0.20748E+08
        -0.27309E+08
         0.88782E+08
         0.28669E+08
         0.51086E+08
         0.34586E+08
         0.74865E+08
         0.71579E+08
        -0.55195E+08
        -0.27094E+08
        -0.36560E+08
        -0.27583E+08
         0.90554E+07
         0.59720E+08
         0.17048E+09
         0.70939E+08
        -0.15139E+08
         0.43890E+08
        -0.35433E+08
         0.98735E+08
         0.19903E+09
         0.23757E+09
         0.89344E+08
         0.13761E+08
         0.95038E+07
         0.60794E+08
         0.75605E+08
         0.28885E+08
         0.25531E+08
         0.17830E+08
         0.27084E+09
         0.33148E+09
         0.45706E+09
         0.13865E+09
         0.19673E+09
         0.26580E+09
         0.60773E+08
         0.16425E+09
         0.16554E+09
         0.14451E+09
         0.20100E+09
         0.41243E+08
         0.20559E+09
         0.20300E+09
         0.37252E+09
         0.47539E+08
         0.10893E+08
         0.59688E+08
         0.71516E+08
         0.11424E+09
         0.17991E+09
         0.19672E+09
         0.47748E+09
         0.40057E+09
        -0.19931E+09
        -0.13839E+09
         0.30695E+09
         0.49672E+09
         0.74088E+09
         0.51170E+09
         0.33833E+09
         0.33682E+09
         0.47141E+09
         0.48590E+09
         0.59171E+09
         0.85107E+09
         0.71369E+09
         0.72131E+09
         0.45553E+09
         0.16771E+09
         0.56363E+08
        -0.37235E+08
        -0.19846E+08
        -0.12145E+08
        -0.30200E+08
        -0.16942E+07
         0.26795E+07
        -0.10495E+08
        -0.10809E+08
        -0.34075E+08
        -0.87474E+08
        -0.32630E+08
         0.59751E+07
         0.33407E+07
         0.11929E+07
         0.41714E+08
        -0.34081E+08
        -0.24224E+08
        -0.36486E+08
        -0.19680E+08
        -0.12321E+08
         0.33457E+08
         0.78461E+08
         0.21207E+08
        -0.12001E+08
         0.68255E+07
        -0.30717E+08
         0.21557E+08
         0.10243E+09
         0.22044E+09
         0.28566E+08
        -0.18292E+08
        -0.98222E+07
         0.46343E+07
         0.11716E+09
         0.31950E+07
         0.35678E+07
        -0.36334E+07
         0.19036E+09
         0.33678E+09
         0.47303E+09
         0.28019E+09
         0.24994E+09
         0.13951E+09
         0.25665E+07
         0.22562E+08
         0.32669E+08
         0.33361E+08
         0.61336E+08
         0.94846E+08
         0.29523E+09
         0.19728E+09
         0.34873E+09
         0.14393E+08
         0.84418E+08
         0.75260E+07
         0.14108E+08
         0.35694E+08
         0.62108E+08
         0.35051E+09
         0.76369E+09
         0.87839E+09
         0.84161E+09
         0.74523E+09
         0.70396E+09
         0.57335E+09
         0.49524E+09
         0.24815E+09
         0.64368E+08
         0.26839E+08
         0.74520E+08
         0.11373E+09
         0.17625E+09
         0.33452E+09
         0.56058E+09
         0.37122E+09
         0.30795E+09
         0.32765E+09
         0.62678E+08
        -0.29571E+08
        -0.63840E+07
        -0.68430E+07
        -0.26409E+08
        -0.10800E+08
        -0.19697E+08
        -0.85816E+07
        -0.49387E+07
        -0.13561E+08
        -0.18209E+07
        -0.25226E+08
         0.47198E+07
        -0.97503E+07
        -0.17085E+08
         0.11819E+08
        -0.10350E+08
        -0.53205E+07
        -0.17455E+08
        -0.50375E+07
        -0.51172E+07
         0.77814E+07
         0.54377E+08
        -0.15870E+07
        -0.16206E+07
        -0.16532E+08
        -0.65463E+07
         0.13031E+08
         0.19299E+08
         0.29848E+08
         0.12375E+08
        -0.15935E+08
        -0.70221E+07
        -0.17372E+08
        -0.13351E+08
        -0.13892E+08
        -0.81383E+07
        -0.60558E+07
         0.91804E+08
         0.21329E+09
         0.38499E+09
         0.22041E+09
         0.13180E+09
         0.12252E+09
        -0.94531E+07
        -0.22501E+08
        -0.17483E+08
        -0.95782E+07
        -0.12452E+08
        -0.25581E+08
         0.38260E+08
         0.16517E+08
         0.28565E+08
        -0.39847E+08
        -0.44537E+08
        -0.33908E+08
        -0.33608E+08
         0.25101E+06
         0.40474E+08
         0.12694E+09
         0.14817E+09
         0.32610E+09
         0.62774E+09
         0.72886E+09
         0.58873E+09
         0.43814E+09
         0.24920E+09
         0.34839E+08
        -0.59183E+08
        -0.80205E+08
        -0.66878E+08
        -0.53850E+08
        -0.52661E+08
        -0.16828E+08
        -0.77304E+08
         0.77811E+08
         0.65465E+08
         0.94735E+08
         0.20589E+08
        -0.15204E+08
        -0.33069E+07
        -0.28668E+07
        -0.84563E+07
        -0.23798E+07
         0.33245E+07
        -0.34665E+07
        -0.40728E+07
        -0.62766E+07
        -0.37327E+08
        -0.14236E+08
        -0.36530E+07
        -0.77693E+07
        -0.16235E+08
         0.92390E+06
        -0.11435E+06
        -0.63776E+07
        -0.56256E+07
        -0.19959E+07
        -0.80976E+07
         0.32414E+07
         0.11150E+08
         0.49638E+07
         0.20691E+07
        -0.55502E+07
         0.12695E+07
        -0.19392E+08
        -0.16497E+08
         0.31199E+08
        -0.11331E+06
        -0.94566E+07
        -0.48555E+06
        -0.11980E+08
        -0.15939E+08
        -0.46386E+07
        -0.52469E+07
        -0.15407E+07
         0.49477E+08
         0.99449E+08
         0.17804E+09
         0.11098E+09
         0.33106E+08
         0.24717E+08
        -0.21416E+07
        -0.13096E+07
        -0.51434E+07
        -0.45194E+07
        -0.78663E+07
        -0.11531E+08
         0.29032E+07
         0.11637E+08
         0.22081E+08
        -0.28665E+08
         0.25945E+08
        -0.28147E+08
        -0.25013E+08
        -0.13980E+08
         0.72200E+06
         0.96631E+08
         0.27993E+09
         0.39839E+09
         0.76869E+09
         0.31877E+09
         0.11320E+09
         0.21890E+09
         0.12964E+09
        -0.14440E+08
        -0.37289E+08
        -0.31067E+08
        -0.46083E+08
        -0.17520E+08
        -0.42933E+08
        -0.46384E+08
        -0.78744E+08
        -0.73967E+08
        -0.61372E+08
        -0.25890E+08
        -0.24618E+08
        -0.61628E+07
         0.23378E+07
         0.15886E+07
        -0.53357E+07
        -0.10631E+08
        -0.19085E+08
        -0.39420E+06
        -0.34849E+07
        -0.72394E+07
        -0.41551E+08
         0.28178E+06
        -0.10168E+07
         0.86131E+06
        -0.71780E+07
         0.19878E+07
        -0.35776E+06
        -0.25976E+07
        -0.78571E+07
        -0.21888E+06
        -0.86348E+07
         0.18074E+07
        -0.89285E+07
         0.64382E+07
         0.21859E+07
        -0.19812E+08
         0.32122E+07
        -0.15995E+08
        -0.22677E+08
        -0.67857E+07
        -0.14295E+08
        -0.23204E+07
         0.38522E+07
        -0.82005E+07
        -0.26714E+08
         0.48465E+07
         0.30114E+07
         0.34949E+07
         0.84609E+07
         0.29330E+08
         0.84787E+08
         0.81039E+08
         0.94813E+07
         0.68163E+06
         0.72182E+07
         0.11231E+08
         0.46851E+07
         0.45429E+07
         0.43005E+06
        -0.16574E+08
        -0.13110E+08
        -0.88977E+07
        -0.19469E+08
        -0.26108E+08
        -0.25655E+08
        -0.33648E+08
        -0.24069E+08
        -0.21297E+08
        -0.55445E+07
         0.52370E+08
         0.13684E+09
         0.31368E+09
         0.45471E+09
         0.26009E+09
         0.85672E+08
         0.11142E+09
         0.42082E+08
        -0.66055E+07
         0.17052E+08
        -0.62038E+07
        -0.15992E+08
        -0.46810E+07
        -0.13865E+08
        -0.81448E+07
        -0.17927E+08
         0.14763E+08
        -0.10750E+07
         0.31200E+07
        -0.18438E+08
        -0.23545E+07
         0.46087E+07
        -0.26746E+07
        -0.16682E+08
        -0.94406E+07
        -0.23838E+08
         0.20637E+07
        -0.45029E+07
        -0.11697E+08
        -0.33702E+08
        -0.19488E+07
        -0.65699E+06
         0.31007E+07
        -0.68306E+07
        -0.23770E+07
        -0.17567E+07
        -0.62313E+07
        -0.62782E+07
        -0.35793E+07
        -0.11885E+08
        -0.50576E+07
        -0.18034E+08
        -0.46259E+07
        -0.34743E+06
        -0.18386E+08
         0.33080E+07
        -0.20797E+08
        -0.33416E+08
        -0.68146E+07
        -0.24806E+08
        -0.60942E+07
         0.92724E+06
        -0.36433E+07
        -0.36890E+08
         0.24194E+07
         0.59656E+07
         0.37177E+06
        -0.10353E+08
        -0.11930E+08
         0.10195E+08
         0.48354E+08
        -0.15421E+08
        -0.24541E+08
         0.94597E+06
         0.13808E+07
         0.24312E+07
         0.27242E+07
        -0.80786E+06
         0.15160E+05
         0.17455E+08
         0.12021E+08
         0.11746E+08
        -0.34711E+07
        -0.55577E+08
        -0.33218E+08
        -0.41519E+08
        -0.47907E+08
        -0.30873E+08
         0.45129E+08
         0.13496E+09
         0.27929E+09
         0.40555E+09
         0.18805E+09
        -0.74969E+08
         0.47247E+08
         0.99277E+07
        -0.25003E+08
        -0.36343E+08
        -0.45187E+08
        -0.38758E+08
        -0.11071E+08
         0.53361E+07
         0.11015E+08
         0.10440E+09
         0.14530E+09
         0.52975E+08
         0.10395E+08
         0.11748E+08
        -0.44779E+07
        -0.36595E+06
        -0.21825E+07
        -0.14369E+08
        -0.10167E+08
        -0.26566E+08
         0.29444E+07
        -0.64167E+06
        -0.13525E+08
        -0.28955E+08
         0.16104E+07
        -0.11315E+07
         0.28079E+07
        -0.57840E+07
        -0.94199E+06
        -0.47003E+07
        -0.80932E+07
        -0.11060E+08
        -0.33593E+07
        -0.14513E+08
        -0.46887E+07
        -0.18367E+08
        -0.20479E+07
         0.97613E+06
        -0.23637E+08
         0.18042E+07
        -0.79136E+07
        -0.86432E+07
         0.10580E+08
        -0.19089E+08
        -0.94701E+07
        -0.62444E+06
        -0.99854E+07
        -0.22909E+08
        -0.15947E+08
        -0.24477E+07
         0.60331E+06
         0.28848E+07
         0.28089E+08
         0.39171E+08
         0.36803E+08
        -0.22751E+07
        -0.12184E+08
        -0.33340E+07
        -0.67363E+07
        -0.47285E+07
        -0.10896E+07
        -0.41083E+07
        -0.67205E+07
        -0.15805E+08
         0.86206E+07
        -0.30601E+08
        -0.29639E+08
        -0.21519E+08
        -0.30667E+08
        -0.40144E+08
        -0.38030E+08
        -0.11755E+08
         0.30774E+08
         0.89704E+08
         0.21348E+09
         0.52043E+09
         0.39334E+09
         0.22549E+09
         0.67457E+08
         0.26823E+08
        -0.22944E+08
        -0.26791E+08
        -0.32643E+08
        -0.36711E+08
        -0.21400E+08
         0.15925E+07
         0.21838E+08
         0.11651E+09
         0.16506E+09
         0.10434E+09
         0.69426E+08
         0.63956E+07
        -0.59471E+07
         0.41801E+07
         0.11615E+07
        -0.70835E+07
        -0.16460E+08
        -0.35782E+08
         0.62032E+06
        -0.29603E+07
        -0.11322E+08
        -0.94255E+07
         0.51157E+07
         0.17244E+07
         0.35130E+07
         0.13400E+07
         0.45142E+07
        -0.36877E+07
        -0.51202E+07
        -0.12722E+08
        -0.26474E+07
        -0.16461E+08
         0.12636E+07
        -0.38087E+07
         0.34863E+07
         0.74372E+06
        -0.24006E+08
         0.28310E+07
        -0.95901E+06
        -0.12314E+08
        -0.47689E+07
        -0.23562E+08
        -0.54206E+07
        -0.30342E+07
        -0.98556E+07
        -0.49937E+08
        -0.24320E+08
        -0.66016E+07
         0.38453E+07
         0.89183E+07
         0.24765E+08
         0.95931E+08
         0.70451E+08
         0.98347E+06
        -0.17668E+08
         0.79657E+06
        -0.41569E+07
        -0.54055E+07
        -0.21742E+07
        -0.77524E+07
         0.47716E+06
        -0.22422E+07
        -0.52831E+06
        -0.29693E+08
        -0.34778E+08
        -0.24326E+08
        -0.43521E+08
        -0.31324E+08
        -0.18823E+08
        -0.68753E+07
         0.53792E+08
         0.10284E+09
         0.91461E+08
         0.16880E+09
         0.88055E+08
         0.25902E+09
         0.17190E+09
         0.28286E+08
        -0.22931E+07
        -0.26827E+08
        -0.16745E+08
        -0.32489E+08
        -0.16085E+08
         0.56524E+07
         0.27923E+08
         0.10393E+09
         0.93956E+08
         0.88376E+08
         0.51017E+08
        -0.26899E+07
        -0.48351E+07
         0.52981E+07
         0.31052E+07
        -0.66349E+07
         0.40655E+07
        -0.93873E+07
         0.21045E+07
        -0.23583E+07
        -0.96657E+07
        -0.45672E+08
         0.26339E+07
        -0.40223E+06
         0.40188E+07
         0.10302E+07
         0.59829E+07
        -0.31880E+07
        -0.59230E+07
        -0.11355E+08
         0.11233E+06
        -0.41923E+07
         0.96820E+06
        -0.11299E+07
         0.22798E+07
         0.15207E+07
        -0.12510E+08
        -0.28033E+06
        -0.22866E+07
         0.28487E+07
        -0.74644E+07
        -0.82017E+07
        -0.13639E+08
        -0.19430E+07
        -0.16216E+08
        -0.32903E+08
        -0.10712E+07
         0.35888E+05
         0.36104E+07
        -0.14234E+08
         0.28746E+08
         0.69559E+08
         0.49300E+08
        -0.17741E+08
         0.77760E+07
        -0.11705E+07
        -0.50502E+07
        -0.27781E+07
        -0.36874E+07
        -0.10030E+08
        -0.26143E+07
        -0.84914E+07
         0.19823E+06
        -0.14226E+08
        -0.28529E+08
        -0.34009E+07
        -0.41667E+08
        -0.33048E+08
        -0.17515E+08
        -0.11993E+08
         0.99346E+08
         0.17713E+09
         0.20493E+09
         0.27183E+09
         0.10122E+09
        -0.19258E+09
         0.12207E+09
        -0.24655E+08
        -0.78130E+07
        -0.35129E+08
        -0.47902E+08
        -0.48646E+08
        -0.14915E+08
        -0.39281E+07
         0.43228E+07
         0.34468E+08
         0.83237E+08
         0.10350E+09
         0.81825E+08
         0.26329E+08
        -0.18869E+07
        -0.56884E+07
         0.87990E+06
        -0.11301E+08
        -0.44452E+07
        -0.14067E+08
         0.12170E+07
        -0.20701E+07
        -0.81958E+07
        -0.27342E+08
         0.36538E+07
         0.27434E+07
         0.45410E+07
        -0.39521E+07
        -0.31204E+07
        -0.11285E+07
        -0.45291E+07
        -0.72061E+07
        -0.16581E+05
        -0.63390E+07
        -0.48806E+06
        -0.18444E+07
        -0.25769E+06
         0.12030E+07
        -0.28358E+08
         0.40438E+06
        -0.23251E+08
        -0.41440E+08
        -0.27761E+08
        -0.15152E+08
        -0.11093E+08
        -0.81632E+06
        -0.14539E+08
        -0.25432E+08
        -0.26119E+07
        -0.18152E+07
         0.62316E+06
        -0.39748E+08
        -0.78836E+08
        -0.15571E+09
        -0.27226E+08
        -0.20778E+08
        -0.59574E+08
        -0.22055E+07
        -0.12375E+07
         0.20505E+07
         0.32257E+07
         0.29893E+07
        -0.29757E+07
         0.83158E+06
         0.94122E+07
         0.25922E+08
        -0.97581E+07
         0.36534E+08
        -0.44120E+08
        -0.44667E+08
        -0.28249E+08
        -0.14028E+08
         0.49520E+08
        -0.58018E+07
        -0.13310E+09
        -0.29920E+09
        -0.21402E+09
        -0.23210E+09
        -0.19297E+09
        -0.14759E+09
        -0.97006E+08
        -0.78544E+08
        -0.56447E+08
        -0.28390E+08
        -0.15714E+07
         0.12826E+08
         0.32135E+08
         0.49394E+08
         0.74039E+08
         0.44734E+08
         0.54752E+08
        -0.82916E+07
        -0.69569E+07
        -0.53928E+07
        -0.47777E+07
        -0.23085E+08
        -0.52777E+07
        -0.14968E+07
        -0.97516E+06
        -0.37066E+06
        -0.46484E+07
        -0.19493E+08
        -0.30711E+06
        -0.37044E+07
        -0.31310E+07
        -0.20025E+07
        -0.45173E+07
        -0.37771E+06
        -0.29781E+07
        -0.12045E+08
         0.16152E+07
        -0.65449E+07
        -0.31658E+07
        -0.15131E+08
        -0.26403E+07
         0.12969E+07
        -0.19074E+08
         0.29989E+07
        -0.89111E+07
        -0.79997E+07
         0.10757E+08
        -0.11769E+08
        -0.11215E+08
        -0.41476E+06
        -0.16908E+08
        -0.38620E+08
        -0.57781E+06
        -0.44500E+06
         0.75638E+06
        -0.29498E+08
        -0.13486E+08
        -0.30779E+07
        -0.10366E+08
         0.22278E+08
        -0.18720E+08
         0.93857E+06
         0.31899E+07
         0.62639E+07
         0.45942E+07
         0.17584E+07
        -0.11218E+08
        -0.67191E+07
         0.11716E+08
         0.16836E+08
        -0.17635E+08
        -0.51205E+07
        -0.42891E+08
        -0.48915E+08
        -0.44675E+08
        -0.30948E+08
         0.91766E+07
        -0.38924E+08
        -0.51519E+08
        -0.13615E+09
        -0.99629E+08
        -0.95350E+08
        -0.41451E+08
        -0.43349E+08
        -0.70946E+08
        -0.28139E+08
        -0.24251E+08
        -0.93048E+07
         0.64656E+07
         0.12715E+08
         0.29995E+08
         0.77138E+08
         0.14205E+09
         0.11119E+09
         0.58920E+08
         0.22880E+08
        -0.32070E+07
         0.22488E+07
         0.12021E+07
        -0.12596E+07
         0.11946E+08
         0.67604E+07
         0.51514E+07
        -0.10059E+07
        -0.67684E+07
        -0.16142E+08
        -0.19351E+07
        -0.43340E+07
         0.98653E+06
        -0.74697E+07
        -0.45557E+07
        -0.72230E+06
        -0.32495E+07
        -0.72653E+07
         0.43373E+06
        -0.68351E+07
         0.15951E+07
        -0.11332E+08
         0.27116E+07
         0.51498E+07
        -0.19615E+08
         0.30221E+07
        -0.72462E+07
        -0.28859E+07
        -0.87749E+07
        -0.15668E+08
        -0.49468E+07
         0.34335E+07
        -0.78868E+07
        -0.15161E+08
        -0.17591E+07
         0.53501E+07
         0.29406E+07
         0.37339E+07
         0.52053E+07
        -0.55505E+08
        -0.13331E+08
        -0.26839E+08
        -0.14849E+08
         0.57569E+07
         0.11587E+08
         0.76749E+07
         0.75457E+07
         0.72369E+07
         0.12931E+08
         0.18403E+08
         0.19611E+08
         0.33733E+08
        -0.14991E+08
         0.30275E+08
        -0.13592E+08
        -0.39501E+08
        -0.34175E+08
        -0.38286E+08
        -0.58143E+07
         0.21751E+08
         0.90233E+08
         0.12153E+09
         0.81760E+08
         0.28999E+08
         0.50488E+08
         0.12011E+09
         0.69787E+08
         0.18495E+08
        -0.11344E+06
        -0.52316E+07
         0.93886E+06
         0.51429E+07
         0.29114E+08
         0.10225E+09
         0.98025E+08
         0.67671E+08
         0.51684E+08
         0.18622E+08
         0.18863E+05
         0.55728E+07
         0.54416E+07
        -0.40280E+07
         0.80328E+07
         0.22484E+08
         0.38332E+07
        -0.54738E+06
        -0.38324E+07
        -0.22870E+08
         0.58289E+07
         0.15848E+06
         0.10223E+08
         0.25608E+07
         0.45370E+06
        -0.48274E+06
        -0.50363E+07
        -0.40364E+07
         0.13740E+06
        -0.98460E+07
         0.13375E+07
        -0.51065E+07
         0.50196E+05
         0.89073E+06
        -0.22394E+08
         0.27754E+07
        -0.11457E+08
        -0.27828E+08
        -0.32917E+08
        -0.72629E+07
        -0.47382E+07
         0.24432E+07
        -0.64328E+07
        -0.70414E+07
        -0.30738E+07
         0.12004E+08
         0.10247E+08
        -0.14659E+08
        -0.12573E+08
        -0.76851E+07
         0.10971E+08
        -0.10368E+08
        -0.86995E+07
         0.83975E+07
         0.10088E+08
         0.61693E+07
         0.75452E+07
         0.98816E+07
         0.14208E+08
         0.36958E+08
         0.26816E+08
         0.47698E+08
        -0.81979E+07
         0.28136E+08
        -0.28350E+08
        -0.30650E+08
        -0.27023E+08
        -0.23114E+08
         0.47598E+08
         0.95063E+08
         0.10891E+09
         0.14507E+09
         0.13824E+09
         0.30650E+08
         0.58230E+08
         0.27833E+08
         0.23782E+08
        -0.26431E+08
        -0.33816E+08
        -0.19074E+08
        -0.29466E+07
         0.59297E+07
         0.29886E+08
         0.87594E+08
         0.13438E+09
         0.10577E+09
         0.70167E+08
         0.16302E+08
        -0.23488E+07
         0.85471E+07
         0.31069E+07
        -0.28911E+07
         0.23076E+07
         0.18496E+08
         0.73654E+07
        -0.18919E+07
        -0.58428E+07
        -0.30311E+08
         0.57420E+07
         0.33179E+07
         0.81128E+07
        -0.16056E+07
        -0.46504E+06
        -0.18104E+07
        -0.71457E+07
        -0.60492E+07
        -0.31908E+07
        -0.14211E+08
        -0.45007E+07
        -0.24854E+08
         0.13950E+07
         0.13673E+07
        -0.20043E+08
         0.94733E+06
        -0.11057E+08
        -0.38164E+08
        -0.22357E+08
        -0.17204E+08
         0.74774E+06
         0.39773E+07
        -0.19241E+07
         0.43831E+07
         0.12516E+08
         0.11236E+08
         0.11295E+08
        -0.35537E+08
        -0.64099E+08
        -0.71767E+08
        -0.54958E+07
        -0.21428E+08
        -0.32623E+08
         0.30239E+07
         0.95276E+07
         0.10554E+08
         0.10586E+08
         0.77767E+07
         0.59090E+07
         0.26168E+08
         0.28542E+08
         0.51928E+08
        -0.53443E+07
         0.31603E+08
        -0.17638E+08
        -0.11584E+08
        -0.17880E+08
        -0.71960E+07
        -0.94374E+07
        -0.40075E+08
         0.13387E+09
         0.16154E+09
        -0.13950E+09
        -0.58002E+08
         0.13778E+09
        -0.15066E+08
        -0.40176E+08
        -0.43102E+08
        -0.50391E+08
        -0.32206E+08
         0.26610E+06
         0.18152E+08
         0.26135E+08
         0.30168E+08
         0.73929E+08
         0.43436E+08
         0.20095E+08
         0.23742E+08
         0.71517E+07
         0.77902E+07
         0.94805E+07
         0.10263E+08
         0.17207E+08
         0.41382E+08
         0.65339E+07
        -0.85016E+05
        -0.45157E+07
        -0.25213E+08
         0.61671E+07
         0.66613E+07
         0.16247E+08
        -0.62316E+07
        -0.13147E+04
         0.31644E+07
        -0.19115E+07
         0.23657E+07
         0.13520E+07
        -0.76085E+07
        -0.69606E+07
        -0.27070E+08
        -0.22866E+07
         0.22386E+07
        -0.19249E+08
         0.26035E+07
        -0.14019E+08
        -0.19792E+08
         0.18816E+07
        -0.93776E+07
         0.77786E+07
         0.57331E+07
         0.38116E+07
         0.20226E+08
         0.27739E+08
         0.15702E+08
         0.11842E+08
        -0.53588E+07
        -0.24014E+08
        -0.51348E+08
        -0.14001E+08
        -0.37510E+08
        -0.64601E+08
         0.12291E+07
         0.38862E+07
         0.20968E+08
         0.21001E+08
         0.11964E+08
         0.29380E+08
         0.72822E+08
         0.34767E+08
         0.78322E+08
         0.13616E+08
         0.37615E+08
         0.13139E+08
         0.75389E+07
         0.26307E+07
        -0.19325E+06
         0.62315E+06
        -0.51983E+08
        -0.17131E+09
        -0.23654E+09
         0.50342E+08
         0.17264E+09
         0.26016E+08
         0.53526E+08
        -0.31228E+08
        -0.33646E+08
        -0.35914E+08
        -0.13071E+08
         0.30617E+08
         0.41240E+08
         0.59149E+08
         0.31765E+08
         0.63327E+08
         0.90417E+08
         0.87992E+08
         0.31276E+08
         0.41695E+07
         0.44824E+07
         0.91376E+07
         0.12178E+08
         0.29335E+08
         0.52394E+08
         0.15942E+07
        -0.18117E+07
         0.33820E+06
        -0.16837E+08
         0.59467E+07
         0.77610E+07
         0.10285E+08
         0.43731E+07
         0.74487E+07
         0.49589E+07
         0.11617E+06
         0.62844E+07
         0.25135E+07
        -0.56670E+07
         0.21596E+07
         0.23180E+07
        -0.18045E+07
         0.10640E+07
        -0.14523E+08
         0.95350E+07
        -0.16568E+08
        -0.32095E+08
        -0.33647E+08
        -0.10028E+08
         0.21156E+08
         0.11064E+08
         0.29767E+08
         0.50097E+08
         0.22499E+08
         0.11359E+08
         0.96596E+07
        -0.54541E+07
        -0.18154E+08
        -0.74900E+08
        -0.89781E+08
        -0.59367E+08
        -0.36984E+08
         0.22249E+07
         0.27066E+08
         0.29243E+08
         0.27251E+08
         0.34298E+08
         0.34227E+08
         0.11947E+09
         0.77892E+08
         0.18011E+09
         0.35232E+08
         0.84739E+08
        -0.24537E+07
         0.22114E+07
         0.58126E+07
        -0.44035E+06
         0.47366E+08
         0.47671E+08
        -0.17632E+08
        -0.15433E+09
        -0.23885E+09
        -0.14741E+09
        -0.24517E+08
         0.55836E+08
         0.23701E+08
         0.19222E+08
        -0.74179E+07
         0.10703E+08
         0.51891E+08
         0.10713E+08
         0.88979E+08
         0.66263E+08
         0.12965E+09
         0.78659E+08
         0.89896E+08
         0.39643E+08
        -0.16137E+08
        -0.11904E+08
        -0.48190E+07
        -0.47892E+07
         0.55826E+07
         0.42102E+08
        -0.13655E+08
        -0.73584E+07
        -0.70034E+07
        -0.12327E+08
        -0.96044E+07
        -0.27994E+08
        -0.24777E+08
        -0.14260E+08
        -0.18824E+08
        -0.64337E+07
        -0.67204E+07
        -0.30305E+07
        -0.78112E+07
        -0.15087E+08
         0.20276E+08
         0.13461E+08
         0.29693E+08
        -0.16117E+07
        -0.18006E+08
         0.16629E+07
        -0.29825E+08
        -0.49486E+08
        -0.53155E+08
        -0.15695E+08
         0.25041E+08
         0.12940E+08
         0.17934E+08
         0.39520E+08
        -0.26092E+06
        -0.10045E+08
        -0.94301E+07
        -0.69879E+08
        -0.13357E+09
        -0.27881E+09
        -0.19463E+09
        -0.49659E+08
        -0.22112E+08
         0.22788E+08
         0.44684E+08
         0.40552E+08
         0.37093E+08
         0.40155E+08
         0.43151E+08
         0.86664E+08
         0.50848E+08
         0.12424E+09
        -0.12440E+08
         0.73630E+08
        -0.43144E+08
        -0.56386E+08
        -0.54648E+08
        -0.59356E+08
        -0.84021E+08
        -0.21509E+09
        -0.55512E+09
        -0.86560E+09
        -0.60266E+09
        -0.22805E+09
         0.86563E+08
         0.29847E+09
         0.32035E+09
         0.19431E+09
         0.68634E+08
         0.67951E+08
         0.99225E+08
         0.11271E+09
         0.11072E+09
         0.10724E+09
         0.11497E+09
         0.92996E+08
         0.10727E+09
         0.55417E+08
        -0.47308E+08
        -0.51898E+08
        -0.45828E+08
        -0.57811E+08
        -0.37536E+08
        -0.38714E+08
        -0.25819E+08
        -0.11803E+08
         0.50461E+07
         0.56617E+08
        -0.27759E+08
        -0.36973E+08
        -0.52111E+08
        -0.26103E+08
        -0.32897E+08
         0.45344E+08
         0.28474E+08
        -0.14440E+08
         0.77186E+08
         0.71965E+08
         0.22127E+09
         0.36107E+09
         0.31247E+09
         0.78674E+08
        -0.80761E+07
         0.85052E+08
        -0.15251E+08
         0.26761E+08
         0.79764E+08
         0.56146E+08
         0.43300E+08
         0.41221E+08
        -0.97368E+07
        -0.68545E+08
        -0.71409E+08
        -0.75652E+08
        -0.57711E+08
        -0.84067E+08
        -0.93577E+08
        -0.66183E+08
         0.22680E+08
         0.19816E+09
         0.35311E+09
         0.15666E+09
         0.14052E+09
         0.46740E+08
         0.36342E+08
         0.20736E+08
        -0.49424E+06
        -0.58238E+08
        -0.40941E+08
        -0.68793E+08
        -0.84597E+08
         0.20287E+08
        -0.15731E+09
        -0.13900E+09
        -0.10674E+09
        -0.89914E+08
        -0.16509E+09
        -0.28123E+09
        -0.45807E+09
        -0.49460E+09
        -0.91282E+08
         0.48318E+09
         0.98670E+09
         0.12086E+10
         0.99115E+09
         0.55775E+09
         0.23651E+09
         0.15574E+09
         0.89365E+08
         0.38724E+08
        -0.27599E+08
        -0.18707E+09
        -0.19185E+09
        -0.81574E+08
         0.77804E+07
         0.43012E+08
         0.11252E+09
         0.13227E+09
         0.10626E+09
         0.14700E+09
         0.79286E+08
        -0.13900E+07
         0.74137E+08
         0.10859E+08
        -0.21593E+08
        -0.22618E+09
         0.53283E+08
         0.50906E+08
         0.11499E+09
         0.11710E+07
         0.25514E+08
        -0.52808E+08
        -0.91502E+08
         0.60407E+08
        -0.21519E+09
        -0.26035E+09
        -0.72160E+09
        -0.11997E+10
        -0.95833E+09
        -0.21212E+09
        -0.18413E+09
        -0.16322E+09
        -0.81267E+08
        -0.19456E+09
        -0.23687E+09
        -0.21877E+09
        -0.16913E+08
        -0.96412E+08
         0.51643E+08
         0.32655E+08
         0.15253E+09
         0.16158E+09
         0.12394E+09
         0.36662E+08
         0.73561E+08
         0.49750E+08
        -0.44768E+08
        -0.55451E+09
        -0.11217E+10
        -0.48058E+09
        -0.53531E+09
        -0.33024E+09
        -0.25729E+09
        -0.22353E+09
        -0.22043E+09
        -0.30820E+09
        -0.20049E+09
        -0.25853E+09
         0.20827E+09
         0.67701E+08
         0.26586E+09
         0.18340E+09
         0.91283E+08
         0.68098E+08
         0.14704E+09
         0.37545E+09
         0.88367E+09
         0.11772E+10
         0.39977E+09
        -0.90581E+09
        -0.23385E+10
        -0.32473E+10
        -0.30726E+10
        -0.21842E+10
        -0.15511E+10
        -0.11780E+10
        -0.89029E+09
        -0.96992E+09
        -0.10967E+10
        -0.10551E+10
        -0.10591E+10
        -0.59025E+09
        -0.33165E+09
  
SCALARS                 acceleration_y  double 1
LOOKUP_TABLE default
        -0.40579E+08
         0.51959E+09
         0.34569E+09
         0.26018E+09
        -0.16194E+09
         0.48663E+09
         0.12153E+08
        -0.21453E+09
         0.44177E+09
         0.46460E+09
         0.24276E+09
         0.32433E+09
         0.39963E+09
         0.21890E+09
         0.41219E+09
         0.32537E+09
         0.44640E+08
        -0.21891E+08
         0.11535E+09
        -0.15285E+08
         0.65983E+09
        -0.17828E+09
        -0.27445E+08
         0.84395E+09
         0.26391E+09
         0.28464E+09
         0.79536E+08
         0.45426E+09
         0.23636E+08
         0.61084E+09
        -0.19833E+08
        -0.59429E+08
         0.32799E+08
         0.46840E+07
        -0.14298E+09
         0.78743E+08
        -0.35177E+08
        -0.60535E+08
        -0.42471E+08
        -0.11456E+09
         0.15291E+09
         0.21774E+09
         0.14225E+09
         0.24687E+09
        -0.25405E+07
        -0.96419E+08
        -0.24266E+08
        -0.69794E+08
        -0.11649E+09
         0.12070E+09
        -0.86393E+08
         0.41983E+08
        -0.19439E+09
        -0.23068E+09
        -0.28254E+09
        -0.55534E+09
        -0.60145E+09
         0.12007E+09
        -0.10062E+10
         0.10416E+09
         0.26137E+09
         0.95986E+08
         0.11005E+09
         0.38135E+09
         0.45909E+09
        -0.17571E+09
         0.10362E+10
         0.13786E+09
         0.42824E+09
         0.34560E+09
         0.69925E+09
         0.26460E+09
         0.13220E+09
         0.16860E+09
        -0.21879E+10
        -0.39258E+10
        -0.34103E+10
        -0.77621E+10
        -0.28053E+10
        -0.63248E+10
        -0.23359E+10
        -0.58816E+09
        -0.39557E+10
        -0.82103E+09
         0.17262E+09
         0.89468E+08
        -0.15735E+09
        -0.24318E+09
        -0.87306E+08
         0.18433E+08
         0.13656E+09
         0.24443E+09
         0.49676E+09
         0.37256E+09
         0.56235E+09
        -0.19381E+08
         0.12802E+10
         0.22825E+09
         0.15454E+10
         0.47886E+09
         0.61899E+09
         0.10913E+10
         0.91731E+09
         0.47269E+09
         0.80557E+09
         0.67878E+09
         0.22355E+10
         0.21027E+10
        -0.16176E+09
         0.21225E+06
        -0.15321E+10
        -0.27410E+10
        -0.31705E+10
        -0.59943E+10
        -0.32538E+10
        -0.46740E+10
        -0.13817E+10
         0.13371E+10
         0.25246E+10
         0.13491E+11
         0.12564E+11
         0.45229E+11
         0.12615E+11
         0.31443E+11
        -0.83713E+07
        -0.39157E+10
        -0.22657E+10
        -0.31669E+10
        -0.11741E+10
        -0.17533E+10
        -0.90467E+09
        -0.11627E+10
        -0.67461E+09
        -0.78878E+09
        -0.47556E+09
        -0.81457E+09
        -0.27955E+09
        -0.12179E+10
        -0.14331E+09
        -0.15024E+10
         0.32300E+09
        -0.12208E+09
         0.15235E+10
         0.44022E+09
         0.12259E+10
         0.70379E+09
         0.14278E+10
         0.12888E+10
        -0.37785E+10
         0.69014E+09
        -0.88312E+10
         0.45913E+09
        -0.60894E+10
         0.10412E+10
        -0.20344E+10
         0.15806E+10
         0.67285E+09
         0.55357E+09
         0.15904E+10
         0.18922E+10
         0.79754E+09
         0.11720E+10
         0.21507E+09
         0.94903E+08
         0.31735E+08
         0.54795E+08
         0.41332E+09
        -0.14669E+09
         0.80508E+08
         0.19879E+09
        -0.44466E+09
        -0.12592E+08
         0.33154E+08
         0.46130E+09
         0.68253E+08
         0.20359E+09
         0.41864E+09
         0.56035E+09
         0.38678E+08
        -0.20888E+09
         0.95336E+07
        -0.27872E+09
        -0.28560E+08
        -0.10592E+09
        -0.15291E+09
         0.21670E+09
         0.84128E+09
         0.11469E+08
         0.19080E+10
         0.31179E+10
         0.49284E+09
         0.52694E+09
         0.27910E+09
        -0.14318E+10
        -0.18502E+10
        -0.16767E+10
        -0.22344E+10
        -0.60504E+09
         0.33496E+09
        -0.13045E+09
        -0.51017E+08
         0.21902E+09
         0.50707E+09
         0.15144E+10
         0.30084E+10
         0.36764E+10
         0.71854E+09
         0.17304E+10
        -0.15846E+10
        -0.34999E+10
        -0.78759E+09
        -0.93580E+09
        -0.17764E+10
        -0.22292E+10
        -0.17099E+10
        -0.97647E+09
         0.37782E+10
         0.43048E+10
        -0.20727E+10
        -0.31043E+10
        -0.21418E+10
        -0.15261E+10
        -0.86596E+09
        -0.12561E+09
         0.26910E+09
         0.13784E+10
         0.11847E+10
         0.34788E+10
         0.39724E+10
         0.37918E+10
        -0.10392E+11
        -0.25586E+11
        -0.21704E+11
        -0.10600E+11
         0.37927E+09
         0.35996E+09
         0.12219E+10
         0.16974E+10
         0.37607E+09
         0.89908E+09
         0.12393E+09
         0.12662E+06
         0.98847E+08
         0.29829E+08
        -0.28106E+07
         0.48345E+08
         0.14225E+09
         0.15025E+09
         0.11784E+08
         0.15567E+08
         0.41454E+08
         0.49484E+09
         0.90160E+08
         0.27873E+09
         0.46153E+09
         0.55495E+09
         0.24341E+09
        -0.17827E+08
         0.16169E+09
        -0.29096E+09
         0.99227E+08
         0.21073E+09
         0.13063E+09
         0.24613E+09
         0.85747E+09
         0.70268E+08
         0.17546E+10
         0.21776E+10
        -0.22501E+09
         0.55674E+09
         0.40465E+09
        -0.48515E+08
        -0.43403E+09
        -0.11052E+10
        -0.20248E+10
        -0.56152E+09
         0.41063E+09
         0.60755E+08
         0.11181E+09
         0.16448E+09
         0.73740E+09
         0.18252E+10
         0.23027E+10
         0.18436E+10
        -0.16436E+10
         0.39920E+09
        -0.32458E+10
        -0.69769E+10
        -0.54707E+09
        -0.94145E+08
         0.11472E+09
         0.51390E+08
        -0.59739E+09
        -0.79533E+09
        -0.15685E+10
        -0.31330E+10
        -0.34100E+10
        -0.25199E+10
        -0.16231E+10
        -0.17630E+10
        -0.10165E+10
         0.10780E+09
         0.12691E+10
         0.15535E+10
         0.94089E+09
         0.28533E+10
         0.44883E+10
         0.20501E+10
        -0.27607E+10
        -0.25270E+11
        -0.14269E+11
        -0.13905E+11
         0.83821E+08
         0.41622E+08
         0.46162E+09
         0.19371E+09
         0.17855E+09
         0.27093E+09
         0.28215E+08
         0.80916E+08
         0.63539E+08
         0.23548E+09
         0.90719E+08
         0.11370E+09
         0.55867E+08
         0.23865E+09
         0.34068E+09
         0.68050E+08
         0.11707E+09
         0.14084E+09
         0.22527E+09
         0.33307E+09
         0.61062E+09
         0.71547E+09
         0.31929E+09
         0.22773E+09
         0.32103E+09
         0.56379E+08
         0.51124E+09
         0.58403E+09
         0.32783E+09
         0.49420E+09
         0.12062E+09
         0.62915E+08
         0.28531E+09
         0.23172E+09
        -0.96871E+08
         0.13616E+09
         0.73141E+08
         0.36829E+09
         0.12813E+09
        -0.10845E+09
        -0.98298E+09
        -0.14679E+09
         0.52352E+09
         0.12301E+09
         0.34773E+08
        -0.88916E+07
         0.19571E+09
         0.26926E+09
         0.62375E+09
         0.14014E+10
         0.81024E+09
        -0.26807E+09
        -0.11989E+10
        -0.25058E+10
        -0.21087E+09
         0.14127E+09
         0.36813E+09
         0.40516E+09
         0.18145E+09
        -0.43609E+09
        -0.14327E+10
        -0.26003E+10
        -0.28435E+10
        -0.22024E+10
        -0.25305E+10
        -0.18341E+10
        -0.11267E+10
        -0.49145E+09
        -0.25612E+08
        -0.14836E+09
        -0.58611E+09
        -0.15427E+08
         0.94155E+09
         0.20403E+10
        -0.57370E+09
        -0.65991E+10
        -0.54401E+10
        -0.98931E+09
        -0.15144E+08
        -0.70362E+08
        -0.60141E+08
        -0.69843E+08
         0.13199E+08
         0.27106E+08
        -0.29064E+08
         0.93190E+08
         0.55717E+08
         0.22281E+09
         0.59756E+08
         0.93875E+08
        -0.14365E+08
         0.25655E+09
         0.27993E+09
         0.20609E+08
         0.12273E+09
        -0.45093E+08
         0.12337E+09
         0.20936E+09
         0.24301E+09
         0.68360E+09
         0.22342E+09
         0.18975E+09
         0.33342E+09
         0.11444E+09
         0.28244E+09
         0.49691E+09
         0.68328E+09
         0.40338E+09
        -0.10986E+09
        -0.12444E+08
        -0.12254E+09
        -0.14265E+09
         0.69238E+08
        -0.20776E+08
        -0.27173E+08
         0.47699E+09
         0.47912E+09
         0.23107E+09
        -0.47282E+09
         0.99045E+08
         0.70610E+09
         0.10356E+09
        -0.18399E+08
        -0.14083E+09
        -0.11878E+09
        -0.20340E+09
        -0.10019E+09
         0.56808E+08
         0.29683E+09
         0.16711E+09
         0.29951E+09
         0.47450E+08
         0.18820E+09
         0.15837E+09
         0.25716E+09
         0.45578E+09
         0.30721E+09
         0.19725E+09
        -0.10851E+10
        -0.31393E+10
        -0.36854E+10
        -0.35173E+10
        -0.21900E+10
        -0.15574E+10
        -0.91716E+09
        -0.57562E+09
        -0.36513E+09
        -0.38557E+09
        -0.26827E+09
        -0.10090E+09
        -0.24515E+09
         0.36459E+09
         0.11227E+10
         0.92071E+09
         0.40206E+08
        -0.14577E+08
        -0.36513E+08
        -0.73038E+08
        -0.80572E+08
        -0.89637E+08
        -0.22616E+08
        -0.36309E+08
        -0.34691E+08
         0.30952E+08
         0.19038E+08
         0.88288E+08
         0.25811E+08
         0.44297E+08
        -0.17583E+08
         0.11541E+09
         0.17767E+09
         0.46490E+07
         0.73738E+08
        -0.75158E+08
         0.94997E+08
         0.13641E+09
         0.24926E+09
         0.40737E+09
         0.10856E+09
         0.94161E+08
         0.22169E+09
         0.26967E+08
         0.21376E+09
         0.37861E+09
         0.36982E+09
         0.24592E+09
        -0.11733E+09
        -0.42877E+08
        -0.17724E+09
        -0.16309E+09
        -0.15428E+08
        -0.42615E+08
        -0.48337E+08
         0.37330E+09
         0.45493E+09
         0.27416E+09
         0.11285E+09
         0.38766E+09
         0.57980E+09
         0.30977E+08
        -0.26217E+08
        -0.77110E+08
        -0.12141E+09
        -0.18915E+09
        -0.84584E+08
        -0.74457E+08
         0.25469E+08
        -0.38513E+08
         0.36078E+09
         0.56768E+09
         0.17083E+09
         0.35841E+08
         0.46405E+08
         0.29397E+09
         0.81463E+09
         0.55401E+09
        -0.85485E+09
        -0.26807E+10
        -0.38236E+10
        -0.28857E+10
        -0.16856E+10
        -0.91011E+09
        -0.47262E+09
        -0.25062E+09
        -0.18467E+09
        -0.17495E+09
        -0.17739E+09
        -0.33896E+09
        -0.23360E+09
         0.11798E+09
         0.62245E+09
         0.11636E+10
         0.75260E+09
         0.74770E+09
        -0.18972E+08
        -0.25694E+08
        -0.65092E+08
        -0.40848E+08
        -0.34812E+08
        -0.46208E+08
        -0.21192E+08
         0.31000E+07
         0.86868E+07
         0.68238E+08
        -0.23626E+07
         0.26011E+08
        -0.21197E+08
         0.58317E+08
         0.15152E+09
        -0.17493E+07
         0.28893E+08
        -0.30296E+08
         0.31508E+08
         0.57447E+08
         0.98169E+08
         0.19333E+09
         0.29300E+08
         0.18476E+08
         0.79816E+08
        -0.63170E+07
         0.12858E+09
         0.18345E+09
         0.20967E+09
         0.13885E+09
        -0.46977E+08
        -0.23380E+08
        -0.69428E+08
        -0.83780E+08
        -0.33871E+08
        -0.32891E+08
        -0.27269E+08
         0.33963E+09
         0.31507E+09
         0.10329E+09
        -0.10170E+09
         0.35047E+09
         0.30412E+09
        -0.14839E+08
        -0.23451E+08
        -0.38590E+08
        -0.42309E+08
        -0.62297E+08
        -0.54844E+08
        -0.83040E+08
        -0.28499E+07
        -0.39318E+08
         0.81130E+08
         0.26015E+09
         0.88211E+07
        -0.54840E+07
         0.21843E+08
         0.16313E+09
         0.51909E+09
         0.38682E+09
        -0.47149E+09
        -0.10715E+10
        -0.14987E+10
        -0.15047E+10
        -0.98991E+09
        -0.42401E+09
        -0.86416E+08
         0.11893E+08
         0.19107E+08
         0.46592E+08
         0.30533E+08
        -0.55442E+08
        -0.81353E+08
         0.48159E+08
         0.67400E+08
         0.19391E+09
         0.42787E+09
         0.30928E+09
        -0.14320E+08
        -0.21380E+08
        -0.33020E+08
        -0.28246E+08
        -0.20043E+08
        -0.15401E+08
        -0.64287E+07
         0.31345E+07
         0.37377E+07
         0.25036E+08
        -0.57709E+07
         0.14663E+08
        -0.12136E+08
         0.16757E+08
         0.50506E+08
        -0.47061E+07
         0.90595E+07
        -0.13942E+08
         0.27837E+07
         0.22043E+08
         0.16482E+07
         0.24267E+08
        -0.10191E+08
        -0.13614E+08
         0.34698E+08
        -0.17769E+08
         0.44112E+08
         0.53900E+08
         0.75591E+08
         0.46270E+08
        -0.22210E+08
        -0.18398E+08
        -0.27582E+08
        -0.21616E+08
        -0.78902E+07
        -0.24046E+08
        -0.17423E+08
         0.15622E+09
         0.17640E+09
         0.10697E+09
        -0.72789E+08
         0.37307E+08
         0.76571E+08
        -0.13391E+08
        -0.13793E+08
        -0.14387E+08
        -0.19079E+08
        -0.16031E+08
        -0.22554E+08
        -0.17159E+08
         0.81456E+06
        -0.11715E+08
         0.81423E+08
         0.15814E+09
         0.32157E+08
         0.10481E+07
         0.13041E+08
         0.73827E+08
         0.10418E+09
         0.70593E+08
         0.33946E+08
        -0.16234E+09
        -0.65616E+09
        -0.66004E+09
        -0.28547E+09
        -0.34402E+08
         0.42782E+08
         0.72945E+08
         0.75821E+08
         0.52740E+08
         0.41477E+08
         0.76090E+07
        -0.26339E+07
         0.11632E+08
         0.39300E+08
         0.11269E+09
         0.13485E+09
         0.22284E+09
        -0.19695E+08
        -0.17808E+08
        -0.37499E+08
        -0.21719E+08
        -0.82876E+07
        -0.64936E+07
        -0.95206E+07
        -0.67303E+07
        -0.24281E+07
         0.42809E+07
        -0.10246E+08
        -0.13766E+08
        -0.13094E+08
        -0.11902E+08
        -0.10662E+07
        -0.73580E+07
        -0.14623E+07
        -0.73703E+07
        -0.12222E+08
        -0.12135E+08
        -0.46678E+08
        -0.76510E+08
        -0.18922E+08
        -0.17718E+08
         0.26984E+07
        -0.95391E+07
         0.76676E+06
         0.10663E+08
         0.11515E+08
        -0.24412E+08
        -0.24172E+08
        -0.19101E+08
        -0.28596E+08
        -0.16655E+08
        -0.65473E+07
        -0.14695E+08
        -0.17945E+08
         0.39075E+08
         0.50026E+08
         0.45592E+07
        -0.57191E+08
        -0.39738E+08
        -0.44888E+08
        -0.51239E+07
        -0.73846E+07
        -0.10789E+08
        -0.18993E+08
        -0.25700E+08
        -0.87476E+07
        -0.12525E+08
         0.25969E+08
        -0.25260E+07
         0.11370E+09
         0.17051E+09
         0.46477E+08
         0.24857E+08
         0.14295E+08
         0.17413E+08
         0.91306E+08
         0.11067E+09
        -0.47755E+08
        -0.71348E+08
        -0.14107E+09
         0.68903E+08
         0.31087E+09
         0.18059E+09
         0.68475E+08
         0.67963E+08
         0.46805E+08
         0.23209E+08
        -0.33802E+07
        -0.35479E+07
        -0.21512E+08
         0.22202E+08
         0.11615E+09
         0.21031E+09
         0.20015E+09
         0.19648E+09
        -0.16689E+08
        -0.23294E+08
        -0.37682E+08
        -0.40783E+08
        -0.19030E+08
        -0.15794E+08
        -0.12331E+08
        -0.17362E+08
        -0.34162E+07
        -0.78568E+07
        -0.43264E+08
        -0.13606E+08
        -0.15787E+08
        -0.24822E+08
        -0.21071E+08
        -0.77980E+07
        -0.49311E+07
        -0.13375E+08
        -0.16569E+08
        -0.25457E+08
        -0.71890E+08
        -0.12164E+09
        -0.30782E+08
        -0.17245E+08
        -0.13003E+08
        -0.97077E+07
        -0.19368E+08
        -0.28365E+08
        -0.38537E+08
        -0.52318E+08
        -0.24435E+08
        -0.19692E+08
        -0.37338E+08
        -0.26465E+08
        -0.24113E+08
        -0.17577E+08
        -0.13841E+08
        -0.22894E+08
        -0.37211E+08
        -0.75651E+08
        -0.41257E+08
        -0.26844E+08
        -0.98101E+08
        -0.80868E+07
        -0.14838E+08
        -0.22103E+08
        -0.16948E+08
        -0.16870E+08
        -0.20665E+08
        -0.95427E+07
         0.28066E+08
        -0.64941E+07
         0.13075E+09
         0.25028E+09
         0.51415E+08
         0.14065E+08
         0.32877E+07
        -0.34090E+07
         0.14178E+08
         0.47269E+06
         0.26587E+08
         0.17577E+09
         0.43971E+09
         0.29844E+09
         0.54720E+09
         0.29875E+09
         0.19624E+09
         0.11074E+09
         0.40855E+08
         0.51025E+08
         0.85465E+07
        -0.40477E+08
        -0.25048E+08
         0.43452E+08
         0.16647E+09
         0.23656E+09
         0.21624E+09
         0.13741E+09
        -0.22376E+08
        -0.15417E+08
        -0.52659E+08
        -0.49027E+08
        -0.31655E+08
        -0.42104E+08
        -0.16088E+08
        -0.80405E+07
        -0.92734E+07
        -0.87344E+07
        -0.22491E+08
        -0.22861E+08
        -0.18213E+08
        -0.14519E+08
        -0.24892E+08
        -0.11607E+08
        -0.91307E+07
        -0.13626E+08
        -0.23968E+08
        -0.41667E+08
        -0.75851E+08
        -0.10478E+09
        -0.30902E+08
        -0.30733E+08
        -0.20708E+08
        -0.20949E+08
        -0.23549E+08
        -0.52380E+08
        -0.60884E+08
        -0.60088E+08
        -0.26321E+08
        -0.22416E+08
        -0.37938E+08
        -0.52392E+08
        -0.13935E+08
        -0.20442E+08
        -0.11723E+08
        -0.41358E+08
        -0.80260E+08
        -0.12375E+09
        -0.10650E+09
        -0.17275E+09
        -0.18374E+09
        -0.22825E+08
        -0.22267E+08
        -0.35519E+08
        -0.38735E+08
        -0.38590E+08
        -0.41339E+08
        -0.40847E+08
         0.14302E+07
        -0.33611E+08
         0.11302E+09
         0.22303E+09
         0.59713E+08
         0.45839E+08
         0.24584E+08
        -0.34453E+07
        -0.60128E+07
        -0.43588E+08
         0.33317E+08
         0.20043E+09
         0.57079E+09
         0.66865E+09
         0.62979E+09
         0.37737E+09
         0.21500E+09
         0.13090E+09
         0.79529E+08
         0.60999E+08
         0.12451E+08
        -0.17773E+08
        -0.14421E+08
         0.35935E+08
         0.15929E+09
         0.26592E+09
         0.28138E+09
         0.29520E+09
        -0.20523E+08
        -0.19159E+08
        -0.42089E+08
        -0.34190E+08
        -0.26964E+08
        -0.42665E+08
        -0.80375E+07
        -0.12151E+08
        -0.92128E+07
        -0.10308E+08
        -0.23624E+08
        -0.22368E+08
        -0.15304E+08
        -0.26720E+08
        -0.40539E+08
        -0.12102E+08
        -0.15406E+08
        -0.15469E+08
        -0.25017E+08
        -0.38336E+08
        -0.48754E+08
        -0.11285E+09
        -0.16679E+08
        -0.16776E+08
        -0.34808E+08
        -0.23878E+08
        -0.34438E+08
        -0.60820E+08
        -0.91926E+08
        -0.61092E+08
        -0.24759E+08
        -0.14910E+08
        -0.38282E+08
        -0.47361E+08
         0.14566E+07
        -0.24914E+08
        -0.10121E+08
        -0.61685E+08
        -0.63942E+08
        -0.11964E+09
        -0.10064E+09
        -0.14325E+09
        -0.13556E+09
        -0.11367E+08
        -0.11784E+08
        -0.21465E+08
        -0.29626E+08
        -0.33840E+08
        -0.32219E+08
        -0.34130E+08
        -0.14454E+08
        -0.27575E+08
         0.10095E+09
         0.19488E+09
         0.47710E+08
         0.48407E+08
         0.19092E+08
        -0.17942E+08
        -0.44283E+08
        -0.73378E+08
         0.36440E+08
         0.39301E+09
         0.80899E+09
         0.62235E+09
         0.47354E+09
         0.20797E+09
         0.12398E+09
         0.69660E+08
         0.31338E+08
         0.33953E+08
         0.22510E+08
        -0.14998E+08
        -0.27139E+08
         0.63233E+08
         0.13180E+09
         0.22259E+09
         0.29298E+09
         0.27697E+09
        -0.12424E+08
        -0.23142E+08
        -0.31169E+08
        -0.17271E+08
        -0.14607E+08
        -0.35320E+08
        -0.12650E+08
        -0.14993E+08
        -0.38163E+07
        -0.21313E+08
        -0.50178E+08
        -0.28704E+08
        -0.23834E+08
        -0.26648E+08
        -0.55722E+08
        -0.96239E+07
        -0.96379E+07
        -0.13778E+08
        -0.26001E+08
        -0.45104E+08
        -0.83350E+08
        -0.13363E+09
        -0.36590E+08
        -0.28397E+08
        -0.35252E+08
        -0.19047E+08
        -0.37158E+08
        -0.89188E+08
        -0.93349E+08
        -0.71116E+08
        -0.20899E+08
        -0.25608E+08
        -0.33274E+08
        -0.37630E+08
        -0.26754E+07
        -0.31679E+08
        -0.21755E+08
        -0.71235E+08
        -0.11710E+09
        -0.14997E+09
         0.43142E+08
        -0.55813E+08
        -0.24311E+09
        -0.27356E+08
        -0.19703E+08
        -0.27968E+08
        -0.25462E+08
        -0.29320E+08
        -0.24808E+08
        -0.26795E+08
         0.28161E+07
        -0.25626E+08
         0.13071E+09
         0.20408E+09
         0.75884E+08
         0.36599E+08
        -0.48296E+07
        -0.32016E+08
        -0.88931E+08
         0.11580E+07
         0.48016E+08
         0.35479E+09
         0.11476E+10
         0.79211E+09
         0.65133E+09
         0.38671E+09
         0.21457E+09
         0.11333E+09
         0.60029E+08
         0.23179E+08
         0.16469E+08
        -0.22094E+07
         0.39146E+07
         0.44786E+08
         0.14060E+09
         0.21483E+09
         0.21676E+09
         0.15661E+09
        -0.23690E+08
        -0.22243E+08
        -0.38186E+08
        -0.23528E+08
        -0.16280E+08
        -0.16664E+08
        -0.74037E+07
        -0.17834E+08
        -0.88211E+07
        -0.27463E+08
        -0.30342E+08
        -0.19255E+08
        -0.25698E+08
        -0.38678E+08
        -0.59774E+08
        -0.11148E+08
        -0.16112E+08
        -0.11647E+08
        -0.27276E+08
        -0.45495E+08
        -0.10417E+09
        -0.18132E+09
        -0.43416E+08
        -0.32068E+08
        -0.35607E+08
        -0.19747E+08
        -0.30578E+08
        -0.62404E+08
        -0.17900E+09
        -0.85644E+08
        -0.30554E+08
        -0.24992E+08
        -0.43654E+08
        -0.55918E+08
        -0.10637E+08
        -0.27247E+08
        -0.22291E+08
        -0.96189E+08
        -0.17085E+09
        -0.24282E+09
        -0.10389E+09
        -0.18527E+09
        -0.20609E+09
        -0.28149E+08
        -0.17944E+08
        -0.27164E+08
        -0.32698E+08
        -0.30024E+08
        -0.21298E+08
        -0.27959E+08
         0.15094E+07
        -0.21418E+08
         0.13993E+09
         0.22869E+09
         0.60583E+08
         0.18190E+08
        -0.57856E+07
        -0.29952E+08
        -0.10263E+09
        -0.46643E+08
         0.75826E+08
         0.36693E+09
         0.13997E+10
         0.12140E+10
         0.79952E+09
         0.44510E+09
         0.22154E+09
         0.10607E+09
         0.53095E+08
         0.39740E+08
         0.15251E+08
        -0.83883E+07
         0.99825E+06
         0.57780E+08
         0.14818E+09
         0.28290E+09
         0.30040E+09
         0.29378E+09
        -0.11630E+08
        -0.20152E+08
        -0.35874E+08
        -0.32384E+08
        -0.23880E+08
        -0.37561E+08
        -0.10104E+08
        -0.73871E+07
        -0.49792E+07
        -0.46987E+07
        -0.48153E+08
        -0.16460E+08
        -0.17643E+08
        -0.24998E+08
        -0.65528E+08
        -0.88898E+07
        -0.10226E+08
        -0.11875E+08
        -0.25166E+08
        -0.39487E+08
        -0.10392E+09
        -0.18172E+09
        -0.47699E+08
        -0.32682E+08
        -0.28415E+08
        -0.22839E+08
        -0.52951E+08
        -0.78098E+08
        -0.14205E+09
        -0.80974E+08
        -0.26047E+08
        -0.19632E+08
        -0.38697E+08
        -0.49881E+08
        -0.23648E+08
        -0.23014E+08
        -0.17175E+08
        -0.83969E+08
        -0.12667E+09
        -0.15149E+09
        -0.48755E+08
        -0.13469E+09
        -0.20835E+09
        -0.21946E+08
        -0.17277E+08
        -0.19804E+08
        -0.30082E+08
        -0.29782E+08
        -0.24547E+08
        -0.27822E+08
        -0.10893E+08
        -0.20191E+08
         0.13062E+09
         0.24771E+09
         0.26930E+08
         0.43933E+07
        -0.99912E+07
        -0.64292E+08
        -0.13815E+09
        -0.17738E+09
         0.34610E+08
         0.64799E+09
         0.13293E+10
         0.93744E+09
         0.78897E+09
         0.37508E+09
         0.19183E+09
         0.10061E+09
         0.43697E+08
         0.26221E+08
         0.22366E+08
        -0.45732E+07
         0.68379E+07
         0.54941E+08
         0.17799E+09
         0.25277E+09
         0.29023E+09
         0.26468E+09
        -0.23101E+08
        -0.20982E+08
        -0.49862E+08
        -0.34349E+08
        -0.22849E+08
        -0.22529E+08
        -0.18186E+08
        -0.15766E+08
        -0.44678E+07
        -0.19472E+08
        -0.47262E+08
        -0.25932E+08
        -0.15266E+08
        -0.17570E+08
        -0.47779E+08
        -0.13476E+08
        -0.70041E+07
        -0.12478E+08
        -0.18503E+08
        -0.30227E+08
        -0.83131E+08
        -0.99495E+08
        -0.19897E+08
        -0.20716E+08
        -0.30184E+08
        -0.24015E+08
        -0.34314E+08
        -0.67042E+08
        -0.12885E+09
        -0.75987E+08
        -0.34204E+08
        -0.30841E+08
        -0.41839E+08
        -0.54471E+08
        -0.28521E+07
        -0.23045E+08
        -0.19869E+08
        -0.76144E+08
        -0.13349E+09
        -0.18504E+09
        -0.30272E+08
        -0.57257E+08
        -0.16037E+09
        -0.18800E+08
        -0.23038E+08
        -0.30160E+08
        -0.33015E+08
        -0.33750E+08
        -0.40479E+08
        -0.31719E+08
         0.23757E+08
        -0.11409E+08
         0.12705E+09
         0.19463E+09
         0.57587E+08
         0.31719E+08
         0.70090E+07
        -0.37800E+08
        -0.92707E+08
        -0.28150E+07
         0.97588E+08
         0.59809E+09
         0.11445E+10
         0.10894E+10
         0.68660E+09
         0.44112E+09
         0.21154E+09
         0.75278E+08
         0.35856E+08
         0.21699E+08
         0.63714E+07
        -0.14042E+08
         0.45536E+07
         0.65263E+08
         0.13080E+09
         0.24961E+09
         0.25419E+09
         0.25711E+09
        -0.21526E+08
        -0.23819E+08
        -0.45620E+08
        -0.15093E+08
        -0.15106E+08
        -0.21081E+08
        -0.18910E+08
        -0.16194E+08
        -0.89408E+07
        -0.10560E+08
        -0.54468E+08
        -0.39608E+08
        -0.18374E+08
        -0.41844E+08
        -0.56498E+08
        -0.14135E+08
        -0.12728E+08
        -0.11812E+08
        -0.17647E+08
        -0.36185E+08
        -0.70395E+08
        -0.14069E+09
        -0.26463E+08
        -0.36411E+08
        -0.29922E+08
        -0.21518E+08
        -0.36941E+08
        -0.67249E+08
        -0.11615E+09
        -0.77969E+08
        -0.30791E+08
        -0.30204E+08
        -0.28804E+08
        -0.18681E+08
        -0.41626E+07
        -0.23434E+08
        -0.14461E+08
        -0.68617E+08
        -0.11797E+09
        -0.17230E+09
        -0.69825E+08
        -0.92101E+08
        -0.22440E+09
        -0.27690E+08
        -0.25854E+08
        -0.32747E+08
        -0.34487E+08
        -0.26341E+08
        -0.75704E+07
         0.70359E+07
         0.81173E+07
        -0.12534E+08
         0.13573E+09
         0.24410E+09
         0.40265E+08
         0.23952E+08
        -0.10143E+08
        -0.53256E+08
        -0.86510E+08
        -0.14178E+09
         0.84895E+08
         0.51346E+09
         0.10024E+10
         0.49712E+09
         0.72756E+09
         0.39177E+09
         0.16997E+09
         0.90547E+08
         0.32892E+08
         0.10319E+08
         0.92278E+07
        -0.13455E+08
        -0.28746E+07
         0.45321E+08
         0.17145E+09
         0.21473E+09
         0.20668E+09
         0.23472E+09
        -0.26496E+08
        -0.17638E+08
        -0.42984E+08
        -0.25682E+08
        -0.60902E+07
        -0.17806E+08
        -0.17196E+08
        -0.15847E+08
        -0.50962E+07
        -0.21015E+08
        -0.51876E+08
        -0.39001E+08
        -0.23886E+08
        -0.37220E+08
        -0.54978E+08
        -0.11536E+08
        -0.18112E+08
        -0.86742E+07
        -0.27229E+08
        -0.48538E+08
        -0.87484E+08
        -0.15482E+09
        -0.39431E+08
        -0.47192E+08
        -0.37361E+08
        -0.22484E+08
        -0.35729E+08
        -0.79780E+08
        -0.14032E+09
        -0.84175E+08
        -0.29391E+08
        -0.25586E+08
        -0.30408E+08
        -0.42063E+08
         0.15099E+07
        -0.15788E+08
        -0.17475E+08
        -0.96638E+08
        -0.14315E+09
        -0.16886E+09
        -0.12394E+09
        -0.13877E+09
        -0.22409E+09
        -0.30614E+08
        -0.29225E+08
        -0.28751E+08
        -0.27098E+08
        -0.17521E+08
        -0.14817E+08
        -0.14861E+08
         0.10698E+08
        -0.14369E+08
         0.12756E+09
         0.20127E+09
         0.61035E+08
         0.38705E+08
        -0.78360E+07
        -0.50972E+08
        -0.78055E+08
        -0.10640E+09
         0.85168E+08
         0.57450E+09
         0.11077E+10
         0.10405E+10
         0.78002E+09
         0.43442E+09
         0.21338E+09
         0.10824E+09
         0.62264E+08
         0.43806E+08
         0.20667E+08
         0.60123E+07
         0.27308E+08
         0.65012E+08
         0.13624E+09
         0.18852E+09
         0.18295E+09
         0.24830E+09
        -0.16614E+08
        -0.13021E+08
        -0.22223E+08
        -0.17793E+08
        -0.87119E+07
        -0.21659E+08
        -0.15253E+08
        -0.13601E+08
        -0.64837E+07
        -0.20238E+08
        -0.46607E+08
        -0.32829E+08
        -0.19579E+08
        -0.36255E+08
        -0.49448E+08
        -0.58208E+07
        -0.10771E+08
        -0.53668E+07
        -0.17003E+08
        -0.34488E+08
        -0.95370E+08
        -0.16950E+09
        -0.25782E+08
        -0.13720E+08
        -0.36947E+08
        -0.12820E+08
        -0.55845E+08
        -0.88860E+08
        -0.12766E+09
        -0.78940E+08
        -0.23279E+08
        -0.25012E+08
        -0.28315E+08
        -0.19835E+08
        -0.80059E+07
        -0.76243E+07
        -0.10435E+08
        -0.89226E+08
        -0.16378E+09
        -0.23278E+09
        -0.94950E+08
        -0.21023E+09
        -0.12855E+09
        -0.21624E+08
        -0.18401E+08
        -0.20624E+08
        -0.23956E+08
        -0.64965E+07
        -0.84654E+07
        -0.98840E+07
         0.13872E+08
        -0.13099E+08
         0.10380E+09
         0.19564E+09
         0.56640E+08
         0.32984E+08
         0.29764E+07
        -0.38219E+08
        -0.68527E+08
        -0.11797E+09
         0.91302E+08
         0.70893E+09
         0.10733E+10
         0.82997E+09
         0.64763E+09
         0.43297E+09
         0.24203E+09
         0.13317E+09
         0.70266E+08
         0.62655E+08
         0.46038E+08
         0.23517E+08
         0.22883E+08
         0.62179E+08
         0.91919E+08
         0.13278E+09
         0.11930E+09
         0.20323E+09
        -0.39267E+07
        -0.77630E+07
        -0.10458E+08
        -0.53380E+07
        -0.21084E+07
        -0.51342E+07
        -0.78128E+07
        -0.10763E+08
         0.49534E+06
        -0.17591E+08
        -0.53622E+08
        -0.24674E+08
        -0.90827E+07
        -0.44447E+08
        -0.48905E+08
        -0.45668E+07
        -0.96300E+07
        -0.11787E+07
        -0.16156E+08
        -0.34598E+08
        -0.61897E+08
        -0.12459E+09
        -0.23460E+08
        -0.17534E+08
        -0.18495E+08
        -0.57605E+07
        -0.39454E+08
        -0.61365E+08
        -0.97485E+08
        -0.40340E+08
        -0.97338E+07
        -0.13976E+08
        -0.11475E+08
        -0.38282E+07
        -0.53987E+07
        -0.10688E+08
        -0.74168E+07
        -0.72345E+08
        -0.11546E+09
        -0.21852E+09
        -0.20512E+08
        -0.67157E+08
        -0.11463E+09
         0.94096E+06
        -0.35957E+07
         0.34716E+07
        -0.25804E+07
        -0.54671E+07
         0.80861E+07
         0.63164E+07
         0.91377E+07
        -0.31894E+07
         0.17907E+08
         0.10531E+09
         0.94272E+07
         0.19271E+08
         0.75506E+07
        -0.54154E+08
        -0.87956E+08
        -0.14528E+09
         0.67426E+08
         0.34025E+09
         0.66658E+09
         0.66062E+09
         0.73314E+09
         0.38948E+09
         0.13107E+09
         0.14194E+09
         0.86470E+08
         0.80071E+08
         0.60145E+08
         0.37951E+08
         0.33833E+08
         0.29345E+08
         0.46750E+08
         0.43132E+08
         0.47427E+08
         0.11366E+09
         0.24930E+07
         0.44889E+07
         0.86628E+07
         0.14203E+08
        -0.91321E+07
         0.48087E+07
        -0.99489E+07
        -0.15636E+08
         0.60236E+07
        -0.17590E+08
        -0.36714E+08
        -0.37791E+08
        -0.89542E+07
        -0.34072E+08
        -0.53960E+08
         0.23554E+06
        -0.19420E+07
         0.50820E+07
        -0.14580E+08
        -0.27369E+08
        -0.50753E+08
        -0.28306E+08
        -0.15120E+08
        -0.12250E+08
        -0.21753E+08
        -0.10673E+08
        -0.33084E+08
        -0.59098E+08
        -0.11621E+09
        -0.65158E+08
         0.41414E+07
        -0.62598E+07
         0.24826E+08
         0.27173E+08
        -0.17073E+08
        -0.12411E+08
        -0.44916E+07
        -0.36588E+08
        -0.11476E+09
        -0.14526E+09
        -0.52325E+08
        -0.15727E+09
        -0.16542E+09
        -0.18901E+08
        -0.97450E+07
         0.48477E+07
        -0.66331E+07
         0.11613E+08
        -0.65138E+07
         0.64883E+07
        -0.40809E+08
        -0.10808E+08
        -0.10481E+09
        -0.67501E+08
        -0.26677E+08
         0.23110E+07
        -0.59394E+07
        -0.18275E+08
        -0.43093E+08
        -0.89084E+08
         0.12448E+09
         0.40003E+09
         0.13293E+10
         0.11581E+10
         0.47470E+09
         0.24461E+09
         0.19548E+09
         0.89993E+08
         0.55336E+08
         0.66864E+08
         0.79914E+08
         0.61433E+08
         0.37344E+08
        -0.92707E+08
        -0.15061E+09
        -0.23753E+09
        -0.15108E+09
        -0.73524E+08
         0.57899E+06
         0.12378E+08
         0.22941E+08
         0.24035E+08
        -0.86450E+07
         0.64651E+07
        -0.21966E+08
        -0.26543E+08
        -0.39985E+07
        -0.33551E+08
        -0.49492E+08
        -0.43081E+08
        -0.25093E+08
        -0.32582E+08
        -0.24377E+08
        -0.95611E+07
        -0.99050E+07
         0.10525E+08
        -0.35324E+08
        -0.26460E+08
        -0.11637E+09
        -0.16964E+09
        -0.64374E+08
        -0.54199E+08
        -0.25454E+08
        -0.31978E+08
        -0.51203E+08
        -0.56875E+08
        -0.45256E+08
        -0.48801E+08
         0.15342E+08
        -0.16389E+08
         0.44683E+08
         0.31731E+08
        -0.53389E+08
        -0.21036E+07
        -0.51022E+07
        -0.63120E+08
        -0.67800E+08
        -0.21844E+08
         0.11392E+08
        -0.69752E+08
        -0.18951E+09
        -0.43254E+08
        -0.13191E+08
         0.20946E+08
         0.14265E+08
         0.26081E+08
        -0.10528E+08
        -0.52126E+07
        -0.85115E+08
        -0.79867E+07
        -0.28861E+09
        -0.21140E+09
        -0.80176E+08
        -0.30121E+08
        -0.15992E+08
        -0.28293E+08
        -0.57202E+08
        -0.48501E+08
         0.30014E+09
         0.45687E+09
         0.36604E+09
         0.44339E+09
         0.50413E+09
         0.37416E+09
         0.22938E+09
         0.99290E+08
         0.49117E+08
         0.13300E+09
         0.17384E+09
         0.13457E+09
        -0.24587E+08
        -0.18529E+09
        -0.39328E+09
        -0.39933E+09
        -0.43222E+09
        -0.29254E+09
        -0.16920E+08
        -0.94047E+07
         0.15985E+08
         0.26861E+08
        -0.10736E+06
         0.15467E+08
        -0.27598E+08
        -0.37899E+08
        -0.80856E+07
        -0.39885E+08
        -0.56027E+08
        -0.27570E+08
        -0.16465E+08
        -0.40384E+08
        -0.27373E+08
        -0.29645E+08
        -0.46858E+07
         0.46184E+06
        -0.75716E+08
        -0.32145E+08
        -0.30533E+09
        -0.37940E+09
        -0.17878E+09
        -0.12885E+09
        -0.80270E+07
        -0.72931E+08
        -0.34681E+08
        -0.15014E+08
        -0.11898E+08
        -0.32326E+08
         0.10649E+08
        -0.26884E+08
         0.41930E+08
         0.53876E+08
        -0.13981E+08
         0.29419E+07
        -0.39177E+07
        -0.69478E+07
         0.33810E+08
         0.19150E+08
        -0.72448E+08
        -0.19452E+09
        -0.32388E+09
        -0.10718E+09
        -0.28482E+08
         0.23598E+08
         0.20395E+08
         0.32849E+08
         0.37503E+08
         0.30593E+08
        -0.51177E+08
         0.16235E+08
        -0.13712E+09
        -0.28925E+09
        -0.50288E+08
        -0.13817E+08
        -0.19932E+08
         0.23603E+07
         0.44894E+07
         0.72347E+08
         0.12667E+09
         0.46248E+08
        -0.69143E+08
         0.23801E+09
         0.63571E+09
         0.85676E+09
         0.74745E+09
         0.43908E+09
         0.18973E+09
         0.23199E+09
         0.30963E+09
         0.17097E+09
        -0.45875E+08
        -0.10828E+09
        -0.21815E+09
        -0.51107E+09
        -0.47568E+09
        -0.37562E+09
        -0.44090E+08
        -0.11469E+08
         0.11317E+09
         0.74216E+08
         0.18435E+09
         0.18532E+09
        -0.17347E+08
        -0.43564E+08
        -0.28411E+08
        -0.65710E+08
         0.34843E+08
         0.11069E+08
        -0.24075E+08
        -0.14635E+08
         0.36501E+06
        -0.10829E+09
        -0.39260E+08
        -0.19033E+08
        -0.27707E+09
        -0.21717E+09
        -0.77478E+09
        -0.10389E+10
        -0.34433E+09
        -0.39312E+09
        -0.34293E+08
        -0.21612E+09
        -0.46773E+08
        -0.55528E+08
        -0.15235E+09
        -0.24649E+09
         0.56068E+07
        -0.57599E+08
         0.77888E+08
         0.16257E+09
         0.30801E+09
         0.10802E+09
        -0.69261E+07
        -0.20830E+08
         0.13231E+07
        -0.93046E+08
        -0.39874E+09
        -0.44487E+09
        -0.88045E+09
        -0.19330E+09
         0.23059E+08
         0.21562E+09
         0.62261E+08
         0.44611E+08
         0.80420E+08
         0.17976E+09
         0.21963E+09
         0.21252E+09
         0.46462E+09
         0.59147E+08
         0.40650E+09
         0.99069E+08
        -0.28994E+08
        -0.26796E+08
         0.17424E+08
        -0.13024E+08
        -0.23973E+09
        -0.81520E+09
        -0.86745E+09
         0.10827E+10
         0.29509E+10
         0.36691E+10
         0.30729E+10
         0.19520E+10
         0.10323E+10
         0.81212E+09
         0.81849E+09
         0.37515E+09
        -0.91913E+08
        -0.19283E+09
        -0.27677E+09
        -0.30869E+09
        -0.30076E+09
        -0.15736E+09
  
SCALARS                 acceleration_z  double 1
LOOKUP_TABLE default
         0.11172E+09
         0.63192E+09
         0.78737E+08
        -0.30801E+09
         0.00000E+00
         0.00000E+00
         0.00000E+00
         0.00000E+00
        -0.25281E+09
        -0.54450E+09
         0.00000E+00
         0.00000E+00
         0.90927E+09
         0.17754E+09
         0.00000E+00
         0.00000E+00
        -0.45218E+08
         0.38278E+08
         0.00000E+00
         0.00000E+00
         0.13329E+10
         0.24425E+10
         0.15231E+10
         0.00000E+00
         0.00000E+00
         0.00000E+00
         0.54281E+09
         0.90195E+09
         0.00000E+00
         0.00000E+00
        -0.71657E+08
        -0.87902E+08
        -0.64207E+08
         0.00000E+00
         0.00000E+00
         0.00000E+00
        -0.50190E+08
        -0.73448E+08
         0.00000E+00
         0.00000E+00
        -0.72999E+08
        -0.72425E+08
         0.00000E+00
         0.00000E+00
        -0.73161E+08
        -0.42891E+07
         0.00000E+00
         0.00000E+00
        -0.16618E+09
         0.00000E+00
         0.33367E+08
         0.00000E+00
         0.36480E+09
         0.00000E+00
         0.51677E+09
         0.00000E+00
         0.66429E+09
        -0.33669E+09
         0.00000E+00
         0.00000E+00
        -0.54887E+09
        -0.15526E+09
         0.00000E+00
         0.00000E+00
        -0.61477E+09
         0.00000E+00
        -0.13156E+10
         0.00000E+00
        -0.23062E+09
         0.22629E+09
         0.00000E+00
         0.00000E+00
         0.69870E+09
         0.00000E+00
         0.35704E+10
         0.00000E+00
         0.49054E+10
         0.00000E+00
         0.48367E+10
         0.00000E+00
         0.33248E+10
         0.32038E+09
         0.00000E+00
         0.00000E+00
        -0.34159E+09
         0.00000E+00
        -0.40688E+08
         0.00000E+00
        -0.33886E+09
         0.00000E+00
        -0.65660E+09
        -0.41878E+09
         0.00000E+00
         0.00000E+00
        -0.69654E+09
         0.00000E+00
        -0.14712E+10
         0.00000E+00
        -0.19320E+10
         0.00000E+00
        -0.21564E+10
        -0.14241E+10
         0.00000E+00
         0.00000E+00
         0.93375E+08
        -0.81588E+09
         0.00000E+00
         0.00000E+00
         0.34640E+09
         0.00000E+00
         0.42474E+09
         0.00000E+00
        -0.10912E+10
         0.00000E+00
        -0.41777E+10
         0.00000E+00
        -0.69649E+10
         0.00000E+00
        -0.10541E+11
         0.00000E+00
        -0.11690E+11
         0.00000E+00
        -0.35528E+09
         0.00000E+00
         0.39911E+10
         0.00000E+00
         0.14729E+10
         0.00000E+00
         0.40555E+09
         0.00000E+00
        -0.69139E+08
         0.00000E+00
        -0.67469E+09
         0.00000E+00
        -0.89585E+09
         0.00000E+00
        -0.67849E+09
         0.00000E+00
        -0.59085E+09
         0.00000E+00
        -0.59163E+09
         0.00000E+00
         0.56566E+09
         0.00000E+00
         0.15012E+10
         0.00000E+00
         0.81524E+10
         0.00000E+00
         0.10058E+11
         0.00000E+00
         0.52507E+10
         0.00000E+00
        -0.13950E+10
         0.00000E+00
        -0.22711E+10
         0.00000E+00
         0.40686E+08
         0.22875E+09
        -0.54849E+09
        -0.11040E+10
        -0.14626E+10
        -0.18766E+10
         0.54773E+09
         0.32260E+08
        -0.17611E+09
        -0.96567E+08
         0.11086E+10
         0.14476E+10
         0.84341E+09
         0.66968E+09
         0.19314E+10
        -0.41816E+08
        -0.25480E+09
        -0.21268E+09
        -0.20717E+08
        -0.39623E+09
        -0.23985E+09
        -0.36701E+09
        -0.33015E+09
        -0.11389E+07
        -0.43776E+09
        -0.38339E+09
         0.50104E+09
         0.32124E+09
         0.10851E+09
        -0.57181E+09
        -0.22201E+10
        -0.12256E+10
        -0.23725E+10
        -0.33210E+10
        -0.14761E+10
        -0.17327E+09
         0.29723E+09
         0.28665E+10
         0.34196E+10
         0.31867E+10
         0.27207E+10
         0.15393E+09
        -0.41486E+09
        -0.49667E+09
        -0.63376E+09
        -0.62705E+09
        -0.87051E+09
        -0.12380E+10
        -0.36369E+10
        -0.40298E+10
        -0.34461E+10
        -0.39272E+10
        -0.26632E+10
        -0.18180E+10
        -0.13259E+10
        -0.18323E+09
        -0.39154E+09
        -0.14393E+10
        -0.13970E+10
        -0.34405E+10
        -0.37033E+10
         0.13524E+10
         0.53827E+10
         0.20368E+10
         0.66384E+09
        -0.53784E+09
        -0.13998E+10
        -0.13773E+10
        -0.62841E+09
         0.77079E+09
         0.19051E+10
         0.38986E+10
         0.88212E+10
         0.20982E+11
         0.27551E+11
         0.15981E+11
        -0.16900E+09
        -0.46745E+10
        -0.13135E+09
        -0.19576E+09
        -0.62673E+09
        -0.10065E+10
        -0.12922E+10
        -0.21476E+10
        -0.68275E+08
        -0.14912E+09
        -0.15261E+09
        -0.18320E+09
        -0.18230E+09
         0.84649E+08
        -0.49360E+07
        -0.97204E+08
         0.31080E+09
        -0.63206E+08
        -0.12798E+09
        -0.28928E+09
        -0.16459E+08
        -0.27626E+09
        -0.23280E+09
        -0.33495E+09
        -0.27092E+09
        -0.13402E+08
        -0.47555E+09
        -0.34321E+09
        -0.27760E+09
        -0.43442E+09
        -0.44238E+09
        -0.45956E+09
        -0.12142E+10
        -0.96843E+09
        -0.16970E+10
        -0.23501E+10
        -0.11086E+10
        -0.76351E+09
        -0.21021E+09
         0.14128E+09
         0.91727E+09
         0.11580E+10
         0.17963E+10
         0.14219E+09
        -0.49809E+09
        -0.35003E+09
        -0.43801E+09
        -0.17137E+09
        -0.71047E+09
        -0.14373E+10
        -0.15368E+10
        -0.16087E+10
        -0.89647E+09
        -0.16222E+10
        -0.29748E+10
        -0.24552E+10
        -0.74616E+09
        -0.29608E+09
        -0.31566E+08
         0.13257E+09
         0.69390E+09
         0.12513E+10
         0.24000E+10
         0.33355E+10
         0.35370E+10
         0.15046E+10
         0.17682E+09
        -0.53422E+09
        -0.13541E+10
        -0.14211E+10
        -0.24217E+09
         0.15468E+10
         0.23746E+10
         0.33350E+10
         0.87688E+10
         0.93772E+10
         0.18957E+11
         0.16923E+11
         0.28955E+10
        -0.27787E+10
        -0.11964E+09
        -0.74238E+08
        -0.25494E+09
        -0.18214E+09
        -0.20906E+09
        -0.39881E+09
        -0.43102E+08
        -0.18090E+09
        -0.10297E+09
        -0.28792E+09
        -0.47874E+09
        -0.12766E+09
        -0.76622E+08
        -0.39229E+09
        -0.31489E+09
        -0.94516E+07
        -0.15444E+09
        -0.69232E+08
        -0.30073E+08
        -0.28842E+09
        -0.18347E+09
        -0.40704E+09
        -0.89502E+08
         0.70737E+08
        -0.42654E+09
         0.31955E+08
        -0.45407E+09
        -0.49696E+09
        -0.39457E+09
        -0.52993E+09
        -0.25157E+07
         0.23324E+08
        -0.75384E+08
        -0.13505E+09
        -0.41631E+09
        -0.16846E+09
        -0.65818E+08
        -0.80595E+08
        -0.10476E+09
         0.75628E+08
         0.31219E+09
        -0.29545E+09
        -0.56105E+09
        -0.73590E+08
        -0.34182E+08
        -0.95063E+07
        -0.72858E+08
        -0.21502E+09
        -0.44743E+09
        -0.60579E+09
         0.15271E+09
        -0.45312E+09
        -0.97731E+09
        -0.10938E+10
        -0.69198E+09
        -0.28898E+09
         0.44204E+08
         0.20286E+09
         0.13656E+10
         0.21190E+10
         0.27776E+10
         0.29550E+10
         0.21666E+10
         0.10287E+10
         0.77795E+09
        -0.50038E+09
        -0.10954E+10
        -0.10071E+10
        -0.55317E+09
        -0.21314E+09
        -0.38717E+09
        -0.69772E+09
        -0.91138E+08
         0.20049E+10
         0.52676E+10
         0.36455E+10
        -0.10798E+09
         0.30098E+09
        -0.40289E+08
         0.10239E+08
         0.26500E+08
         0.30012E+08
         0.27448E+08
         0.62175E+08
        -0.39125E+08
        -0.12830E+09
        -0.78613E+08
        -0.19528E+09
        -0.23317E+09
        -0.20046E+09
        -0.98383E+08
        -0.25689E+09
        -0.20204E+09
         0.20003E+08
        -0.14200E+09
         0.52741E+08
        -0.39345E+08
        -0.22026E+09
        -0.14224E+09
        -0.33188E+09
         0.17984E+08
         0.13275E+09
        -0.42624E+09
         0.20983E+09
        -0.38347E+09
        -0.55680E+09
        -0.46944E+09
        -0.55005E+09
         0.27784E+09
         0.24423E+09
         0.24226E+09
         0.22499E+09
        -0.90448E+08
         0.15489E+08
        -0.68013E+07
        -0.30014E+09
        -0.45518E+09
        -0.36273E+09
         0.19728E+09
        -0.31908E+09
        -0.56353E+09
         0.10756E+09
         0.13887E+09
         0.57790E+08
         0.17225E+09
         0.20959E+09
         0.50750E+08
         0.10427E+09
         0.12468E+09
         0.30755E+08
        -0.99832E+08
        -0.43503E+08
         0.59986E+08
         0.60355E+08
         0.43304E+08
         0.20490E+09
         0.74659E+09
         0.14528E+10
         0.31322E+10
         0.36032E+10
         0.33311E+10
         0.19439E+10
         0.43769E+09
        -0.58010E+09
        -0.77171E+09
        -0.53328E+09
        -0.33865E+09
        -0.44520E+09
        -0.68471E+09
        -0.65371E+09
        -0.11932E+10
        -0.84229E+09
        -0.10080E+10
        -0.15870E+09
        -0.22098E+09
        -0.43608E+08
         0.16849E+08
         0.46910E+07
         0.77787E+08
         0.81250E+08
         0.77421E+08
         0.88055E+08
        -0.30373E+08
        -0.69519E+08
        -0.20024E+08
        -0.12705E+09
        -0.76958E+08
        -0.82403E+08
        -0.53692E+08
        -0.16499E+09
        -0.27818E+09
         0.52011E+08
        -0.65527E+08
         0.74474E+08
         0.51833E+07
        -0.12074E+09
        -0.75447E+08
        -0.19177E+09
         0.46644E+07
         0.71544E+08
        -0.26981E+09
         0.12676E+09
        -0.19847E+09
        -0.31263E+09
        -0.34002E+09
        -0.36681E+09
         0.22868E+09
         0.18350E+09
         0.23756E+09
         0.16541E+09
         0.73076E+08
         0.48880E+08
        -0.13463E+07
        -0.53747E+09
        -0.52627E+09
        -0.50667E+09
        -0.15801E+09
        -0.42757E+09
        -0.40112E+09
         0.59223E+08
         0.76076E+08
         0.25460E+08
         0.85266E+08
         0.14328E+09
         0.58029E+08
         0.13841E+09
         0.12599E+08
         0.12981E+09
         0.14454E+09
         0.13897E+09
         0.13209E+09
         0.30128E+08
        -0.32258E+08
        -0.29271E+08
         0.53467E+09
         0.18193E+10
         0.28628E+10
         0.36127E+10
         0.28978E+10
         0.10085E+10
         0.10589E+09
        -0.46643E+09
        -0.50317E+09
        -0.24770E+09
        -0.12969E+09
        -0.21867E+09
        -0.34018E+09
        -0.43920E+09
        -0.69113E+09
        -0.72615E+09
        -0.99781E+09
        -0.77891E+09
        -0.33101E+09
        -0.27520E+08
         0.27430E+08
         0.14909E+08
         0.54865E+08
         0.42020E+08
         0.49004E+08
         0.46314E+08
         0.57363E+06
        -0.61181E+07
         0.12053E+07
        -0.36923E+08
        -0.30870E+08
        -0.57443E+08
        -0.81893E+07
        -0.66808E+08
        -0.18201E+09
         0.29589E+08
        -0.19988E+08
         0.43592E+08
         0.78838E+07
        -0.44832E+08
        -0.39006E+08
        -0.10748E+09
        -0.16006E+07
         0.31731E+08
        -0.97940E+08
         0.35220E+08
        -0.10991E+09
        -0.18002E+09
        -0.18831E+09
        -0.17395E+09
         0.63255E+08
         0.34367E+08
         0.80961E+08
         0.71350E+08
         0.84499E+08
         0.25176E+08
         0.78766E+07
        -0.36205E+09
        -0.44689E+09
        -0.40054E+09
        -0.96157E+08
        -0.27898E+09
        -0.26615E+09
         0.15958E+08
         0.15466E+08
        -0.28511E+07
         0.16867E+08
         0.28450E+08
         0.22635E+08
         0.27501E+08
        -0.47793E+08
         0.64459E+08
         0.90808E+08
         0.55799E+08
        -0.16584E+08
        -0.26362E+08
        -0.32067E+08
        -0.25331E+08
         0.25178E+09
         0.93526E+09
         0.16662E+10
         0.18988E+10
         0.10726E+10
         0.27044E+09
        -0.97548E+08
        -0.35834E+09
        -0.23803E+09
        -0.52753E+08
        -0.92746E+07
        -0.10644E+08
        -0.13019E+08
        -0.15000E+08
        -0.13657E+09
        -0.29359E+09
        -0.29793E+09
        -0.39700E+09
        -0.17070E+09
        -0.59422E+08
         0.19554E+08
         0.30239E+08
         0.39543E+08
         0.32748E+08
         0.34393E+08
         0.20272E+08
         0.17496E+08
        -0.95719E+07
         0.10525E+05
        -0.18193E+08
         0.25971E+08
        -0.21627E+08
         0.74984E+07
         0.33414E+06
        -0.70140E+08
         0.13603E+08
        -0.63317E+07
         0.23428E+08
         0.13615E+08
        -0.14619E+08
         0.47928E+07
        -0.27250E+08
         0.11262E+08
         0.29473E+08
        -0.26154E+08
         0.19890E+08
        -0.50968E+08
        -0.89925E+08
        -0.80299E+08
        -0.38234E+08
         0.23646E+08
         0.10299E+08
         0.33140E+08
         0.22996E+08
         0.33592E+08
         0.20121E+08
         0.11619E+08
        -0.18432E+09
        -0.23310E+09
        -0.22418E+09
        -0.19196E+09
        -0.12282E+09
        -0.10119E+09
         0.90755E+07
         0.34761E+06
        -0.19455E+08
        -0.89372E+07
        -0.54834E+07
         0.12989E+07
        -0.65326E+07
        -0.15002E+08
         0.15353E+08
         0.52932E+08
        -0.86263E+07
         0.32142E+08
        -0.73226E+07
        -0.81291E+07
        -0.70907E+07
        -0.81943E+08
         0.57196E+07
         0.13844E+09
         0.49218E+09
         0.54707E+09
         0.12245E+09
        -0.17977E+09
        -0.12525E+09
        -0.24021E+08
         0.66148E+07
        -0.52535E+07
        -0.24939E+08
        -0.15732E+08
         0.34037E+07
        -0.15933E+08
        -0.88383E+08
        -0.18234E+09
        -0.21007E+09
        -0.13504E+09
        -0.89728E+08
         0.22831E+08
         0.15935E+08
         0.25799E+08
         0.17577E+08
         0.18379E+08
         0.10137E+08
         0.13780E+08
         0.11253E+08
         0.88122E+07
         0.76249E+07
         0.27193E+08
         0.11715E+08
         0.12594E+08
         0.18871E+08
        -0.51596E+07
         0.95742E+07
         0.12597E+08
         0.12264E+08
         0.69531E+07
         0.15319E+08
         0.29415E+08
         0.40937E+08
         0.16635E+08
         0.13058E+08
         0.11854E+08
         0.12910E+08
         0.65331E+07
        -0.14042E+07
         0.10854E+08
         0.28662E+08
         0.26042E+08
         0.15294E+08
         0.34286E+08
         0.18518E+08
         0.46384E+08
         0.20864E+08
         0.11750E+08
        -0.43374E+08
        -0.69910E+08
        -0.72666E+08
        -0.93962E+08
        -0.39847E+07
         0.20803E+08
         0.69881E+07
         0.25249E+07
        -0.98638E+07
         0.78199E+07
         0.14745E+08
         0.49081E+07
        -0.48801E+07
        -0.38537E+08
        -0.12368E+07
         0.43994E+08
        -0.47163E+08
         0.24176E+08
         0.75308E+07
        -0.28649E+07
        -0.43390E+08
        -0.51197E+08
         0.18207E+08
        -0.29868E+08
        -0.11054E+09
        -0.21202E+09
        -0.91466E+08
        -0.15938E+09
         0.75490E+08
         0.63779E+08
         0.17570E+08
         0.71844E+07
        -0.24066E+08
        -0.41942E+08
        -0.26011E+08
        -0.63911E+08
        -0.14058E+09
        -0.23046E+09
        -0.21811E+09
        -0.14671E+09
        -0.73010E+08
         0.15985E+08
         0.15815E+08
         0.35152E+08
         0.30597E+08
         0.27268E+08
         0.14447E+08
         0.84407E+07
         0.15392E+08
         0.12295E+08
         0.25791E+08
         0.25956E+08
         0.10174E+08
         0.11506E+08
         0.23772E+08
         0.24865E+08
         0.63875E+07
         0.12377E+08
         0.15498E+08
         0.73334E+07
         0.23482E+08
         0.37048E+08
         0.66124E+08
         0.21076E+08
         0.10010E+08
         0.35840E+08
         0.86866E+07
         0.37318E+08
         0.55678E+08
         0.33591E+08
         0.70927E+08
         0.27547E+08
         0.12440E+08
         0.30306E+08
         0.26539E+08
         0.29452E+08
         0.19151E+08
         0.93007E+07
         0.61077E+07
         0.17904E+08
         0.20408E+08
        -0.32590E+08
         0.13709E+08
         0.11333E+09
         0.55557E+07
         0.51084E+07
        -0.50360E+06
         0.37689E+07
         0.52617E+07
         0.53736E+07
        -0.87449E+06
        -0.13857E+08
         0.20639E+08
         0.78348E+08
        -0.33360E+06
         0.36835E+08
         0.67250E+07
         0.32385E+07
        -0.24434E+08
        -0.10022E+09
        -0.16218E+09
        -0.31948E+09
        -0.53432E+09
        -0.37685E+09
        -0.35562E+09
        -0.99935E+08
         0.64178E+08
         0.11280E+09
         0.70222E+08
        -0.54771E+07
        -0.20244E+08
        -0.34496E+08
        -0.54763E+08
        -0.13803E+09
        -0.15924E+09
        -0.24764E+09
        -0.25791E+09
        -0.16408E+09
        -0.35212E+08
         0.16786E+08
         0.81781E+07
         0.33325E+08
         0.37129E+08
         0.47984E+08
         0.38876E+08
         0.65239E+07
         0.11034E+08
         0.16985E+08
         0.14733E+08
         0.22317E+08
         0.19056E+08
         0.10617E+08
         0.15566E+08
         0.25689E+08
         0.82926E+07
         0.19013E+08
         0.15599E+08
         0.14882E+08
         0.43857E+08
         0.48691E+08
         0.68751E+08
         0.26676E+08
         0.21824E+08
         0.40500E+08
         0.12095E+08
         0.41891E+08
         0.80645E+08
         0.72455E+08
         0.71044E+08
         0.33280E+08
         0.16664E+08
         0.46988E+08
         0.55039E+08
         0.61390E+08
         0.20297E+08
         0.71411E+07
         0.70837E+08
         0.81843E+08
         0.10181E+09
         0.18968E+08
         0.14703E+09
         0.14068E+09
         0.12771E+08
         0.73340E+07
        -0.22743E+07
         0.11192E+08
         0.20686E+08
         0.31903E+08
         0.23968E+08
        -0.37466E+08
         0.19864E+08
         0.68647E+08
         0.22487E+08
         0.43300E+08
         0.14652E+08
         0.14403E+08
        -0.26219E+08
        -0.88180E+08
        -0.23614E+09
        -0.48758E+09
        -0.61962E+09
        -0.72771E+09
        -0.31366E+09
        -0.56625E+08
         0.75903E+08
         0.11504E+09
         0.56784E+08
         0.11832E+08
        -0.13976E+08
        -0.26442E+08
        -0.36385E+08
        -0.95278E+08
        -0.23394E+09
        -0.37246E+09
        -0.33451E+09
        -0.18724E+09
        -0.95248E+08
         0.13927E+08
         0.99131E+07
         0.31213E+08
         0.31330E+08
         0.37112E+08
         0.34474E+08
         0.81139E+07
         0.11686E+08
         0.16194E+08
         0.17292E+08
         0.12179E+08
         0.13631E+08
         0.10042E+08
         0.23706E+08
         0.40724E+08
         0.11080E+08
         0.19971E+08
         0.18137E+08
         0.12458E+08
         0.40187E+08
         0.34760E+08
         0.84187E+08
         0.11750E+08
         0.93746E+07
         0.50826E+08
         0.20102E+08
         0.38229E+08
         0.62063E+08
         0.94867E+08
         0.88385E+08
         0.33250E+08
         0.16498E+08
         0.44424E+08
         0.44678E+08
         0.53637E+08
         0.18193E+08
         0.10903E+08
         0.60180E+08
         0.93170E+08
         0.14546E+09
         0.66725E+08
         0.14636E+09
         0.14118E+09
         0.83203E+07
         0.81765E+07
         0.45840E+07
         0.93717E+07
         0.15713E+08
         0.23128E+08
         0.21923E+08
        -0.48969E+08
         0.30348E+08
         0.57985E+08
         0.27842E+08
         0.31661E+08
         0.15717E+08
         0.21019E+08
        -0.77390E+07
        -0.10455E+09
        -0.26655E+09
        -0.42407E+09
        -0.86361E+09
        -0.72213E+09
        -0.25247E+09
         0.28963E+08
         0.80782E+08
         0.59963E+08
         0.21898E+08
         0.33443E+07
        -0.15790E+07
        -0.13741E+08
        -0.62142E+08
        -0.10906E+09
        -0.21067E+09
        -0.27440E+09
        -0.32765E+09
        -0.23282E+09
        -0.88504E+08
         0.10580E+08
         0.12083E+08
         0.19221E+08
         0.13544E+08
         0.37894E+08
         0.34027E+08
         0.76107E+07
         0.14436E+08
         0.94870E+07
         0.29723E+08
         0.20312E+08
         0.24106E+08
         0.89566E+07
         0.26399E+08
         0.37465E+08
         0.43916E+07
         0.11817E+08
         0.16645E+08
         0.73485E+07
         0.40589E+08
         0.41829E+08
         0.84541E+08
         0.24928E+08
         0.11833E+08
         0.62362E+08
         0.11634E+08
         0.41707E+08
         0.95021E+08
         0.13120E+09
         0.64046E+08
         0.29345E+08
         0.29255E+08
         0.42038E+08
         0.36882E+08
         0.46617E+08
         0.25759E+08
         0.58342E+07
         0.39137E+08
         0.10853E+09
         0.12470E+09
         0.32711E+08
         0.13571E+09
         0.13885E+09
         0.16401E+08
         0.14308E+08
         0.13237E+08
         0.18218E+08
         0.23747E+08
         0.67200E+07
         0.39348E+07
        -0.27107E+08
         0.19310E+08
         0.65065E+08
        -0.26250E+08
         0.24405E+08
         0.16987E+08
         0.19090E+08
        -0.13367E+08
        -0.11655E+09
        -0.23550E+09
        -0.53904E+09
        -0.66978E+09
        -0.10085E+10
        -0.18241E+09
        -0.24201E+08
         0.10925E+09
         0.13915E+09
         0.79267E+08
         0.19078E+08
        -0.89540E+07
        -0.54423E+08
        -0.61604E+08
        -0.96772E+08
        -0.12683E+09
        -0.26411E+09
        -0.27804E+09
        -0.15666E+09
        -0.40445E+08
         0.22931E+08
         0.14105E+08
         0.23006E+08
         0.20182E+08
         0.18382E+08
         0.23702E+08
         0.10388E+08
         0.17478E+08
         0.19051E+08
         0.38072E+08
         0.28779E+08
         0.16172E+08
         0.17812E+08
         0.31556E+08
         0.24258E+08
         0.59806E+07
         0.23174E+08
         0.14384E+08
         0.78475E+07
         0.38229E+08
         0.49187E+08
         0.94957E+08
         0.31708E+08
         0.14918E+08
         0.52733E+08
         0.18966E+08
         0.57370E+08
         0.90601E+08
         0.22926E+09
         0.10451E+09
         0.43210E+08
         0.28798E+08
         0.56442E+08
         0.50373E+08
         0.52395E+08
         0.26424E+08
         0.14000E+08
         0.10991E+09
         0.19733E+09
         0.24176E+09
         0.13633E+09
         0.22097E+09
         0.20120E+09
         0.19438E+08
         0.18119E+08
         0.60453E+07
         0.19900E+08
         0.25202E+08
         0.11577E+08
         0.85289E+07
        -0.33526E+08
         0.23289E+08
         0.65029E+08
        -0.32478E+08
         0.69180E+08
         0.34744E+08
         0.23935E+08
        -0.22026E+08
        -0.19500E+09
        -0.40142E+09
        -0.59433E+09
        -0.12003E+10
        -0.14157E+10
        -0.48553E+09
        -0.46516E+08
         0.10043E+09
         0.16587E+09
         0.10354E+09
         0.42395E+08
        -0.90567E+07
        -0.58629E+08
        -0.61651E+08
        -0.91392E+08
        -0.21270E+09
        -0.32705E+09
        -0.37293E+09
        -0.25076E+09
        -0.13058E+09
         0.11830E+08
         0.16106E+08
         0.18220E+08
         0.24700E+08
         0.36043E+08
         0.30215E+08
         0.83560E+07
         0.62279E+07
         0.15990E+08
         0.11565E+08
         0.30058E+08
         0.12869E+08
         0.84081E+07
         0.28918E+08
         0.74691E+08
         0.25929E+07
         0.15526E+08
         0.13355E+08
         0.20685E+07
         0.31567E+08
         0.46215E+08
         0.89709E+08
         0.29593E+08
         0.70985E+07
         0.60869E+08
         0.23150E+08
         0.91166E+08
         0.11350E+09
         0.16750E+09
         0.89998E+08
         0.37826E+08
         0.24562E+08
         0.49259E+08
         0.48874E+08
         0.50864E+08
         0.25079E+08
         0.84119E+07
         0.14563E+09
         0.22716E+09
         0.24471E+09
         0.12156E+09
         0.18637E+09
         0.15235E+09
         0.19552E+08
         0.16059E+08
         0.67462E+07
         0.71215E+07
         0.16632E+08
         0.15558E+08
         0.17786E+08
        -0.90238E+07
         0.46228E+07
         0.52007E+08
        -0.27149E+08
         0.66464E+08
         0.37389E+08
         0.23838E+08
        -0.23640E+08
        -0.21216E+09
        -0.45559E+09
        -0.86749E+09
        -0.14141E+10
        -0.12659E+10
        -0.27565E+09
        -0.44075E+08
         0.13348E+09
         0.13330E+09
         0.77410E+08
         0.31879E+08
        -0.79875E+07
        -0.47923E+08
        -0.82447E+08
        -0.13384E+09
        -0.20714E+09
        -0.31533E+09
        -0.31392E+09
        -0.24388E+09
        -0.11863E+09
         0.17305E+08
         0.15789E+08
         0.34468E+08
         0.31760E+08
         0.31388E+08
         0.33910E+08
         0.12349E+08
         0.54678E+07
         0.55222E+07
         0.22515E+08
         0.28133E+08
         0.37176E+08
         0.19406E+08
         0.26595E+08
         0.68054E+08
         0.10184E+08
         0.17130E+08
         0.17608E+08
         0.11892E+08
         0.31970E+08
         0.49004E+08
         0.71728E+08
         0.22421E+08
         0.20854E+08
         0.50237E+08
         0.22989E+08
         0.48041E+08
         0.10335E+09
         0.13370E+09
         0.78719E+08
         0.43849E+08
         0.26875E+08
         0.53393E+08
         0.55154E+08
         0.51706E+08
         0.30097E+08
         0.15422E+08
         0.11311E+09
         0.18418E+09
         0.21804E+09
         0.12679E+09
         0.10208E+09
         0.15674E+09
         0.15261E+08
         0.98826E+07
        -0.14970E+08
         0.57078E+07
         0.19488E+08
         0.24493E+08
         0.15032E+08
        -0.42087E+08
         0.16792E+08
         0.43546E+08
        -0.14513E+08
         0.48331E+08
         0.31672E+08
         0.17717E+08
        -0.32411E+08
        -0.20077E+09
        -0.41359E+09
        -0.41382E+09
        -0.11231E+10
        -0.11951E+10
        -0.32321E+09
        -0.19436E+09
         0.13856E+09
         0.13697E+09
         0.35731E+08
         0.13643E+08
        -0.27800E+08
        -0.71992E+08
        -0.10066E+09
        -0.14933E+09
        -0.17689E+09
        -0.29041E+09
        -0.25811E+09
        -0.22059E+09
        -0.14715E+09
         0.19661E+08
         0.18792E+08
         0.26415E+08
         0.11588E+08
         0.14337E+08
         0.75755E+07
         0.15040E+08
         0.17505E+08
         0.13164E+08
         0.20833E+08
         0.38984E+08
         0.36274E+08
         0.21238E+08
         0.34690E+08
         0.53487E+08
         0.11101E+08
         0.17801E+08
         0.14221E+08
         0.10632E+08
         0.34524E+08
         0.40102E+08
         0.85851E+08
         0.20741E+08
         0.23686E+08
         0.54300E+08
         0.19259E+08
         0.56514E+08
         0.10514E+09
         0.44416E+08
         0.90730E+08
         0.35655E+08
         0.27382E+08
         0.40383E+08
         0.14044E+08
         0.49872E+08
         0.25831E+08
         0.10718E+08
         0.51326E+08
         0.11404E+09
         0.16029E+09
         0.97496E+08
         0.19188E+09
         0.16370E+09
         0.15589E+08
         0.88804E+07
        -0.10634E+08
         0.48746E+07
         0.85954E+07
         0.38086E+07
        -0.74223E+07
        -0.44243E+08
        -0.52345E+06
         0.25079E+08
        -0.39857E+08
         0.10119E+08
         0.17019E+08
         0.16961E+08
        -0.27980E+08
        -0.15872E+09
        -0.34023E+09
        -0.66670E+09
        -0.98066E+09
        -0.70058E+09
        -0.14173E+09
        -0.10226E+09
         0.14942E+09
         0.10576E+09
         0.64111E+08
         0.16756E+08
        -0.21350E+08
        -0.52771E+08
        -0.57427E+08
        -0.10626E+09
        -0.16304E+09
        -0.26489E+09
        -0.26010E+09
        -0.20755E+09
        -0.11051E+09
         0.22058E+08
         0.79339E+07
         0.24727E+08
         0.19640E+08
         0.17816E+08
         0.17860E+08
         0.63467E+07
         0.13118E+08
         0.10804E+08
         0.26789E+08
         0.17902E+08
         0.25286E+08
         0.14546E+08
         0.20787E+08
         0.38661E+08
         0.59893E+07
         0.21058E+08
         0.10973E+08
         0.11915E+08
         0.40069E+08
         0.53833E+08
         0.93689E+08
         0.30518E+08
         0.24265E+08
         0.57830E+08
         0.12859E+08
         0.71102E+08
         0.11459E+09
         0.17274E+09
         0.86410E+08
         0.28805E+08
         0.19192E+08
         0.35809E+08
         0.38702E+08
         0.38017E+08
         0.10113E+08
         0.58700E+07
         0.10511E+09
         0.18079E+09
         0.20717E+09
         0.13029E+09
         0.97921E+08
         0.16366E+09
         0.11558E+08
         0.10525E+08
        -0.19117E+07
        -0.12012E+07
         0.41100E+07
         0.48109E+07
        -0.47416E+07
        -0.37373E+08
         0.67539E+07
        -0.14670E+08
        -0.69036E+08
         0.15690E+08
         0.16716E+08
         0.26399E+08
        -0.17297E+08
        -0.16296E+09
        -0.42051E+09
        -0.65240E+09
        -0.11401E+10
        -0.11572E+10
        -0.55304E+09
        -0.10642E+09
         0.11897E+09
         0.14659E+09
         0.72721E+08
         0.38396E+08
        -0.92610E+06
        -0.57830E+08
        -0.79117E+08
        -0.11739E+09
        -0.16312E+09
        -0.23136E+09
        -0.21895E+09
        -0.14552E+09
        -0.13807E+09
         0.11331E+08
         0.45612E+07
         0.15904E+08
         0.16435E+08
         0.13493E+08
         0.14568E+08
         0.96153E+07
         0.15164E+08
         0.12027E+08
         0.27623E+08
         0.32253E+08
         0.35874E+08
         0.63951E+07
         0.29906E+08
         0.28371E+08
         0.53909E+07
         0.16545E+08
         0.79878E+07
         0.99844E+07
         0.40592E+08
         0.51239E+08
         0.94936E+08
         0.17158E+08
         0.80017E+07
         0.57401E+08
         0.61760E+07
         0.48019E+08
         0.12357E+09
         0.82251E+08
         0.91411E+08
         0.24219E+08
         0.15588E+08
         0.24055E+08
         0.17308E+08
         0.32045E+08
         0.14246E+07
         0.12562E+07
         0.74178E+08
         0.12773E+09
         0.21546E+09
         0.13061E+09
         0.22359E+09
         0.86989E+08
         0.11655E+08
         0.56580E+07
        -0.65508E+07
         0.18460E+07
        -0.48795E+07
         0.40448E+07
        -0.21888E+07
        -0.44114E+08
         0.34972E+07
         0.17554E+08
        -0.53585E+08
         0.12490E+08
         0.22260E+08
         0.29187E+08
        -0.10095E+08
        -0.61028E+08
        -0.26313E+09
        -0.81861E+09
        -0.97216E+09
        -0.10318E+10
        -0.57479E+09
        -0.99268E+08
         0.14308E+09
         0.14467E+09
         0.90311E+08
         0.42881E+08
        -0.26144E+07
        -0.32707E+08
        -0.44982E+08
        -0.63375E+08
        -0.11885E+09
        -0.16580E+09
        -0.18108E+09
        -0.14314E+09
        -0.13383E+09
         0.69235E+07
         0.49013E+07
         0.67651E+07
         0.37362E+07
        -0.14624E+07
        -0.57941E+07
         0.81869E+07
         0.19116E+08
         0.84811E+07
         0.22883E+08
         0.40169E+08
         0.22785E+08
         0.87127E+07
         0.45932E+08
         0.14513E+08
         0.39268E+06
         0.16178E+08
         0.32987E+07
         0.10041E+08
         0.27429E+08
         0.36105E+08
         0.84436E+08
         0.16133E+08
         0.10672E+08
         0.45466E+08
         0.24656E+07
         0.36867E+08
         0.61877E+08
         0.13576E+09
         0.44415E+08
         0.52044E+07
         0.38262E+07
         0.94207E+07
         0.10274E+06
         0.11623E+08
         0.31875E+07
         0.45443E+07
         0.96960E+08
         0.20957E+09
         0.19842E+09
         0.23564E+09
         0.15822E+09
         0.13038E+09
         0.12949E+06
        -0.52031E+05
        -0.19041E+08
        -0.14367E+08
        -0.13908E+07
        -0.14433E+08
        -0.21948E+08
        -0.25968E+08
        -0.18835E+08
         0.14737E+08
        -0.58923E+08
         0.32994E+07
        -0.14882E+07
        -0.30832E+07
        -0.41616E+08
        -0.83035E+08
        -0.35195E+09
        -0.71960E+09
        -0.64995E+09
        -0.79634E+09
        -0.44479E+09
         0.34623E+08
         0.19779E+09
         0.15656E+09
         0.76912E+08
         0.20152E+08
        -0.68813E+07
        -0.69084E+07
         0.27838E+08
         0.23390E+08
        -0.40849E+08
        -0.48054E+08
        -0.69082E+08
        -0.92997E+08
        -0.12703E+09
         0.47943E+07
        -0.83760E+06
        -0.73578E+07
        -0.10996E+08
        -0.11103E+08
        -0.22802E+08
         0.12416E+08
         0.15228E+08
         0.10740E+07
         0.22521E+08
         0.14678E+08
         0.36908E+08
         0.15967E+08
         0.30221E+08
         0.43887E+08
        -0.17796E+07
         0.37886E+07
        -0.64794E+07
         0.92156E+07
         0.24115E+08
         0.13186E+08
         0.30318E+08
         0.10917E+08
         0.71479E+07
         0.43607E+08
        -0.39991E+07
         0.67354E+08
         0.10539E+09
         0.15694E+09
         0.62598E+08
        -0.33477E+08
        -0.36013E+08
        -0.46278E+08
        -0.37333E+08
         0.11767E+08
         0.45245E+07
        -0.33527E+07
         0.57801E+08
         0.91282E+08
         0.16038E+09
         0.10212E+09
         0.19562E+09
         0.12654E+09
        -0.22047E+07
        -0.23504E+08
        -0.30463E+08
        -0.21028E+08
        -0.30070E+08
        -0.17151E+08
        -0.22868E+08
        -0.80765E+07
        -0.33266E+08
         0.29340E+08
        -0.29082E+08
         0.10426E+08
        -0.12619E+08
        -0.25961E+08
        -0.75546E+08
        -0.17178E+09
        -0.37136E+09
        -0.76257E+09
        -0.94827E+09
        -0.11340E+10
        -0.54180E+09
         0.22137E+08
         0.77778E+08
         0.15009E+09
         0.61381E+08
         0.12859E+08
        -0.42462E+07
         0.53364E+08
         0.94057E+08
         0.60471E+08
         0.13743E+09
         0.21101E+09
         0.13169E+09
         0.23940E+08
        -0.48539E+08
         0.12382E+08
         0.12744E+08
         0.38708E+07
        -0.18857E+08
        -0.92856E+06
        -0.29303E+08
         0.28151E+08
         0.28374E+08
         0.61718E+07
         0.37070E+08
         0.67112E+08
         0.40351E+08
         0.35967E+08
         0.37674E+08
         0.24484E+08
        -0.42808E+07
         0.13455E+08
        -0.13679E+08
         0.75835E+07
         0.19643E+08
         0.35364E+08
         0.65243E+08
         0.15613E+08
         0.91912E+07
         0.34804E+08
        -0.14495E+08
         0.76334E+08
         0.99932E+08
         0.82032E+08
         0.56096E+08
        -0.82210E+08
        -0.72163E+08
        -0.83710E+08
        -0.52047E+08
         0.13206E+08
        -0.44305E+07
         0.97789E+07
         0.11289E+09
         0.12767E+09
         0.61106E+08
        -0.33413E+07
         0.33968E+08
         0.99978E+08
        -0.65360E+07
        -0.35828E+08
        -0.31437E+08
        -0.57482E+08
        -0.78100E+08
        -0.37813E+08
        -0.43549E+08
        -0.16918E+08
        -0.38399E+08
         0.36071E+08
        -0.78160E+07
        -0.13420E+08
        -0.23763E+08
        -0.23101E+08
        -0.64728E+08
        -0.19262E+09
        -0.27471E+09
        -0.35846E+09
        -0.40089E+09
        -0.43944E+09
        -0.41153E+09
        -0.19178E+09
         0.71360E+08
         0.18757E+09
         0.15455E+09
         0.73638E+08
         0.58221E+08
         0.17055E+09
         0.35737E+09
         0.43465E+09
         0.35259E+09
         0.36429E+09
         0.30803E+09
         0.15010E+09
         0.34135E+08
         0.15220E+08
         0.17438E+08
        -0.81529E+07
        -0.24755E+08
        -0.16219E+08
        -0.39696E+08
         0.33691E+08
         0.30592E+08
         0.14457E+08
         0.28028E+08
         0.57796E+08
         0.24318E+08
         0.23487E+08
         0.38174E+08
         0.15469E+08
        -0.79060E+07
         0.21760E+08
        -0.51069E+07
        -0.73817E+07
         0.21309E+08
         0.29663E+08
         0.67028E+08
         0.95147E+07
        -0.29092E+08
         0.27917E+08
        -0.46953E+08
         0.30615E+08
         0.20513E+08
         0.11751E+08
         0.48537E+08
        -0.10929E+09
        -0.11702E+09
        -0.90031E+08
        -0.79689E+08
        -0.25655E+08
         0.45560E+07
         0.12751E+08
         0.93762E+06
        -0.19384E+08
        -0.20615E+08
        -0.56509E+08
         0.14349E+08
         0.91099E+08
        -0.17187E+08
        -0.51798E+08
        -0.31983E+08
        -0.63867E+08
        -0.93139E+08
        -0.71352E+08
        -0.57577E+08
         0.48629E+07
        -0.50864E+08
        -0.57337E+08
        -0.30159E+08
        -0.13052E+08
         0.21019E+08
         0.13251E+08
        -0.16275E+08
        -0.96330E+08
        -0.11133E+09
        -0.26815E+08
         0.28856E+08
        -0.23505E+09
        -0.67375E+09
        -0.51361E+09
        -0.17807E+08
         0.37696E+09
         0.46121E+09
         0.30051E+09
         0.23094E+09
         0.39196E+09
         0.56639E+09
         0.54881E+09
         0.42287E+09
         0.48996E+09
         0.44318E+09
         0.22217E+09
         0.66235E+08
        -0.48359E+08
        -0.22105E+08
        -0.13650E+09
        -0.10194E+09
        -0.20458E+09
        -0.15955E+09
        -0.35778E+07
        -0.31476E+08
        -0.86128E+07
        -0.17754E+08
        -0.25222E+08
        -0.24219E+08
         0.90008E+07
        -0.34996E+08
        -0.36041E+08
        -0.27616E+08
         0.24889E+08
        -0.21970E+08
        -0.91129E+07
         0.82914E+08
         0.17548E+09
         0.15322E+09
         0.16859E+09
        -0.78493E+08
         0.20406E+08
        -0.13584E+09
        -0.55120E+08
        -0.12265E+09
        -0.24239E+09
         0.10465E+09
        -0.21242E+09
        -0.23118E+09
        -0.19290E+09
        -0.19686E+09
        -0.28639E+09
        -0.68969E+08
         0.15302E+08
        -0.10436E+09
        -0.22618E+09
        -0.40670E+09
        -0.91677E+09
        -0.61541E+09
        -0.77208E+07
         0.82924E+08
        -0.39709E+08
        -0.44614E+08
        -0.15864E+09
        -0.22271E+09
        -0.22326E+09
        -0.18538E+09
        -0.87134E+08
        -0.12640E+09
        -0.41444E+09
        -0.20297E+09
        -0.11630E+08
         0.15319E+09
         0.86173E+08
         0.20549E+08
         0.13200E+09
         0.35091E+09
         0.62455E+09
         0.43194E+09
        -0.11709E+10
        -0.29963E+10
        -0.23901E+10
        -0.30678E+09
         0.13281E+10
         0.16819E+10
         0.12965E+10
         0.10143E+10
         0.99373E+09
         0.11446E+10
         0.91826E+09
         0.62508E+09
         0.53600E+09
         0.39367E+09
         0.63972E+08
        -0.77150E+08
  
SCALARS                         fint_x  double 1
LOOKUP_TABLE default
         0.00000E+00
        -0.42390E+03
        -0.29558E+03
        -0.32686E+03
         0.55416E+03
         0.21785E+04
         0.24175E+04
         0.22354E+04
         0.21798E+04
        -0.66308E+03
        -0.64381E+03
         0.18031E+04
         0.20095E+04
        -0.63099E+02
        -0.72332E+01
         0.13929E+04
         0.22298E+04
        -0.84735E+02
         0.81973E+02
         0.11193E+04
         0.28065E+04
         0.19498E+03
        -0.17372E+02
        -0.17081E+03
         0.14431E+04
        -0.18880E+03
         0.33670E+03
         0.27352E+03
         0.38338E+03
         0.17777E+04
         0.10350E+04
        -0.38314E+02
        -0.13362E+03
         0.20433E+02
         0.34502E+02
         0.74074E+03
         0.42812E+03
        -0.72808E+01
        -0.22441E+02
         0.21968E+02
         0.14280E+03
         0.94977E+02
         0.17723E+03
         0.34435E+01
         0.68209E+02
        -0.50935E+02
         0.10282E+01
         0.27914E+02
         0.36041E+02
         0.71739E+02
         0.96758E+03
         0.57537E+02
         0.50717E+03
         0.17605E+03
         0.20874E+04
         0.51097E+03
         0.21656E+04
         0.50025E+03
         0.73234E+02
         0.20361E+04
         0.72726E+03
         0.71324E+03
         0.10276E+03
         0.79114E+03
         0.12645E+04
         0.45714E+03
         0.52236E+03
         0.11699E+04
         0.24753E+04
        -0.50911E+03
        -0.31397E+03
         0.12697E+04
         0.13846E+04
        -0.22004E+03
         0.90628E+03
        -0.59145E+03
         0.13938E+04
        -0.48981E+03
         0.12819E+04
        -0.71768E+02
         0.11687E+04
         0.27454E+03
         0.42785E+03
         0.92478E+03
         0.12660E+04
         0.55434E+03
         0.12250E+04
        -0.30551E+03
         0.13831E+04
        -0.53001E+03
         0.15947E+04
        -0.68170E+03
        -0.25694E+03
         0.12982E+04
         0.86622E+03
        -0.16981E+03
         0.67891E+03
        -0.10053E+04
         0.16754E+04
        -0.26716E+04
         0.11697E+04
        -0.63412E+04
        -0.14317E+04
        -0.22285E+03
         0.93678E+03
        -0.54108E+03
        -0.99398E+03
         0.14813E+04
         0.12777E+04
        -0.58058E+03
         0.48497E+03
        -0.97678E+02
        -0.99934E+03
         0.73182E+03
        -0.44990E+04
         0.16892E+04
        -0.83629E+04
         0.26539E+04
        -0.10188E+05
         0.38289E+04
        -0.12974E+05
         0.40180E+04
        -0.14419E+05
         0.22870E+04
        -0.40246E+04
         0.19388E+03
         0.30093E+03
         0.18844E+01
         0.71206E+03
         0.33250E+03
         0.10979E+04
         0.46781E+03
         0.20265E+04
         0.58123E+02
         0.24127E+04
        -0.52806E+03
         0.18671E+04
        -0.91233E+03
         0.10805E+04
        -0.12195E+04
         0.14701E+04
        -0.13418E+04
         0.13750E+04
        -0.19867E+04
         0.12482E+04
        -0.35518E+04
         0.73656E+03
        -0.12523E+05
        -0.41966E+03
        -0.16911E+05
        -0.24581E+04
        -0.15995E+05
        -0.15042E+04
        -0.10242E+05
         0.14964E+03
        -0.48042E+04
         0.14370E+04
        -0.17739E+04
        -0.15219E+04
        -0.18538E+04
        -0.10147E+04
        -0.22939E+04
        -0.18039E+04
        -0.11273E+04
        -0.14946E+04
        -0.23848E+04
        -0.18890E+04
        -0.69499E+03
         0.83043E+03
        -0.28906E+02
        -0.11814E+04
         0.46069E+03
        -0.16017E+04
        -0.11470E+04
        -0.12698E+04
        -0.84377E+03
        -0.67126E+03
        -0.29302E+03
         0.45408E+02
        -0.94561E+03
        -0.85106E+03
        -0.14749E+04
        -0.14414E+04
        -0.17833E+04
        -0.15192E+04
        -0.60257E+03
        -0.68634E+03
        -0.82279E+03
        -0.83735E+03
        -0.39699E+03
        -0.11937E+04
        -0.18143E+04
        -0.17593E+04
        -0.96681E+03
        -0.15989E+03
        -0.36137E+03
        -0.16766E+03
        -0.15295E+03
        -0.72172E+03
        -0.24360E+03
        -0.13679E+04
        -0.14525E+04
        -0.13804E+04
        -0.13522E+04
        -0.11300E+04
        -0.99792E+03
        -0.37600E+04
        -0.63250E+04
        -0.39920E+04
        -0.18500E+04
        -0.28826E+04
        -0.11659E+04
         0.19041E+03
         0.24490E+04
         0.52351E+04
         0.77596E+04
         0.10069E+05
         0.10230E+05
         0.51515E+04
         0.81051E+03
        -0.58317E+03
        -0.44726E+03
        -0.75217E+03
        -0.10043E+04
        -0.13783E+04
        -0.15148E+04
        -0.16168E+04
        -0.15442E+04
        -0.15156E+04
        -0.33806E+04
        -0.10374E+05
        -0.16595E+05
        -0.15680E+05
        -0.10225E+05
        -0.52015E+04
        -0.13089E+04
        -0.70085E+03
        -0.65809E+03
        -0.16006E+04
         0.61327E+03
         0.12757E+04
        -0.27340E+03
        -0.82548E+03
        -0.97061E+03
        -0.95478E+03
        -0.44935E+03
         0.16976E+03
        -0.80519E+02
        -0.81169E+03
        -0.11343E+03
        -0.82436E+03
        -0.86718E+03
        -0.12582E+04
        -0.48348E+03
        -0.66354E+03
        -0.46931E+03
        -0.60056E+03
        -0.19346E+03
        -0.28410E+03
        -0.97395E+03
        -0.77582E+03
        -0.54269E+03
        -0.31964E+03
        -0.17222E+03
        -0.72203E+03
        -0.10740E+04
        -0.75348E+03
        -0.79031E+03
         0.11081E+02
         0.37537E+03
        -0.20532E+03
        -0.31912E+03
         0.50241E+03
         0.24234E+03
         0.10365E+03
         0.67610E+02
        -0.20263E+03
        -0.63044E+03
        -0.18909E+03
        -0.59003E+02
         0.30574E+03
         0.25157E+03
         0.67054E+03
         0.22035E+04
         0.53766E+04
         0.66221E+04
         0.39528E+04
         0.14872E+04
         0.29314E+04
         0.33266E+03
         0.22083E+03
         0.58058E+03
         0.12590E+04
         0.18902E+04
         0.33602E+04
         0.39076E+04
         0.26810E+04
         0.97493E+03
        -0.24882E+03
        -0.79172E+03
        -0.47670E+03
        -0.59122E+03
        -0.22702E+03
         0.22907E+03
         0.82075E+03
         0.11708E+04
         0.17879E+04
         0.25103E+04
         0.28818E+04
         0.52647E+04
         0.94973E+04
         0.59196E+04
         0.72189E+04
        -0.22179E+03
        -0.24309E+02
         0.11014E+03
        -0.17011E+03
         0.18129E+04
         0.12412E+04
        -0.96550E+02
        -0.70293E+02
        -0.10276E+03
        -0.14878E+03
        -0.30457E+03
        -0.33767E+03
        -0.17258E+03
        -0.23337E+03
        -0.33191E+03
        -0.13451E+03
        -0.20199E+03
        -0.17278E+03
        -0.76436E+02
        -0.23627E+03
        -0.21528E+03
        -0.39942E+03
        -0.17444E+01
        -0.18455E+01
        -0.11147E+03
        -0.59976E+02
        -0.18543E+03
        -0.14697E+03
        -0.49533E+02
        -0.19072E+03
         0.21081E+03
         0.13628E+03
         0.63843E+03
         0.66572E+03
         0.12075E+04
         0.49169E+03
         0.11692E+03
        -0.28417E+03
        -0.16769E+03
         0.19272E+03
         0.46774E+03
         0.13280E+03
        -0.52566E+03
         0.17935E+03
         0.43839E+03
         0.74552E+03
         0.73421E+03
         0.10893E+04
         0.14308E+04
         0.31576E+04
         0.48658E+04
         0.37613E+04
         0.21697E+04
         0.38634E+04
         0.11878E+04
         0.28937E+03
        -0.20476E+03
        -0.51837E+03
         0.54317E+03
         0.53122E+03
         0.14417E+04
         0.99887E+03
         0.73308E+03
         0.57681E+03
         0.45659E+03
        -0.25675E+03
        -0.44402E+03
        -0.72763E+02
         0.45604E+03
         0.88586E+03
         0.10158E+04
         0.87492E+03
         0.23530E+04
         0.57776E+04
         0.10865E+05
         0.10459E+05
         0.90799E+04
         0.16361E+04
        -0.87843E+01
         0.46393E+02
        -0.10664E+02
         0.10662E+02
         0.40529E+03
         0.24269E+03
         0.12806E+02
        -0.46179E+02
        -0.35228E+02
        -0.65058E+02
        -0.12627E+03
        -0.11681E+03
        -0.46836E+02
        -0.19304E+03
        -0.35640E+03
         0.12687E+03
         0.38713E+02
         0.11984E+03
         0.42069E+02
        -0.12910E+03
        -0.20989E+03
        -0.44438E+03
        -0.11281E+03
        -0.79499E+01
        -0.18086E+03
         0.11726E+02
        -0.38361E+03
        -0.62230E+03
        -0.76549E+03
        -0.34056E+03
         0.10698E+03
        -0.28617E+02
         0.10876E+03
         0.83694E+02
         0.38385E+03
         0.10612E+03
        -0.35138E+02
        -0.67503E+03
        -0.69357E+03
        -0.52762E+03
        -0.21763E+03
        -0.73248E+03
        -0.67449E+03
        -0.86523E+02
        -0.80340E+02
        -0.91004E+02
        -0.42373E+02
         0.16626E+02
         0.29429E+03
         0.70244E+03
         0.12297E+04
         0.63483E+03
         0.49098E+03
         0.63739E+03
         0.86808E+02
        -0.67217E+02
        -0.21877E+03
        -0.44766E+03
        -0.43018E+02
         0.19156E+03
         0.53679E+03
         0.64708E+03
         0.70233E+03
         0.53159E+03
        -0.21656E+03
        -0.63912E+03
        -0.58802E+03
        -0.39400E+03
        -0.20201E+03
        -0.10635E+03
        -0.17761E+03
        -0.86608E+02
         0.30632E+03
         0.89680E+03
         0.11074E+04
         0.23792E+04
         0.22929E+04
         0.15115E+04
         0.49216E+02
         0.27727E+02
        -0.36427E+02
         0.19484E+02
        -0.31907E+02
        -0.20603E+02
         0.94502E+01
        -0.56688E+02
         0.54778E+02
        -0.72223E+02
        -0.44093E+02
        -0.86454E+02
        -0.47601E+02
        -0.13112E+03
        -0.23276E+03
         0.14027E+03
         0.87532E+02
         0.69403E+02
         0.59818E+02
        -0.18544E+02
        -0.13549E+03
        -0.29693E+03
        -0.76738E+02
         0.31117E+02
        -0.75035E+02
         0.63226E+02
        -0.18041E+03
        -0.31601E+03
        -0.45964E+03
        -0.21948E+03
        -0.23877E+02
        -0.26118E+02
        -0.14530E+03
        -0.81807E+02
        -0.48207E+02
        -0.48364E+02
        -0.35695E+02
        -0.52333E+03
        -0.50335E+03
        -0.43625E+03
        -0.21867E+03
        -0.41078E+03
        -0.44800E+03
        -0.90071E+02
        -0.15948E+03
        -0.27415E+03
        -0.32491E+03
        -0.47408E+03
        -0.78519E+02
        -0.24075E+03
        -0.40887E+03
        -0.27778E+03
        -0.45105E+02
        -0.96587E+01
        -0.62483E+02
        -0.73068E+02
        -0.11335E+03
        -0.19041E+03
        -0.21999E+03
        -0.50267E+03
        -0.32918E+03
         0.13349E+03
         0.11958E+03
        -0.35336E+03
        -0.62844E+03
        -0.89936E+03
        -0.56015E+03
        -0.33630E+03
        -0.27191E+03
        -0.32022E+03
        -0.43131E+03
        -0.69536E+03
        -0.10332E+04
        -0.70040E+03
        -0.57473E+03
        -0.44460E+03
        -0.19365E+03
        -0.13874E+03
         0.72709E+02
         0.41588E+02
         0.43789E+02
         0.58388E+02
         0.41800E+01
        -0.36922E+01
         0.17374E+02
         0.29544E+02
         0.68306E+02
         0.71092E+02
         0.50176E+02
        -0.10111E+02
        -0.45914E+01
        -0.20888E+01
        -0.13568E+03
         0.86651E+02
         0.78299E+02
         0.69266E+02
         0.42685E+02
         0.25230E+02
        -0.75910E+02
        -0.13665E+03
        -0.22938E+02
         0.24655E+02
        -0.11668E+02
         0.54727E+02
        -0.39350E+02
        -0.16256E+03
        -0.42639E+03
        -0.70182E+02
         0.31734E+02
         0.27008E+02
        -0.11086E+02
        -0.12677E+03
        -0.53313E+01
        -0.67577E+01
         0.72732E+01
        -0.36784E+03
        -0.51142E+03
        -0.45149E+03
        -0.44184E+03
        -0.52186E+03
        -0.23511E+03
        -0.38029E+01
        -0.21902E+02
        -0.54100E+02
        -0.75009E+02
        -0.14469E+03
        -0.18060E+03
        -0.34573E+03
        -0.39756E+03
        -0.25996E+03
        -0.13656E+02
        -0.74818E+02
        -0.78786E+01
        -0.14417E+02
        -0.35422E+02
        -0.65760E+02
        -0.39224E+03
        -0.80446E+03
        -0.72200E+03
        -0.56373E+03
        -0.64396E+03
        -0.81050E+03
        -0.72554E+03
        -0.60124E+03
        -0.27164E+03
        -0.63976E+02
        -0.21665E+02
        -0.50613E+02
        -0.10094E+03
        -0.20712E+03
        -0.40611E+03
        -0.55003E+03
        -0.29571E+03
        -0.30060E+03
        -0.37832E+03
        -0.15430E+03
         0.57731E+02
         0.13379E+02
         0.24685E+02
         0.51066E+02
         0.26654E+02
         0.27128E+02
         0.14198E+02
         0.13503E+02
         0.27165E+02
         0.14785E+01
         0.38783E+02
        -0.79863E+01
         0.13382E+02
         0.29909E+02
        -0.38455E+02
         0.26327E+02
         0.17206E+02
         0.33138E+02
         0.10927E+02
         0.10478E+02
        -0.17656E+02
        -0.94694E+02
         0.17164E+01
         0.33281E+01
         0.28258E+02
         0.11646E+02
        -0.23764E+02
        -0.30616E+02
        -0.57722E+02
        -0.30406E+02
         0.27642E+02
         0.19318E+02
         0.41596E+02
         0.14445E+02
         0.23176E+02
         0.15413E+02
         0.12122E+02
        -0.17741E+03
        -0.32391E+03
        -0.36746E+03
        -0.34752E+03
        -0.27519E+03
        -0.20644E+03
         0.14004E+02
         0.21837E+02
         0.28949E+02
         0.21536E+02
         0.29379E+02
         0.48721E+02
        -0.44806E+02
        -0.33300E+02
        -0.21287E+02
         0.37806E+02
         0.39453E+02
         0.35498E+02
         0.34353E+02
        -0.24915E+00
        -0.42872E+02
        -0.14216E+03
        -0.15617E+03
        -0.26810E+03
        -0.42051E+03
        -0.62983E+03
        -0.67792E+03
        -0.55456E+03
        -0.30257E+03
        -0.38135E+02
         0.58819E+02
         0.64737E+02
         0.45416E+02
         0.47793E+02
         0.61882E+02
         0.20430E+02
         0.75833E+02
        -0.61971E+02
        -0.63910E+02
        -0.10938E+03
        -0.50689E+02
         0.29677E+02
         0.69309E+01
         0.10346E+02
         0.16354E+02
         0.58752E+01
        -0.45761E+01
         0.57318E+01
         0.11139E+02
         0.12565E+02
         0.30279E+02
         0.21884E+02
         0.61808E+01
         0.10648E+02
         0.28415E+02
        -0.30070E+01
         0.29100E+00
         0.20635E+02
         0.10681E+02
         0.43301E+01
         0.16580E+02
        -0.73551E+01
        -0.19415E+02
        -0.53679E+01
        -0.42473E+01
         0.94865E+01
        -0.22550E+01
         0.35330E+02
         0.26160E+02
        -0.60320E+02
         0.27845E+00
         0.16402E+02
         0.13365E+01
         0.28710E+02
         0.17246E+02
         0.77372E+01
         0.99355E+01
         0.30837E+01
        -0.95621E+02
        -0.15103E+03
        -0.16994E+03
        -0.17496E+03
        -0.69117E+02
        -0.41641E+02
         0.31717E+01
         0.12706E+01
         0.85161E+01
         0.10162E+02
         0.18562E+02
         0.21966E+02
        -0.33999E+01
        -0.23474E+02
        -0.16450E+02
         0.27196E+02
        -0.22972E+02
         0.29469E+02
         0.25574E+02
         0.13879E+02
        -0.76512E+00
        -0.10829E+03
        -0.29522E+03
        -0.32761E+03
        -0.51498E+03
        -0.27547E+03
        -0.13037E+03
        -0.27714E+03
        -0.15742E+03
         0.15806E+02
         0.37058E+02
         0.25074E+02
         0.31290E+02
         0.15549E+02
         0.50450E+02
         0.56311E+02
         0.77231E+02
         0.58897E+02
         0.59921E+02
         0.29892E+02
         0.60610E+02
         0.12027E+02
        -0.49003E+01
        -0.57362E+01
         0.10321E+02
         0.26253E+02
         0.26257E+02
         0.65141E+00
         0.95349E+01
         0.14483E+02
         0.33673E+02
        -0.43306E+00
         0.17202E+01
        -0.11788E+01
         0.12561E+02
        -0.64716E+01
         0.91085E+00
         0.84088E+01
         0.14918E+02
         0.47492E+00
         0.17679E+02
        -0.41014E+01
         0.15545E+02
        -0.69616E+01
        -0.44852E+01
         0.33860E+02
        -0.56973E+01
         0.29112E+02
         0.35945E+02
         0.13117E+02
         0.35130E+02
         0.40241E+01
        -0.10609E+02
         0.19671E+02
         0.28905E+02
        -0.80824E+01
        -0.57016E+01
        -0.69945E+01
        -0.16353E+02
        -0.44546E+02
        -0.80928E+02
        -0.12774E+03
        -0.19794E+02
        -0.11482E+01
        -0.10688E+02
        -0.10894E+02
        -0.77566E+01
        -0.10215E+02
        -0.10149E+01
         0.31579E+02
         0.15354E+02
         0.17957E+02
         0.14500E+02
         0.24770E+02
         0.22704E+02
         0.35228E+02
         0.24615E+02
         0.21148E+02
         0.58782E+01
        -0.58732E+02
        -0.14440E+03
        -0.25801E+03
        -0.30465E+03
        -0.22476E+03
        -0.98677E+02
        -0.14109E+03
        -0.51108E+02
         0.72301E+01
        -0.16945E+02
         0.50066E+01
         0.10857E+02
         0.41539E+01
         0.16292E+02
         0.98877E+01
         0.17579E+02
        -0.11753E+02
         0.10497E+01
        -0.36021E+01
         0.45399E+02
         0.45939E+01
        -0.96610E+01
         0.96619E+01
         0.32272E+02
         0.23321E+02
         0.32778E+02
        -0.34083E+01
         0.12325E+02
         0.23385E+02
         0.27286E+02
         0.29945E+01
         0.11115E+01
        -0.42379E+01
         0.11950E+02
         0.77408E+01
         0.44746E+01
         0.20182E+02
         0.11920E+02
         0.77670E+01
         0.24333E+02
         0.11477E+02
         0.31396E+02
         0.50014E+01
         0.71256E+00
         0.31420E+02
        -0.58583E+01
         0.37814E+02
         0.52944E+02
         0.13170E+02
         0.60967E+02
         0.10568E+02
        -0.25550E+01
         0.87473E+01
         0.39914E+02
        -0.40340E+01
        -0.11293E+02
        -0.74400E+00
         0.20011E+02
         0.18120E+02
        -0.97311E+01
        -0.76208E+02
         0.32191E+02
         0.41334E+02
        -0.14003E+01
        -0.13390E+01
        -0.40247E+01
        -0.61253E+01
         0.19069E+01
        -0.28891E-01
        -0.20443E+02
        -0.24272E+02
        -0.87451E+01
         0.32931E+01
         0.49161E+02
         0.34779E+02
         0.42469E+02
         0.47583E+02
         0.32745E+02
        -0.50647E+02
        -0.14250E+03
        -0.22977E+03
        -0.27174E+03
        -0.16251E+03
         0.86362E+02
        -0.59843E+02
        -0.12058E+02
         0.27367E+02
         0.36113E+02
         0.36464E+02
         0.26308E+02
         0.98238E+01
        -0.62701E+01
        -0.13372E+02
        -0.10235E+03
        -0.11564E+03
        -0.51735E+02
        -0.12002E+02
        -0.28927E+02
         0.87351E+01
         0.76718E+00
         0.78880E+01
         0.27802E+02
         0.25124E+02
         0.36511E+02
        -0.48599E+01
         0.17569E+01
         0.27023E+02
         0.23420E+02
        -0.24741E+01
         0.19141E+01
        -0.38323E+01
         0.10117E+02
         0.30685E+01
         0.11978E+02
         0.26225E+02
         0.21001E+02
         0.72906E+01
         0.29711E+02
         0.10641E+02
         0.31973E+02
         0.22139E+01
        -0.20012E+01
         0.40390E+02
        -0.31904E+01
         0.14375E+02
         0.13688E+02
        -0.20441E+02
         0.46921E+02
         0.16420E+02
         0.17215E+01
         0.23996E+02
         0.24786E+02
         0.26584E+02
         0.46330E+01
        -0.12073E+01
        -0.55764E+01
        -0.42665E+02
        -0.37388E+02
        -0.57995E+02
         0.47491E+01
         0.20518E+02
         0.49342E+01
         0.65308E+01
         0.78271E+01
         0.24500E+01
         0.96987E+01
         0.12810E+02
         0.18511E+02
        -0.17415E+02
         0.22777E+02
         0.28119E+02
         0.19025E+02
         0.32109E+02
         0.41072E+02
         0.37780E+02
         0.12473E+02
        -0.34562E+02
        -0.94773E+02
        -0.17567E+03
        -0.34873E+03
        -0.33993E+03
        -0.25979E+03
        -0.85460E+02
        -0.32583E+02
         0.25112E+02
         0.26620E+02
         0.26340E+02
         0.24914E+02
         0.18988E+02
        -0.18712E+01
        -0.26511E+02
        -0.11420E+03
        -0.13134E+03
        -0.10191E+03
        -0.80152E+02
        -0.15749E+02
         0.11599E+02
        -0.87640E+01
        -0.42000E+01
         0.13708E+02
         0.40686E+02
         0.49151E+02
        -0.10232E+01
         0.81080E+01
         0.22606E+02
         0.76165E+01
        -0.78582E+01
        -0.29169E+01
        -0.47880E+01
        -0.23434E+01
        -0.14709E+02
         0.94016E+01
         0.16600E+02
         0.24157E+02
         0.57463E+01
         0.33697E+02
        -0.28677E+01
         0.66293E+01
        -0.37686E+01
        -0.15240E+01
         0.41018E+02
        -0.49984E+01
         0.17403E+01
         0.19494E+02
         0.92120E+01
         0.57923E+02
         0.93971E+01
         0.83693E+01
         0.23705E+02
         0.54030E+02
         0.40534E+02
         0.12494E+02
        -0.76941E+01
        -0.17240E+02
        -0.37618E+02
        -0.91565E+02
        -0.11100E+03
        -0.20528E+01
         0.29749E+02
        -0.11786E+01
         0.40291E+01
         0.89470E+01
         0.48888E+01
         0.18304E+02
        -0.90970E+00
         0.26262E+01
         0.10678E+01
         0.22094E+02
         0.32994E+02
         0.21496E+02
         0.45570E+02
         0.32056E+02
         0.18704E+02
         0.72986E+01
        -0.60456E+02
        -0.10872E+03
        -0.75279E+02
        -0.11312E+03
        -0.76100E+02
        -0.29846E+03
        -0.21782E+03
        -0.34364E+02
         0.25097E+01
         0.26653E+02
         0.13510E+02
         0.22046E+02
         0.14270E+02
        -0.66417E+01
        -0.33899E+02
        -0.10185E+03
        -0.74747E+02
        -0.86329E+02
        -0.58897E+02
         0.66242E+01
         0.94280E+01
        -0.11109E+02
        -0.11234E+02
         0.12842E+02
        -0.10052E+02
         0.12888E+02
        -0.34694E+01
         0.64614E+01
         0.19287E+02
         0.36871E+02
        -0.40452E+01
         0.68034E+00
        -0.54696E+01
        -0.18013E+01
        -0.19501E+02
         0.81313E+01
         0.19212E+02
         0.21562E+02
        -0.24386E+00
         0.85820E+01
        -0.21974E+01
         0.19665E+01
        -0.24641E+01
        -0.31150E+01
         0.21373E+02
         0.49421E+00
         0.41452E+01
        -0.45078E+01
         0.14415E+02
         0.20164E+02
         0.23642E+02
         0.53624E+01
         0.39040E+02
         0.35599E+02
         0.17851E+01
        -0.67913E-01
        -0.72237E+01
         0.27518E+02
        -0.43667E+02
        -0.66394E+02
        -0.77667E+02
         0.37030E+02
        -0.13091E+02
         0.17315E+01
         0.48937E+01
         0.45978E+01
         0.82914E+01
         0.23687E+02
         0.49852E+01
         0.99457E+01
        -0.40087E+00
         0.10582E+02
         0.27065E+02
         0.30038E+01
         0.43630E+02
         0.33828E+02
         0.17407E+02
         0.12737E+02
        -0.11173E+03
        -0.18736E+03
        -0.16871E+03
        -0.18218E+03
        -0.87483E+02
         0.22193E+03
        -0.15472E+03
         0.29957E+02
         0.85507E+01
         0.34900E+02
         0.38646E+02
         0.33004E+02
         0.13231E+02
         0.46155E+01
        -0.52478E+01
        -0.33771E+02
        -0.66205E+02
        -0.10112E+03
        -0.94462E+02
        -0.64842E+02
         0.36785E+01
         0.11929E+02
        -0.31847E+01
         0.21877E+02
         0.10994E+02
         0.19302E+02
        -0.20052E+01
         0.56738E+01
         0.16343E+02
         0.22052E+02
        -0.56106E+01
        -0.46399E+01
        -0.61717E+01
         0.69085E+01
         0.10174E+02
         0.28797E+01
         0.14698E+02
         0.13684E+02
         0.35999E-01
         0.12976E+02
         0.11077E+01
         0.32098E+01
         0.27849E+00
        -0.24631E+01
         0.48445E+02
        -0.71181E+00
         0.42109E+02
         0.65546E+02
         0.53602E+02
         0.37257E+02
         0.19226E+02
         0.22541E+01
         0.35033E+02
         0.27516E+02
         0.43516E+01
         0.34346E+01
        -0.12467E+01
         0.76849E+02
         0.11976E+03
         0.14863E+03
         0.42887E+02
         0.43366E+02
         0.10028E+03
         0.32617E+01
         0.11988E+01
        -0.33934E+01
        -0.72534E+01
        -0.70604E+01
         0.56756E+01
        -0.97404E+00
        -0.19043E+02
        -0.19276E+02
         0.92573E+01
        -0.32253E+02
         0.46201E+02
         0.45732E+02
         0.28082E+02
         0.14905E+02
        -0.55735E+02
         0.61405E+01
         0.10960E+03
         0.20054E+03
         0.18497E+03
         0.26752E+03
         0.24463E+03
         0.17935E+03
         0.10616E+03
         0.78027E+02
         0.45537E+02
         0.19259E+02
         0.13939E+01
        -0.15070E+02
        -0.39012E+02
        -0.48386E+02
        -0.58876E+02
        -0.43709E+02
        -0.63206E+02
         0.20421E+02
         0.13560E+02
         0.11309E+02
         0.17301E+02
         0.44695E+02
         0.13057E+02
         0.20528E+01
         0.16057E+01
         0.10163E+01
         0.92632E+01
         0.15706E+02
         0.47149E+00
         0.62648E+01
         0.42493E+01
         0.34998E+01
         0.14732E+02
         0.96425E+00
         0.96696E+01
         0.22874E+02
        -0.35073E+01
         0.13397E+02
         0.71858E+01
         0.26328E+02
         0.28532E+01
        -0.26542E+01
         0.32583E+02
        -0.52709E+01
         0.16123E+02
         0.12648E+02
        -0.20764E+02
         0.28940E+02
         0.19436E+02
         0.11458E+01
         0.40779E+02
         0.41784E+02
         0.96249E+00
         0.84187E+00
        -0.15131E+01
         0.57036E+02
         0.20489E+02
         0.29378E+01
         0.16326E+02
        -0.46495E+02
         0.31508E+02
        -0.13877E+01
        -0.30894E+01
        -0.10365E+02
        -0.10331E+02
        -0.41538E+01
         0.21400E+02
         0.78702E+01
        -0.23716E+02
        -0.12516E+02
         0.16729E+02
         0.45183E+01
         0.44915E+02
         0.50092E+02
         0.44420E+02
         0.32897E+02
        -0.10336E+02
         0.41220E+02
         0.42433E+02
         0.91262E+02
         0.86109E+02
         0.10991E+03
         0.52560E+02
         0.52683E+02
         0.77641E+02
         0.27952E+02
         0.19562E+02
         0.63110E+01
        -0.57351E+01
        -0.14939E+02
        -0.36413E+02
        -0.75548E+02
        -0.11293E+03
        -0.10865E+03
        -0.68016E+02
        -0.56354E+02
         0.62495E+01
        -0.47164E+01
        -0.43551E+01
         0.24392E+01
        -0.29563E+02
        -0.92668E+01
        -0.84773E+01
         0.27590E+01
         0.13479E+02
         0.12994E+02
         0.29703E+01
         0.73290E+01
        -0.13370E+01
         0.13052E+02
         0.14862E+02
         0.18448E+01
         0.10556E+02
         0.13798E+02
        -0.94189E+00
         0.13990E+02
        -0.36206E+01
         0.19716E+02
        -0.29298E+01
        -0.10535E+02
         0.33503E+02
        -0.53037E+01
         0.13097E+02
         0.45608E+01
         0.16935E+02
         0.38532E+02
         0.85717E+01
        -0.94908E+01
         0.19038E+02
         0.16403E+02
         0.29296E+01
        -0.10120E+02
        -0.58821E+01
        -0.72200E+01
        -0.79085E+01
         0.52980E+02
         0.20993E+02
         0.56012E+02
         0.24988E+02
        -0.85101E+01
        -0.11219E+02
        -0.12699E+02
        -0.16968E+02
        -0.17098E+02
        -0.24673E+02
        -0.21556E+02
        -0.39717E+02
        -0.25069E+02
         0.14221E+02
        -0.26701E+02
         0.14234E+02
         0.40461E+02
         0.33988E+02
         0.40714E+02
         0.65533E+01
        -0.23048E+02
        -0.74335E+02
        -0.81470E+02
        -0.70667E+02
        -0.33432E+02
        -0.64034E+02
        -0.14598E+03
        -0.76370E+02
        -0.18371E+02
         0.91496E-01
         0.35478E+01
        -0.83273E+00
        -0.60425E+01
        -0.35344E+02
        -0.10012E+03
        -0.77915E+02
        -0.66136E+02
        -0.59661E+02
        -0.45870E+02
        -0.36751E-01
        -0.11689E+02
        -0.19724E+02
         0.78014E+01
        -0.19886E+02
        -0.30804E+02
        -0.63043E+01
         0.15019E+01
         0.76272E+01
         0.18393E+02
        -0.89458E+01
        -0.26799E+00
        -0.13835E+02
        -0.44737E+01
        -0.14805E+01
         0.12335E+01
         0.16369E+02
         0.76659E+01
        -0.29843E+00
         0.20152E+02
        -0.30361E+01
         0.88838E+01
        -0.54231E-01
        -0.18214E+01
         0.38247E+02
        -0.48633E+01
         0.20688E+02
         0.43960E+02
         0.63513E+02
         0.17863E+02
         0.82092E+01
        -0.67570E+01
         0.15543E+02
         0.76183E+01
         0.51183E+01
        -0.22705E+02
        -0.20495E+02
         0.28348E+02
         0.19104E+02
         0.73355E+01
        -0.17274E+02
         0.21636E+02
         0.14638E+02
        -0.12411E+02
        -0.97658E+01
        -0.10207E+02
        -0.16967E+02
        -0.23350E+02
        -0.27115E+02
        -0.43293E+02
        -0.54336E+02
        -0.35436E+02
         0.77768E+01
        -0.24802E+02
         0.29690E+02
         0.31402E+02
         0.26881E+02
         0.24590E+02
        -0.53686E+02
        -0.10079E+03
        -0.89743E+02
        -0.97254E+02
        -0.11949E+03
        -0.35340E+02
        -0.73869E+02
        -0.33834E+02
        -0.26025E+02
         0.26252E+02
         0.27273E+02
         0.12933E+02
         0.26133E+01
        -0.69668E+01
        -0.36281E+02
        -0.85754E+02
        -0.10679E+03
        -0.10339E+03
        -0.80996E+02
        -0.40157E+02
         0.45752E+01
        -0.17929E+02
        -0.11267E+02
         0.56002E+01
        -0.57145E+01
        -0.25327E+02
        -0.12106E+02
         0.51926E+01
         0.11620E+02
         0.24352E+02
        -0.88108E+01
        -0.56101E+01
        -0.10964E+02
         0.28043E+01
         0.15180E+01
         0.46279E+01
         0.23236E+02
         0.11489E+02
         0.69309E+01
         0.29084E+02
         0.10217E+02
         0.43233E+02
        -0.15070E+01
        -0.27946E+01
         0.34230E+02
        -0.16575E+01
         0.19946E+02
         0.60262E+02
         0.43127E+02
         0.42318E+02
        -0.12953E+01
        -0.11005E+02
         0.46531E+01
        -0.47421E+01
        -0.20836E+02
        -0.21249E+02
        -0.22591E+02
         0.68726E+02
         0.97395E+02
         0.68502E+02
         0.86522E+01
         0.44715E+02
         0.54884E+02
        -0.44679E+01
        -0.92205E+01
        -0.17460E+02
        -0.23806E+02
        -0.18379E+02
        -0.11279E+02
        -0.30655E+02
        -0.57863E+02
        -0.38567E+02
         0.50697E+01
        -0.27845E+02
         0.18472E+02
         0.11871E+02
         0.17790E+02
         0.76590E+01
         0.10652E+02
         0.42514E+02
        -0.11034E+03
        -0.10831E+03
         0.12058E+03
         0.66887E+02
        -0.17482E+03
         0.18316E+02
         0.43963E+02
         0.42807E+02
         0.40638E+02
         0.21834E+02
        -0.23598E+00
        -0.21326E+02
        -0.31727E+02
        -0.29528E+02
        -0.58736E+02
        -0.42461E+02
        -0.23196E+02
        -0.58488E+02
        -0.13928E+02
        -0.16343E+02
        -0.34396E+02
        -0.19884E+02
        -0.42624E+02
        -0.56634E+02
        -0.10733E+02
         0.23342E+00
         0.89752E+01
         0.20238E+02
        -0.94615E+01
        -0.11263E+02
        -0.21926E+02
         0.10882E+02
         0.42925E-02
        -0.80930E+01
         0.62188E+01
        -0.44932E+01
        -0.29372E+01
         0.15571E+02
         0.15802E+02
         0.47085E+02
         0.24699E+01
        -0.45735E+01
         0.32871E+02
        -0.45481E+01
         0.25263E+02
         0.31239E+02
        -0.36287E+01
         0.23069E+02
        -0.13473E+02
        -0.15872E+02
        -0.92260E+01
        -0.21882E+02
        -0.46171E+02
        -0.29691E+02
        -0.23684E+02
         0.10364E+02
         0.36489E+02
         0.49013E+02
         0.22039E+02
         0.78269E+02
         0.10866E+03
        -0.18157E+01
        -0.37600E+01
        -0.34685E+02
        -0.47227E+02
        -0.28279E+02
        -0.56093E+02
        -0.85308E+02
        -0.70517E+02
        -0.58152E+02
        -0.12916E+02
        -0.33126E+02
        -0.13761E+02
        -0.77275E+01
        -0.26179E+01
         0.20577E+00
        -0.70386E+00
         0.55179E+02
         0.14122E+03
         0.15861E+03
        -0.43515E+02
        -0.19911E+03
        -0.33019E+02
        -0.65081E+02
         0.34170E+02
         0.33414E+02
         0.28961E+02
         0.88600E+01
        -0.27150E+02
        -0.48451E+02
        -0.71805E+02
        -0.31085E+02
        -0.50302E+02
        -0.88399E+02
        -0.10157E+03
        -0.77052E+02
        -0.81183E+01
        -0.94042E+01
        -0.33168E+02
        -0.23598E+02
        -0.72687E+02
        -0.71669E+02
        -0.26173E+01
         0.49760E+01
        -0.67175E+00
         0.13501E+02
        -0.91217E+01
        -0.13121E+02
        -0.13860E+02
        -0.76350E+01
        -0.24328E+02
        -0.12688E+02
        -0.37815E+00
        -0.11936E+02
        -0.54610E+01
         0.11597E+02
        -0.49030E+01
        -0.40314E+01
         0.19489E+01
        -0.21729E+01
         0.24799E+02
        -0.16632E+02
         0.29827E+02
         0.50635E+02
         0.64875E+02
         0.24670E+02
        -0.36641E+02
        -0.30646E+02
        -0.72115E+02
        -0.54200E+02
        -0.37442E+02
        -0.21476E+02
        -0.19317E+02
         0.10549E+02
         0.27587E+02
         0.71494E+02
         0.14131E+03
         0.12387E+03
         0.62202E+02
        -0.32858E+01
        -0.26180E+02
        -0.48370E+02
        -0.61282E+02
        -0.81083E+02
        -0.65361E+02
        -0.13995E+03
        -0.15807E+03
        -0.13368E+03
        -0.33421E+02
        -0.74589E+02
         0.25700E+01
        -0.22672E+01
        -0.57856E+01
         0.46909E+00
        -0.53539E+02
        -0.50631E+02
         0.14539E+02
         0.10349E+03
         0.20646E+03
         0.17004E+03
         0.31123E+02
        -0.67897E+02
        -0.25934E+02
        -0.19088E+02
         0.59813E+01
        -0.72541E+01
        -0.46012E+02
        -0.12585E+02
        -0.10802E+03
        -0.64832E+02
        -0.10296E+03
        -0.76913E+02
        -0.10376E+03
        -0.97669E+02
         0.31413E+02
         0.24976E+02
         0.17500E+02
         0.92813E+01
        -0.13837E+02
        -0.57558E+02
         0.22404E+02
         0.20217E+02
         0.13901E+02
         0.98751E+01
         0.14729E+02
         0.47323E+02
         0.33344E+02
         0.24890E+02
         0.61497E+02
         0.16469E+02
         0.21886E+02
         0.57562E+01
         0.16973E+02
         0.30874E+02
        -0.46032E+02
        -0.23409E+02
        -0.32065E+02
         0.32898E+01
         0.30742E+02
        -0.28962E+01
         0.53639E+02
         0.78038E+02
         0.10247E+03
         0.38617E+02
        -0.43364E+02
        -0.35861E+02
        -0.43486E+02
        -0.42755E+02
         0.43412E+00
         0.18988E+02
         0.18857E+02
         0.13517E+03
         0.20298E+03
         0.26613E+03
         0.30628E+03
         0.10361E+03
         0.37184E+02
        -0.33646E+02
        -0.43209E+02
        -0.67069E+02
        -0.83415E+02
        -0.94942E+02
        -0.82418E+02
        -0.10153E+03
        -0.10324E+03
        -0.92186E+02
         0.11800E+02
        -0.64778E+02
         0.45189E+02
         0.57822E+02
         0.54404E+02
         0.63256E+02
         0.95036E+02
         0.22857E+03
         0.45782E+03
         0.58048E+03
         0.52096E+03
         0.26309E+03
        -0.10991E+03
        -0.36298E+03
        -0.35051E+03
        -0.19294E+03
        -0.55337E+02
        -0.46044E+02
        -0.87975E+02
        -0.13241E+03
        -0.13441E+03
        -0.10490E+03
        -0.91283E+02
        -0.90940E+02
        -0.12380E+03
        -0.13654E+03
         0.92074E+02
         0.10890E+03
         0.16651E+03
         0.11206E+03
         0.93065E+02
         0.52899E+02
         0.42337E+02
         0.32440E+02
        -0.10009E+02
        -0.45313E+02
         0.42565E+02
         0.62499E+02
         0.70029E+02
         0.45554E+02
         0.10751E+03
        -0.11612E+03
        -0.92779E+02
         0.27429E+02
        -0.16774E+03
        -0.14726E+03
        -0.50239E+03
        -0.62784E+03
        -0.33741E+03
        -0.16052E+03
         0.13788E+02
        -0.14790E+03
         0.27402E+02
        -0.42185E+02
        -0.15372E+03
        -0.13816E+03
        -0.74974E+02
        -0.11430E+03
         0.23632E+02
         0.74157E+02
         0.11879E+03
         0.14299E+03
         0.11539E+03
         0.16262E+03
         0.14221E+03
         0.63173E+02
        -0.35686E+02
        -0.41342E+03
        -0.59371E+03
        -0.23125E+03
        -0.13585E+03
        -0.77297E+02
        -0.81726E+02
        -0.49036E+02
         0.94420E+00
         0.68230E+02
         0.83163E+02
         0.51029E+02
         0.80244E+02
        -0.17839E+02
         0.16478E+03
         0.14257E+03
         0.10629E+03
         0.95864E+02
         0.18687E+03
         0.29905E+03
         0.37788E+03
         0.33172E+03
         0.78909E+02
        -0.55750E+03
        -0.12531E+04
        -0.14700E+04
        -0.10845E+04
        -0.55380E+03
        -0.19068E+03
        -0.10552E+03
        -0.79229E+02
        -0.45491E+02
         0.33505E+02
         0.18295E+03
         0.15229E+03
         0.79781E+02
        -0.89799E+01
        -0.52992E+02
        -0.10949E+03
        -0.13879E+03
        -0.19309E+03
        -0.14248E+03
        -0.98308E+02
         0.94945E+00
        -0.60768E+02
        -0.14926E+02
         0.21410E+02
         0.90470E+02
        -0.40850E+02
        -0.43026E+02
        -0.77210E+02
        -0.10217E+01
        -0.41697E+02
         0.67637E+02
         0.14912E+03
        -0.57375E+02
         0.23385E+03
         0.26638E+03
         0.81922E+03
         0.10430E+04
         0.51740E+03
         0.21636E+03
         0.15717E+03
         0.14181E+03
         0.72972E+02
         0.15332E+03
         0.22824E+03
         0.26918E+03
         0.14642E+02
         0.13371E+03
        -0.62700E+02
        -0.17665E+02
        -0.12686E+03
        -0.15269E+03
        -0.12391E+03
        -0.35463E+02
        -0.55901E+02
        -0.23745E+02
         0.35219E+02
         0.57845E+03
         0.94300E+03
         0.35467E+03
         0.25874E+03
         0.27307E+03
         0.28932E+03
         0.26433E+03
         0.21058E+03
         0.18054E+03
         0.20368E+03
         0.95876E+02
        -0.98778E+02
        -0.29761E+02
        -0.13924E+03
        -0.94075E+02
        -0.45455E+02
        -0.36311E+02
        -0.83250E+02
        -0.19968E+03
        -0.36454E+03
        -0.39478E+03
        -0.17280E+03
         0.52262E+03
         0.14851E+04
         0.19750E+04
         0.16810E+04
         0.10844E+04
         0.62525E+03
         0.39903E+03
         0.39465E+03
         0.56973E+03
         0.66570E+03
         0.51592E+03
         0.42034E+03
         0.28867E+03
         0.19140E+03
  
SCALARS                         fint_y  double 1
LOOKUP_TABLE default
         0.99855E+02
        -0.10159E+04
        -0.72405E+03
        -0.93541E+03
         0.19925E+03
        -0.47578E+03
        -0.12727E+02
         0.38557E+03
        -0.85327E+03
        -0.11442E+04
        -0.23443E+03
        -0.39931E+03
        -0.55239E+03
        -0.36367E+03
        -0.28496E+03
        -0.27037E+03
        -0.12175E+03
         0.44055E+02
        -0.15729E+03
         0.15386E+02
        -0.53933E+03
         0.27443E+03
         0.46460E+02
        -0.34509E+03
        -0.20315E+03
        -0.24094E+03
        -0.11023E+03
        -0.79640E+03
        -0.16391E+02
        -0.53553E+03
         0.64398E+02
         0.15068E+03
        -0.10570E+03
        -0.76036E+01
         0.18123E+03
        -0.12685E+03
         0.66766E+02
         0.13120E+03
         0.40306E+02
         0.12414E+03
        -0.31319E+03
        -0.49391E+03
        -0.14569E+03
        -0.27999E+03
         0.44271E+01
         0.10436E+03
         0.21145E+02
         0.37773E+02
         0.23995E+03
        -0.12434E+03
         0.14776E+03
        -0.35905E+02
         0.34947E+03
         0.20752E+03
         0.51881E+03
         0.51013E+03
         0.95697E+03
        -0.23256E+03
         0.80072E+03
        -0.10089E+03
        -0.64176E+03
        -0.16665E+03
        -0.13511E+03
        -0.33107E+03
        -0.12583E+04
         0.24075E+03
        -0.24654E+04
        -0.16393E+03
        -0.46338E+03
        -0.57734E+03
        -0.37833E+03
        -0.22104E+03
        -0.25059E+03
        -0.15981E+03
         0.43815E+04
         0.39313E+04
         0.65872E+04
         0.74965E+04
         0.42587E+04
         0.48008E+04
         0.22295E+04
         0.92823E+03
         0.18878E+04
         0.64794E+03
        -0.36053E+03
        -0.93436E+02
         0.26540E+03
         0.20511E+03
         0.12955E+03
        -0.13678E+02
        -0.13277E+03
        -0.40498E+03
        -0.24152E+03
        -0.30866E+03
        -0.12643E+04
         0.21787E+02
        -0.30172E+04
        -0.26895E+03
        -0.29391E+04
        -0.45533E+03
        -0.72475E+03
        -0.21926E+04
        -0.53703E+03
        -0.47475E+03
        -0.60161E+03
        -0.64409E+03
        -0.83492E+03
        -0.99765E+03
         0.14379E+03
        -0.94357E-01
         0.16036E+04
         0.14345E+04
         0.32355E+04
         0.30584E+04
         0.32247E+04
         0.23160E+04
         0.14591E+04
        -0.70586E+03
        -0.28131E+04
        -0.75135E+04
        -0.13188E+05
        -0.23731E+05
        -0.10355E+05
        -0.12904E+05
         0.56046E+01
         0.13108E+04
         0.19575E+04
         0.13681E+04
         0.13507E+04
         0.10085E+04
         0.11433E+04
         0.73463E+03
         0.81844E+03
         0.47846E+03
         0.52067E+03
         0.44594E+03
         0.27796E+03
         0.60551E+03
         0.11574E+03
         0.60670E+03
        -0.21958E+03
         0.41501E+02
        -0.13528E+04
        -0.19546E+03
        -0.14408E+04
        -0.41359E+03
        -0.17334E+04
        -0.78231E+03
         0.37118E+04
        -0.33903E+03
         0.70443E+04
        -0.18314E+03
         0.59396E+04
        -0.50777E+03
         0.23493E+04
        -0.91267E+03
        -0.16558E+04
        -0.10821E+04
        -0.33314E+04
        -0.68060E+04
        -0.15407E+04
        -0.28872E+04
        -0.29712E+03
        -0.15757E+03
        -0.86583E+02
        -0.11020E+03
        -0.33751E+03
         0.22576E+03
        -0.13628E+03
        -0.27512E+03
         0.77940E+03
         0.40897E+02
        -0.84100E+02
        -0.14873E+04
        -0.12955E+03
        -0.44128E+03
        -0.85742E+03
        -0.12711E+04
        -0.67395E+02
         0.22605E+03
        -0.19628E+02
         0.47666E+03
         0.51266E+02
         0.19429E+03
         0.24320E+03
        -0.41962E+03
        -0.20658E+04
        -0.19908E+02
        -0.52323E+04
        -0.74249E+04
        -0.53328E+03
        -0.88010E+03
        -0.52896E+03
         0.28672E+04
         0.35739E+04
         0.25455E+04
         0.21325E+04
         0.95472E+03
        -0.69953E+03
         0.22000E+03
         0.75682E+02
        -0.21288E+03
        -0.84005E+03
        -0.34046E+04
        -0.70912E+04
        -0.69932E+04
        -0.84132E+03
        -0.34783E+04
         0.11830E+04
         0.33209E+04
         0.69970E+03
         0.97946E+03
         0.18132E+04
         0.22098E+04
         0.18064E+04
         0.10888E+04
        -0.39681E+04
        -0.35343E+04
         0.13878E+04
         0.26820E+04
         0.24643E+04
         0.19290E+04
         0.10507E+04
         0.13752E+03
        -0.26754E+03
        -0.11130E+04
        -0.80526E+03
        -0.30888E+04
        -0.46685E+04
        -0.46032E+04
         0.10206E+05
         0.20404E+05
         0.21173E+05
         0.12241E+05
        -0.93340E+03
        -0.70348E+03
        -0.25598E+04
        -0.61085E+04
        -0.72661E+03
        -0.22155E+04
        -0.17112E+03
        -0.21011E+00
        -0.26979E+03
        -0.59952E+02
         0.22929E+01
        -0.74393E+02
        -0.24079E+03
        -0.20765E+03
        -0.20651E+02
        -0.50575E+02
        -0.10520E+03
        -0.15962E+04
        -0.17114E+03
        -0.60424E+03
        -0.94522E+03
        -0.12589E+04
        -0.42410E+03
         0.19290E+02
        -0.33276E+03
         0.49756E+03
        -0.17785E+03
        -0.38619E+03
        -0.20767E+03
        -0.47652E+03
        -0.21058E+04
        -0.12197E+03
        -0.48143E+04
        -0.51906E+04
         0.24347E+03
        -0.92971E+03
        -0.76685E+03
         0.97144E+02
         0.83847E+03
         0.16780E+04
         0.19325E+04
         0.88595E+03
        -0.85755E+03
        -0.10244E+03
        -0.16584E+03
        -0.15983E+03
        -0.12216E+04
        -0.41035E+04
        -0.54287E+04
        -0.35076E+04
         0.19246E+04
        -0.80285E+03
         0.24226E+04
         0.66202E+04
         0.48579E+03
         0.98543E+02
        -0.11713E+03
        -0.50954E+02
         0.63141E+03
         0.88748E+03
         0.16483E+04
         0.25729E+04
         0.22834E+04
         0.21772E+04
         0.18678E+04
         0.22289E+04
         0.12335E+04
        -0.11801E+03
        -0.12617E+04
        -0.12544E+04
        -0.63944E+03
        -0.25332E+04
        -0.52748E+04
        -0.24889E+04
         0.27110E+04
         0.20148E+05
         0.13922E+05
         0.16057E+05
        -0.20630E+03
        -0.81326E+02
        -0.96712E+03
        -0.69743E+03
        -0.34503E+03
        -0.66784E+03
        -0.38939E+02
        -0.13419E+03
        -0.17348E+03
        -0.47297E+03
        -0.73939E+02
        -0.17492E+03
        -0.94556E+02
        -0.32937E+03
        -0.59691E+03
        -0.22115E+03
        -0.29724E+03
        -0.45454E+03
        -0.42761E+03
        -0.72213E+03
        -0.12505E+04
        -0.16231E+04
        -0.55625E+03
        -0.24641E+03
        -0.66040E+03
        -0.96403E+02
        -0.91496E+03
        -0.10693E+04
        -0.52095E+03
        -0.95658E+03
        -0.29625E+03
        -0.10919E+03
        -0.78324E+03
        -0.55282E+03
         0.10482E+03
        -0.22733E+03
        -0.13859E+03
        -0.73740E+03
        -0.24754E+03
         0.16466E+03
         0.93820E+03
         0.23157E+03
        -0.10933E+04
        -0.20739E+03
        -0.51560E+02
         0.86381E+01
        -0.32417E+03
        -0.60538E+03
        -0.14707E+04
        -0.26669E+04
        -0.94875E+03
         0.53940E+03
         0.89450E+03
         0.23777E+04
         0.18716E+03
        -0.14787E+03
        -0.37594E+03
        -0.40181E+03
        -0.19187E+03
         0.48696E+03
         0.15065E+04
         0.21359E+04
         0.19042E+04
         0.19030E+04
         0.29123E+04
         0.23194E+04
         0.13674E+04
         0.53802E+03
         0.25461E+02
         0.11979E+03
         0.39826E+03
         0.13696E+02
        -0.11065E+04
        -0.24770E+04
         0.56324E+03
         0.52604E+04
         0.53082E+04
         0.11424E+04
         0.37275E+02
         0.13745E+03
         0.12601E+03
         0.25158E+03
        -0.25511E+02
        -0.66836E+02
         0.40090E+02
        -0.15445E+03
        -0.15218E+03
        -0.44723E+03
        -0.48657E+02
        -0.14440E+03
         0.24312E+02
        -0.35358E+03
        -0.49036E+03
        -0.66994E+02
        -0.31175E+03
         0.14560E+03
        -0.23419E+03
        -0.45397E+03
        -0.49765E+03
        -0.15509E+04
        -0.38919E+03
        -0.20529E+03
        -0.68559E+03
        -0.19567E+03
        -0.50472E+03
        -0.90887E+03
        -0.10853E+04
        -0.78062E+03
         0.26984E+03
         0.21594E+02
         0.33659E+03
         0.34063E+03
        -0.74918E+02
         0.34681E+02
         0.51482E+02
        -0.95497E+03
        -0.92570E+03
        -0.35086E+03
         0.45128E+03
        -0.15623E+03
        -0.14744E+04
        -0.17457E+03
         0.27275E+02
         0.13678E+03
         0.19673E+03
         0.45732E+03
         0.23627E+03
        -0.10813E+03
        -0.34759E+03
        -0.33643E+03
        -0.22340E+03
        -0.45021E+02
        -0.16696E+03
        -0.16578E+03
        -0.26268E+03
        -0.45211E+03
        -0.32499E+03
        -0.22042E+03
         0.11417E+04
         0.25792E+04
         0.24682E+04
         0.30392E+04
         0.25208E+04
         0.19699E+04
         0.11132E+04
         0.63014E+03
         0.36296E+03
         0.31129E+03
         0.18227E+03
         0.89568E+02
         0.28810E+03
        -0.44261E+03
        -0.11020E+04
        -0.73377E+03
        -0.39236E+02
         0.16832E+02
         0.89877E+02
         0.14265E+03
         0.16883E+03
         0.32304E+03
         0.43719E+02
         0.89555E+02
         0.47827E+02
        -0.51270E+02
        -0.52017E+02
        -0.17710E+03
        -0.20997E+02
        -0.68128E+02
         0.29756E+02
        -0.15884E+03
        -0.31117E+03
        -0.15117E+02
        -0.18740E+03
         0.24281E+03
        -0.18034E+03
        -0.29582E+03
        -0.51043E+03
        -0.92425E+03
        -0.18908E+03
        -0.10186E+03
        -0.45567E+03
        -0.46103E+02
        -0.38143E+03
        -0.69182E+03
        -0.58719E+03
        -0.47579E+03
         0.28823E+03
         0.74396E+02
         0.48710E+03
         0.38981E+03
         0.16694E+02
         0.71123E+02
         0.91566E+02
        -0.74732E+03
        -0.87904E+03
        -0.41631E+03
        -0.10771E+03
        -0.61139E+03
        -0.12107E+04
        -0.52210E+02
         0.38855E+02
         0.74873E+02
         0.20107E+03
         0.42527E+03
         0.19950E+03
         0.14175E+03
        -0.29825E+02
         0.77573E+02
        -0.26903E+03
        -0.53863E+03
        -0.15148E+03
        -0.37519E+02
        -0.47412E+02
        -0.29167E+03
        -0.86216E+03
        -0.61953E+03
         0.89997E+03
         0.22029E+04
         0.25610E+04
         0.24935E+04
         0.19404E+04
         0.11514E+04
         0.57372E+03
         0.27435E+03
         0.18356E+03
         0.14123E+03
         0.12050E+03
         0.30088E+03
         0.27452E+03
        -0.14323E+03
        -0.61086E+03
        -0.92715E+03
        -0.73454E+03
        -0.86335E+03
         0.46701E+02
         0.50173E+02
         0.13641E+03
         0.14728E+03
         0.67304E+02
         0.11401E+03
         0.29201E+02
        -0.51319E+01
        -0.23743E+02
        -0.13679E+03
         0.19201E+01
        -0.39997E+02
         0.35869E+02
        -0.80150E+02
        -0.26530E+03
         0.56900E+01
        -0.73462E+02
         0.97923E+02
        -0.59815E+02
        -0.12460E+03
        -0.20102E+03
        -0.43866E+03
        -0.51029E+02
        -0.19984E+02
        -0.16398E+03
         0.10799E+02
        -0.22908E+03
        -0.33488E+03
        -0.33277E+03
        -0.26859E+03
         0.11541E+03
         0.40562E+02
         0.19090E+03
         0.20042E+03
         0.36649E+02
         0.54883E+02
         0.51650E+02
        -0.67985E+03
        -0.60883E+03
        -0.15686E+03
         0.97064E+02
        -0.55266E+03
        -0.63499E+03
         0.25008E+02
         0.34749E+02
         0.37461E+02
         0.70063E+02
         0.14007E+03
         0.12937E+03
         0.15812E+03
         0.33374E+01
         0.79233E+02
        -0.60478E+02
        -0.24683E+03
        -0.78179E+01
         0.57409E+01
        -0.22322E+02
        -0.16189E+03
        -0.54961E+03
        -0.43288E+03
         0.49666E+03
         0.88077E+03
         0.10038E+04
         0.13002E+04
         0.11397E+04
         0.53657E+03
         0.10491E+03
        -0.13019E+02
        -0.18991E+02
        -0.37609E+02
        -0.20738E+02
         0.49209E+02
         0.95601E+02
        -0.58465E+02
        -0.66132E+02
        -0.15447E+03
        -0.41765E+03
        -0.35711E+03
         0.35252E+02
         0.41740E+02
         0.69201E+02
         0.10189E+03
         0.38757E+02
         0.38008E+02
         0.88538E+01
        -0.51858E+01
        -0.10219E+02
        -0.50153E+02
         0.46856E+01
        -0.22544E+02
         0.20535E+02
        -0.22998E+02
        -0.88416E+02
         0.15312E+02
        -0.23044E+02
         0.45086E+02
        -0.52848E+01
        -0.47815E+02
        -0.33749E+01
        -0.55062E+02
         0.17747E+02
         0.14724E+02
        -0.71256E+02
         0.30374E+02
        -0.78475E+02
        -0.98294E+02
        -0.11992E+03
        -0.89480E+02
         0.54571E+02
         0.31915E+02
         0.75881E+02
         0.51757E+02
         0.85373E+01
         0.40117E+02
         0.32996E+02
        -0.31270E+03
        -0.34090E+03
        -0.16244E+03
         0.69475E+02
        -0.58821E+02
        -0.15987E+03
         0.22564E+02
         0.20433E+02
         0.13962E+02
         0.31592E+02
         0.36045E+02
         0.53211E+02
         0.32679E+02
        -0.95391E+00
         0.23619E+02
        -0.60678E+02
        -0.15004E+03
        -0.28486E+02
        -0.10973E+01
        -0.13331E+02
        -0.73280E+02
        -0.11035E+03
        -0.79055E+02
        -0.35780E+02
         0.13347E+03
         0.43955E+03
         0.57036E+03
         0.32872E+03
         0.43543E+02
        -0.51945E+02
        -0.79847E+02
        -0.75354E+02
        -0.42569E+02
        -0.28166E+02
        -0.67532E+01
         0.30952E+01
        -0.14121E+02
        -0.38553E+02
        -0.89753E+02
        -0.13165E+03
        -0.25730E+03
         0.48487E+02
         0.34760E+02
         0.78595E+02
         0.78386E+02
         0.16028E+02
         0.16031E+02
         0.13105E+02
         0.11128E+02
         0.66410E+01
        -0.85701E+01
         0.83113E+01
         0.21160E+02
         0.22155E+02
         0.16313E+02
         0.18661E+01
         0.23948E+02
         0.37213E+01
         0.23847E+02
         0.23203E+02
         0.26326E+02
         0.95575E+02
         0.17361E+03
         0.32948E+02
         0.19160E+02
        -0.55392E+01
         0.16304E+02
        -0.13620E+01
        -0.19427E+02
        -0.18260E+02
         0.47200E+02
         0.59398E+02
         0.33130E+02
         0.78713E+02
         0.39915E+02
         0.70842E+01
         0.24512E+02
         0.33981E+02
        -0.78208E+02
        -0.96682E+02
        -0.69242E+01
         0.54587E+02
         0.62646E+02
         0.93716E+02
         0.86325E+01
         0.10937E+02
         0.10468E+02
         0.31448E+02
         0.57785E+02
         0.20642E+02
         0.23860E+02
        -0.30412E+02
         0.50954E+01
        -0.84706E+02
        -0.16178E+03
        -0.41152E+02
        -0.26023E+02
        -0.14615E+02
        -0.17288E+02
        -0.96759E+02
        -0.12403E+03
         0.50365E+02
         0.58672E+02
         0.94508E+02
        -0.59543E+02
        -0.35801E+03
        -0.22863E+03
        -0.83152E+02
        -0.74392E+02
        -0.46515E+02
        -0.18731E+02
         0.22951E+01
         0.31486E+01
         0.25279E+02
        -0.26954E+02
        -0.11392E+03
        -0.16746E+03
        -0.19542E+03
        -0.22686E+03
         0.41090E+02
         0.45459E+02
         0.78984E+02
         0.14726E+03
         0.36810E+02
         0.39002E+02
         0.16965E+02
         0.28691E+02
         0.93470E+01
         0.15719E+02
         0.35061E+02
         0.20911E+02
         0.26710E+02
         0.33973E+02
         0.36871E+02
         0.25387E+02
         0.12554E+02
         0.43297E+02
         0.31459E+02
         0.55235E+02
         0.14719E+03
         0.27603E+03
         0.53594E+02
         0.18647E+02
         0.26681E+02
         0.16591E+02
         0.34352E+02
         0.51626E+02
         0.61085E+02
         0.10113E+03
         0.60049E+02
         0.34151E+02
         0.10283E+03
         0.63484E+02
         0.26090E+02
         0.29312E+02
         0.26206E+02
         0.45818E+02
         0.71920E+02
         0.11490E+03
         0.39379E+02
         0.42312E+02
         0.20480E+03
         0.13622E+02
         0.21971E+02
         0.21440E+02
         0.28060E+02
         0.37931E+02
         0.48769E+02
         0.18182E+02
        -0.32870E+02
         0.13106E+02
        -0.97375E+02
        -0.23745E+03
        -0.45501E+02
        -0.14725E+02
        -0.33622E+01
         0.33852E+01
        -0.15031E+02
        -0.53011E+00
        -0.28057E+02
        -0.14457E+03
        -0.29460E+03
        -0.25790E+03
        -0.63027E+03
        -0.37831E+03
        -0.23833E+03
        -0.12121E+03
        -0.40599E+02
        -0.41178E+02
        -0.58020E+01
         0.35919E+02
         0.29433E+02
        -0.52751E+02
        -0.16324E+03
        -0.18832E+03
        -0.21115E+03
        -0.15864E+03
         0.55094E+02
         0.30080E+02
         0.11039E+03
         0.17711E+03
         0.61239E+02
         0.10401E+03
         0.22122E+02
         0.13279E+02
         0.25381E+02
         0.17463E+02
         0.18209E+02
         0.35128E+02
         0.30813E+02
         0.19844E+02
         0.43548E+02
         0.37800E+02
         0.23257E+02
         0.44133E+02
         0.45508E+02
         0.90417E+02
         0.15529E+03
         0.23778E+03
         0.53798E+02
         0.33228E+02
         0.42471E+02
         0.35801E+02
         0.41705E+02
         0.95240E+02
         0.96464E+02
         0.11612E+03
         0.64691E+02
         0.38870E+02
         0.10454E+03
         0.12579E+03
         0.15077E+02
         0.34084E+02
         0.22193E+02
         0.82766E+02
         0.15513E+03
         0.18796E+03
         0.10166E+03
         0.27226E+03
         0.38356E+03
         0.38443E+02
         0.32963E+02
         0.34445E+02
         0.64123E+02
         0.86770E+02
         0.97577E+02
         0.77844E+02
        -0.16750E+01
         0.67868E+02
        -0.84145E+02
        -0.21159E+03
        -0.52819E+02
        -0.47994E+02
        -0.25146E+02
         0.34220E+01
         0.63774E+01
         0.48918E+02
        -0.35179E+02
        -0.16490E+03
        -0.38245E+03
        -0.57784E+03
        -0.72549E+03
        -0.47797E+03
        -0.26114E+03
        -0.14327E+03
        -0.79025E+02
        -0.49224E+02
        -0.84512E+01
         0.15771E+02
         0.16945E+02
        -0.43625E+02
        -0.15616E+03
        -0.21164E+03
        -0.27480E+03
        -0.34082E+03
         0.50535E+02
         0.37374E+02
         0.88238E+02
         0.12357E+03
         0.52172E+02
         0.10543E+03
         0.11046E+02
         0.20056E+02
         0.25225E+02
         0.20595E+02
         0.19108E+02
         0.34365E+02
         0.25888E+02
         0.36468E+02
         0.70910E+02
         0.39423E+02
         0.39259E+02
         0.50126E+02
         0.47501E+02
         0.83201E+02
         0.99812E+02
         0.25610E+03
         0.29033E+02
         0.18135E+02
         0.71360E+02
         0.40802E+02
         0.60896E+02
         0.11048E+03
         0.14559E+03
         0.11804E+03
         0.60859E+02
         0.25852E+02
         0.10554E+03
         0.11381E+03
        -0.15760E+01
         0.41532E+02
         0.19158E+02
         0.12344E+03
         0.12360E+03
         0.18172E+03
         0.96056E+02
         0.22573E+03
         0.28298E+03
         0.19142E+02
         0.17440E+02
         0.20810E+02
         0.49040E+02
         0.76090E+02
         0.76060E+02
         0.65056E+02
         0.16929E+02
         0.55708E+02
        -0.75139E+02
        -0.18488E+03
        -0.42181E+02
        -0.50685E+02
        -0.19533E+02
         0.17824E+02
         0.46989E+02
         0.82409E+02
        -0.38499E+02
        -0.32340E+03
        -0.54210E+03
        -0.53785E+03
        -0.54558E+03
        -0.26347E+03
        -0.15061E+03
        -0.76242E+02
        -0.31138E+02
        -0.27397E+02
        -0.15277E+02
         0.13307E+02
         0.31889E+02
        -0.76765E+02
        -0.12919E+03
        -0.17712E+03
        -0.28616E+03
        -0.31976E+03
         0.30594E+02
         0.45133E+02
         0.65350E+02
         0.62452E+02
         0.28268E+02
         0.87304E+02
         0.17376E+02
         0.24732E+02
         0.10453E+02
         0.42555E+02
         0.40547E+02
         0.44091E+02
         0.40315E+02
         0.36319E+02
         0.97447E+02
         0.31359E+02
         0.24571E+02
         0.44668E+02
         0.49372E+02
         0.97901E+02
         0.17063E+03
         0.30326E+03
         0.63687E+02
         0.30695E+02
         0.72238E+02
         0.32544E+02
         0.65607E+02
         0.16185E+03
         0.14778E+03
         0.13737E+03
         0.51375E+02
         0.44394E+02
         0.91780E+02
         0.90511E+02
         0.28947E+01
         0.52800E+02
         0.41173E+02
         0.14253E+03
         0.22637E+03
         0.22781E+03
        -0.41179E+02
         0.87940E+02
         0.50746E+03
         0.46061E+02
         0.29154E+02
         0.27108E+02
         0.42144E+02
         0.65927E+02
         0.58576E+02
         0.51086E+02
        -0.32983E+01
         0.51795E+02
        -0.97258E+02
        -0.19361E+03
        -0.67057E+02
        -0.38323E+02
         0.49424E+01
         0.31812E+02
         0.94406E+02
        -0.13014E+01
        -0.50759E+02
        -0.29202E+03
        -0.76906E+03
        -0.68457E+03
        -0.75051E+03
        -0.49002E+03
        -0.26068E+03
        -0.12403E+03
        -0.59641E+02
        -0.18701E+02
        -0.11175E+02
         0.19602E+01
        -0.45997E+01
        -0.54370E+02
        -0.13779E+03
        -0.17091E+03
        -0.21174E+03
        -0.18080E+03
         0.58339E+02
         0.43371E+02
         0.80068E+02
         0.85117E+02
         0.31510E+02
         0.41202E+02
         0.10165E+02
         0.29400E+02
         0.24169E+02
         0.54799E+02
         0.24495E+02
         0.29572E+02
         0.43467E+02
         0.52641E+02
         0.10451E+03
         0.36335E+02
         0.41094E+02
         0.37779E+02
         0.51794E+02
         0.98762E+02
         0.21325E+03
         0.41151E+03
         0.75561E+02
         0.34660E+02
         0.72935E+02
         0.33737E+02
         0.53907E+02
         0.11313E+03
         0.28325E+03
         0.16540E+03
         0.75118E+02
         0.43320E+02
         0.12048E+03
         0.13462E+03
         0.11509E+02
         0.45404E+02
         0.42183E+02
         0.19245E+03
         0.33030E+03
         0.36886E+03
         0.99158E+02
         0.29187E+03
         0.43015E+03
         0.47389E+02
         0.26545E+02
         0.26322E+02
         0.54116E+02
         0.67512E+02
         0.50294E+02
         0.53316E+02
        -0.17680E+01
         0.43312E+02
        -0.10409E+03
        -0.21696E+03
        -0.53510E+02
        -0.19047E+02
         0.59221E+01
         0.29768E+02
         0.10900E+03
         0.52460E+02
        -0.80205E+02
        -0.30208E+03
        -0.93806E+03
        -0.10492E+04
        -0.92138E+03
        -0.56414E+03
        -0.26918E+03
        -0.11609E+03
        -0.52749E+02
        -0.32061E+02
        -0.10347E+02
         0.74416E+01
        -0.11729E+01
        -0.70144E+02
        -0.14519E+03
        -0.22501E+03
        -0.29348E+03
        -0.33915E+03
         0.28641E+02
         0.39286E+02
         0.75227E+02
         0.11721E+03
         0.46228E+02
         0.92899E+02
         0.13864E+02
         0.12171E+02
         0.13647E+02
         0.93697E+01
         0.38837E+02
         0.25275E+02
         0.29839E+02
         0.33975E+02
         0.11455E+03
         0.28984E+02
         0.26096E+02
         0.38539E+02
         0.47790E+02
         0.85730E+02
         0.21273E+03
         0.41245E+03
         0.83008E+02
         0.35320E+02
         0.58178E+02
         0.39018E+02
         0.93209E+02
         0.14144E+03
         0.22468E+03
         0.15634E+03
         0.64043E+02
         0.34026E+02
         0.10685E+03
         0.12019E+03
         0.25586E+02
         0.38343E+02
         0.32497E+02
         0.16799E+03
         0.24491E+03
         0.23014E+03
         0.46537E+02
         0.21216E+03
         0.43486E+03
         0.36943E+02
         0.25552E+02
         0.19186E+02
         0.49783E+02
         0.66969E+02
         0.57977E+02
         0.53064E+02
         0.12759E+02
         0.40851E+02
        -0.97132E+02
        -0.23500E+03
        -0.23775E+02
        -0.46005E+01
         0.10229E+02
         0.63911E+02
         0.14678E+03
         0.19964E+03
        -0.36630E+02
        -0.53359E+03
        -0.89099E+03
        -0.81021E+03
        -0.90936E+03
        -0.47550E+03
        -0.23311E+03
        -0.11011E+03
        -0.43409E+02
        -0.21153E+02
        -0.15172E+02
         0.40568E+01
        -0.80343E+01
        -0.66698E+02
        -0.17436E+03
        -0.20100E+03
        -0.28358E+03
        -0.30555E+03
         0.56896E+02
         0.40895E+02
         0.10457E+03
         0.12438E+03
         0.44239E+02
         0.55737E+02
         0.24941E+02
         0.25960E+02
         0.12250E+02
         0.38802E+02
         0.38081E+02
         0.39813E+02
         0.25817E+02
         0.23846E+02
         0.83503E+02
         0.43951E+02
         0.17881E+02
         0.40515E+02
         0.35138E+02
         0.65635E+02
         0.17016E+03
         0.22583E+03
         0.34622E+02
         0.22386E+02
         0.61774E+02
         0.41023E+02
         0.60310E+02
         0.12130E+03
         0.20372E+03
         0.14668E+03
         0.84108E+02
         0.53447E+02
         0.11559E+03
         0.13137E+03
         0.30858E+01
         0.38387E+02
         0.37590E+02
         0.15233E+03
         0.25811E+03
         0.28112E+03
         0.28894E+02
         0.90178E+02
         0.33469E+03
         0.31641E+02
         0.34063E+02
         0.29210E+02
         0.54632E+02
         0.75893E+02
         0.95620E+02
         0.60511E+02
        -0.27827E+02
         0.23096E+02
        -0.94447E+02
        -0.18464E+03
        -0.50814E+02
        -0.33216E+02
        -0.71777E+01
         0.37585E+02
         0.98543E+02
         0.31705E+01
        -0.10334E+03
        -0.49260E+03
        -0.76715E+03
        -0.94159E+03
        -0.79146E+03
        -0.55934E+03
        -0.25709E+03
        -0.82381E+02
        -0.35617E+02
        -0.17503E+02
        -0.43214E+01
         0.12455E+02
        -0.53502E+01
        -0.79228E+02
        -0.12810E+03
        -0.19845E+03
        -0.24840E+03
        -0.29680E+03
         0.53020E+02
         0.46415E+02
         0.95679E+02
         0.54680E+02
         0.29252E+02
         0.52172E+02
         0.25921E+02
         0.26649E+02
         0.24523E+02
         0.21030E+02
         0.43845E+02
         0.60799E+02
         0.31072E+02
         0.56710E+02
         0.98720E+02
         0.46111E+02
         0.32507E+02
         0.38371E+02
         0.33513E+02
         0.78581E+02
         0.14409E+03
         0.31934E+03
         0.46043E+02
         0.39342E+02
         0.61212E+02
         0.36754E+02
         0.64829E+02
         0.12155E+03
         0.18357E+03
         0.15047E+03
         0.75724E+02
         0.52337E+02
         0.79619E+02
         0.45095E+02
         0.45036E+01
         0.39028E+02
         0.27354E+02
         0.13726E+03
         0.22812E+03
         0.26178E+03
         0.66648E+02
         0.14504E+03
         0.46831E+03
         0.46596E+02
         0.38218E+02
         0.31707E+02
         0.57063E+02
         0.59232E+02
         0.17886E+02
        -0.13425E+02
        -0.95083E+01
         0.25384E+02
        -0.10087E+03
        -0.23157E+03
        -0.35512E+02
        -0.25083E+02
         0.10389E+02
         0.52963E+02
         0.91996E+02
         0.15980E+03
        -0.89955E+02
        -0.42299E+03
        -0.67199E+03
        -0.42967E+03
        -0.83879E+03
        -0.49687E+03
        -0.20659E+03
        -0.99088E+02
        -0.32671E+02
        -0.83235E+01
        -0.62578E+01
         0.11934E+02
         0.33774E+01
        -0.55019E+02
        -0.16788E+03
        -0.17068E+03
        -0.20199E+03
        -0.27095E+03
         0.65265E+02
         0.34364E+02
         0.90161E+02
         0.93088E+02
         0.11795E+02
         0.44081E+02
         0.23559E+02
         0.26063E+02
         0.13983E+02
         0.41823E+02
         0.41719E+02
         0.59856E+02
         0.40390E+02
         0.50373E+02
         0.96045E+02
         0.37646E+02
         0.46280E+02
         0.28193E+02
         0.51712E+02
         0.10542E+03
         0.17906E+03
         0.35144E+03
         0.68598E+02
         0.50986E+02
         0.76396E+02
         0.38400E+02
         0.62607E+02
         0.14406E+03
         0.22166E+03
         0.16241E+03
         0.72288E+02
         0.44329E+02
         0.84098E+02
         0.10163E+03
        -0.16336E+01
         0.26289E+02
         0.33052E+02
         0.19330E+03
         0.27682E+03
         0.25657E+03
         0.11830E+03
         0.21850E+03
         0.46764E+03
         0.51510E+02
         0.43191E+02
         0.27831E+02
         0.44832E+02
         0.39400E+02
         0.35011E+02
         0.28362E+02
        -0.12531E+02
         0.29116E+02
        -0.94770E+02
        -0.19093E+03
        -0.53804E+02
        -0.40534E+02
         0.80283E+01
         0.50702E+02
         0.83041E+02
         0.12001E+03
        -0.90298E+02
        -0.47339E+03
        -0.74263E+03
        -0.89937E+03
        -0.89940E+03
        -0.55110E+03
        -0.25938E+03
        -0.11845E+03
        -0.61842E+02
        -0.35331E+02
        -0.14013E+02
        -0.53323E+01
        -0.32085E+02
        -0.78923E+02
        -0.13338E+03
        -0.14982E+03
        -0.17882E+03
        -0.28662E+03
         0.40926E+02
         0.25363E+02
         0.46616E+02
         0.64525E+02
         0.16876E+02
         0.53634E+02
         0.20887E+02
         0.22356E+02
         0.17796E+02
         0.40250E+02
         0.37445E+02
         0.50375E+02
         0.33105E+02
         0.48998E+02
         0.86366E+02
         0.19000E+02
         0.27535E+02
         0.17452E+02
         0.32294E+02
         0.74913E+02
         0.19519E+03
         0.38477E+03
         0.44848E+02
         0.14821E+02
         0.75516E+02
         0.21894E+02
         0.97707E+02
         0.16029E+03
         0.20158E+03
         0.15228E+03
         0.57261E+02
         0.43330E+02
         0.78349E+02
         0.47967E+02
         0.86617E+01
         0.12693E+02
         0.19735E+02
         0.17846E+03
         0.31674E+03
         0.35370E+03
         0.90632E+02
         0.33097E+03
         0.26826E+03
         0.36379E+02
         0.27188E+02
         0.19959E+02
         0.39632E+02
         0.14609E+02
         0.20006E+02
         0.18867E+02
        -0.16250E+02
         0.26555E+02
        -0.77089E+02
        -0.18558E+03
        -0.49905E+02
        -0.34545E+02
        -0.30502E+01
         0.38025E+02
         0.72936E+02
         0.13315E+03
        -0.96858E+02
        -0.58429E+03
        -0.71961E+03
        -0.71740E+03
        -0.74684E+03
        -0.54938E+03
        -0.29425E+03
        -0.14573E+03
        -0.69786E+02
        -0.50529E+02
        -0.31211E+02
        -0.20855E+02
        -0.26884E+02
        -0.75484E+02
        -0.89969E+02
        -0.10549E+03
        -0.11662E+03
        -0.23458E+03
         0.96734E+01
         0.15118E+02
         0.21938E+02
         0.19367E+02
         0.40847E+01
         0.12718E+02
         0.10692E+02
         0.17680E+02
        -0.13600E+01
         0.34964E+02
         0.43040E+02
         0.37855E+02
         0.15356E+02
         0.59984E+02
         0.85401E+02
         0.14911E+02
         0.24629E+02
         0.38350E+01
         0.30686E+02
         0.75161E+02
         0.12668E+03
         0.28284E+03
         0.40805E+02
         0.18939E+02
         0.37786E+02
         0.98368E+01
         0.68923E+02
         0.11058E+03
         0.15387E+03
         0.77799E+02
         0.23945E+02
         0.24209E+02
         0.31770E+02
         0.92662E+01
         0.58409E+01
         0.17789E+02
         0.14024E+02
         0.14469E+03
         0.22330E+03
         0.33205E+03
         0.19579E+02
         0.10571E+03
         0.23918E+03
        -0.15828E+01
         0.53115E+01
        -0.33588E+01
         0.42684E+01
         0.12294E+02
        -0.19113E+02
        -0.12060E+02
        -0.10704E+02
         0.64690E+01
        -0.13296E+02
        -0.99895E+02
        -0.83021E+01
        -0.20184E+02
        -0.77395E+01
         0.53891E+02
         0.93655E+02
         0.16409E+03
        -0.71571E+02
        -0.28049E+03
        -0.44695E+03
        -0.57103E+03
        -0.84557E+03
        -0.49431E+03
        -0.15936E+03
        -0.15531E+03
        -0.85874E+02
        -0.64569E+02
        -0.40768E+02
        -0.33653E+02
        -0.39749E+02
        -0.35624E+02
        -0.45749E+02
        -0.34261E+02
        -0.46369E+02
        -0.13119E+03
        -0.61417E+01
        -0.87402E+01
        -0.18175E+02
        -0.51554E+02
         0.17695E+02
        -0.11915E+02
         0.13609E+02
         0.25670E+02
        -0.16544E+02
         0.34938E+02
         0.29440E+02
         0.57969E+02
         0.15138E+02
         0.45918E+02
         0.94209E+02
        -0.76928E+00
         0.49689E+01
        -0.16542E+02
         0.27693E+02
         0.59464E+02
         0.10386E+03
         0.64263E+02
         0.26296E+02
         0.13231E+02
         0.44423E+02
         0.18224E+02
         0.57709E+02
         0.10639E+03
         0.18335E+03
         0.12563E+03
        -0.10189E+02
         0.10842E+02
        -0.68768E+02
        -0.65832E+02
         0.18471E+02
         0.20654E+02
         0.84919E+01
         0.73169E+02
         0.22198E+03
         0.22074E+03
         0.49946E+02
         0.24753E+03
         0.34514E+03
         0.31788E+02
         0.14392E+02
        -0.46891E+01
         0.10972E+02
        -0.26115E+02
         0.15399E+02
        -0.12390E+02
         0.47808E+02
         0.21933E+02
         0.77797E+02
         0.64031E+02
         0.23482E+02
        -0.24204E+01
         0.60894E+01
         0.18190E+02
         0.45905E+02
         0.10069E+03
        -0.13221E+03
        -0.32984E+03
        -0.89136E+03
        -0.10011E+04
        -0.54757E+03
        -0.31052E+03
        -0.23771E+03
        -0.98471E+02
        -0.54951E+02
        -0.53915E+02
        -0.54160E+02
        -0.54473E+02
        -0.43873E+02
         0.11254E+03
         0.14736E+03
         0.18864E+03
         0.14772E+03
         0.84864E+02
        -0.14265E+01
        -0.24095E+02
        -0.48135E+02
        -0.87285E+02
         0.16754E+02
        -0.16024E+02
         0.30031E+02
         0.43550E+02
         0.10986E+02
         0.66595E+02
         0.39648E+02
         0.66070E+02
         0.42420E+02
         0.43846E+02
         0.42549E+02
         0.31235E+02
         0.25354E+02
        -0.34275E+02
         0.67094E+02
         0.57495E+02
         0.23813E+03
         0.38514E+03
         0.11194E+03
         0.58530E+02
         0.51956E+02
         0.54596E+02
         0.89174E+02
         0.10229E+03
         0.71368E+02
         0.94072E+02
        -0.37748E+02
         0.28380E+02
        -0.12383E+03
        -0.76942E+02
         0.57760E+02
         0.34999E+01
         0.96449E+01
         0.12622E+03
         0.13114E+03
         0.33196E+02
        -0.10874E+02
         0.10977E+03
         0.39539E+03
         0.72736E+02
         0.19477E+02
        -0.20255E+02
        -0.23593E+02
        -0.58650E+02
         0.24893E+02
         0.99560E+01
         0.99714E+02
         0.16215E+02
         0.21415E+03
         0.20052E+03
         0.70537E+02
         0.31548E+02
         0.16399E+02
         0.28167E+02
         0.60960E+02
         0.54860E+02
        -0.31896E+03
        -0.37679E+03
        -0.24547E+03
        -0.38327E+03
        -0.58158E+03
        -0.47507E+03
        -0.27895E+03
        -0.10864E+03
        -0.48771E+02
        -0.10723E+03
        -0.11779E+03
        -0.11931E+03
         0.28885E+02
         0.22493E+03
         0.38470E+03
         0.31705E+03
         0.42267E+03
         0.33765E+03
         0.41690E+02
         0.18304E+02
        -0.33542E+02
        -0.97595E+02
         0.20809E+00
        -0.38348E+02
         0.37710E+02
         0.62146E+02
         0.22223E+02
         0.79116E+02
         0.44841E+02
         0.42276E+02
         0.27832E+02
         0.54270E+02
         0.47771E+02
         0.96878E+02
         0.12000E+02
        -0.15048E+01
         0.14382E+03
         0.69858E+02
         0.62479E+03
         0.86141E+03
         0.31087E+03
         0.13913E+03
         0.16378E+02
         0.12451E+03
         0.60308E+02
         0.26975E+02
         0.18755E+02
         0.62300E+02
        -0.26204E+02
         0.46550E+02
        -0.11627E+03
        -0.13076E+03
         0.15126E+02
        -0.48938E+01
         0.74049E+01
         0.13892E+02
        -0.65404E+02
        -0.29103E+02
         0.69154E+02
         0.30606E+03
         0.67572E+03
         0.18021E+03
         0.42043E+02
        -0.22814E+02
        -0.33728E+02
        -0.73873E+02
        -0.88685E+02
        -0.58445E+02
         0.59957E+02
        -0.32978E+02
         0.10171E+03
         0.27437E+03
         0.44221E+02
         0.14473E+02
         0.20445E+02
        -0.23503E+01
        -0.47865E+01
        -0.81891E+02
        -0.13469E+03
        -0.38151E+02
         0.46373E+02
        -0.20575E+03
        -0.73348E+03
        -0.10881E+04
        -0.90912E+03
        -0.48041E+03
        -0.18838E+03
        -0.18703E+03
        -0.20978E+03
        -0.15158E+03
         0.53892E+02
         0.13144E+03
         0.21335E+03
         0.40568E+03
         0.46523E+03
         0.43353E+03
         0.54321E+02
         0.11161E+02
        -0.11875E+03
        -0.13486E+03
        -0.17868E+03
        -0.22978E+03
         0.11849E+02
         0.35708E+02
         0.39052E+02
         0.65153E+02
        -0.13937E+02
        -0.84859E+01
         0.20348E+02
         0.98267E+01
        -0.31848E+00
         0.17698E+03
         0.50285E+02
         0.31017E+02
         0.26317E+03
         0.23600E+03
         0.79273E+03
         0.11795E+04
         0.29936E+03
         0.21224E+03
         0.34978E+02
         0.18448E+03
         0.40638E+02
         0.49860E+02
         0.12006E+03
         0.23750E+03
        -0.68989E+01
         0.49865E+02
        -0.10802E+03
        -0.19738E+03
        -0.16662E+03
        -0.89843E+02
         0.65454E+01
         0.20825E+02
        -0.12799E+01
         0.70707E+02
         0.19031E+03
         0.34998E+03
         0.91846E+03
         0.16250E+03
        -0.17018E+02
        -0.10422E+03
        -0.51483E+02
        -0.50163E+02
        -0.95097E+02
        -0.17174E+03
        -0.12866E+03
        -0.21591E+03
        -0.17231E+03
        -0.28053E+02
        -0.17869E+03
        -0.51888E+02
         0.14872E+02
         0.13344E+02
        -0.92909E+01
         0.73740E+01
         0.12750E+03
         0.33629E+03
         0.29091E+03
        -0.46799E+03
        -0.17026E+04
        -0.23302E+04
        -0.18689E+04
        -0.10679E+04
        -0.51250E+03
        -0.32737E+03
        -0.27726E+03
        -0.16630E+03
         0.53990E+02
         0.11705E+03
         0.13533E+03
         0.12251E+03
         0.14709E+03
         0.90815E+02
  
SCALARS                         fint_z  double 1
LOOKUP_TABLE default
        -0.27493E+03
        -0.12355E+04
        -0.16491E+03
         0.11074E+04
        -0.15785E+03
        -0.92393E+03
        -0.17813E+03
        -0.99264E+02
         0.48831E+03
         0.13409E+04
         0.15962E+03
         0.25605E+03
        -0.12568E+04
        -0.29496E+03
        -0.79860E+03
        -0.26059E+03
         0.12333E+03
        -0.77032E+02
         0.10274E+03
        -0.12005E+03
        -0.10895E+04
        -0.37598E+04
        -0.25784E+04
        -0.78991E+03
        -0.35336E+04
        -0.22657E+04
        -0.75228E+03
        -0.15813E+04
        -0.57393E+03
        -0.13758E+04
         0.23267E+03
         0.22288E+03
         0.20690E+03
         0.49870E+02
         0.23068E+03
         0.21786E+03
         0.95260E+02
         0.15918E+03
         0.55515E+02
         0.13156E+03
         0.14952E+03
         0.16428E+03
         0.38456E+02
         0.10357E+03
         0.12749E+03
         0.46422E+01
        -0.37932E+02
        -0.41527E+02
         0.34230E+03
         0.15818E+03
        -0.57069E+02
        -0.30125E+03
        -0.65582E+03
        -0.58448E+03
        -0.94890E+03
        -0.83524E+03
        -0.10570E+04
         0.65215E+03
        -0.75031E+03
         0.29167E+03
         0.13476E+04
         0.26956E+03
        -0.32684E+03
        -0.27619E+03
         0.16850E+04
        -0.65271E+02
         0.31301E+04
         0.37184E+02
         0.24955E+03
        -0.37802E+03
        -0.33357E+01
        -0.53245E+03
        -0.13244E+04
        -0.11088E+04
        -0.71503E+04
        -0.66089E+04
        -0.94751E+04
        -0.98737E+04
        -0.73426E+04
        -0.64359E+04
        -0.31733E+04
        -0.50562E+03
        -0.23584E+04
        -0.49386E+03
         0.71344E+03
         0.34634E+03
         0.68626E+02
        -0.37824E+03
         0.50280E+03
         0.14688E+02
         0.63837E+03
         0.69386E+03
         0.20354E+03
         0.68320E+02
         0.15660E+04
        -0.27458E+02
         0.34672E+04
         0.60356E+03
         0.36743E+04
         0.57428E+03
         0.25248E+04
         0.28613E+04
         0.19969E+03
         0.29529E+03
        -0.69734E+02
         0.77418E+03
        -0.33906E+03
         0.35990E+02
        -0.30790E+03
        -0.74524E+03
        -0.44454E+03
        -0.46669E+03
         0.11136E+04
         0.16744E+04
         0.41405E+04
         0.58112E+04
         0.73551E+04
         0.98891E+04
         0.11745E+05
         0.17585E+05
         0.12271E+05
         0.21927E+05
         0.29163E+03
         0.43558E+04
        -0.26720E+04
        -0.24383E+04
        -0.12726E+04
        -0.74688E+03
        -0.46655E+03
        -0.50398E+03
         0.87374E+02
        -0.29713E+03
         0.81853E+03
         0.19755E+03
         0.98082E+03
         0.45565E+03
         0.67462E+03
         0.42729E+03
         0.47716E+03
         0.50257E+03
         0.40220E+03
         0.56472E+03
        -0.50229E+03
         0.41195E+03
        -0.17643E+04
         0.28358E+03
        -0.98971E+04
        -0.90682E+02
        -0.98802E+04
        -0.51182E+03
        -0.41883E+04
         0.63753E+02
         0.13607E+04
         0.38062E+03
         0.26227E+04
         0.16280E+03
        -0.10012E+03
        -0.44713E+03
         0.11489E+04
         0.39710E+04
         0.28254E+04
         0.46228E+04
        -0.75670E+03
        -0.53562E+02
         0.48049E+03
         0.19421E+03
        -0.90529E+03
        -0.22279E+04
        -0.14277E+04
        -0.92680E+03
        -0.33853E+04
         0.13581E+03
         0.64634E+03
         0.68570E+03
         0.39322E+02
         0.85884E+03
         0.49123E+03
         0.83253E+03
         0.57527E+03
         0.12326E+01
         0.90129E+03
         0.65566E+03
        -0.89939E+03
        -0.58928E+03
        -0.17258E+03
         0.11073E+04
         0.54515E+04
         0.21275E+04
         0.65063E+04
         0.79086E+04
         0.15972E+04
         0.28940E+03
        -0.56334E+03
        -0.57402E+04
        -0.66054E+04
        -0.48378E+04
        -0.25967E+04
        -0.24290E+03
         0.86641E+03
         0.83759E+03
         0.94016E+03
         0.60948E+03
         0.14422E+04
         0.27832E+04
         0.85725E+04
         0.76654E+04
         0.40349E+04
         0.78942E+04
         0.19883E+04
         0.17250E+04
         0.11780E+04
         0.19178E+03
         0.39966E+03
         0.14267E+04
         0.14759E+04
         0.38362E+04
         0.38894E+04
        -0.11103E+04
        -0.36040E+04
        -0.17598E+04
        -0.76379E+03
         0.67983E+03
         0.16983E+04
         0.15079E+04
         0.62477E+03
        -0.62242E+03
        -0.12949E+04
        -0.34615E+04
        -0.10367E+05
        -0.25472E+05
        -0.27060E+05
        -0.12744E+05
         0.16486E+03
         0.53979E+04
         0.32326E+03
         0.38257E+03
         0.13129E+04
         0.36220E+04
         0.24968E+04
         0.52922E+04
         0.94275E+02
         0.24745E+03
         0.41653E+03
         0.36820E+03
         0.14872E+03
        -0.13026E+03
         0.83550E+01
         0.13434E+03
        -0.54466E+03
         0.20535E+03
         0.32480E+03
         0.93314E+03
         0.31242E+02
         0.59889E+03
         0.47677E+03
         0.75984E+03
         0.47203E+03
         0.14502E+02
         0.97869E+03
         0.58691E+03
         0.49756E+03
         0.79614E+03
         0.70329E+03
         0.88973E+03
         0.29819E+04
         0.16809E+04
         0.46562E+04
         0.56016E+04
         0.11995E+04
         0.12750E+04
         0.39837E+03
        -0.28290E+03
        -0.17720E+04
        -0.17581E+04
        -0.17144E+04
        -0.22434E+03
         0.10402E+04
         0.59022E+03
         0.64963E+03
         0.16653E+03
         0.11769E+04
         0.32315E+04
         0.36230E+04
         0.30607E+04
         0.10497E+04
         0.32624E+04
         0.22203E+04
         0.23296E+04
         0.66259E+03
         0.30991E+03
         0.32228E+02
        -0.13144E+03
        -0.73342E+03
        -0.13963E+04
        -0.25222E+04
        -0.27392E+04
        -0.23684E+04
        -0.13000E+04
        -0.20348E+03
         0.67542E+03
         0.16431E+04
         0.15559E+04
         0.24076E+03
        -0.12490E+04
        -0.16138E+04
        -0.29609E+04
        -0.10305E+05
        -0.11384E+05
        -0.18615E+05
        -0.13493E+05
        -0.28250E+04
         0.32088E+04
         0.29446E+03
         0.14506E+03
         0.53410E+03
         0.65578E+03
         0.40399E+03
         0.98305E+03
         0.59485E+02
         0.30000E+03
         0.28114E+03
         0.57830E+03
         0.39019E+03
         0.19641E+03
         0.12969E+03
         0.54141E+03
         0.55171E+03
         0.30716E+02
         0.39212E+03
         0.22344E+03
         0.57084E+02
         0.62533E+03
         0.37573E+03
         0.92343E+03
         0.15592E+03
        -0.76537E+02
         0.87744E+03
        -0.54640E+02
         0.81266E+03
         0.90985E+03
         0.62700E+03
         0.10257E+04
         0.61789E+01
        -0.40479E+02
         0.20695E+03
         0.32219E+03
         0.45047E+03
         0.28126E+03
         0.12471E+03
         0.16137E+03
         0.20240E+03
        -0.11483E+03
        -0.29797E+03
         0.46608E+03
         0.11716E+04
         0.12407E+03
         0.50684E+02
         0.92353E+01
         0.12068E+03
         0.48342E+03
         0.10550E+04
         0.11528E+04
        -0.17881E+03
         0.91175E+03
         0.72920E+03
         0.10378E+04
         0.61418E+03
         0.30248E+03
        -0.45142E+02
        -0.20118E+03
        -0.14440E+04
        -0.23662E+04
        -0.29207E+04
        -0.24273E+04
        -0.14509E+04
        -0.88883E+03
        -0.89533E+03
         0.63278E+03
         0.13294E+04
         0.11025E+04
         0.54991E+03
         0.17209E+03
         0.26308E+03
         0.61942E+03
         0.10711E+03
        -0.24340E+04
        -0.51715E+04
        -0.29060E+04
         0.10536E+03
        -0.34755E+03
         0.99165E+02
        -0.20002E+02
        -0.55522E+02
        -0.10811E+03
        -0.53050E+02
        -0.15331E+03
         0.53969E+02
         0.21265E+03
         0.21471E+03
         0.39196E+03
         0.18986E+03
         0.30836E+03
         0.16651E+03
         0.35406E+03
         0.35392E+03
        -0.65026E+02
         0.36069E+03
        -0.17030E+03
         0.74687E+02
         0.47760E+03
         0.29129E+03
         0.75294E+03
        -0.31327E+02
        -0.14362E+03
         0.87645E+03
        -0.35876E+03
         0.68528E+03
         0.10184E+04
         0.74567E+03
         0.10644E+04
        -0.68247E+03
        -0.42382E+03
        -0.66542E+03
        -0.53726E+03
         0.97868E+02
        -0.25855E+02
         0.12886E+02
         0.60091E+03
         0.87946E+03
         0.55078E+03
        -0.18829E+03
         0.50330E+03
         0.11767E+04
        -0.18131E+03
        -0.20587E+03
        -0.56128E+02
        -0.28530E+03
        -0.47122E+03
        -0.11968E+03
        -0.19846E+03
        -0.14600E+03
        -0.61915E+02
         0.74465E+02
         0.41277E+02
        -0.53216E+02
        -0.63179E+02
        -0.44233E+02
        -0.20325E+03
        -0.78980E+03
        -0.16235E+04
        -0.32955E+04
        -0.29603E+04
        -0.22309E+04
        -0.16796E+04
        -0.50380E+03
         0.73376E+03
         0.93667E+03
         0.58379E+03
         0.33663E+03
         0.35942E+03
         0.46519E+03
         0.58031E+03
         0.14022E+04
         0.10225E+04
         0.98942E+03
         0.12648E+03
         0.21565E+03
         0.50354E+02
        -0.41473E+02
        -0.91622E+01
        -0.16299E+03
        -0.29282E+03
        -0.14966E+03
        -0.21719E+03
         0.41874E+02
         0.11515E+03
         0.54709E+02
         0.25485E+03
         0.62604E+02
         0.12673E+03
         0.90864E+02
         0.22707E+03
         0.48720E+03
        -0.16913E+03
         0.16653E+03
        -0.24060E+03
        -0.98397E+01
         0.26185E+03
         0.15450E+03
         0.43509E+03
        -0.81245E+01
        -0.77393E+02
         0.55456E+03
        -0.21672E+03
         0.35414E+03
         0.57126E+03
         0.53986E+03
         0.70969E+03
        -0.56177E+03
        -0.31840E+03
        -0.65285E+03
        -0.39534E+03
        -0.79070E+02
        -0.81578E+02
         0.25504E+01
         0.10760E+04
         0.10169E+04
         0.76937E+03
         0.15082E+03
         0.67433E+03
         0.83757E+03
        -0.99818E+02
        -0.11275E+03
        -0.24721E+02
        -0.14121E+03
        -0.32215E+03
        -0.13687E+03
        -0.26351E+03
        -0.14754E+02
        -0.26146E+03
        -0.10778E+03
        -0.13186E+03
        -0.11713E+03
        -0.31539E+02
         0.32958E+02
         0.29042E+02
        -0.56587E+03
        -0.20344E+04
        -0.30139E+04
        -0.29688E+04
        -0.19409E+04
        -0.87139E+03
        -0.12190E+03
         0.59012E+03
         0.61080E+03
         0.27115E+03
         0.12891E+03
         0.17653E+03
         0.23108E+03
         0.38986E+03
         0.81219E+03
         0.88155E+03
         0.97923E+03
         0.62063E+03
         0.32307E+03
         0.31776E+02
        -0.67523E+02
        -0.29112E+02
        -0.11497E+03
        -0.15151E+03
        -0.94743E+02
        -0.11427E+03
        -0.79043E+00
         0.10128E+02
        -0.32944E+01
         0.74014E+02
         0.25088E+02
         0.88331E+02
         0.13858E+02
         0.91820E+02
         0.31870E+03
        -0.96244E+02
         0.50821E+02
        -0.14090E+03
        -0.14967E+02
         0.97237E+02
         0.79873E+02
         0.24387E+03
         0.27876E+01
        -0.34322E+02
         0.20122E+03
        -0.60209E+02
         0.19582E+03
         0.32862E+03
         0.29887E+03
         0.33647E+03
        -0.15540E+03
        -0.59623E+02
        -0.22261E+03
        -0.17069E+03
        -0.91429E+02
        -0.42010E+02
        -0.14919E+02
         0.72474E+03
         0.86354E+03
         0.60824E+03
         0.91778E+02
         0.43992E+03
         0.55572E+03
        -0.26892E+02
        -0.22917E+02
         0.27677E+01
        -0.27932E+02
        -0.63967E+02
        -0.53395E+02
        -0.52366E+02
         0.55968E+02
        -0.12990E+03
        -0.67693E+02
        -0.52941E+02
         0.14698E+02
         0.27597E+02
         0.32770E+02
         0.25138E+02
        -0.26658E+03
        -0.10466E+04
        -0.17551E+04
        -0.15607E+04
        -0.71842E+03
        -0.23369E+03
         0.11231E+03
         0.45347E+03
         0.28898E+03
         0.57746E+02
         0.92182E+01
         0.85921E+01
         0.88423E+01
         0.13313E+02
         0.16049E+03
         0.35642E+03
         0.29232E+03
         0.31625E+03
         0.16662E+03
         0.68611E+02
        -0.48138E+02
        -0.59037E+02
        -0.82871E+02
        -0.11813E+03
        -0.66504E+02
        -0.50031E+02
        -0.24096E+02
         0.15836E+02
        -0.28777E-01
         0.36445E+02
        -0.21087E+02
         0.33249E+02
        -0.12688E+02
        -0.45859E+00
         0.12279E+03
        -0.44260E+02
         0.16106E+02
        -0.75763E+02
        -0.25848E+02
         0.31711E+02
        -0.98136E+01
         0.61830E+02
        -0.19612E+02
        -0.31875E+02
         0.53710E+02
        -0.34000E+02
         0.90671E+02
         0.16399E+03
         0.12739E+03
         0.73940E+02
        -0.58100E+02
        -0.17865E+02
        -0.91171E+02
        -0.55062E+02
        -0.36346E+02
        -0.33568E+02
        -0.22005E+02
         0.36895E+03
         0.45046E+03
         0.34044E+03
         0.18322E+03
         0.19365E+03
         0.21126E+03
        -0.15292E+02
        -0.51495E+00
         0.18881E+02
         0.14799E+02
         0.12329E+02
        -0.30645E+01
         0.12442E+02
         0.17569E+02
        -0.30954E+02
        -0.39446E+02
         0.81845E+01
        -0.28472E+02
         0.76660E+01
         0.83094E+01
         0.70381E+01
         0.86799E+02
        -0.64052E+01
        -0.14592E+03
        -0.40465E+03
        -0.36647E+03
        -0.10581E+03
         0.20700E+03
         0.15854E+03
         0.29166E+02
        -0.72407E+01
         0.52212E+01
         0.20130E+02
         0.10684E+02
        -0.30208E+01
         0.18723E+02
         0.10730E+03
         0.17887E+03
         0.16730E+03
         0.13184E+03
         0.10360E+03
        -0.56208E+02
        -0.31104E+02
        -0.54073E+02
        -0.63436E+02
        -0.35545E+02
        -0.25025E+02
        -0.18968E+02
        -0.18607E+02
        -0.24102E+02
        -0.15265E+02
        -0.22058E+02
        -0.18008E+02
        -0.21309E+02
        -0.25864E+02
         0.90307E+01
        -0.31161E+02
        -0.32056E+02
        -0.39680E+02
        -0.13201E+02
        -0.33235E+02
        -0.60229E+02
        -0.92891E+02
        -0.28967E+02
        -0.14121E+02
        -0.24334E+02
        -0.22066E+02
        -0.11605E+02
         0.25582E+01
        -0.17211E+02
        -0.55415E+02
        -0.63993E+02
        -0.26527E+02
        -0.94375E+02
        -0.44379E+02
        -0.50188E+02
        -0.34801E+02
        -0.22251E+02
         0.86813E+02
         0.13511E+03
         0.11036E+03
         0.89685E+02
         0.62818E+01
        -0.43431E+02
        -0.11773E+02
        -0.37394E+01
         0.95703E+01
        -0.12948E+02
        -0.33154E+02
        -0.11582E+02
         0.92965E+01
         0.45132E+02
         0.24948E+01
        -0.32775E+02
         0.44747E+02
        -0.21406E+02
        -0.78842E+01
         0.29291E+01
         0.43078E+02
         0.54255E+02
        -0.20404E+02
         0.31500E+02
         0.90897E+02
         0.14204E+03
         0.79041E+02
         0.18355E+03
        -0.95572E+02
        -0.77449E+02
        -0.19232E+02
        -0.71398E+01
         0.19424E+02
         0.28478E+02
         0.23084E+02
         0.75102E+02
         0.17066E+03
         0.22603E+03
         0.17367E+03
         0.14325E+03
         0.84296E+02
        -0.39356E+02
        -0.30862E+02
        -0.73682E+02
        -0.11048E+03
        -0.52743E+02
        -0.35676E+02
        -0.11613E+02
        -0.25435E+02
        -0.33641E+02
        -0.51598E+02
        -0.21034E+02
        -0.15636E+02
        -0.19467E+02
        -0.32536E+02
        -0.43511E+02
        -0.20795E+02
        -0.31511E+02
        -0.50170E+02
        -0.13923E+02
        -0.50950E+02
        -0.75853E+02
        -0.15005E+03
        -0.36695E+02
        -0.10824E+02
        -0.73539E+02
        -0.14846E+02
        -0.66189E+02
        -0.10134E+03
        -0.53245E+02
        -0.13710E+03
        -0.67699E+02
        -0.21573E+02
        -0.83463E+02
        -0.63661E+02
        -0.31867E+02
        -0.31938E+02
        -0.17609E+02
        -0.12224E+02
        -0.34604E+02
        -0.30995E+02
         0.31107E+02
        -0.21609E+02
        -0.23659E+03
        -0.93586E+01
        -0.75640E+01
         0.48849E+00
        -0.62398E+01
        -0.11831E+02
        -0.12682E+02
         0.16662E+01
         0.16229E+02
        -0.41653E+02
        -0.58350E+02
         0.31650E+00
        -0.32598E+02
        -0.70409E+01
        -0.33119E+01
         0.24263E+02
         0.10625E+03
         0.18188E+03
         0.33714E+03
         0.43949E+03
         0.25248E+03
         0.30732E+03
         0.11511E+03
        -0.81269E+02
        -0.13699E+03
        -0.76862E+02
         0.54427E+01
         0.16337E+02
         0.23418E+02
         0.48596E+02
         0.16220E+03
         0.19331E+03
         0.24283E+03
         0.20532E+03
         0.16022E+03
         0.40654E+02
        -0.41329E+02
        -0.15956E+02
        -0.69859E+02
        -0.13413E+03
        -0.92830E+02
        -0.96034E+02
        -0.89707E+01
        -0.18224E+02
        -0.46489E+02
        -0.29456E+02
        -0.18069E+02
        -0.29283E+02
        -0.17961E+02
        -0.21275E+02
        -0.44943E+02
        -0.27005E+02
        -0.48429E+02
        -0.50523E+02
        -0.28256E+02
        -0.95171E+02
        -0.99687E+02
        -0.15602E+03
        -0.46441E+02
        -0.23596E+02
        -0.83064E+02
        -0.20669E+02
        -0.74187E+02
        -0.14663E+03
        -0.11480E+03
        -0.13730E+03
        -0.81794E+02
        -0.28897E+02
        -0.12947E+03
        -0.13214E+03
        -0.66422E+02
        -0.33842E+02
        -0.13519E+02
        -0.14176E+03
        -0.15819E+03
        -0.15464E+03
        -0.18105E+02
        -0.23173E+03
        -0.29367E+03
        -0.21509E+02
        -0.10857E+02
         0.22055E+01
        -0.18528E+02
        -0.46513E+02
        -0.75303E+02
        -0.45676E+02
         0.43880E+02
        -0.40110E+02
        -0.51109E+02
        -0.21334E+02
        -0.38300E+02
        -0.15341E+02
        -0.14733E+02
         0.26041E+02
         0.93528E+02
         0.26502E+03
         0.51483E+03
         0.50977E+03
         0.48759E+03
         0.27107E+03
         0.65229E+02
        -0.96137E+02
        -0.13973E+03
        -0.62151E+02
        -0.11757E+02
         0.11278E+02
         0.17948E+02
         0.32286E+02
         0.11196E+03
         0.28400E+03
         0.36515E+03
         0.26624E+03
         0.18286E+03
         0.10997E+03
        -0.34293E+02
        -0.19337E+02
        -0.65436E+02
        -0.11324E+03
        -0.71809E+02
        -0.85187E+02
        -0.11151E+02
        -0.19287E+02
        -0.44338E+02
        -0.34549E+02
        -0.98513E+01
        -0.20941E+02
        -0.16988E+02
        -0.32354E+02
        -0.71233E+02
        -0.36093E+02
        -0.50892E+02
        -0.58773E+02
        -0.23655E+02
        -0.87217E+02
        -0.71163E+02
        -0.19105E+03
        -0.20453E+02
        -0.10135E+02
        -0.10420E+03
        -0.34349E+02
        -0.67600E+02
        -0.11273E+03
        -0.15024E+03
        -0.17077E+03
        -0.81730E+02
        -0.28605E+02
        -0.12247E+03
        -0.10736E+03
        -0.58034E+02
        -0.30329E+02
        -0.20637E+02
        -0.12042E+03
        -0.18010E+03
        -0.22094E+03
        -0.63688E+02
        -0.23064E+03
        -0.29471E+03
        -0.14012E+02
        -0.12101E+02
        -0.44442E+01
        -0.15513E+02
        -0.35331E+02
        -0.54601E+02
        -0.41788E+02
         0.57353E+02
        -0.61310E+02
        -0.43159E+02
        -0.26414E+02
        -0.27992E+02
        -0.16456E+02
        -0.21505E+02
         0.76882E+01
         0.11094E+03
         0.29936E+03
         0.44804E+03
         0.71066E+03
         0.48390E+03
         0.21818E+03
        -0.33369E+02
        -0.10234E+03
        -0.72840E+02
        -0.23967E+02
        -0.33229E+01
         0.12741E+01
         0.93255E+01
         0.55136E+02
         0.12815E+03
         0.25576E+03
         0.26896E+03
         0.26072E+03
         0.22740E+03
         0.10218E+03
        -0.26054E+02
        -0.23565E+02
        -0.40299E+02
        -0.48974E+02
        -0.73333E+02
        -0.84107E+02
        -0.10454E+02
        -0.23812E+02
        -0.25984E+02
        -0.59347E+02
        -0.16413E+02
        -0.37029E+02
        -0.15150E+02
        -0.35979E+02
        -0.65519E+02
        -0.14310E+02
        -0.30127E+02
        -0.53964E+02
        -0.13954E+02
        -0.88100E+02
        -0.85631E+02
        -0.19186E+03
        -0.43390E+02
        -0.12790E+02
        -0.12779E+03
        -0.19878E+02
        -0.73638E+02
        -0.17243E+03
        -0.20769E+03
        -0.12372E+03
        -0.72137E+02
        -0.50717E+02
        -0.11596E+03
        -0.88710E+02
        -0.50438E+02
        -0.42933E+02
        -0.11042E+02
        -0.78310E+02
        -0.20981E+03
        -0.18943E+03
        -0.31222E+02
        -0.21382E+03
        -0.28982E+03
        -0.27615E+02
        -0.21171E+02
        -0.12830E+02
        -0.30154E+02
        -0.53397E+02
        -0.15867E+02
        -0.75017E+01
         0.31748E+02
        -0.39031E+02
        -0.48413E+02
         0.24903E+02
        -0.21566E+02
        -0.17787E+02
        -0.19536E+02
         0.13282E+02
         0.12373E+03
         0.26467E+03
         0.56983E+03
         0.55128E+03
         0.67587E+03
         0.15764E+03
         0.27886E+02
        -0.13844E+03
        -0.16906E+03
        -0.86754E+02
        -0.18955E+02
         0.72244E+01
         0.36929E+02
         0.54655E+02
         0.11371E+03
         0.15397E+03
         0.25882E+03
         0.22119E+03
         0.15303E+03
         0.46692E+02
        -0.56471E+02
        -0.27503E+02
        -0.48239E+02
        -0.73012E+02
        -0.35578E+02
        -0.58603E+02
        -0.14261E+02
        -0.28815E+02
        -0.52199E+02
        -0.75969E+02
        -0.23233E+02
        -0.24838E+02
        -0.30127E+02
        -0.42948E+02
        -0.42413E+02
        -0.19493E+02
        -0.59107E+02
        -0.46658E+02
        -0.14902E+02
        -0.82987E+02
        -0.10069E+03
        -0.21551E+03
        -0.55184E+02
        -0.16124E+02
        -0.10801E+03
        -0.32404E+02
        -0.10114E+03
        -0.16425E+03
        -0.36278E+03
        -0.20183E+03
        -0.10623E+03
        -0.49919E+02
        -0.15577E+03
        -0.12127E+03
        -0.56689E+02
        -0.44034E+02
        -0.26494E+02
        -0.21991E+03
        -0.38150E+03
        -0.36725E+03
        -0.13012E+03
        -0.34811E+03
        -0.41996E+03
        -0.32725E+02
        -0.26803E+02
        -0.58579E+01
        -0.32936E+02
        -0.56668E+02
        -0.27339E+02
        -0.16264E+02
         0.39268E+02
        -0.47095E+02
        -0.48371E+02
         0.30811E+02
        -0.61103E+02
        -0.36381E+02
        -0.24500E+02
         0.21891E+02
         0.20710E+03
         0.45148E+03
         0.62865E+03
         0.98812E+03
         0.94879E+03
         0.41962E+03
         0.53606E+02
        -0.12729E+03
        -0.20154E+03
        -0.11332E+03
        -0.42119E+02
         0.73067E+01
         0.39777E+02
         0.54694E+02
         0.10738E+03
         0.25821E+03
         0.32044E+03
         0.29662E+03
         0.24499E+03
         0.15075E+03
        -0.29134E+02
        -0.31399E+02
        -0.38207E+02
        -0.89400E+02
        -0.69774E+02
        -0.74731E+02
        -0.11466E+02
        -0.10261E+02
        -0.43827E+02
        -0.23063E+02
        -0.24243E+02
        -0.19761E+02
        -0.14221E+02
        -0.39302E+02
        -0.13057E+03
        -0.84540E+01
        -0.39620E+02
        -0.43341E+02
        -0.39280E+01
        -0.68535E+02
        -0.94601E+02
        -0.20361E+03
        -0.51498E+02
        -0.76716E+01
        -0.12463E+03
        -0.39549E+02
        -0.16048E+03
        -0.20555E+03
        -0.26494E+03
        -0.17377E+03
        -0.93005E+02
        -0.42570E+02
        -0.13602E+03
        -0.11777E+03
        -0.55032E+02
        -0.41783E+02
        -0.15916E+02
        -0.29136E+03
        -0.43920E+03
        -0.37176E+03
        -0.11603E+03
        -0.29356E+03
        -0.31798E+03
        -0.32912E+02
        -0.23750E+02
        -0.65354E+01
        -0.11785E+02
        -0.37399E+02
        -0.36746E+02
        -0.33922E+02
         0.10570E+02
        -0.93531E+01
        -0.38673E+02
         0.25755E+02
        -0.58676E+02
        -0.39152E+02
        -0.24406E+02
         0.23500E+02
         0.22542E+03
         0.51276E+03
         0.91813E+03
         0.11644E+04
         0.84847E+03
         0.23824E+03
         0.50800E+02
        -0.16922E+03
        -0.16198E+03
        -0.84717E+02
        -0.31669E+02
         0.64436E+01
         0.32509E+02
         0.73138E+02
         0.15725E+03
         0.25147E+03
         0.30890E+03
         0.24963E+03
         0.23829E+03
         0.13695E+03
        -0.42620E+02
        -0.30774E+02
        -0.72284E+02
        -0.11501E+03
        -0.60772E+02
        -0.83894E+02
        -0.16936E+02
        -0.90033E+01
        -0.15141E+02
        -0.44866E+02
        -0.22668E+02
        -0.57075E+02
        -0.32819E+02
        -0.36095E+02
        -0.11894E+03
        -0.33214E+02
        -0.43732E+02
        -0.57173E+02
        -0.22584E+02
        -0.69419E+02
        -0.10031E+03
        -0.16281E+03
        -0.39014E+02
        -0.22535E+02
        -0.10281E+03
        -0.39270E+02
        -0.84437E+02
        -0.18698E+03
        -0.21138E+03
        -0.15196E+03
        -0.10783E+03
        -0.46573E+02
        -0.14751E+03
        -0.13302E+03
        -0.55943E+02
        -0.50134E+02
        -0.29175E+02
        -0.22628E+03
        -0.35611E+03
        -0.33126E+03
        -0.12102E+03
        -0.16078E+03
        -0.32712E+03
        -0.25685E+02
        -0.14612E+02
         0.14498E+02
        -0.94450E+01
        -0.43823E+02
        -0.57857E+02
        -0.28676E+02
         0.49298E+02
        -0.33990E+02
        -0.32372E+02
         0.13768E+02
        -0.42647E+02
        -0.33167E+02
        -0.18144E+02
         0.32225E+02
         0.21341E+03
         0.46582E+03
         0.43823E+03
         0.92505E+03
         0.80109E+03
         0.27935E+03
         0.22404E+03
        -0.17569E+03
        -0.16646E+03
        -0.39103E+02
        -0.13552E+02
         0.22425E+02
         0.48829E+02
         0.89291E+02
         0.17545E+03
         0.21474E+03
         0.28442E+03
         0.20521E+03
         0.21556E+03
         0.16986E+03
        -0.48427E+02
        -0.36620E+02
        -0.55401E+02
        -0.41980E+02
        -0.27763E+02
        -0.18748E+02
        -0.20616E+02
        -0.28807E+02
        -0.36105E+02
        -0.41489E+02
        -0.31382E+02
        -0.55681E+02
        -0.35914E+02
        -0.47014E+02
        -0.93461E+02
        -0.36214E+02
        -0.45465E+02
        -0.46197E+02
        -0.20192E+02
        -0.74974E+02
        -0.82082E+02
        -0.19487E+03
        -0.36086E+02
        -0.25593E+02
        -0.11108E+03
        -0.32896E+02
        -0.99178E+02
        -0.19004E+03
        -0.70193E+02
        -0.17510E+03
        -0.87684E+02
        -0.47447E+02
        -0.11162E+03
        -0.33901E+02
        -0.53958E+02
        -0.43021E+02
        -0.20274E+02
        -0.10267E+03
        -0.22052E+03
        -0.24352E+03
        -0.93061E+02
        -0.30217E+03
        -0.34164E+03
        -0.26233E+02
        -0.13127E+02
         0.10297E+02
        -0.80655E+01
        -0.19328E+02
        -0.89980E+01
         0.14162E+02
         0.51825E+02
         0.10601E+01
        -0.18638E+02
         0.37810E+02
        -0.89249E+01
        -0.17823E+02
        -0.17374E+02
         0.27826E+02
         0.16878E+03
         0.38348E+03
         0.70644E+03
         0.80788E+03
         0.46964E+03
         0.12250E+03
         0.11789E+03
        -0.18951E+03
        -0.12855E+03
        -0.70158E+02
        -0.16643E+02
         0.17221E+02
         0.35787E+02
         0.50935E+02
         0.12484E+03
         0.19793E+03
         0.25938E+03
         0.20674E+03
         0.20285E+03
         0.12756E+03
        -0.54333E+02
        -0.15458E+02
        -0.51865E+02
        -0.71186E+02
        -0.34506E+02
        -0.44213E+02
        -0.86951E+01
        -0.21574E+02
        -0.29644E+02
        -0.53315E+02
        -0.14397E+02
        -0.38808E+02
        -0.24597E+02
        -0.28133E+02
        -0.67540E+02
        -0.19544E+02
        -0.53807E+02
        -0.35664E+02
        -0.22628E+02
        -0.87026E+02
        -0.11018E+03
        -0.21267E+03
        -0.53093E+02
        -0.26215E+02
        -0.11825E+03
        -0.21962E+02
        -0.12459E+03
        -0.20691E+03
        -0.27288E+03
        -0.16673E+03
        -0.70847E+02
        -0.33251E+02
        -0.99034E+02
        -0.93509E+02
        -0.41131E+02
        -0.16839E+02
        -0.11102E+02
        -0.21024E+03
        -0.34962E+03
        -0.31476E+03
        -0.12436E+03
        -0.15418E+03
        -0.34154E+03
        -0.19447E+02
        -0.15555E+02
         0.18506E+01
         0.19874E+01
        -0.92423E+01
        -0.11368E+02
         0.90492E+01
         0.43779E+02
        -0.13685E+02
         0.10899E+02
         0.65490E+02
        -0.13831E+02
        -0.17506E+02
        -0.27047E+02
         0.17206E+02
         0.17337E+03
         0.47430E+03
         0.69170E+03
         0.93948E+03
         0.77579E+03
         0.47802E+03
         0.12270E+03
        -0.15092E+03
        -0.17819E+03
        -0.79579E+02
        -0.38136E+02
         0.74692E+00
         0.39211E+02
         0.70168E+02
         0.13792E+03
         0.19803E+03
         0.22650E+03
         0.17400E+03
         0.14223E+03
         0.15937E+03
        -0.27912E+02
        -0.88846E+01
        -0.33362E+02
        -0.59598E+02
        -0.26138E+02
        -0.36076E+02
        -0.13166E+02
        -0.24925E+02
        -0.33010E+02
        -0.54938E+02
        -0.25913E+02
        -0.55048E+02
        -0.10813E+02
        -0.40417E+02
        -0.49553E+02
        -0.17597E+02
        -0.42294E+02
        -0.25975E+02
        -0.18963E+02
        -0.88173E+02
        -0.10487E+03
        -0.21551E+03
        -0.29847E+02
        -0.86440E+01
        -0.11732E+03
        -0.10547E+02
        -0.84014E+02
        -0.22290E+03
        -0.12988E+03
        -0.17633E+03
        -0.59573E+02
        -0.27005E+02
        -0.66562E+02
        -0.41856E+02
        -0.34670E+02
        -0.23717E+01
        -0.23755E+01
        -0.14836E+03
        -0.24702E+03
        -0.32738E+03
        -0.12467E+03
        -0.35200E+03
        -0.18152E+03
        -0.19607E+02
        -0.83599E+01
         0.63396E+01
        -0.30539E+01
         0.10973E+02
        -0.95591E+01
         0.41781E+01
         0.51677E+02
        -0.70898E+01
        -0.13037E+02
         0.50831E+02
        -0.11005E+02
        -0.23313E+02
        -0.29910E+02
         0.10044E+02
         0.64954E+02
         0.29700E+03
         0.86842E+03
         0.80124E+03
         0.69177E+03
         0.49682E+03
         0.11447E+03
        -0.18155E+03
        -0.17588E+03
        -0.98824E+02
        -0.42587E+02
         0.21084E+01
         0.22173E+02
         0.39891E+02
         0.74457E+02
         0.14428E+03
         0.16228E+03
         0.14387E+03
         0.13993E+03
         0.15448E+03
        -0.17056E+02
        -0.95450E+01
        -0.14192E+02
        -0.13555E+02
         0.28333E+01
         0.14352E+02
        -0.11205E+02
        -0.31403E+02
        -0.23286E+02
        -0.45480E+02
        -0.32242E+02
        -0.34956E+02
        -0.14731E+02
        -0.61989E+02
        -0.25343E+02
        -0.12821E+01
        -0.41376E+02
        -0.10732E+02
        -0.19071E+02
        -0.59587E+02
        -0.73892E+02
        -0.19168E+03
        -0.28061E+02
        -0.11527E+02
        -0.92888E+02
        -0.42104E+01
        -0.64404E+02
        -0.11151E+03
        -0.21428E+03
        -0.85657E+02
        -0.12803E+02
        -0.66275E+01
        -0.26081E+02
        -0.24869E+00
        -0.12575E+02
        -0.53054E+01
        -0.85927E+01
        -0.19391E+03
        -0.40531E+03
        -0.30150E+03
        -0.22492E+03
        -0.24905E+03
        -0.27205E+03
        -0.21782E+00
         0.76859E-01
         0.18423E+02
         0.23766E+02
         0.31275E+01
         0.34114E+02
         0.41905E+02
         0.30421E+02
         0.38203E+02
        -0.10942E+02
         0.55894E+02
        -0.29057E+01
         0.15586E+01
         0.31603E+01
         0.41413E+02
         0.88415E+02
         0.39754E+03
         0.76384E+03
         0.53579E+03
         0.53396E+03
         0.38447E+03
        -0.39932E+02
        -0.25102E+03
        -0.19036E+03
        -0.84160E+02
        -0.20013E+02
         0.55491E+01
         0.46827E+01
        -0.24686E+02
        -0.27480E+02
         0.49590E+02
         0.47026E+02
         0.54873E+02
         0.90921E+02
         0.14663E+03
        -0.11811E+02
         0.16309E+01
         0.15437E+02
         0.39915E+02
         0.21515E+02
         0.56501E+02
        -0.16983E+02
        -0.25000E+02
        -0.29499E+01
        -0.44733E+02
        -0.11770E+02
        -0.56613E+02
        -0.26993E+02
        -0.40728E+02
        -0.76622E+02
         0.58122E+01
        -0.96937E+01
         0.21091E+02
        -0.17504E+02
        -0.52394E+02
        -0.26986E+02
        -0.68831E+02
        -0.18987E+02
        -0.77201E+01
        -0.89051E+02
         0.68285E+01
        -0.11748E+03
        -0.18973E+03
        -0.24761E+03
        -0.12070E+03
         0.82362E+02
         0.62373E+02
         0.12819E+03
         0.90446E+02
        -0.12731E+02
        -0.75295E+01
         0.63387E+01
        -0.11559E+03
        -0.17656E+03
        -0.24372E+03
        -0.97481E+02
        -0.30788E+03
        -0.26402E+03
         0.37081E+01
         0.34711E+02
         0.29466E+02
         0.34781E+02
         0.67621E+02
         0.40546E+02
         0.43669E+02
         0.94616E+01
         0.67507E+02
        -0.21777E+02
         0.27587E+02
        -0.91776E+01
         0.13217E+02
         0.26617E+02
         0.75195E+02
         0.18299E+03
         0.41976E+03
         0.80993E+03
         0.78191E+03
         0.76045E+03
         0.46834E+03
        -0.25536E+02
        -0.98734E+02
        -0.18251E+03
        -0.67163E+02
        -0.12770E+02
         0.34239E+01
        -0.36166E+02
        -0.83400E+02
        -0.71043E+02
        -0.16684E+03
        -0.20645E+03
        -0.10458E+03
        -0.23409E+02
         0.56025E+02
        -0.30505E+02
        -0.24807E+02
        -0.81216E+01
         0.68478E+02
         0.17995E+01
         0.72630E+02
        -0.38486E+02
        -0.46553E+02
        -0.16957E+02
        -0.73580E+02
        -0.53764E+02
        -0.61883E+02
        -0.60801E+02
        -0.50699E+02
        -0.42737E+02
         0.13985E+02
        -0.34442E+02
         0.44549E+02
        -0.14404E+02
        -0.42682E+02
        -0.72368E+02
        -0.14812E+03
        -0.27150E+02
        -0.99257E+01
        -0.71042E+02
         0.24747E+02
        -0.13294E+03
        -0.17972E+03
        -0.12936E+03
        -0.10813E+03
         0.20227E+03
         0.12496E+03
         0.23199E+03
         0.12621E+03
        -0.14287E+02
         0.73716E+01
        -0.18485E+02
        -0.22574E+03
        -0.24695E+03
        -0.92859E+02
         0.31893E+01
        -0.53454E+02
        -0.20859E+03
         0.10991E+02
         0.52899E+02
         0.30400E+02
         0.95069E+02
         0.17563E+03
         0.89403E+02
         0.83178E+02
         0.19820E+02
         0.77961E+02
        -0.26765E+02
         0.74139E+01
         0.11807E+02
         0.24890E+02
         0.23689E+02
         0.64440E+02
         0.20528E+03
         0.31073E+03
         0.38094E+03
         0.33062E+03
         0.29469E+03
         0.35573E+03
         0.22125E+03
        -0.90605E+02
        -0.22811E+03
        -0.16910E+03
        -0.73119E+02
        -0.46941E+02
        -0.11557E+03
        -0.31685E+03
        -0.51062E+03
        -0.42802E+03
        -0.35634E+03
        -0.24457E+03
        -0.14678E+03
        -0.39398E+02
        -0.37500E+02
        -0.33938E+02
         0.17108E+02
         0.89943E+02
         0.31438E+02
         0.98421E+02
        -0.46037E+02
        -0.50164E+02
        -0.39734E+02
        -0.55598E+02
        -0.46257E+02
        -0.37288E+02
        -0.39701E+02
        -0.51300E+02
        -0.26995E+02
         0.25836E+02
        -0.55726E+02
         0.16640E+02
         0.14022E+02
        -0.46309E+02
        -0.60700E+02
        -0.15218E+03
        -0.16544E+02
         0.31414E+02
        -0.56960E+02
         0.80159E+02
        -0.53237E+02
        -0.36856E+02
        -0.18524E+02
        -0.93543E+02
         0.26893E+03
         0.20262E+03
         0.24965E+03
         0.19341E+03
         0.27755E+02
        -0.75790E+01
        -0.24101E+02
        -0.18748E+01
         0.37498E+02
         0.31329E+02
         0.53940E+02
        -0.22578E+02
        -0.19006E+03
         0.28898E+02
         0.76460E+02
         0.30920E+02
         0.10562E+03
         0.20946E+03
         0.16873E+03
         0.11000E+03
        -0.56972E+01
         0.10332E+03
         0.42532E+02
         0.28607E+02
         0.11478E+02
        -0.22017E+02
        -0.13592E+02
         0.16206E+02
         0.10271E+03
         0.12602E+03
         0.28514E+02
        -0.23804E+02
         0.15764E+03
         0.58243E+03
         0.59261E+03
         0.22615E+02
        -0.45849E+03
        -0.50463E+03
        -0.29837E+03
        -0.18618E+03
        -0.26556E+03
        -0.50215E+03
        -0.64473E+03
        -0.51335E+03
        -0.47917E+03
        -0.35180E+03
        -0.21729E+03
        -0.76446E+02
         0.59580E+02
         0.21510E+02
         0.14322E+03
         0.18524E+03
         0.19829E+03
         0.19783E+03
         0.24439E+01
         0.25800E+02
         0.11839E+02
         0.17603E+02
         0.10089E+02
         0.18568E+02
        -0.76074E+01
         0.23499E+02
         0.31446E+02
         0.45133E+02
        -0.31878E+02
         0.35804E+02
         0.86555E+01
        -0.90104E+02
        -0.17954E+03
        -0.17395E+03
        -0.14657E+03
         0.42378E+02
        -0.20814E+02
         0.11595E+03
         0.47891E+02
         0.11013E+03
         0.19101E+03
        -0.10083E+03
         0.26138E+03
         0.20014E+03
         0.26753E+03
         0.23901E+03
         0.15492E+03
         0.57361E+02
        -0.14461E+02
         0.10433E+03
         0.21878E+03
         0.30906E+03
         0.43756E+03
         0.48414E+03
         0.80540E+01
        -0.69710E+02
         0.29305E+02
         0.21564E+02
         0.13117E+03
         0.25043E+03
         0.26400E+03
         0.17710E+03
         0.51044E+02
         0.12842E+03
         0.15370E+03
         0.96266E+02
         0.51123E+01
        -0.80232E+02
        -0.44202E+02
        -0.10232E+02
        -0.70383E+02
        -0.19868E+03
        -0.33217E+03
        -0.17818E+03
         0.39269E+03
         0.12952E+04
         0.13790E+04
         0.19483E+03
        -0.80774E+03
        -0.92011E+03
        -0.64367E+03
        -0.40888E+03
        -0.33662E+03
        -0.50738E+03
        -0.53939E+03
        -0.37942E+03
        -0.26208E+03
        -0.15623E+03
        -0.31286E+02
         0.44523E+02
  
SCALARS        characteristic_distance  double 1
LOOKUP_TABLE default
         0.00000E+00
         0.00000E+00
         0.00000E+00
         0.00000E+00
         0.00000E+00
         0.00000E+00
         0.00000E+00
         0.00000E+00
         0.00000E+00
         0.00000E+00
         0.00000E+00
         0.00000E+00
         0.00000E+00
         0.00000E+00
         0.00000E+00
         0.00000E+00
         0.00000E+00
         0.00000E+00
         0.00000E+00
         0.00000E+00
         0.00000E+00
         0.00000E+00
         0.00000E+00
         0.00000E+00
         0.00000E+00
         0.00000E+00
         0.00000E+00
         0.00000E+00
         0.00000E+00
         0.00000E+00
         0.00000E+00
         0.00000E+00
         0.00000E+00
         0.00000E+00
         0.00000E+00
         0.00000E+00
         0.00000E+00
         0.00000E+00
         0.00000E+00
         0.00000E+00
         0.00000E+00
         0.00000E+00
         0.00000E+00
         0.00000E+00
         0.00000E+00
         0.00000E+00
         0.00000E+00
         0.00000E+00
         0.00000E+00
         0.00000E+00
         0.00000E+00
         0.00000E+00
         0.00000E+00
         0.00000E+00
         0.00000E+00
         0.00000E+00
         0.00000E+00
         0.00000E+00
         0.00000E+00
         0.00000E+00
         0.00000E+00
         0.00000E+00
         0.00000E+00
         0.00000E+00
         0.00000E+00
         0.00000E+00
         0.00000E+00
         0.00000E+00
         0.00000E+00
         0.00000E+00
         0.00000E+00
         0.00000E+00
         0.00000E+00
         0.00000E+00
         0.00000E+00
         0.00000E+00
         0.00000E+00
         0.00000E+00
         0.00000E+00
         0.00000E+00
         0.00000E+00
         0.00000E+00
         0.00000E+00
         0.00000E+00
         0.00000E+00
         0.00000E+00
         0.00000E+00
         0.00000E+00
         0.00000E+00
         0.00000E+00
         0.00000E+00
         0.00000E+00
         0.00000E+00
         0.00000E+00
         0.00000E+00
         0.00000E+00
         0.00000E+00
         0.00000E+00
         0.00000E+00
         0.00000E+00
         0.00000E+00
         0.00000E+00
         0.00000E+00
         0.00000E+00
         0.00000E+00
         0.00000E+00
         0.00000E+00
         0.00000E+00
         0.00000E+00
         0.00000E+00
         0.00000E+00
         0.00000E+00
         0.00000E+00
         0.00000E+00
         0.00000E+00
         0.00000E+00
         0.00000E+00
         0.00000E+00
         0.00000E+00
         0.00000E+00
         0.00000E+00
         0.00000E+00
         0.00000E+00
         0.00000E+00
         0.00000E+00
         0.00000E+00
         0.00000E+00
         0.00000E+00
         0.00000E+00
         0.00000E+00
         0.00000E+00
         0.00000E+00
         0.00000E+00
         0.00000E+00
         0.00000E+00
         0.00000E+00
         0.00000E+00
         0.00000E+00
         0.00000E+00
         0.00000E+00
         0.00000E+00
         0.00000E+00
         0.00000E+00
         0.00000E+00
         0.00000E+00
         0.00000E+00
         0.00000E+00
         0.00000E+00
         0.00000E+00
         0.00000E+00
         0.00000E+00
         0.00000E+00
         0.00000E+00
         0.00000E+00
         0.00000E+00
         0.00000E+00
         0.00000E+00
         0.00000E+00
         0.00000E+00
         0.00000E+00
         0.00000E+00
         0.00000E+00
         0.00000E+00
         0.00000E+00
         0.00000E+00
         0.00000E+00
         0.00000E+00
         0.00000E+00
         0.00000E+00
         0.00000E+00
         0.00000E+00
         0.00000E+00
         0.00000E+00
         0.00000E+00
         0.00000E+00
         0.00000E+00
         0.00000E+00
         0.00000E+00
         0.00000E+00
         0.00000E+00
         0.00000E+00
         0.00000E+00
         0.00000E+00
         0.00000E+00
         0.00000E+00
         0.00000E+00
         0.00000E+00
         0.00000E+00
         0.00000E+00
         0.00000E+00
         0.00000E+00
         0.00000E+00
         0.00000E+00
         0.00000E+00
         0.00000E+00
         0.00000E+00
         0.00000E+00
         0.00000E+00
         0.00000E+00
         0.00000E+00
         0.00000E+00
         0.00000E+00
         0.00000E+00
         0.00000E+00
         0.00000E+00
         0.00000E+00
         0.00000E+00
         0.00000E+00
         0.00000E+00
         0.00000E+00
         0.00000E+00
         0.00000E+00
         0.00000E+00
         0.00000E+00
         0.00000E+00
         0.00000E+00
         0.00000E+00
         0.00000E+00
         0.00000E+00
         0.00000E+00
         0.00000E+00
         0.00000E+00
         0.00000E+00
         0.00000E+00
         0.00000E+00
         0.00000E+00
         0.00000E+00
         0.00000E+00
         0.00000E+00
         0.00000E+00
         0.00000E+00
         0.00000E+00
         0.00000E+00
         0.00000E+00
         0.00000E+00
         0.00000E+00
         0.00000E+00
         0.00000E+00
         0.00000E+00
         0.00000E+00
         0.00000E+00
         0.00000E+00
         0.00000E+00
         0.00000E+00
         0.00000E+00
         0.00000E+00
         0.00000E+00
         0.00000E+00
         0.00000E+00
         0.00000E+00
         0.00000E+00
         0.00000E+00
         0.00000E+00
         0.00000E+00
         0.00000E+00
         0.00000E+00
         0.00000E+00
         0.00000E+00
         0.00000E+00
         0.00000E+00
         0.00000E+00
         0.00000E+00
         0.00000E+00
         0.00000E+00
         0.00000E+00
         0.00000E+00
         0.00000E+00
         0.00000E+00
         0.00000E+00
         0.00000E+00
         0.00000E+00
         0.00000E+00
         0.00000E+00
         0.00000E+00
         0.00000E+00
         0.00000E+00
         0.00000E+00
         0.00000E+00
         0.00000E+00
         0.00000E+00
         0.00000E+00
         0.00000E+00
         0.00000E+00
         0.00000E+00
         0.00000E+00
         0.00000E+00
         0.00000E+00
         0.00000E+00
         0.00000E+00
         0.00000E+00
         0.00000E+00
         0.00000E+00
         0.00000E+00
         0.00000E+00
         0.00000E+00
         0.00000E+00
         0.00000E+00
         0.00000E+00
         0.00000E+00
         0.00000E+00
         0.00000E+00
         0.00000E+00
         0.00000E+00
         0.00000E+00
         0.00000E+00
         0.00000E+00
         0.00000E+00
         0.00000E+00
         0.00000E+00
         0.00000E+00
         0.00000E+00
         0.00000E+00
         0.00000E+00
         0.00000E+00
         0.00000E+00
         0.00000E+00
         0.00000E+00
         0.00000E+00
         0.00000E+00
         0.00000E+00
         0.00000E+00
         0.00000E+00
         0.00000E+00
         0.00000E+00
         0.00000E+00
         0.00000E+00
         0.00000E+00
         0.00000E+00
         0.00000E+00
         0.00000E+00
         0.00000E+00
         0.00000E+00
         0.00000E+00
         0.00000E+00
         0.00000E+00
         0.00000E+00
         0.00000E+00
         0.00000E+00
         0.00000E+00
         0.00000E+00
         0.00000E+00
         0.00000E+00
         0.00000E+00
         0.00000E+00
         0.00000E+00
         0.00000E+00
         0.00000E+00
         0.00000E+00
         0.00000E+00
         0.00000E+00
         0.00000E+00
         0.00000E+00
         0.00000E+00
         0.00000E+00
         0.00000E+00
         0.00000E+00
         0.00000E+00
         0.00000E+00
         0.00000E+00
         0.00000E+00
         0.00000E+00
         0.00000E+00
         0.00000E+00
         0.00000E+00
         0.00000E+00
         0.00000E+00
         0.00000E+00
         0.00000E+00
         0.00000E+00
         0.00000E+00
         0.00000E+00
         0.00000E+00
         0.00000E+00
         0.00000E+00
         0.00000E+00
         0.00000E+00
         0.00000E+00
         0.00000E+00
         0.00000E+00
         0.00000E+00
         0.00000E+00
         0.00000E+00
         0.00000E+00
         0.00000E+00
         0.00000E+00
         0.00000E+00
         0.00000E+00
         0.00000E+00
         0.00000E+00
         0.00000E+00
         0.00000E+00
         0.00000E+00
         0.00000E+00
         0.00000E+00
         0.00000E+00
         0.00000E+00
         0.00000E+00
         0.00000E+00
         0.00000E+00
         0.00000E+00
         0.00000E+00
         0.00000E+00
         0.00000E+00
         0.00000E+00
         0.00000E+00
         0.00000E+00
         0.00000E+00
         0.00000E+00
         0.00000E+00
         0.00000E+00
         0.00000E+00
         0.00000E+00
         0.00000E+00
         0.00000E+00
         0.00000E+00
         0.00000E+00
         0.00000E+00
         0.00000E+00
         0.00000E+00
         0.00000E+00
         0.00000E+00
         0.00000E+00
         0.00000E+00
         0.00000E+00
         0.00000E+00
         0.00000E+00
         0.00000E+00
         0.00000E+00
         0.00000E+00
         0.00000E+00
         0.00000E+00
         0.00000E+00
         0.00000E+00
         0.00000E+00
         0.00000E+00
         0.00000E+00
         0.00000E+00
         0.00000E+00
         0.00000E+00
         0.00000E+00
         0.00000E+00
         0.00000E+00
         0.00000E+00
         0.00000E+00
         0.00000E+00
         0.00000E+00
         0.00000E+00
         0.00000E+00
         0.00000E+00
         0.00000E+00
         0.00000E+00
         0.00000E+00
         0.00000E+00
         0.00000E+00
         0.00000E+00
         0.00000E+00
         0.00000E+00
         0.00000E+00
         0.00000E+00
         0.00000E+00
         0.00000E+00
         0.00000E+00
         0.00000E+00
         0.00000E+00
         0.00000E+00
         0.00000E+00
         0.00000E+00
         0.00000E+00
         0.00000E+00
         0.00000E+00
         0.00000E+00
         0.00000E+00
         0.00000E+00
         0.00000E+00
         0.00000E+00
         0.00000E+00
         0.00000E+00
         0.00000E+00
         0.00000E+00
         0.00000E+00
         0.00000E+00
         0.00000E+00
         0.00000E+00
         0.00000E+00
         0.00000E+00
         0.00000E+00
         0.00000E+00
         0.00000E+00
         0.00000E+00
         0.00000E+00
         0.00000E+00
         0.00000E+00
         0.00000E+00
         0.00000E+00
         0.00000E+00
         0.00000E+00
         0.00000E+00
         0.00000E+00
         0.00000E+00
         0.00000E+00
         0.00000E+00
         0.00000E+00
         0.00000E+00
         0.00000E+00
         0.00000E+00
         0.00000E+00
         0.00000E+00
         0.00000E+00
         0.00000E+00
         0.00000E+00
         0.00000E+00
         0.00000E+00
         0.00000E+00
         0.00000E+00
         0.00000E+00
         0.00000E+00
         0.00000E+00
         0.00000E+00
         0.00000E+00
         0.00000E+00
         0.00000E+00
         0.00000E+00
         0.00000E+00
         0.00000E+00
         0.00000E+00
         0.00000E+00
         0.00000E+00
         0.00000E+00
         0.00000E+00
         0.00000E+00
         0.00000E+00
         0.00000E+00
         0.00000E+00
         0.00000E+00
         0.00000E+00
         0.00000E+00
         0.00000E+00
         0.00000E+00
         0.00000E+00
         0.00000E+00
         0.00000E+00
         0.00000E+00
         0.00000E+00
         0.00000E+00
         0.00000E+00
         0.00000E+00
         0.00000E+00
         0.00000E+00
         0.00000E+00
         0.00000E+00
         0.00000E+00
         0.00000E+00
         0.00000E+00
         0.00000E+00
         0.00000E+00
         0.00000E+00
         0.00000E+00
         0.00000E+00
         0.00000E+00
         0.00000E+00
         0.00000E+00
         0.00000E+00
         0.00000E+00
         0.00000E+00
         0.00000E+00
         0.00000E+00
         0.00000E+00
         0.00000E+00
         0.00000E+00
         0.00000E+00
         0.00000E+00
         0.00000E+00
         0.00000E+00
         0.00000E+00
         0.00000E+00
         0.00000E+00
         0.00000E+00
         0.00000E+00
         0.00000E+00
         0.00000E+00
         0.00000E+00
         0.00000E+00
         0.00000E+00
         0.00000E+00
         0.00000E+00
         0.00000E+00
         0.00000E+00
         0.00000E+00
         0.00000E+00
         0.00000E+00
         0.00000E+00
         0.00000E+00
         0.00000E+00
         0.00000E+00
         0.00000E+00
         0.00000E+00
         0.00000E+00
         0.00000E+00
         0.00000E+00
         0.00000E+00
         0.00000E+00
         0.00000E+00
         0.00000E+00
         0.00000E+00
         0.00000E+00
         0.00000E+00
         0.00000E+00
         0.00000E+00
         0.00000E+00
         0.00000E+00
         0.00000E+00
         0.00000E+00
         0.00000E+00
         0.00000E+00
         0.00000E+00
         0.00000E+00
         0.00000E+00
         0.00000E+00
         0.00000E+00
         0.00000E+00
         0.00000E+00
         0.00000E+00
         0.00000E+00
         0.00000E+00
         0.00000E+00
         0.00000E+00
         0.00000E+00
         0.00000E+00
         0.00000E+00
         0.00000E+00
         0.00000E+00
         0.00000E+00
         0.00000E+00
         0.00000E+00
         0.00000E+00
         0.00000E+00
         0.00000E+00
         0.00000E+00
         0.00000E+00
         0.00000E+00
         0.00000E+00
         0.00000E+00
         0.00000E+00
         0.00000E+00
         0.00000E+00
         0.00000E+00
         0.00000E+00
         0.00000E+00
         0.00000E+00
         0.00000E+00
         0.00000E+00
         0.00000E+00
         0.00000E+00
         0.00000E+00
         0.00000E+00
         0.00000E+00
         0.00000E+00
         0.00000E+00
         0.00000E+00
         0.00000E+00
         0.00000E+00
         0.00000E+00
         0.00000E+00
         0.00000E+00
         0.00000E+00
         0.00000E+00
         0.00000E+00
         0.00000E+00
         0.00000E+00
         0.00000E+00
         0.00000E+00
         0.00000E+00
         0.00000E+00
         0.00000E+00
         0.00000E+00
         0.00000E+00
         0.00000E+00
         0.00000E+00
         0.00000E+00
         0.00000E+00
         0.00000E+00
         0.00000E+00
         0.00000E+00
         0.00000E+00
         0.00000E+00
         0.00000E+00
         0.00000E+00
         0.00000E+00
         0.00000E+00
         0.00000E+00
         0.00000E+00
         0.00000E+00
         0.00000E+00
         0.00000E+00
         0.00000E+00
         0.00000E+00
         0.00000E+00
         0.00000E+00
         0.00000E+00
         0.00000E+00
         0.00000E+00
         0.00000E+00
         0.00000E+00
         0.00000E+00
         0.00000E+00
         0.00000E+00
         0.00000E+00
         0.00000E+00
         0.00000E+00
         0.00000E+00
         0.00000E+00
         0.00000E+00
         0.00000E+00
         0.00000E+00
         0.00000E+00
         0.00000E+00
         0.00000E+00
         0.00000E+00
         0.00000E+00
         0.00000E+00
         0.00000E+00
         0.00000E+00
         0.00000E+00
         0.00000E+00
         0.00000E+00
         0.00000E+00
         0.00000E+00
         0.00000E+00
         0.00000E+00
         0.00000E+00
         0.00000E+00
         0.00000E+00
         0.00000E+00
         0.00000E+00
         0.00000E+00
         0.00000E+00
         0.00000E+00
         0.00000E+00
         0.00000E+00
         0.00000E+00
         0.00000E+00
         0.00000E+00
         0.00000E+00
         0.00000E+00
         0.00000E+00
         0.00000E+00
         0.00000E+00
         0.00000E+00
         0.00000E+00
         0.00000E+00
         0.00000E+00
         0.00000E+00
         0.00000E+00
         0.00000E+00
         0.00000E+00
         0.00000E+00
         0.00000E+00
         0.00000E+00
         0.00000E+00
         0.00000E+00
         0.00000E+00
         0.00000E+00
         0.00000E+00
         0.00000E+00
         0.00000E+00
         0.00000E+00
         0.00000E+00
         0.00000E+00
         0.00000E+00
         0.00000E+00
         0.00000E+00
         0.00000E+00
         0.00000E+00
         0.00000E+00
         0.00000E+00
         0.00000E+00
         0.00000E+00
         0.00000E+00
         0.00000E+00
         0.00000E+00
         0.00000E+00
         0.00000E+00
         0.00000E+00
         0.00000E+00
         0.00000E+00
         0.00000E+00
         0.00000E+00
         0.00000E+00
         0.00000E+00
         0.00000E+00
         0.00000E+00
         0.00000E+00
         0.00000E+00
         0.00000E+00
         0.00000E+00
         0.00000E+00
         0.00000E+00
         0.00000E+00
         0.00000E+00
         0.00000E+00
         0.00000E+00
         0.00000E+00
         0.00000E+00
         0.00000E+00
         0.00000E+00
         0.00000E+00
         0.00000E+00
         0.00000E+00
         0.00000E+00
         0.00000E+00
         0.00000E+00
         0.00000E+00
         0.00000E+00
         0.00000E+00
         0.00000E+00
         0.00000E+00
         0.00000E+00
         0.00000E+00
         0.00000E+00
         0.00000E+00
         0.00000E+00
         0.00000E+00
         0.00000E+00
         0.00000E+00
         0.00000E+00
         0.00000E+00
         0.00000E+00
         0.00000E+00
         0.00000E+00
         0.00000E+00
         0.00000E+00
         0.00000E+00
         0.00000E+00
         0.00000E+00
         0.00000E+00
         0.00000E+00
         0.00000E+00
         0.00000E+00
         0.00000E+00
         0.00000E+00
         0.00000E+00
         0.00000E+00
         0.00000E+00
         0.00000E+00
         0.00000E+00
         0.00000E+00
         0.00000E+00
         0.00000E+00
         0.00000E+00
         0.00000E+00
         0.00000E+00
         0.00000E+00
         0.00000E+00
         0.00000E+00
         0.00000E+00
         0.00000E+00
         0.00000E+00
         0.00000E+00
         0.00000E+00
         0.00000E+00
         0.00000E+00
         0.00000E+00
         0.00000E+00
         0.00000E+00
         0.00000E+00
         0.00000E+00
         0.00000E+00
         0.00000E+00
         0.00000E+00
         0.00000E+00
         0.00000E+00
         0.00000E+00
         0.00000E+00
         0.00000E+00
         0.00000E+00
         0.00000E+00
         0.00000E+00
         0.00000E+00
         0.00000E+00
         0.00000E+00
         0.00000E+00
         0.00000E+00
         0.00000E+00
         0.00000E+00
         0.00000E+00
         0.00000E+00
         0.00000E+00
         0.00000E+00
         0.00000E+00
         0.00000E+00
         0.00000E+00
         0.00000E+00
         0.00000E+00
         0.00000E+00
         0.00000E+00
         0.00000E+00
         0.00000E+00
         0.00000E+00
         0.00000E+00
         0.00000E+00
         0.00000E+00
         0.00000E+00
         0.00000E+00
         0.00000E+00
         0.00000E+00
         0.00000E+00
         0.00000E+00
         0.00000E+00
         0.00000E+00
         0.00000E+00
         0.00000E+00
         0.00000E+00
         0.00000E+00
         0.00000E+00
         0.00000E+00
         0.00000E+00
         0.00000E+00
         0.00000E+00
         0.00000E+00
         0.00000E+00
         0.00000E+00
         0.00000E+00
         0.00000E+00
         0.00000E+00
         0.00000E+00
         0.00000E+00
         0.00000E+00
         0.00000E+00
         0.00000E+00
         0.00000E+00
         0.00000E+00
         0.00000E+00
         0.00000E+00
         0.00000E+00
         0.00000E+00
         0.00000E+00
         0.00000E+00
         0.00000E+00
         0.00000E+00
         0.00000E+00
         0.00000E+00
         0.00000E+00
         0.00000E+00
         0.00000E+00
         0.00000E+00
         0.00000E+00
         0.00000E+00
         0.00000E+00
         0.00000E+00
         0.00000E+00
         0.00000E+00
         0.00000E+00
         0.00000E+00
         0.00000E+00
         0.00000E+00
         0.00000E+00
         0.00000E+00
         0.00000E+00
         0.00000E+00
         0.00000E+00
         0.00000E+00
         0.00000E+00
         0.00000E+00
         0.00000E+00
         0.00000E+00
         0.00000E+00
         0.00000E+00
         0.00000E+00
         0.00000E+00
         0.00000E+00
         0.00000E+00
         0.00000E+00
         0.00000E+00
         0.00000E+00
         0.00000E+00
         0.00000E+00
         0.00000E+00
         0.00000E+00
         0.00000E+00
         0.00000E+00
         0.00000E+00
         0.00000E+00
         0.00000E+00
         0.00000E+00
         0.00000E+00
         0.00000E+00
         0.00000E+00
         0.00000E+00
         0.00000E+00
         0.00000E+00
         0.00000E+00
         0.00000E+00
         0.00000E+00
         0.00000E+00
         0.00000E+00
         0.00000E+00
         0.00000E+00
         0.00000E+00
         0.00000E+00
         0.00000E+00
         0.00000E+00
         0.00000E+00
         0.00000E+00
         0.00000E+00
         0.00000E+00
         0.00000E+00
         0.00000E+00
         0.00000E+00
         0.00000E+00
         0.00000E+00
         0.00000E+00
         0.00000E+00
         0.00000E+00
         0.00000E+00
         0.00000E+00
         0.00000E+00
         0.00000E+00
         0.00000E+00
         0.00000E+00
         0.00000E+00
         0.00000E+00
         0.00000E+00
         0.00000E+00
         0.00000E+00
         0.00000E+00
         0.00000E+00
         0.00000E+00
         0.00000E+00
         0.00000E+00
         0.00000E+00
         0.00000E+00
         0.00000E+00
         0.00000E+00
         0.00000E+00
         0.00000E+00
         0.00000E+00
         0.00000E+00
         0.00000E+00
         0.00000E+00
         0.00000E+00
         0.00000E+00
         0.00000E+00
         0.00000E+00
         0.00000E+00
         0.00000E+00
         0.00000E+00
         0.00000E+00
         0.00000E+00
         0.00000E+00
         0.00000E+00
         0.00000E+00
         0.00000E+00
         0.00000E+00
         0.00000E+00
         0.00000E+00
         0.00000E+00
         0.00000E+00
         0.00000E+00
         0.00000E+00
         0.00000E+00
         0.00000E+00
         0.00000E+00
         0.00000E+00
         0.00000E+00
         0.00000E+00
         0.00000E+00
         0.00000E+00
         0.00000E+00
         0.00000E+00
         0.00000E+00
         0.00000E+00
         0.00000E+00
         0.00000E+00
         0.00000E+00
         0.00000E+00
         0.00000E+00
         0.00000E+00
         0.00000E+00
         0.00000E+00
         0.00000E+00
         0.00000E+00
         0.00000E+00
         0.00000E+00
         0.00000E+00
         0.00000E+00
         0.00000E+00
         0.00000E+00
         0.00000E+00
         0.00000E+00
         0.00000E+00
         0.00000E+00
         0.00000E+00
         0.00000E+00
         0.00000E+00
         0.00000E+00
         0.00000E+00
         0.00000E+00
         0.00000E+00
         0.00000E+00
         0.00000E+00
         0.00000E+00
         0.00000E+00
         0.00000E+00
         0.00000E+00
         0.00000E+00
         0.00000E+00
         0.00000E+00
         0.00000E+00
         0.00000E+00
         0.00000E+00
         0.00000E+00
         0.00000E+00
         0.00000E+00
         0.00000E+00
         0.00000E+00
         0.00000E+00
         0.00000E+00
         0.00000E+00
         0.00000E+00
         0.00000E+00
         0.00000E+00
         0.00000E+00
         0.00000E+00
         0.00000E+00
         0.00000E+00
         0.00000E+00
         0.00000E+00
         0.00000E+00
         0.00000E+00
         0.00000E+00
         0.00000E+00
         0.00000E+00
         0.00000E+00
         0.00000E+00
         0.00000E+00
         0.00000E+00
         0.00000E+00
         0.00000E+00
         0.00000E+00
         0.00000E+00
         0.00000E+00
         0.00000E+00
         0.00000E+00
         0.00000E+00
         0.00000E+00
         0.00000E+00
         0.00000E+00
         0.00000E+00
         0.00000E+00
         0.00000E+00
         0.00000E+00
         0.00000E+00
         0.00000E+00
         0.00000E+00
         0.00000E+00
         0.00000E+00
         0.00000E+00
         0.00000E+00
         0.00000E+00
         0.00000E+00
         0.00000E+00
         0.00000E+00
         0.00000E+00
         0.00000E+00
         0.00000E+00
         0.00000E+00
         0.00000E+00
         0.00000E+00
         0.00000E+00
         0.00000E+00
         0.00000E+00
         0.00000E+00
         0.00000E+00
         0.00000E+00
         0.00000E+00
         0.00000E+00
         0.00000E+00
         0.00000E+00
         0.00000E+00
         0.00000E+00
         0.00000E+00
         0.00000E+00
         0.00000E+00
         0.00000E+00
         0.00000E+00
         0.00000E+00
         0.00000E+00
         0.00000E+00
         0.00000E+00
         0.00000E+00
         0.00000E+00
         0.00000E+00
         0.00000E+00
         0.00000E+00
         0.00000E+00
         0.00000E+00
         0.00000E+00
         0.00000E+00
         0.00000E+00
         0.00000E+00
         0.00000E+00
         0.00000E+00
         0.00000E+00
         0.00000E+00
         0.00000E+00
         0.00000E+00
         0.00000E+00
         0.00000E+00
         0.00000E+00
         0.00000E+00
         0.00000E+00
         0.00000E+00
         0.00000E+00
         0.00000E+00
         0.00000E+00
         0.00000E+00
         0.00000E+00
         0.00000E+00
         0.00000E+00
         0.00000E+00
         0.00000E+00
         0.00000E+00
         0.00000E+00
         0.00000E+00
         0.00000E+00
         0.00000E+00
         0.00000E+00
         0.00000E+00
         0.00000E+00
         0.00000E+00
         0.00000E+00
         0.00000E+00
         0.00000E+00
         0.00000E+00
         0.00000E+00
         0.00000E+00
         0.00000E+00
         0.00000E+00
         0.00000E+00
         0.00000E+00
         0.00000E+00
         0.00000E+00
         0.00000E+00
         0.00000E+00
         0.00000E+00
         0.00000E+00
         0.00000E+00
         0.00000E+00
         0.00000E+00
         0.00000E+00
         0.00000E+00
         0.00000E+00
         0.00000E+00
         0.00000E+00
         0.00000E+00
         0.00000E+00
         0.00000E+00
         0.00000E+00
         0.00000E+00
         0.00000E+00
         0.00000E+00
         0.00000E+00
         0.00000E+00
         0.00000E+00
         0.00000E+00
         0.00000E+00
         0.00000E+00
         0.00000E+00
         0.00000E+00
         0.00000E+00
         0.00000E+00
         0.00000E+00
         0.00000E+00
         0.00000E+00
         0.00000E+00
         0.00000E+00
         0.00000E+00
         0.00000E+00
         0.00000E+00
         0.00000E+00
         0.00000E+00
         0.00000E+00
         0.00000E+00
         0.00000E+00
         0.00000E+00
         0.00000E+00
         0.00000E+00
         0.00000E+00
         0.00000E+00
         0.00000E+00
         0.00000E+00
         0.00000E+00
         0.00000E+00
         0.00000E+00
         0.00000E+00
         0.00000E+00
         0.00000E+00
         0.00000E+00
         0.00000E+00
         0.00000E+00
         0.00000E+00
         0.00000E+00
         0.00000E+00
         0.00000E+00
         0.00000E+00
         0.00000E+00
         0.00000E+00
         0.00000E+00
         0.00000E+00
         0.00000E+00
         0.00000E+00
         0.00000E+00
         0.00000E+00
         0.00000E+00
         0.00000E+00
         0.00000E+00
         0.00000E+00
         0.00000E+00
         0.00000E+00
         0.00000E+00
         0.00000E+00
         0.00000E+00
         0.00000E+00
         0.00000E+00
         0.00000E+00
         0.00000E+00
         0.00000E+00
         0.00000E+00
         0.00000E+00
         0.00000E+00
         0.00000E+00
         0.00000E+00
         0.00000E+00
         0.00000E+00
         0.00000E+00
         0.00000E+00
         0.00000E+00
         0.00000E+00
         0.00000E+00
         0.00000E+00
         0.00000E+00
         0.00000E+00
         0.00000E+00
         0.00000E+00
         0.00000E+00
         0.00000E+00
         0.00000E+00
         0.00000E+00
         0.00000E+00
         0.00000E+00
         0.00000E+00
         0.00000E+00
         0.00000E+00
         0.00000E+00
         0.00000E+00
         0.00000E+00
         0.00000E+00
         0.00000E+00
         0.00000E+00
         0.00000E+00
         0.00000E+00
         0.00000E+00
         0.00000E+00
         0.00000E+00
         0.00000E+00
         0.00000E+00
         0.00000E+00
         0.00000E+00
         0.00000E+00
         0.00000E+00
         0.00000E+00
         0.00000E+00
         0.00000E+00
         0.00000E+00
         0.00000E+00
         0.00000E+00
         0.00000E+00
         0.00000E+00
         0.00000E+00
         0.00000E+00
         0.00000E+00
         0.00000E+00
         0.00000E+00
         0.00000E+00
         0.00000E+00
         0.00000E+00
         0.00000E+00
         0.00000E+00
         0.00000E+00
         0.00000E+00
         0.00000E+00
         0.00000E+00
         0.00000E+00
         0.00000E+00
         0.00000E+00
         0.00000E+00
         0.00000E+00
         0.00000E+00
         0.00000E+00
         0.00000E+00
         0.00000E+00
         0.00000E+00
         0.00000E+00
         0.00000E+00
         0.00000E+00
         0.00000E+00
         0.00000E+00
         0.00000E+00
         0.00000E+00
         0.00000E+00
         0.00000E+00
         0.00000E+00
         0.00000E+00
         0.00000E+00
         0.00000E+00
         0.00000E+00
         0.00000E+00
         0.00000E+00
         0.00000E+00
         0.00000E+00
         0.00000E+00
         0.00000E+00
         0.00000E+00
         0.00000E+00
         0.00000E+00
         0.00000E+00
         0.00000E+00
         0.00000E+00
         0.00000E+00
         0.00000E+00
         0.00000E+00
         0.00000E+00
         0.00000E+00
         0.00000E+00
         0.00000E+00
         0.00000E+00
         0.00000E+00
         0.00000E+00
         0.00000E+00
         0.00000E+00
         0.00000E+00
         0.00000E+00
         0.00000E+00
         0.00000E+00
         0.00000E+00
         0.00000E+00
         0.00000E+00
         0.00000E+00
         0.00000E+00
         0.00000E+00
         0.00000E+00
         0.00000E+00
         0.00000E+00
         0.00000E+00
         0.00000E+00
         0.00000E+00
         0.00000E+00
         0.00000E+00
         0.00000E+00
         0.00000E+00
         0.00000E+00
         0.00000E+00
         0.00000E+00
         0.00000E+00
         0.00000E+00
         0.00000E+00
         0.00000E+00
         0.00000E+00
         0.00000E+00
         0.00000E+00
         0.00000E+00
         0.00000E+00
         0.00000E+00
         0.00000E+00
         0.00000E+00
         0.00000E+00
         0.00000E+00
         0.00000E+00
         0.00000E+00
         0.00000E+00
         0.00000E+00
         0.00000E+00
         0.00000E+00
         0.00000E+00
         0.00000E+00
         0.00000E+00
         0.00000E+00
         0.00000E+00
         0.00000E+00
         0.00000E+00
         0.00000E+00
         0.00000E+00
         0.00000E+00
         0.00000E+00
         0.00000E+00
         0.00000E+00
         0.00000E+00
         0.00000E+00
         0.00000E+00
         0.00000E+00
         0.00000E+00
         0.00000E+00
         0.00000E+00
         0.00000E+00
         0.00000E+00
         0.00000E+00
         0.00000E+00
         0.00000E+00
         0.00000E+00
         0.00000E+00
         0.00000E+00
         0.00000E+00
         0.00000E+00
         0.00000E+00
         0.00000E+00
         0.00000E+00
         0.00000E+00
         0.00000E+00
         0.00000E+00
         0.00000E+00
         0.00000E+00
         0.00000E+00
         0.00000E+00
         0.00000E+00
         0.00000E+00
         0.00000E+00
         0.00000E+00
         0.00000E+00
         0.00000E+00
         0.00000E+00
         0.00000E+00
         0.00000E+00
         0.00000E+00
         0.00000E+00
         0.00000E+00
         0.00000E+00
         0.00000E+00
         0.00000E+00
         0.00000E+00
         0.00000E+00
         0.00000E+00
         0.00000E+00
         0.00000E+00
         0.00000E+00
         0.00000E+00
         0.00000E+00
         0.00000E+00
         0.00000E+00
         0.00000E+00
         0.00000E+00
         0.00000E+00
         0.00000E+00
         0.00000E+00
         0.00000E+00
         0.00000E+00
         0.00000E+00
         0.00000E+00
         0.00000E+00
         0.00000E+00
         0.00000E+00
         0.00000E+00
         0.00000E+00
         0.00000E+00
         0.00000E+00
         0.00000E+00
         0.00000E+00
         0.00000E+00
         0.00000E+00
         0.00000E+00
         0.00000E+00
         0.00000E+00
         0.00000E+00
         0.00000E+00
         0.00000E+00
         0.00000E+00
         0.00000E+00
         0.00000E+00
         0.00000E+00
         0.00000E+00
         0.00000E+00
         0.00000E+00
         0.00000E+00
         0.00000E+00
         0.00000E+00
         0.00000E+00
         0.00000E+00
         0.00000E+00
         0.00000E+00
         0.00000E+00
         0.00000E+00
         0.00000E+00
         0.00000E+00
         0.00000E+00
         0.00000E+00
         0.00000E+00
         0.00000E+00
         0.00000E+00
         0.00000E+00
         0.00000E+00
         0.00000E+00
         0.00000E+00
         0.00000E+00
         0.00000E+00
         0.00000E+00
         0.00000E+00
         0.00000E+00
         0.00000E+00
         0.00000E+00
         0.00000E+00
         0.00000E+00
         0.00000E+00
         0.00000E+00
         0.00000E+00
         0.00000E+00
         0.00000E+00
         0.00000E+00
         0.00000E+00
         0.00000E+00
         0.00000E+00
         0.00000E+00
         0.00000E+00
         0.00000E+00
         0.00000E+00
         0.00000E+00
         0.00000E+00
         0.00000E+00
         0.00000E+00
         0.00000E+00
         0.00000E+00
         0.00000E+00
         0.00000E+00
         0.00000E+00
         0.00000E+00
         0.00000E+00
         0.00000E+00
         0.00000E+00
         0.00000E+00
         0.00000E+00
         0.00000E+00
         0.00000E+00
         0.00000E+00
         0.00000E+00
         0.00000E+00
         0.00000E+00
         0.00000E+00
         0.00000E+00
         0.00000E+00
         0.00000E+00
         0.00000E+00
         0.00000E+00
         0.00000E+00
         0.00000E+00
         0.00000E+00
         0.00000E+00
         0.00000E+00
         0.00000E+00
         0.00000E+00
         0.00000E+00
         0.00000E+00
         0.00000E+00
         0.00000E+00
         0.00000E+00
         0.00000E+00
         0.00000E+00
         0.00000E+00
         0.00000E+00
         0.00000E+00
         0.00000E+00
         0.00000E+00
         0.00000E+00
         0.00000E+00
         0.00000E+00
         0.00000E+00
         0.00000E+00
         0.00000E+00
         0.00000E+00
         0.00000E+00
         0.00000E+00
         0.00000E+00
         0.00000E+00
         0.00000E+00
         0.00000E+00
         0.00000E+00
         0.00000E+00
         0.00000E+00
         0.00000E+00
         0.00000E+00
         0.00000E+00
         0.00000E+00
         0.00000E+00
         0.00000E+00
         0.00000E+00
         0.00000E+00
         0.00000E+00
         0.00000E+00
         0.00000E+00
         0.00000E+00
         0.00000E+00
         0.00000E+00
         0.00000E+00
         0.00000E+00
         0.00000E+00
         0.00000E+00
         0.00000E+00
         0.00000E+00
         0.00000E+00
         0.00000E+00
         0.00000E+00
         0.00000E+00
         0.00000E+00
         0.00000E+00
         0.00000E+00
         0.00000E+00
         0.00000E+00
         0.00000E+00
         0.00000E+00
         0.00000E+00
         0.00000E+00
         0.00000E+00
         0.00000E+00
         0.00000E+00
         0.00000E+00
         0.00000E+00
         0.00000E+00
         0.00000E+00
         0.00000E+00
         0.00000E+00
         0.00000E+00
         0.00000E+00
         0.00000E+00
         0.00000E+00
         0.00000E+00
         0.00000E+00
         0.00000E+00
         0.00000E+00
         0.00000E+00
         0.00000E+00
         0.00000E+00
         0.00000E+00
         0.00000E+00
         0.00000E+00
         0.00000E+00
         0.00000E+00
         0.00000E+00
         0.00000E+00
         0.00000E+00
         0.00000E+00
         0.00000E+00
         0.00000E+00
         0.00000E+00
         0.00000E+00
         0.00000E+00
         0.00000E+00
         0.00000E+00
         0.00000E+00
         0.00000E+00
         0.00000E+00
         0.00000E+00
         0.00000E+00
         0.00000E+00
         0.00000E+00
         0.00000E+00
         0.00000E+00
         0.00000E+00
         0.00000E+00
         0.00000E+00
         0.00000E+00
         0.00000E+00
         0.00000E+00
         0.00000E+00
         0.00000E+00
         0.00000E+00
         0.00000E+00
         0.00000E+00
         0.00000E+00
         0.00000E+00
         0.00000E+00
         0.00000E+00
         0.00000E+00
         0.00000E+00
         0.00000E+00
         0.00000E+00
         0.00000E+00
         0.00000E+00
         0.00000E+00
         0.00000E+00
         0.00000E+00
         0.00000E+00
         0.00000E+00
         0.00000E+00
         0.00000E+00
         0.00000E+00
         0.00000E+00
         0.00000E+00
         0.00000E+00
         0.00000E+00
         0.00000E+00
         0.00000E+00
         0.00000E+00
         0.00000E+00
         0.00000E+00
         0.00000E+00
         0.00000E+00
         0.00000E+00
         0.00000E+00
         0.00000E+00
         0.00000E+00
         0.00000E+00
         0.00000E+00
         0.00000E+00
         0.00000E+00
         0.00000E+00
         0.00000E+00
         0.00000E+00
         0.00000E+00
         0.00000E+00
         0.00000E+00
         0.00000E+00
         0.00000E+00
         0.00000E+00
         0.00000E+00
         0.00000E+00
         0.00000E+00
         0.00000E+00
         0.00000E+00
         0.00000E+00
         0.00000E+00
         0.00000E+00
         0.00000E+00
         0.00000E+00
         0.00000E+00
         0.00000E+00
         0.00000E+00
         0.00000E+00
         0.00000E+00
         0.00000E+00
         0.00000E+00
         0.00000E+00
         0.00000E+00
         0.00000E+00
         0.00000E+00
         0.00000E+00
         0.00000E+00
         0.00000E+00
         0.00000E+00
         0.00000E+00
         0.00000E+00
         0.00000E+00
         0.00000E+00
         0.00000E+00
         0.00000E+00
         0.00000E+00
         0.00000E+00
         0.00000E+00
         0.00000E+00
         0.00000E+00
         0.00000E+00
         0.00000E+00
         0.00000E+00
         0.00000E+00
         0.00000E+00
         0.00000E+00
         0.00000E+00
         0.00000E+00
         0.00000E+00
         0.00000E+00
         0.00000E+00
         0.00000E+00
         0.00000E+00
         0.00000E+00
         0.00000E+00
         0.00000E+00
         0.00000E+00
         0.00000E+00
         0.00000E+00
         0.00000E+00
         0.00000E+00
         0.00000E+00
         0.00000E+00
         0.00000E+00
         0.00000E+00
         0.00000E+00
         0.00000E+00
         0.00000E+00
         0.00000E+00
         0.00000E+00
         0.00000E+00
         0.00000E+00
         0.00000E+00
         0.00000E+00
         0.00000E+00
         0.00000E+00
         0.00000E+00
         0.00000E+00
         0.00000E+00
         0.00000E+00
         0.00000E+00
         0.00000E+00
         0.00000E+00
         0.00000E+00
         0.00000E+00
         0.00000E+00
         0.00000E+00
         0.00000E+00
         0.00000E+00
         0.00000E+00
         0.00000E+00
         0.00000E+00
         0.00000E+00
         0.00000E+00
         0.00000E+00
         0.00000E+00
         0.00000E+00
         0.00000E+00
         0.00000E+00
         0.00000E+00
         0.00000E+00
         0.00000E+00
         0.00000E+00
         0.00000E+00
         0.00000E+00
         0.00000E+00
         0.00000E+00
         0.00000E+00
         0.00000E+00
         0.00000E+00
         0.00000E+00
         0.00000E+00
         0.00000E+00
         0.00000E+00
         0.00000E+00
         0.00000E+00
         0.00000E+00
         0.00000E+00
         0.00000E+00
         0.00000E+00
         0.00000E+00
         0.00000E+00
         0.00000E+00
         0.00000E+00
         0.00000E+00
         0.00000E+00
         0.00000E+00
         0.00000E+00
         0.00000E+00
         0.00000E+00
         0.00000E+00
         0.00000E+00
         0.00000E+00
         0.00000E+00
  
SCALARS                   max_wave_vel  double 1
LOOKUP_TABLE default
         0.00000E+00
         0.00000E+00
         0.00000E+00
         0.00000E+00
         0.00000E+00
         0.00000E+00
         0.00000E+00
         0.00000E+00
         0.00000E+00
         0.00000E+00
         0.00000E+00
         0.00000E+00
         0.00000E+00
         0.00000E+00
         0.00000E+00
         0.00000E+00
         0.00000E+00
         0.00000E+00
         0.00000E+00
         0.00000E+00
         0.00000E+00
         0.00000E+00
         0.00000E+00
         0.00000E+00
         0.00000E+00
         0.00000E+00
         0.00000E+00
         0.00000E+00
         0.00000E+00
         0.00000E+00
         0.00000E+00
         0.00000E+00
         0.00000E+00
         0.00000E+00
         0.00000E+00
         0.00000E+00
         0.00000E+00
         0.00000E+00
         0.00000E+00
         0.00000E+00
         0.00000E+00
         0.00000E+00
         0.00000E+00
         0.00000E+00
         0.00000E+00
         0.00000E+00
         0.00000E+00
         0.00000E+00
         0.00000E+00
         0.00000E+00
         0.00000E+00
         0.00000E+00
         0.00000E+00
         0.00000E+00
         0.00000E+00
         0.00000E+00
         0.00000E+00
         0.00000E+00
         0.00000E+00
         0.00000E+00
         0.00000E+00
         0.00000E+00
         0.00000E+00
         0.00000E+00
         0.00000E+00
         0.00000E+00
         0.00000E+00
         0.00000E+00
         0.00000E+00
         0.00000E+00
         0.00000E+00
         0.00000E+00
         0.00000E+00
         0.00000E+00
         0.00000E+00
         0.00000E+00
         0.00000E+00
         0.00000E+00
         0.00000E+00
         0.00000E+00
         0.00000E+00
         0.00000E+00
         0.00000E+00
         0.00000E+00
         0.00000E+00
         0.00000E+00
         0.00000E+00
         0.00000E+00
         0.00000E+00
         0.00000E+00
         0.00000E+00
         0.00000E+00
         0.00000E+00
         0.00000E+00
         0.00000E+00
         0.00000E+00
         0.00000E+00
         0.00000E+00
         0.00000E+00
         0.00000E+00
         0.00000E+00
         0.00000E+00
         0.00000E+00
         0.00000E+00
         0.00000E+00
         0.00000E+00
         0.00000E+00
         0.00000E+00
         0.00000E+00
         0.00000E+00
         0.00000E+00
         0.00000E+00
         0.00000E+00
         0.00000E+00
         0.00000E+00
         0.00000E+00
         0.00000E+00
         0.00000E+00
         0.00000E+00
         0.00000E+00
         0.00000E+00
         0.00000E+00
         0.00000E+00
         0.00000E+00
         0.00000E+00
         0.00000E+00
         0.00000E+00
         0.00000E+00
         0.00000E+00
         0.00000E+00
         0.00000E+00
         0.00000E+00
         0.00000E+00
         0.00000E+00
         0.00000E+00
         0.00000E+00
         0.00000E+00
         0.00000E+00
         0.00000E+00
         0.00000E+00
         0.00000E+00
         0.00000E+00
         0.00000E+00
         0.00000E+00
         0.00000E+00
         0.00000E+00
         0.00000E+00
         0.00000E+00
         0.00000E+00
         0.00000E+00
         0.00000E+00
         0.00000E+00
         0.00000E+00
         0.00000E+00
         0.00000E+00
         0.00000E+00
         0.00000E+00
         0.00000E+00
         0.00000E+00
         0.00000E+00
         0.00000E+00
         0.00000E+00
         0.00000E+00
         0.00000E+00
         0.00000E+00
         0.00000E+00
         0.00000E+00
         0.00000E+00
         0.00000E+00
         0.00000E+00
         0.00000E+00
         0.00000E+00
         0.00000E+00
         0.00000E+00
         0.00000E+00
         0.00000E+00
         0.00000E+00
         0.00000E+00
         0.00000E+00
         0.00000E+00
         0.00000E+00
         0.00000E+00
         0.00000E+00
         0.00000E+00
         0.00000E+00
         0.00000E+00
         0.00000E+00
         0.00000E+00
         0.00000E+00
         0.00000E+00
         0.00000E+00
         0.00000E+00
         0.00000E+00
         0.00000E+00
         0.00000E+00
         0.00000E+00
         0.00000E+00
         0.00000E+00
         0.00000E+00
         0.00000E+00
         0.00000E+00
         0.00000E+00
         0.00000E+00
         0.00000E+00
         0.00000E+00
         0.00000E+00
         0.00000E+00
         0.00000E+00
         0.00000E+00
         0.00000E+00
         0.00000E+00
         0.00000E+00
         0.00000E+00
         0.00000E+00
         0.00000E+00
         0.00000E+00
         0.00000E+00
         0.00000E+00
         0.00000E+00
         0.00000E+00
         0.00000E+00
         0.00000E+00
         0.00000E+00
         0.00000E+00
         0.00000E+00
         0.00000E+00
         0.00000E+00
         0.00000E+00
         0.00000E+00
         0.00000E+00
         0.00000E+00
         0.00000E+00
         0.00000E+00
         0.00000E+00
         0.00000E+00
         0.00000E+00
         0.00000E+00
         0.00000E+00
         0.00000E+00
         0.00000E+00
         0.00000E+00
         0.00000E+00
         0.00000E+00
         0.00000E+00
         0.00000E+00
         0.00000E+00
         0.00000E+00
         0.00000E+00
         0.00000E+00
         0.00000E+00
         0.00000E+00
         0.00000E+00
         0.00000E+00
         0.00000E+00
         0.00000E+00
         0.00000E+00
         0.00000E+00
         0.00000E+00
         0.00000E+00
         0.00000E+00
         0.00000E+00
         0.00000E+00
         0.00000E+00
         0.00000E+00
         0.00000E+00
         0.00000E+00
         0.00000E+00
         0.00000E+00
         0.00000E+00
         0.00000E+00
         0.00000E+00
         0.00000E+00
         0.00000E+00
         0.00000E+00
         0.00000E+00
         0.00000E+00
         0.00000E+00
         0.00000E+00
         0.00000E+00
         0.00000E+00
         0.00000E+00
         0.00000E+00
         0.00000E+00
         0.00000E+00
         0.00000E+00
         0.00000E+00
         0.00000E+00
         0.00000E+00
         0.00000E+00
         0.00000E+00
         0.00000E+00
         0.00000E+00
         0.00000E+00
         0.00000E+00
         0.00000E+00
         0.00000E+00
         0.00000E+00
         0.00000E+00
         0.00000E+00
         0.00000E+00
         0.00000E+00
         0.00000E+00
         0.00000E+00
         0.00000E+00
         0.00000E+00
         0.00000E+00
         0.00000E+00
         0.00000E+00
         0.00000E+00
         0.00000E+00
         0.00000E+00
         0.00000E+00
         0.00000E+00
         0.00000E+00
         0.00000E+00
         0.00000E+00
         0.00000E+00
         0.00000E+00
         0.00000E+00
         0.00000E+00
         0.00000E+00
         0.00000E+00
         0.00000E+00
         0.00000E+00
         0.00000E+00
         0.00000E+00
         0.00000E+00
         0.00000E+00
         0.00000E+00
         0.00000E+00
         0.00000E+00
         0.00000E+00
         0.00000E+00
         0.00000E+00
         0.00000E+00
         0.00000E+00
         0.00000E+00
         0.00000E+00
         0.00000E+00
         0.00000E+00
         0.00000E+00
         0.00000E+00
         0.00000E+00
         0.00000E+00
         0.00000E+00
         0.00000E+00
         0.00000E+00
         0.00000E+00
         0.00000E+00
         0.00000E+00
         0.00000E+00
         0.00000E+00
         0.00000E+00
         0.00000E+00
         0.00000E+00
         0.00000E+00
         0.00000E+00
         0.00000E+00
         0.00000E+00
         0.00000E+00
         0.00000E+00
         0.00000E+00
         0.00000E+00
         0.00000E+00
         0.00000E+00
         0.00000E+00
         0.00000E+00
         0.00000E+00
         0.00000E+00
         0.00000E+00
         0.00000E+00
         0.00000E+00
         0.00000E+00
         0.00000E+00
         0.00000E+00
         0.00000E+00
         0.00000E+00
         0.00000E+00
         0.00000E+00
         0.00000E+00
         0.00000E+00
         0.00000E+00
         0.00000E+00
         0.00000E+00
         0.00000E+00
         0.00000E+00
         0.00000E+00
         0.00000E+00
         0.00000E+00
         0.00000E+00
         0.00000E+00
         0.00000E+00
         0.00000E+00
         0.00000E+00
         0.00000E+00
         0.00000E+00
         0.00000E+00
         0.00000E+00
         0.00000E+00
         0.00000E+00
         0.00000E+00
         0.00000E+00
         0.00000E+00
         0.00000E+00
         0.00000E+00
         0.00000E+00
         0.00000E+00
         0.00000E+00
         0.00000E+00
         0.00000E+00
         0.00000E+00
         0.00000E+00
         0.00000E+00
         0.00000E+00
         0.00000E+00
         0.00000E+00
         0.00000E+00
         0.00000E+00
         0.00000E+00
         0.00000E+00
         0.00000E+00
         0.00000E+00
         0.00000E+00
         0.00000E+00
         0.00000E+00
         0.00000E+00
         0.00000E+00
         0.00000E+00
         0.00000E+00
         0.00000E+00
         0.00000E+00
         0.00000E+00
         0.00000E+00
         0.00000E+00
         0.00000E+00
         0.00000E+00
         0.00000E+00
         0.00000E+00
         0.00000E+00
         0.00000E+00
         0.00000E+00
         0.00000E+00
         0.00000E+00
         0.00000E+00
         0.00000E+00
         0.00000E+00
         0.00000E+00
         0.00000E+00
         0.00000E+00
         0.00000E+00
         0.00000E+00
         0.00000E+00
         0.00000E+00
         0.00000E+00
         0.00000E+00
         0.00000E+00
         0.00000E+00
         0.00000E+00
         0.00000E+00
         0.00000E+00
         0.00000E+00
         0.00000E+00
         0.00000E+00
         0.00000E+00
         0.00000E+00
         0.00000E+00
         0.00000E+00
         0.00000E+00
         0.00000E+00
         0.00000E+00
         0.00000E+00
         0.00000E+00
         0.00000E+00
         0.00000E+00
         0.00000E+00
         0.00000E+00
         0.00000E+00
         0.00000E+00
         0.00000E+00
         0.00000E+00
         0.00000E+00
         0.00000E+00
         0.00000E+00
         0.00000E+00
         0.00000E+00
         0.00000E+00
         0.00000E+00
         0.00000E+00
         0.00000E+00
         0.00000E+00
         0.00000E+00
         0.00000E+00
         0.00000E+00
         0.00000E+00
         0.00000E+00
         0.00000E+00
         0.00000E+00
         0.00000E+00
         0.00000E+00
         0.00000E+00
         0.00000E+00
         0.00000E+00
         0.00000E+00
         0.00000E+00
         0.00000E+00
         0.00000E+00
         0.00000E+00
         0.00000E+00
         0.00000E+00
         0.00000E+00
         0.00000E+00
         0.00000E+00
         0.00000E+00
         0.00000E+00
         0.00000E+00
         0.00000E+00
         0.00000E+00
         0.00000E+00
         0.00000E+00
         0.00000E+00
         0.00000E+00
         0.00000E+00
         0.00000E+00
         0.00000E+00
         0.00000E+00
         0.00000E+00
         0.00000E+00
         0.00000E+00
         0.00000E+00
         0.00000E+00
         0.00000E+00
         0.00000E+00
         0.00000E+00
         0.00000E+00
         0.00000E+00
         0.00000E+00
         0.00000E+00
         0.00000E+00
         0.00000E+00
         0.00000E+00
         0.00000E+00
         0.00000E+00
         0.00000E+00
         0.00000E+00
         0.00000E+00
         0.00000E+00
         0.00000E+00
         0.00000E+00
         0.00000E+00
         0.00000E+00
         0.00000E+00
         0.00000E+00
         0.00000E+00
         0.00000E+00
         0.00000E+00
         0.00000E+00
         0.00000E+00
         0.00000E+00
         0.00000E+00
         0.00000E+00
         0.00000E+00
         0.00000E+00
         0.00000E+00
         0.00000E+00
         0.00000E+00
         0.00000E+00
         0.00000E+00
         0.00000E+00
         0.00000E+00
         0.00000E+00
         0.00000E+00
         0.00000E+00
         0.00000E+00
         0.00000E+00
         0.00000E+00
         0.00000E+00
         0.00000E+00
         0.00000E+00
         0.00000E+00
         0.00000E+00
         0.00000E+00
         0.00000E+00
         0.00000E+00
         0.00000E+00
         0.00000E+00
         0.00000E+00
         0.00000E+00
         0.00000E+00
         0.00000E+00
         0.00000E+00
         0.00000E+00
         0.00000E+00
         0.00000E+00
         0.00000E+00
         0.00000E+00
         0.00000E+00
         0.00000E+00
         0.00000E+00
         0.00000E+00
         0.00000E+00
         0.00000E+00
         0.00000E+00
         0.00000E+00
         0.00000E+00
         0.00000E+00
         0.00000E+00
         0.00000E+00
         0.00000E+00
         0.00000E+00
         0.00000E+00
         0.00000E+00
         0.00000E+00
         0.00000E+00
         0.00000E+00
         0.00000E+00
         0.00000E+00
         0.00000E+00
         0.00000E+00
         0.00000E+00
         0.00000E+00
         0.00000E+00
         0.00000E+00
         0.00000E+00
         0.00000E+00
         0.00000E+00
         0.00000E+00
         0.00000E+00
         0.00000E+00
         0.00000E+00
         0.00000E+00
         0.00000E+00
         0.00000E+00
         0.00000E+00
         0.00000E+00
         0.00000E+00
         0.00000E+00
         0.00000E+00
         0.00000E+00
         0.00000E+00
         0.00000E+00
         0.00000E+00
         0.00000E+00
         0.00000E+00
         0.00000E+00
         0.00000E+00
         0.00000E+00
         0.00000E+00
         0.00000E+00
         0.00000E+00
         0.00000E+00
         0.00000E+00
         0.00000E+00
         0.00000E+00
         0.00000E+00
         0.00000E+00
         0.00000E+00
         0.00000E+00
         0.00000E+00
         0.00000E+00
         0.00000E+00
         0.00000E+00
         0.00000E+00
         0.00000E+00
         0.00000E+00
         0.00000E+00
         0.00000E+00
         0.00000E+00
         0.00000E+00
         0.00000E+00
         0.00000E+00
         0.00000E+00
         0.00000E+00
         0.00000E+00
         0.00000E+00
         0.00000E+00
         0.00000E+00
         0.00000E+00
         0.00000E+00
         0.00000E+00
         0.00000E+00
         0.00000E+00
         0.00000E+00
         0.00000E+00
         0.00000E+00
         0.00000E+00
         0.00000E+00
         0.00000E+00
         0.00000E+00
         0.00000E+00
         0.00000E+00
         0.00000E+00
         0.00000E+00
         0.00000E+00
         0.00000E+00
         0.00000E+00
         0.00000E+00
         0.00000E+00
         0.00000E+00
         0.00000E+00
         0.00000E+00
         0.00000E+00
         0.00000E+00
         0.00000E+00
         0.00000E+00
         0.00000E+00
         0.00000E+00
         0.00000E+00
         0.00000E+00
         0.00000E+00
         0.00000E+00
         0.00000E+00
         0.00000E+00
         0.00000E+00
         0.00000E+00
         0.00000E+00
         0.00000E+00
         0.00000E+00
         0.00000E+00
         0.00000E+00
         0.00000E+00
         0.00000E+00
         0.00000E+00
         0.00000E+00
         0.00000E+00
         0.00000E+00
         0.00000E+00
         0.00000E+00
         0.00000E+00
         0.00000E+00
         0.00000E+00
         0.00000E+00
         0.00000E+00
         0.00000E+00
         0.00000E+00
         0.00000E+00
         0.00000E+00
         0.00000E+00
         0.00000E+00
         0.00000E+00
         0.00000E+00
         0.00000E+00
         0.00000E+00
         0.00000E+00
         0.00000E+00
         0.00000E+00
         0.00000E+00
         0.00000E+00
         0.00000E+00
         0.00000E+00
         0.00000E+00
         0.00000E+00
         0.00000E+00
         0.00000E+00
         0.00000E+00
         0.00000E+00
         0.00000E+00
         0.00000E+00
         0.00000E+00
         0.00000E+00
         0.00000E+00
         0.00000E+00
         0.00000E+00
         0.00000E+00
         0.00000E+00
         0.00000E+00
         0.00000E+00
         0.00000E+00
         0.00000E+00
         0.00000E+00
         0.00000E+00
         0.00000E+00
         0.00000E+00
         0.00000E+00
         0.00000E+00
         0.00000E+00
         0.00000E+00
         0.00000E+00
         0.00000E+00
         0.00000E+00
         0.00000E+00
         0.00000E+00
         0.00000E+00
         0.00000E+00
         0.00000E+00
         0.00000E+00
         0.00000E+00
         0.00000E+00
         0.00000E+00
         0.00000E+00
         0.00000E+00
         0.00000E+00
         0.00000E+00
         0.00000E+00
         0.00000E+00
         0.00000E+00
         0.00000E+00
         0.00000E+00
         0.00000E+00
         0.00000E+00
         0.00000E+00
         0.00000E+00
         0.00000E+00
         0.00000E+00
         0.00000E+00
         0.00000E+00
         0.00000E+00
         0.00000E+00
         0.00000E+00
         0.00000E+00
         0.00000E+00
         0.00000E+00
         0.00000E+00
         0.00000E+00
         0.00000E+00
         0.00000E+00
         0.00000E+00
         0.00000E+00
         0.00000E+00
         0.00000E+00
         0.00000E+00
         0.00000E+00
         0.00000E+00
         0.00000E+00
         0.00000E+00
         0.00000E+00
         0.00000E+00
         0.00000E+00
         0.00000E+00
         0.00000E+00
         0.00000E+00
         0.00000E+00
         0.00000E+00
         0.00000E+00
         0.00000E+00
         0.00000E+00
         0.00000E+00
         0.00000E+00
         0.00000E+00
         0.00000E+00
         0.00000E+00
         0.00000E+00
         0.00000E+00
         0.00000E+00
         0.00000E+00
         0.00000E+00
         0.00000E+00
         0.00000E+00
         0.00000E+00
         0.00000E+00
         0.00000E+00
         0.00000E+00
         0.00000E+00
         0.00000E+00
         0.00000E+00
         0.00000E+00
         0.00000E+00
         0.00000E+00
         0.00000E+00
         0.00000E+00
         0.00000E+00
         0.00000E+00
         0.00000E+00
         0.00000E+00
         0.00000E+00
         0.00000E+00
         0.00000E+00
         0.00000E+00
         0.00000E+00
         0.00000E+00
         0.00000E+00
         0.00000E+00
         0.00000E+00
         0.00000E+00
         0.00000E+00
         0.00000E+00
         0.00000E+00
         0.00000E+00
         0.00000E+00
         0.00000E+00
         0.00000E+00
         0.00000E+00
         0.00000E+00
         0.00000E+00
         0.00000E+00
         0.00000E+00
         0.00000E+00
         0.00000E+00
         0.00000E+00
         0.00000E+00
         0.00000E+00
         0.00000E+00
         0.00000E+00
         0.00000E+00
         0.00000E+00
         0.00000E+00
         0.00000E+00
         0.00000E+00
         0.00000E+00
         0.00000E+00
         0.00000E+00
         0.00000E+00
         0.00000E+00
         0.00000E+00
         0.00000E+00
         0.00000E+00
         0.00000E+00
         0.00000E+00
         0.00000E+00
         0.00000E+00
         0.00000E+00
         0.00000E+00
         0.00000E+00
         0.00000E+00
         0.00000E+00
         0.00000E+00
         0.00000E+00
         0.00000E+00
         0.00000E+00
         0.00000E+00
         0.00000E+00
         0.00000E+00
         0.00000E+00
         0.00000E+00
         0.00000E+00
         0.00000E+00
         0.00000E+00
         0.00000E+00
         0.00000E+00
         0.00000E+00
         0.00000E+00
         0.00000E+00
         0.00000E+00
         0.00000E+00
         0.00000E+00
         0.00000E+00
         0.00000E+00
         0.00000E+00
         0.00000E+00
         0.00000E+00
         0.00000E+00
         0.00000E+00
         0.00000E+00
         0.00000E+00
         0.00000E+00
         0.00000E+00
         0.00000E+00
         0.00000E+00
         0.00000E+00
         0.00000E+00
         0.00000E+00
         0.00000E+00
         0.00000E+00
         0.00000E+00
         0.00000E+00
         0.00000E+00
         0.00000E+00
         0.00000E+00
         0.00000E+00
         0.00000E+00
         0.00000E+00
         0.00000E+00
         0.00000E+00
         0.00000E+00
         0.00000E+00
         0.00000E+00
         0.00000E+00
         0.00000E+00
         0.00000E+00
         0.00000E+00
         0.00000E+00
         0.00000E+00
         0.00000E+00
         0.00000E+00
         0.00000E+00
         0.00000E+00
         0.00000E+00
         0.00000E+00
         0.00000E+00
         0.00000E+00
         0.00000E+00
         0.00000E+00
         0.00000E+00
         0.00000E+00
         0.00000E+00
         0.00000E+00
         0.00000E+00
         0.00000E+00
         0.00000E+00
         0.00000E+00
         0.00000E+00
         0.00000E+00
         0.00000E+00
         0.00000E+00
         0.00000E+00
         0.00000E+00
         0.00000E+00
         0.00000E+00
         0.00000E+00
         0.00000E+00
         0.00000E+00
         0.00000E+00
         0.00000E+00
         0.00000E+00
         0.00000E+00
         0.00000E+00
         0.00000E+00
         0.00000E+00
         0.00000E+00
         0.00000E+00
         0.00000E+00
         0.00000E+00
         0.00000E+00
         0.00000E+00
         0.00000E+00
         0.00000E+00
         0.00000E+00
         0.00000E+00
         0.00000E+00
         0.00000E+00
         0.00000E+00
         0.00000E+00
         0.00000E+00
         0.00000E+00
         0.00000E+00
         0.00000E+00
         0.00000E+00
         0.00000E+00
         0.00000E+00
         0.00000E+00
         0.00000E+00
         0.00000E+00
         0.00000E+00
         0.00000E+00
         0.00000E+00
         0.00000E+00
         0.00000E+00
         0.00000E+00
         0.00000E+00
         0.00000E+00
         0.00000E+00
         0.00000E+00
         0.00000E+00
         0.00000E+00
         0.00000E+00
         0.00000E+00
         0.00000E+00
         0.00000E+00
         0.00000E+00
         0.00000E+00
         0.00000E+00
         0.00000E+00
         0.00000E+00
         0.00000E+00
         0.00000E+00
         0.00000E+00
         0.00000E+00
         0.00000E+00
         0.00000E+00
         0.00000E+00
         0.00000E+00
         0.00000E+00
         0.00000E+00
         0.00000E+00
         0.00000E+00
         0.00000E+00
         0.00000E+00
         0.00000E+00
         0.00000E+00
         0.00000E+00
         0.00000E+00
         0.00000E+00
         0.00000E+00
         0.00000E+00
         0.00000E+00
         0.00000E+00
         0.00000E+00
         0.00000E+00
         0.00000E+00
         0.00000E+00
         0.00000E+00
         0.00000E+00
         0.00000E+00
         0.00000E+00
         0.00000E+00
         0.00000E+00
         0.00000E+00
         0.00000E+00
         0.00000E+00
         0.00000E+00
         0.00000E+00
         0.00000E+00
         0.00000E+00
         0.00000E+00
         0.00000E+00
         0.00000E+00
         0.00000E+00
         0.00000E+00
         0.00000E+00
         0.00000E+00
         0.00000E+00
         0.00000E+00
         0.00000E+00
         0.00000E+00
         0.00000E+00
         0.00000E+00
         0.00000E+00
         0.00000E+00
         0.00000E+00
         0.00000E+00
         0.00000E+00
         0.00000E+00
         0.00000E+00
         0.00000E+00
         0.00000E+00
         0.00000E+00
         0.00000E+00
         0.00000E+00
         0.00000E+00
         0.00000E+00
         0.00000E+00
         0.00000E+00
         0.00000E+00
         0.00000E+00
         0.00000E+00
         0.00000E+00
         0.00000E+00
         0.00000E+00
         0.00000E+00
         0.00000E+00
         0.00000E+00
         0.00000E+00
         0.00000E+00
         0.00000E+00
         0.00000E+00
         0.00000E+00
         0.00000E+00
         0.00000E+00
         0.00000E+00
         0.00000E+00
         0.00000E+00
         0.00000E+00
         0.00000E+00
         0.00000E+00
         0.00000E+00
         0.00000E+00
         0.00000E+00
         0.00000E+00
         0.00000E+00
         0.00000E+00
         0.00000E+00
         0.00000E+00
         0.00000E+00
         0.00000E+00
         0.00000E+00
         0.00000E+00
         0.00000E+00
         0.00000E+00
         0.00000E+00
         0.00000E+00
         0.00000E+00
         0.00000E+00
         0.00000E+00
         0.00000E+00
         0.00000E+00
         0.00000E+00
         0.00000E+00
         0.00000E+00
         0.00000E+00
         0.00000E+00
         0.00000E+00
         0.00000E+00
         0.00000E+00
         0.00000E+00
         0.00000E+00
         0.00000E+00
         0.00000E+00
         0.00000E+00
         0.00000E+00
         0.00000E+00
         0.00000E+00
         0.00000E+00
         0.00000E+00
         0.00000E+00
         0.00000E+00
         0.00000E+00
         0.00000E+00
         0.00000E+00
         0.00000E+00
         0.00000E+00
         0.00000E+00
         0.00000E+00
         0.00000E+00
         0.00000E+00
         0.00000E+00
         0.00000E+00
         0.00000E+00
         0.00000E+00
         0.00000E+00
         0.00000E+00
         0.00000E+00
         0.00000E+00
         0.00000E+00
         0.00000E+00
         0.00000E+00
         0.00000E+00
         0.00000E+00
         0.00000E+00
         0.00000E+00
         0.00000E+00
         0.00000E+00
         0.00000E+00
         0.00000E+00
         0.00000E+00
         0.00000E+00
         0.00000E+00
         0.00000E+00
         0.00000E+00
         0.00000E+00
         0.00000E+00
         0.00000E+00
         0.00000E+00
         0.00000E+00
         0.00000E+00
         0.00000E+00
         0.00000E+00
         0.00000E+00
         0.00000E+00
         0.00000E+00
         0.00000E+00
         0.00000E+00
         0.00000E+00
         0.00000E+00
         0.00000E+00
         0.00000E+00
         0.00000E+00
         0.00000E+00
         0.00000E+00
         0.00000E+00
         0.00000E+00
         0.00000E+00
         0.00000E+00
         0.00000E+00
         0.00000E+00
         0.00000E+00
         0.00000E+00
         0.00000E+00
         0.00000E+00
         0.00000E+00
         0.00000E+00
         0.00000E+00
         0.00000E+00
         0.00000E+00
         0.00000E+00
         0.00000E+00
         0.00000E+00
         0.00000E+00
         0.00000E+00
         0.00000E+00
         0.00000E+00
         0.00000E+00
         0.00000E+00
         0.00000E+00
         0.00000E+00
         0.00000E+00
         0.00000E+00
         0.00000E+00
         0.00000E+00
         0.00000E+00
         0.00000E+00
         0.00000E+00
         0.00000E+00
         0.00000E+00
         0.00000E+00
         0.00000E+00
         0.00000E+00
         0.00000E+00
         0.00000E+00
         0.00000E+00
         0.00000E+00
         0.00000E+00
         0.00000E+00
         0.00000E+00
         0.00000E+00
         0.00000E+00
         0.00000E+00
         0.00000E+00
         0.00000E+00
         0.00000E+00
         0.00000E+00
         0.00000E+00
         0.00000E+00
         0.00000E+00
         0.00000E+00
         0.00000E+00
         0.00000E+00
         0.00000E+00
         0.00000E+00
         0.00000E+00
         0.00000E+00
         0.00000E+00
         0.00000E+00
         0.00000E+00
         0.00000E+00
         0.00000E+00
         0.00000E+00
         0.00000E+00
         0.00000E+00
         0.00000E+00
         0.00000E+00
         0.00000E+00
         0.00000E+00
         0.00000E+00
         0.00000E+00
         0.00000E+00
         0.00000E+00
         0.00000E+00
         0.00000E+00
         0.00000E+00
         0.00000E+00
         0.00000E+00
         0.00000E+00
         0.00000E+00
         0.00000E+00
         0.00000E+00
         0.00000E+00
         0.00000E+00
         0.00000E+00
         0.00000E+00
         0.00000E+00
         0.00000E+00
         0.00000E+00
         0.00000E+00
         0.00000E+00
         0.00000E+00
         0.00000E+00
         0.00000E+00
         0.00000E+00
         0.00000E+00
         0.00000E+00
         0.00000E+00
         0.00000E+00
         0.00000E+00
         0.00000E+00
         0.00000E+00
         0.00000E+00
         0.00000E+00
         0.00000E+00
         0.00000E+00
         0.00000E+00
         0.00000E+00
         0.00000E+00
         0.00000E+00
         0.00000E+00
         0.00000E+00
         0.00000E+00
         0.00000E+00
         0.00000E+00
         0.00000E+00
         0.00000E+00
         0.00000E+00
         0.00000E+00
         0.00000E+00
         0.00000E+00
         0.00000E+00
         0.00000E+00
         0.00000E+00
         0.00000E+00
         0.00000E+00
         0.00000E+00
         0.00000E+00
         0.00000E+00
         0.00000E+00
         0.00000E+00
         0.00000E+00
         0.00000E+00
         0.00000E+00
         0.00000E+00
         0.00000E+00
         0.00000E+00
         0.00000E+00
         0.00000E+00
         0.00000E+00
         0.00000E+00
         0.00000E+00
         0.00000E+00
         0.00000E+00
         0.00000E+00
         0.00000E+00
         0.00000E+00
         0.00000E+00
         0.00000E+00
         0.00000E+00
         0.00000E+00
         0.00000E+00
         0.00000E+00
         0.00000E+00
         0.00000E+00
         0.00000E+00
         0.00000E+00
         0.00000E+00
         0.00000E+00
         0.00000E+00
         0.00000E+00
         0.00000E+00
         0.00000E+00
         0.00000E+00
         0.00000E+00
         0.00000E+00
         0.00000E+00
         0.00000E+00
         0.00000E+00
         0.00000E+00
         0.00000E+00
         0.00000E+00
         0.00000E+00
         0.00000E+00
         0.00000E+00
         0.00000E+00
         0.00000E+00
         0.00000E+00
         0.00000E+00
         0.00000E+00
         0.00000E+00
         0.00000E+00
         0.00000E+00
         0.00000E+00
         0.00000E+00
         0.00000E+00
         0.00000E+00
         0.00000E+00
         0.00000E+00
         0.00000E+00
         0.00000E+00
         0.00000E+00
         0.00000E+00
         0.00000E+00
         0.00000E+00
         0.00000E+00
         0.00000E+00
         0.00000E+00
         0.00000E+00
         0.00000E+00
         0.00000E+00
         0.00000E+00
         0.00000E+00
         0.00000E+00
         0.00000E+00
         0.00000E+00
         0.00000E+00
         0.00000E+00
         0.00000E+00
         0.00000E+00
         0.00000E+00
         0.00000E+00
         0.00000E+00
         0.00000E+00
         0.00000E+00
         0.00000E+00
         0.00000E+00
         0.00000E+00
         0.00000E+00
         0.00000E+00
         0.00000E+00
         0.00000E+00
         0.00000E+00
         0.00000E+00
         0.00000E+00
         0.00000E+00
         0.00000E+00
         0.00000E+00
         0.00000E+00
         0.00000E+00
         0.00000E+00
         0.00000E+00
         0.00000E+00
         0.00000E+00
         0.00000E+00
         0.00000E+00
         0.00000E+00
         0.00000E+00
         0.00000E+00
         0.00000E+00
         0.00000E+00
         0.00000E+00
         0.00000E+00
         0.00000E+00
         0.00000E+00
         0.00000E+00
         0.00000E+00
         0.00000E+00
         0.00000E+00
         0.00000E+00
         0.00000E+00
         0.00000E+00
         0.00000E+00
         0.00000E+00
         0.00000E+00
         0.00000E+00
         0.00000E+00
         0.00000E+00
         0.00000E+00
         0.00000E+00
         0.00000E+00
         0.00000E+00
         0.00000E+00
         0.00000E+00
         0.00000E+00
         0.00000E+00
         0.00000E+00
         0.00000E+00
         0.00000E+00
         0.00000E+00
         0.00000E+00
         0.00000E+00
         0.00000E+00
         0.00000E+00
         0.00000E+00
         0.00000E+00
         0.00000E+00
         0.00000E+00
         0.00000E+00
         0.00000E+00
         0.00000E+00
         0.00000E+00
         0.00000E+00
         0.00000E+00
         0.00000E+00
         0.00000E+00
         0.00000E+00
         0.00000E+00
         0.00000E+00
         0.00000E+00
         0.00000E+00
         0.00000E+00
         0.00000E+00
         0.00000E+00
         0.00000E+00
         0.00000E+00
         0.00000E+00
         0.00000E+00
         0.00000E+00
         0.00000E+00
         0.00000E+00
         0.00000E+00
         0.00000E+00
         0.00000E+00
         0.00000E+00
         0.00000E+00
         0.00000E+00
         0.00000E+00
         0.00000E+00
         0.00000E+00
         0.00000E+00
         0.00000E+00
         0.00000E+00
         0.00000E+00
         0.00000E+00
         0.00000E+00
         0.00000E+00
         0.00000E+00
         0.00000E+00
         0.00000E+00
         0.00000E+00
         0.00000E+00
         0.00000E+00
         0.00000E+00
         0.00000E+00
         0.00000E+00
         0.00000E+00
         0.00000E+00
         0.00000E+00
         0.00000E+00
         0.00000E+00
         0.00000E+00
         0.00000E+00
         0.00000E+00
         0.00000E+00
         0.00000E+00
         0.00000E+00
         0.00000E+00
         0.00000E+00
         0.00000E+00
         0.00000E+00
         0.00000E+00
         0.00000E+00
         0.00000E+00
         0.00000E+00
         0.00000E+00
         0.00000E+00
         0.00000E+00
         0.00000E+00
         0.00000E+00
         0.00000E+00
         0.00000E+00
         0.00000E+00
         0.00000E+00
         0.00000E+00
         0.00000E+00
         0.00000E+00
         0.00000E+00
         0.00000E+00
         0.00000E+00
         0.00000E+00
         0.00000E+00
         0.00000E+00
         0.00000E+00
         0.00000E+00
         0.00000E+00
         0.00000E+00
         0.00000E+00
         0.00000E+00
         0.00000E+00
         0.00000E+00
         0.00000E+00
         0.00000E+00
         0.00000E+00
         0.00000E+00
         0.00000E+00
         0.00000E+00
         0.00000E+00
         0.00000E+00
         0.00000E+00
         0.00000E+00
         0.00000E+00
         0.00000E+00
         0.00000E+00
         0.00000E+00
         0.00000E+00
         0.00000E+00
         0.00000E+00
         0.00000E+00
         0.00000E+00
         0.00000E+00
         0.00000E+00
         0.00000E+00
         0.00000E+00
         0.00000E+00
         0.00000E+00
         0.00000E+00
         0.00000E+00
         0.00000E+00
         0.00000E+00
         0.00000E+00
         0.00000E+00
         0.00000E+00
         0.00000E+00
         0.00000E+00
         0.00000E+00
         0.00000E+00
         0.00000E+00
         0.00000E+00
         0.00000E+00
         0.00000E+00
         0.00000E+00
         0.00000E+00
         0.00000E+00
         0.00000E+00
         0.00000E+00
         0.00000E+00
         0.00000E+00
         0.00000E+00
         0.00000E+00
         0.00000E+00
         0.00000E+00
         0.00000E+00
         0.00000E+00
         0.00000E+00
         0.00000E+00
         0.00000E+00
         0.00000E+00
         0.00000E+00
         0.00000E+00
         0.00000E+00
         0.00000E+00
         0.00000E+00
         0.00000E+00
         0.00000E+00
         0.00000E+00
         0.00000E+00
         0.00000E+00
         0.00000E+00
         0.00000E+00
         0.00000E+00
         0.00000E+00
         0.00000E+00
         0.00000E+00
         0.00000E+00
         0.00000E+00
         0.00000E+00
         0.00000E+00
         0.00000E+00
         0.00000E+00
         0.00000E+00
         0.00000E+00
         0.00000E+00
         0.00000E+00
         0.00000E+00
         0.00000E+00
         0.00000E+00
         0.00000E+00
         0.00000E+00
         0.00000E+00
         0.00000E+00
         0.00000E+00
         0.00000E+00
         0.00000E+00
         0.00000E+00
         0.00000E+00
         0.00000E+00
         0.00000E+00
         0.00000E+00
         0.00000E+00
         0.00000E+00
         0.00000E+00
         0.00000E+00
         0.00000E+00
         0.00000E+00
         0.00000E+00
         0.00000E+00
         0.00000E+00
         0.00000E+00
         0.00000E+00
         0.00000E+00
         0.00000E+00
         0.00000E+00
         0.00000E+00
         0.00000E+00
         0.00000E+00
         0.00000E+00
         0.00000E+00
         0.00000E+00
         0.00000E+00
         0.00000E+00
         0.00000E+00
         0.00000E+00
         0.00000E+00
         0.00000E+00
         0.00000E+00
         0.00000E+00
         0.00000E+00
         0.00000E+00
         0.00000E+00
         0.00000E+00
         0.00000E+00
         0.00000E+00
         0.00000E+00
         0.00000E+00
         0.00000E+00
         0.00000E+00
         0.00000E+00
         0.00000E+00
         0.00000E+00
         0.00000E+00
         0.00000E+00
         0.00000E+00
         0.00000E+00
         0.00000E+00
         0.00000E+00
         0.00000E+00
         0.00000E+00
         0.00000E+00
         0.00000E+00
         0.00000E+00
         0.00000E+00
         0.00000E+00
         0.00000E+00
         0.00000E+00
         0.00000E+00
         0.00000E+00
         0.00000E+00
         0.00000E+00
         0.00000E+00
         0.00000E+00
         0.00000E+00
         0.00000E+00
         0.00000E+00
         0.00000E+00
         0.00000E+00
         0.00000E+00
         0.00000E+00
         0.00000E+00
         0.00000E+00
         0.00000E+00
         0.00000E+00
         0.00000E+00
         0.00000E+00
         0.00000E+00
         0.00000E+00
         0.00000E+00
         0.00000E+00
         0.00000E+00
         0.00000E+00
         0.00000E+00
         0.00000E+00
         0.00000E+00
         0.00000E+00
         0.00000E+00
         0.00000E+00
         0.00000E+00
         0.00000E+00
         0.00000E+00
         0.00000E+00
         0.00000E+00
         0.00000E+00
         0.00000E+00
         0.00000E+00
         0.00000E+00
         0.00000E+00
         0.00000E+00
         0.00000E+00
         0.00000E+00
         0.00000E+00
         0.00000E+00
         0.00000E+00
         0.00000E+00
         0.00000E+00
         0.00000E+00
         0.00000E+00
         0.00000E+00
         0.00000E+00
         0.00000E+00
         0.00000E+00
         0.00000E+00
         0.00000E+00
         0.00000E+00
         0.00000E+00
         0.00000E+00
         0.00000E+00
         0.00000E+00
         0.00000E+00
         0.00000E+00
         0.00000E+00
         0.00000E+00
         0.00000E+00
         0.00000E+00
         0.00000E+00
         0.00000E+00
         0.00000E+00
         0.00000E+00
         0.00000E+00
         0.00000E+00
         0.00000E+00
         0.00000E+00
         0.00000E+00
         0.00000E+00
         0.00000E+00
         0.00000E+00
         0.00000E+00
         0.00000E+00
         0.00000E+00
         0.00000E+00
         0.00000E+00
         0.00000E+00
         0.00000E+00
         0.00000E+00
         0.00000E+00
         0.00000E+00
         0.00000E+00
         0.00000E+00
         0.00000E+00
         0.00000E+00
         0.00000E+00
         0.00000E+00
         0.00000E+00
         0.00000E+00
         0.00000E+00
         0.00000E+00
         0.00000E+00
         0.00000E+00
         0.00000E+00
         0.00000E+00
         0.00000E+00
         0.00000E+00
         0.00000E+00
         0.00000E+00
         0.00000E+00
         0.00000E+00
         0.00000E+00
         0.00000E+00
         0.00000E+00
         0.00000E+00
         0.00000E+00
         0.00000E+00
         0.00000E+00
         0.00000E+00
         0.00000E+00
         0.00000E+00
         0.00000E+00
         0.00000E+00
         0.00000E+00
         0.00000E+00
         0.00000E+00
         0.00000E+00
         0.00000E+00
         0.00000E+00
         0.00000E+00
         0.00000E+00
         0.00000E+00
         0.00000E+00
         0.00000E+00
         0.00000E+00
         0.00000E+00
         0.00000E+00
         0.00000E+00
         0.00000E+00
         0.00000E+00
         0.00000E+00
         0.00000E+00
         0.00000E+00
         0.00000E+00
         0.00000E+00
         0.00000E+00
         0.00000E+00
         0.00000E+00
         0.00000E+00
         0.00000E+00
         0.00000E+00
         0.00000E+00
         0.00000E+00
         0.00000E+00
         0.00000E+00
         0.00000E+00
         0.00000E+00
         0.00000E+00
         0.00000E+00
         0.00000E+00
         0.00000E+00
         0.00000E+00
         0.00000E+00
         0.00000E+00
         0.00000E+00
         0.00000E+00
         0.00000E+00
         0.00000E+00
         0.00000E+00
         0.00000E+00
         0.00000E+00
         0.00000E+00
         0.00000E+00
         0.00000E+00
         0.00000E+00
         0.00000E+00
         0.00000E+00
         0.00000E+00
         0.00000E+00
         0.00000E+00
         0.00000E+00
         0.00000E+00
         0.00000E+00
         0.00000E+00
  
SCALARS                      eps_shear  double 1
LOOKUP_TABLE default
         0.00000E+00
         0.00000E+00
         0.00000E+00
         0.00000E+00
         0.00000E+00
         0.00000E+00
         0.00000E+00
         0.00000E+00
         0.00000E+00
         0.00000E+00
         0.00000E+00
         0.00000E+00
         0.00000E+00
         0.00000E+00
         0.00000E+00
         0.00000E+00
         0.00000E+00
         0.00000E+00
         0.00000E+00
         0.00000E+00
         0.00000E+00
         0.00000E+00
         0.00000E+00
         0.00000E+00
         0.00000E+00
         0.00000E+00
         0.00000E+00
         0.00000E+00
         0.00000E+00
         0.00000E+00
         0.00000E+00
         0.00000E+00
         0.00000E+00
         0.00000E+00
         0.00000E+00
         0.00000E+00
         0.00000E+00
         0.00000E+00
         0.00000E+00
         0.00000E+00
         0.00000E+00
         0.00000E+00
         0.00000E+00
         0.00000E+00
         0.00000E+00
         0.00000E+00
         0.00000E+00
         0.00000E+00
         0.00000E+00
         0.00000E+00
         0.00000E+00
         0.00000E+00
         0.00000E+00
         0.00000E+00
         0.00000E+00
         0.00000E+00
         0.00000E+00
         0.00000E+00
         0.00000E+00
         0.00000E+00
         0.00000E+00
         0.00000E+00
         0.00000E+00
         0.00000E+00
         0.00000E+00
         0.00000E+00
         0.00000E+00
         0.00000E+00
         0.00000E+00
         0.00000E+00
         0.00000E+00
         0.00000E+00
         0.00000E+00
         0.00000E+00
         0.00000E+00
         0.00000E+00
         0.00000E+00
         0.00000E+00
         0.00000E+00
         0.00000E+00
         0.00000E+00
         0.00000E+00
         0.00000E+00
         0.00000E+00
         0.00000E+00
         0.00000E+00
         0.00000E+00
         0.00000E+00
         0.00000E+00
         0.00000E+00
         0.00000E+00
         0.00000E+00
         0.00000E+00
         0.00000E+00
         0.00000E+00
         0.00000E+00
         0.00000E+00
         0.00000E+00
         0.00000E+00
         0.00000E+00
         0.00000E+00
         0.00000E+00
         0.00000E+00
         0.00000E+00
         0.00000E+00
         0.00000E+00
         0.00000E+00
         0.00000E+00
         0.00000E+00
         0.00000E+00
         0.00000E+00
         0.00000E+00
         0.00000E+00
         0.00000E+00
         0.00000E+00
         0.00000E+00
         0.00000E+00
         0.00000E+00
         0.00000E+00
         0.00000E+00
         0.00000E+00
         0.00000E+00
         0.00000E+00
         0.00000E+00
         0.00000E+00
         0.00000E+00
         0.00000E+00
         0.00000E+00
         0.00000E+00
         0.00000E+00
         0.00000E+00
         0.00000E+00
         0.00000E+00
         0.00000E+00
         0.00000E+00
         0.00000E+00
         0.00000E+00
         0.00000E+00
         0.00000E+00
         0.00000E+00
         0.00000E+00
         0.00000E+00
         0.00000E+00
         0.00000E+00
         0.00000E+00
         0.00000E+00
         0.00000E+00
         0.00000E+00
         0.00000E+00
         0.00000E+00
         0.00000E+00
         0.00000E+00
         0.00000E+00
         0.00000E+00
         0.00000E+00
         0.00000E+00
         0.00000E+00
         0.00000E+00
         0.00000E+00
         0.00000E+00
         0.00000E+00
         0.00000E+00
         0.00000E+00
         0.00000E+00
         0.00000E+00
         0.00000E+00
         0.00000E+00
         0.00000E+00
         0.00000E+00
         0.00000E+00
         0.00000E+00
         0.00000E+00
         0.00000E+00
         0.00000E+00
         0.00000E+00
         0.00000E+00
         0.00000E+00
         0.00000E+00
         0.00000E+00
         0.00000E+00
         0.00000E+00
         0.00000E+00
         0.00000E+00
         0.00000E+00
         0.00000E+00
         0.00000E+00
         0.00000E+00
         0.00000E+00
         0.00000E+00
         0.00000E+00
         0.00000E+00
         0.00000E+00
         0.00000E+00
         0.00000E+00
         0.00000E+00
         0.00000E+00
         0.00000E+00
         0.00000E+00
         0.00000E+00
         0.00000E+00
         0.00000E+00
         0.00000E+00
         0.00000E+00
         0.00000E+00
         0.00000E+00
         0.00000E+00
         0.00000E+00
         0.00000E+00
         0.00000E+00
         0.00000E+00
         0.00000E+00
         0.00000E+00
         0.00000E+00
         0.00000E+00
         0.00000E+00
         0.00000E+00
         0.00000E+00
         0.00000E+00
         0.00000E+00
         0.00000E+00
         0.00000E+00
         0.00000E+00
         0.00000E+00
         0.00000E+00
         0.00000E+00
         0.00000E+00
         0.00000E+00
         0.00000E+00
         0.00000E+00
         0.00000E+00
         0.00000E+00
         0.00000E+00
         0.00000E+00
         0.00000E+00
         0.00000E+00
         0.00000E+00
         0.00000E+00
         0.00000E+00
         0.00000E+00
         0.00000E+00
         0.00000E+00
         0.00000E+00
         0.00000E+00
         0.00000E+00
         0.00000E+00
         0.00000E+00
         0.00000E+00
         0.00000E+00
         0.00000E+00
         0.00000E+00
         0.00000E+00
         0.00000E+00
         0.00000E+00
         0.00000E+00
         0.00000E+00
         0.00000E+00
         0.00000E+00
         0.00000E+00
         0.00000E+00
         0.00000E+00
         0.00000E+00
         0.00000E+00
         0.00000E+00
         0.00000E+00
         0.00000E+00
         0.00000E+00
         0.00000E+00
         0.00000E+00
         0.00000E+00
         0.00000E+00
         0.00000E+00
         0.00000E+00
         0.00000E+00
         0.00000E+00
         0.00000E+00
         0.00000E+00
         0.00000E+00
         0.00000E+00
         0.00000E+00
         0.00000E+00
         0.00000E+00
         0.00000E+00
         0.00000E+00
         0.00000E+00
         0.00000E+00
         0.00000E+00
         0.00000E+00
         0.00000E+00
         0.00000E+00
         0.00000E+00
         0.00000E+00
         0.00000E+00
         0.00000E+00
         0.00000E+00
         0.00000E+00
         0.00000E+00
         0.00000E+00
         0.00000E+00
         0.00000E+00
         0.00000E+00
         0.00000E+00
         0.00000E+00
         0.00000E+00
         0.00000E+00
         0.00000E+00
         0.00000E+00
         0.00000E+00
         0.00000E+00
         0.00000E+00
         0.00000E+00
         0.00000E+00
         0.00000E+00
         0.00000E+00
         0.00000E+00
         0.00000E+00
         0.00000E+00
         0.00000E+00
         0.00000E+00
         0.00000E+00
         0.00000E+00
         0.00000E+00
         0.00000E+00
         0.00000E+00
         0.00000E+00
         0.00000E+00
         0.00000E+00
         0.00000E+00
         0.00000E+00
         0.00000E+00
         0.00000E+00
         0.00000E+00
         0.00000E+00
         0.00000E+00
         0.00000E+00
         0.00000E+00
         0.00000E+00
         0.00000E+00
         0.00000E+00
         0.00000E+00
         0.00000E+00
         0.00000E+00
         0.00000E+00
         0.00000E+00
         0.00000E+00
         0.00000E+00
         0.00000E+00
         0.00000E+00
         0.00000E+00
         0.00000E+00
         0.00000E+00
         0.00000E+00
         0.00000E+00
         0.00000E+00
         0.00000E+00
         0.00000E+00
         0.00000E+00
         0.00000E+00
         0.00000E+00
         0.00000E+00
         0.00000E+00
         0.00000E+00
         0.00000E+00
         0.00000E+00
         0.00000E+00
         0.00000E+00
         0.00000E+00
         0.00000E+00
         0.00000E+00
         0.00000E+00
         0.00000E+00
         0.00000E+00
         0.00000E+00
         0.00000E+00
         0.00000E+00
         0.00000E+00
         0.00000E+00
         0.00000E+00
         0.00000E+00
         0.00000E+00
         0.00000E+00
         0.00000E+00
         0.00000E+00
         0.00000E+00
         0.00000E+00
         0.00000E+00
         0.00000E+00
         0.00000E+00
         0.00000E+00
         0.00000E+00
         0.00000E+00
         0.00000E+00
         0.00000E+00
         0.00000E+00
         0.00000E+00
         0.00000E+00
         0.00000E+00
         0.00000E+00
         0.00000E+00
         0.00000E+00
         0.00000E+00
         0.00000E+00
         0.00000E+00
         0.00000E+00
         0.00000E+00
         0.00000E+00
         0.00000E+00
         0.00000E+00
         0.00000E+00
         0.00000E+00
         0.00000E+00
         0.00000E+00
         0.00000E+00
         0.00000E+00
         0.00000E+00
         0.00000E+00
         0.00000E+00
         0.00000E+00
         0.00000E+00
         0.00000E+00
         0.00000E+00
         0.00000E+00
         0.00000E+00
         0.00000E+00
         0.00000E+00
         0.00000E+00
         0.00000E+00
         0.00000E+00
         0.00000E+00
         0.00000E+00
         0.00000E+00
         0.00000E+00
         0.00000E+00
         0.00000E+00
         0.00000E+00
         0.00000E+00
         0.00000E+00
         0.00000E+00
         0.00000E+00
         0.00000E+00
         0.00000E+00
         0.00000E+00
         0.00000E+00
         0.00000E+00
         0.00000E+00
         0.00000E+00
         0.00000E+00
         0.00000E+00
         0.00000E+00
         0.00000E+00
         0.00000E+00
         0.00000E+00
         0.00000E+00
         0.00000E+00
         0.00000E+00
         0.00000E+00
         0.00000E+00
         0.00000E+00
         0.00000E+00
         0.00000E+00
         0.00000E+00
         0.00000E+00
         0.00000E+00
         0.00000E+00
         0.00000E+00
         0.00000E+00
         0.00000E+00
         0.00000E+00
         0.00000E+00
         0.00000E+00
         0.00000E+00
         0.00000E+00
         0.00000E+00
         0.00000E+00
         0.00000E+00
         0.00000E+00
         0.00000E+00
         0.00000E+00
         0.00000E+00
         0.00000E+00
         0.00000E+00
         0.00000E+00
         0.00000E+00
         0.00000E+00
         0.00000E+00
         0.00000E+00
         0.00000E+00
         0.00000E+00
         0.00000E+00
         0.00000E+00
         0.00000E+00
         0.00000E+00
         0.00000E+00
         0.00000E+00
         0.00000E+00
         0.00000E+00
         0.00000E+00
         0.00000E+00
         0.00000E+00
         0.00000E+00
         0.00000E+00
         0.00000E+00
         0.00000E+00
         0.00000E+00
         0.00000E+00
         0.00000E+00
         0.00000E+00
         0.00000E+00
         0.00000E+00
         0.00000E+00
         0.00000E+00
         0.00000E+00
         0.00000E+00
         0.00000E+00
         0.00000E+00
         0.00000E+00
         0.00000E+00
         0.00000E+00
         0.00000E+00
         0.00000E+00
         0.00000E+00
         0.00000E+00
         0.00000E+00
         0.00000E+00
         0.00000E+00
         0.00000E+00
         0.00000E+00
         0.00000E+00
         0.00000E+00
         0.00000E+00
         0.00000E+00
         0.00000E+00
         0.00000E+00
         0.00000E+00
         0.00000E+00
         0.00000E+00
         0.00000E+00
         0.00000E+00
         0.00000E+00
         0.00000E+00
         0.00000E+00
         0.00000E+00
         0.00000E+00
         0.00000E+00
         0.00000E+00
         0.00000E+00
         0.00000E+00
         0.00000E+00
         0.00000E+00
         0.00000E+00
         0.00000E+00
         0.00000E+00
         0.00000E+00
         0.00000E+00
         0.00000E+00
         0.00000E+00
         0.00000E+00
         0.00000E+00
         0.00000E+00
         0.00000E+00
         0.00000E+00
         0.00000E+00
         0.00000E+00
         0.00000E+00
         0.00000E+00
         0.00000E+00
         0.00000E+00
         0.00000E+00
         0.00000E+00
         0.00000E+00
         0.00000E+00
         0.00000E+00
         0.00000E+00
         0.00000E+00
         0.00000E+00
         0.00000E+00
         0.00000E+00
         0.00000E+00
         0.00000E+00
         0.00000E+00
         0.00000E+00
         0.00000E+00
         0.00000E+00
         0.00000E+00
         0.00000E+00
         0.00000E+00
         0.00000E+00
         0.00000E+00
         0.00000E+00
         0.00000E+00
         0.00000E+00
         0.00000E+00
         0.00000E+00
         0.00000E+00
         0.00000E+00
         0.00000E+00
         0.00000E+00
         0.00000E+00
         0.00000E+00
         0.00000E+00
         0.00000E+00
         0.00000E+00
         0.00000E+00
         0.00000E+00
         0.00000E+00
         0.00000E+00
         0.00000E+00
         0.00000E+00
         0.00000E+00
         0.00000E+00
         0.00000E+00
         0.00000E+00
         0.00000E+00
         0.00000E+00
         0.00000E+00
         0.00000E+00
         0.00000E+00
         0.00000E+00
         0.00000E+00
         0.00000E+00
         0.00000E+00
         0.00000E+00
         0.00000E+00
         0.00000E+00
         0.00000E+00
         0.00000E+00
         0.00000E+00
         0.00000E+00
         0.00000E+00
         0.00000E+00
         0.00000E+00
         0.00000E+00
         0.00000E+00
         0.00000E+00
         0.00000E+00
         0.00000E+00
         0.00000E+00
         0.00000E+00
         0.00000E+00
         0.00000E+00
         0.00000E+00
         0.00000E+00
         0.00000E+00
         0.00000E+00
         0.00000E+00
         0.00000E+00
         0.00000E+00
         0.00000E+00
         0.00000E+00
         0.00000E+00
         0.00000E+00
         0.00000E+00
         0.00000E+00
         0.00000E+00
         0.00000E+00
         0.00000E+00
         0.00000E+00
         0.00000E+00
         0.00000E+00
         0.00000E+00
         0.00000E+00
         0.00000E+00
         0.00000E+00
         0.00000E+00
         0.00000E+00
         0.00000E+00
         0.00000E+00
         0.00000E+00
         0.00000E+00
         0.00000E+00
         0.00000E+00
         0.00000E+00
         0.00000E+00
         0.00000E+00
         0.00000E+00
         0.00000E+00
         0.00000E+00
         0.00000E+00
         0.00000E+00
         0.00000E+00
         0.00000E+00
         0.00000E+00
         0.00000E+00
         0.00000E+00
         0.00000E+00
         0.00000E+00
         0.00000E+00
         0.00000E+00
         0.00000E+00
         0.00000E+00
         0.00000E+00
         0.00000E+00
         0.00000E+00
         0.00000E+00
         0.00000E+00
         0.00000E+00
         0.00000E+00
         0.00000E+00
         0.00000E+00
         0.00000E+00
         0.00000E+00
         0.00000E+00
         0.00000E+00
         0.00000E+00
         0.00000E+00
         0.00000E+00
         0.00000E+00
         0.00000E+00
         0.00000E+00
         0.00000E+00
         0.00000E+00
         0.00000E+00
         0.00000E+00
         0.00000E+00
         0.00000E+00
         0.00000E+00
         0.00000E+00
         0.00000E+00
         0.00000E+00
         0.00000E+00
         0.00000E+00
         0.00000E+00
         0.00000E+00
         0.00000E+00
         0.00000E+00
         0.00000E+00
         0.00000E+00
         0.00000E+00
         0.00000E+00
         0.00000E+00
         0.00000E+00
         0.00000E+00
         0.00000E+00
         0.00000E+00
         0.00000E+00
         0.00000E+00
         0.00000E+00
         0.00000E+00
         0.00000E+00
         0.00000E+00
         0.00000E+00
         0.00000E+00
         0.00000E+00
         0.00000E+00
         0.00000E+00
         0.00000E+00
         0.00000E+00
         0.00000E+00
         0.00000E+00
         0.00000E+00
         0.00000E+00
         0.00000E+00
         0.00000E+00
         0.00000E+00
         0.00000E+00
         0.00000E+00
         0.00000E+00
         0.00000E+00
         0.00000E+00
         0.00000E+00
         0.00000E+00
         0.00000E+00
         0.00000E+00
         0.00000E+00
         0.00000E+00
         0.00000E+00
         0.00000E+00
         0.00000E+00
         0.00000E+00
         0.00000E+00
         0.00000E+00
         0.00000E+00
         0.00000E+00
         0.00000E+00
         0.00000E+00
         0.00000E+00
         0.00000E+00
         0.00000E+00
         0.00000E+00
         0.00000E+00
         0.00000E+00
         0.00000E+00
         0.00000E+00
         0.00000E+00
         0.00000E+00
         0.00000E+00
         0.00000E+00
         0.00000E+00
         0.00000E+00
         0.00000E+00
         0.00000E+00
         0.00000E+00
         0.00000E+00
         0.00000E+00
         0.00000E+00
         0.00000E+00
         0.00000E+00
         0.00000E+00
         0.00000E+00
         0.00000E+00
         0.00000E+00
         0.00000E+00
         0.00000E+00
         0.00000E+00
         0.00000E+00
         0.00000E+00
         0.00000E+00
         0.00000E+00
         0.00000E+00
         0.00000E+00
         0.00000E+00
         0.00000E+00
         0.00000E+00
         0.00000E+00
         0.00000E+00
         0.00000E+00
         0.00000E+00
         0.00000E+00
         0.00000E+00
         0.00000E+00
         0.00000E+00
         0.00000E+00
         0.00000E+00
         0.00000E+00
         0.00000E+00
         0.00000E+00
         0.00000E+00
         0.00000E+00
         0.00000E+00
         0.00000E+00
         0.00000E+00
         0.00000E+00
         0.00000E+00
         0.00000E+00
         0.00000E+00
         0.00000E+00
         0.00000E+00
         0.00000E+00
         0.00000E+00
         0.00000E+00
         0.00000E+00
         0.00000E+00
         0.00000E+00
         0.00000E+00
         0.00000E+00
         0.00000E+00
         0.00000E+00
         0.00000E+00
         0.00000E+00
         0.00000E+00
         0.00000E+00
         0.00000E+00
         0.00000E+00
         0.00000E+00
         0.00000E+00
         0.00000E+00
         0.00000E+00
         0.00000E+00
         0.00000E+00
         0.00000E+00
         0.00000E+00
         0.00000E+00
         0.00000E+00
         0.00000E+00
         0.00000E+00
         0.00000E+00
         0.00000E+00
         0.00000E+00
         0.00000E+00
         0.00000E+00
         0.00000E+00
         0.00000E+00
         0.00000E+00
         0.00000E+00
         0.00000E+00
         0.00000E+00
         0.00000E+00
         0.00000E+00
         0.00000E+00
         0.00000E+00
         0.00000E+00
         0.00000E+00
         0.00000E+00
         0.00000E+00
         0.00000E+00
         0.00000E+00
         0.00000E+00
         0.00000E+00
         0.00000E+00
         0.00000E+00
         0.00000E+00
         0.00000E+00
         0.00000E+00
         0.00000E+00
         0.00000E+00
         0.00000E+00
         0.00000E+00
         0.00000E+00
         0.00000E+00
         0.00000E+00
         0.00000E+00
         0.00000E+00
         0.00000E+00
         0.00000E+00
         0.00000E+00
         0.00000E+00
         0.00000E+00
         0.00000E+00
         0.00000E+00
         0.00000E+00
         0.00000E+00
         0.00000E+00
         0.00000E+00
         0.00000E+00
         0.00000E+00
         0.00000E+00
         0.00000E+00
         0.00000E+00
         0.00000E+00
         0.00000E+00
         0.00000E+00
         0.00000E+00
         0.00000E+00
         0.00000E+00
         0.00000E+00
         0.00000E+00
         0.00000E+00
         0.00000E+00
         0.00000E+00
         0.00000E+00
         0.00000E+00
         0.00000E+00
         0.00000E+00
         0.00000E+00
         0.00000E+00
         0.00000E+00
         0.00000E+00
         0.00000E+00
         0.00000E+00
         0.00000E+00
         0.00000E+00
         0.00000E+00
         0.00000E+00
         0.00000E+00
         0.00000E+00
         0.00000E+00
         0.00000E+00
         0.00000E+00
         0.00000E+00
         0.00000E+00
         0.00000E+00
         0.00000E+00
         0.00000E+00
         0.00000E+00
         0.00000E+00
         0.00000E+00
         0.00000E+00
         0.00000E+00
         0.00000E+00
         0.00000E+00
         0.00000E+00
         0.00000E+00
         0.00000E+00
         0.00000E+00
         0.00000E+00
         0.00000E+00
         0.00000E+00
         0.00000E+00
         0.00000E+00
         0.00000E+00
         0.00000E+00
         0.00000E+00
         0.00000E+00
         0.00000E+00
         0.00000E+00
         0.00000E+00
         0.00000E+00
         0.00000E+00
         0.00000E+00
         0.00000E+00
         0.00000E+00
         0.00000E+00
         0.00000E+00
         0.00000E+00
         0.00000E+00
         0.00000E+00
         0.00000E+00
         0.00000E+00
         0.00000E+00
         0.00000E+00
         0.00000E+00
         0.00000E+00
         0.00000E+00
         0.00000E+00
         0.00000E+00
         0.00000E+00
         0.00000E+00
         0.00000E+00
         0.00000E+00
         0.00000E+00
         0.00000E+00
         0.00000E+00
         0.00000E+00
         0.00000E+00
         0.00000E+00
         0.00000E+00
         0.00000E+00
         0.00000E+00
         0.00000E+00
         0.00000E+00
         0.00000E+00
         0.00000E+00
         0.00000E+00
         0.00000E+00
         0.00000E+00
         0.00000E+00
         0.00000E+00
         0.00000E+00
         0.00000E+00
         0.00000E+00
         0.00000E+00
         0.00000E+00
         0.00000E+00
         0.00000E+00
         0.00000E+00
         0.00000E+00
         0.00000E+00
         0.00000E+00
         0.00000E+00
         0.00000E+00
         0.00000E+00
         0.00000E+00
         0.00000E+00
         0.00000E+00
         0.00000E+00
         0.00000E+00
         0.00000E+00
         0.00000E+00
         0.00000E+00
         0.00000E+00
         0.00000E+00
         0.00000E+00
         0.00000E+00
         0.00000E+00
         0.00000E+00
         0.00000E+00
         0.00000E+00
         0.00000E+00
         0.00000E+00
         0.00000E+00
         0.00000E+00
         0.00000E+00
         0.00000E+00
         0.00000E+00
         0.00000E+00
         0.00000E+00
         0.00000E+00
         0.00000E+00
         0.00000E+00
         0.00000E+00
         0.00000E+00
         0.00000E+00
         0.00000E+00
         0.00000E+00
         0.00000E+00
         0.00000E+00
         0.00000E+00
         0.00000E+00
         0.00000E+00
         0.00000E+00
         0.00000E+00
         0.00000E+00
         0.00000E+00
         0.00000E+00
         0.00000E+00
         0.00000E+00
         0.00000E+00
         0.00000E+00
         0.00000E+00
         0.00000E+00
         0.00000E+00
         0.00000E+00
         0.00000E+00
         0.00000E+00
         0.00000E+00
         0.00000E+00
         0.00000E+00
         0.00000E+00
         0.00000E+00
         0.00000E+00
         0.00000E+00
         0.00000E+00
         0.00000E+00
         0.00000E+00
         0.00000E+00
         0.00000E+00
         0.00000E+00
         0.00000E+00
         0.00000E+00
         0.00000E+00
         0.00000E+00
         0.00000E+00
         0.00000E+00
         0.00000E+00
         0.00000E+00
         0.00000E+00
         0.00000E+00
         0.00000E+00
         0.00000E+00
         0.00000E+00
         0.00000E+00
         0.00000E+00
         0.00000E+00
         0.00000E+00
         0.00000E+00
         0.00000E+00
         0.00000E+00
         0.00000E+00
         0.00000E+00
         0.00000E+00
         0.00000E+00
         0.00000E+00
         0.00000E+00
         0.00000E+00
         0.00000E+00
         0.00000E+00
         0.00000E+00
         0.00000E+00
         0.00000E+00
         0.00000E+00
         0.00000E+00
         0.00000E+00
         0.00000E+00
         0.00000E+00
         0.00000E+00
         0.00000E+00
         0.00000E+00
         0.00000E+00
         0.00000E+00
         0.00000E+00
         0.00000E+00
         0.00000E+00
         0.00000E+00
         0.00000E+00
         0.00000E+00
         0.00000E+00
         0.00000E+00
         0.00000E+00
         0.00000E+00
         0.00000E+00
         0.00000E+00
         0.00000E+00
         0.00000E+00
         0.00000E+00
         0.00000E+00
         0.00000E+00
         0.00000E+00
         0.00000E+00
         0.00000E+00
         0.00000E+00
         0.00000E+00
         0.00000E+00
         0.00000E+00
         0.00000E+00
         0.00000E+00
         0.00000E+00
         0.00000E+00
         0.00000E+00
         0.00000E+00
         0.00000E+00
         0.00000E+00
         0.00000E+00
         0.00000E+00
         0.00000E+00
         0.00000E+00
         0.00000E+00
         0.00000E+00
         0.00000E+00
         0.00000E+00
         0.00000E+00
         0.00000E+00
         0.00000E+00
         0.00000E+00
         0.00000E+00
         0.00000E+00
         0.00000E+00
         0.00000E+00
         0.00000E+00
         0.00000E+00
         0.00000E+00
         0.00000E+00
         0.00000E+00
         0.00000E+00
         0.00000E+00
         0.00000E+00
         0.00000E+00
         0.00000E+00
         0.00000E+00
         0.00000E+00
         0.00000E+00
         0.00000E+00
         0.00000E+00
         0.00000E+00
         0.00000E+00
         0.00000E+00
         0.00000E+00
         0.00000E+00
         0.00000E+00
         0.00000E+00
         0.00000E+00
         0.00000E+00
         0.00000E+00
         0.00000E+00
         0.00000E+00
         0.00000E+00
         0.00000E+00
         0.00000E+00
         0.00000E+00
         0.00000E+00
         0.00000E+00
         0.00000E+00
         0.00000E+00
         0.00000E+00
         0.00000E+00
         0.00000E+00
         0.00000E+00
         0.00000E+00
         0.00000E+00
         0.00000E+00
         0.00000E+00
         0.00000E+00
         0.00000E+00
         0.00000E+00
         0.00000E+00
         0.00000E+00
         0.00000E+00
         0.00000E+00
         0.00000E+00
         0.00000E+00
         0.00000E+00
         0.00000E+00
         0.00000E+00
         0.00000E+00
         0.00000E+00
         0.00000E+00
         0.00000E+00
         0.00000E+00
         0.00000E+00
         0.00000E+00
         0.00000E+00
         0.00000E+00
         0.00000E+00
         0.00000E+00
         0.00000E+00
         0.00000E+00
         0.00000E+00
         0.00000E+00
         0.00000E+00
         0.00000E+00
         0.00000E+00
         0.00000E+00
         0.00000E+00
         0.00000E+00
         0.00000E+00
         0.00000E+00
         0.00000E+00
         0.00000E+00
         0.00000E+00
         0.00000E+00
         0.00000E+00
         0.00000E+00
         0.00000E+00
         0.00000E+00
         0.00000E+00
         0.00000E+00
         0.00000E+00
         0.00000E+00
         0.00000E+00
         0.00000E+00
         0.00000E+00
         0.00000E+00
         0.00000E+00
         0.00000E+00
         0.00000E+00
         0.00000E+00
         0.00000E+00
         0.00000E+00
         0.00000E+00
         0.00000E+00
         0.00000E+00
         0.00000E+00
         0.00000E+00
         0.00000E+00
         0.00000E+00
         0.00000E+00
         0.00000E+00
         0.00000E+00
         0.00000E+00
         0.00000E+00
         0.00000E+00
         0.00000E+00
         0.00000E+00
         0.00000E+00
         0.00000E+00
         0.00000E+00
         0.00000E+00
         0.00000E+00
         0.00000E+00
         0.00000E+00
         0.00000E+00
         0.00000E+00
         0.00000E+00
         0.00000E+00
         0.00000E+00
         0.00000E+00
         0.00000E+00
         0.00000E+00
         0.00000E+00
         0.00000E+00
         0.00000E+00
         0.00000E+00
         0.00000E+00
         0.00000E+00
         0.00000E+00
         0.00000E+00
         0.00000E+00
         0.00000E+00
         0.00000E+00
         0.00000E+00
         0.00000E+00
         0.00000E+00
         0.00000E+00
         0.00000E+00
         0.00000E+00
         0.00000E+00
         0.00000E+00
         0.00000E+00
         0.00000E+00
         0.00000E+00
         0.00000E+00
         0.00000E+00
         0.00000E+00
         0.00000E+00
         0.00000E+00
         0.00000E+00
         0.00000E+00
         0.00000E+00
         0.00000E+00
         0.00000E+00
         0.00000E+00
         0.00000E+00
         0.00000E+00
         0.00000E+00
         0.00000E+00
         0.00000E+00
         0.00000E+00
         0.00000E+00
         0.00000E+00
         0.00000E+00
         0.00000E+00
         0.00000E+00
         0.00000E+00
         0.00000E+00
         0.00000E+00
         0.00000E+00
         0.00000E+00
         0.00000E+00
         0.00000E+00
         0.00000E+00
         0.00000E+00
         0.00000E+00
         0.00000E+00
         0.00000E+00
         0.00000E+00
         0.00000E+00
         0.00000E+00
         0.00000E+00
         0.00000E+00
         0.00000E+00
         0.00000E+00
         0.00000E+00
         0.00000E+00
         0.00000E+00
         0.00000E+00
         0.00000E+00
         0.00000E+00
         0.00000E+00
         0.00000E+00
         0.00000E+00
         0.00000E+00
         0.00000E+00
         0.00000E+00
         0.00000E+00
         0.00000E+00
         0.00000E+00
         0.00000E+00
         0.00000E+00
         0.00000E+00
         0.00000E+00
         0.00000E+00
         0.00000E+00
         0.00000E+00
         0.00000E+00
         0.00000E+00
         0.00000E+00
         0.00000E+00
         0.00000E+00
         0.00000E+00
         0.00000E+00
         0.00000E+00
         0.00000E+00
         0.00000E+00
         0.00000E+00
         0.00000E+00
         0.00000E+00
         0.00000E+00
         0.00000E+00
         0.00000E+00
         0.00000E+00
         0.00000E+00
         0.00000E+00
         0.00000E+00
         0.00000E+00
         0.00000E+00
         0.00000E+00
         0.00000E+00
         0.00000E+00
         0.00000E+00
         0.00000E+00
         0.00000E+00
         0.00000E+00
         0.00000E+00
         0.00000E+00
         0.00000E+00
         0.00000E+00
         0.00000E+00
         0.00000E+00
         0.00000E+00
         0.00000E+00
         0.00000E+00
         0.00000E+00
         0.00000E+00
         0.00000E+00
         0.00000E+00
         0.00000E+00
         0.00000E+00
         0.00000E+00
         0.00000E+00
         0.00000E+00
         0.00000E+00
         0.00000E+00
         0.00000E+00
         0.00000E+00
         0.00000E+00
         0.00000E+00
         0.00000E+00
         0.00000E+00
         0.00000E+00
         0.00000E+00
         0.00000E+00
         0.00000E+00
         0.00000E+00
         0.00000E+00
         0.00000E+00
         0.00000E+00
         0.00000E+00
         0.00000E+00
         0.00000E+00
         0.00000E+00
         0.00000E+00
         0.00000E+00
         0.00000E+00
         0.00000E+00
         0.00000E+00
         0.00000E+00
         0.00000E+00
         0.00000E+00
         0.00000E+00
         0.00000E+00
         0.00000E+00
         0.00000E+00
         0.00000E+00
         0.00000E+00
         0.00000E+00
         0.00000E+00
         0.00000E+00
         0.00000E+00
         0.00000E+00
         0.00000E+00
         0.00000E+00
         0.00000E+00
         0.00000E+00
         0.00000E+00
         0.00000E+00
         0.00000E+00
         0.00000E+00
         0.00000E+00
         0.00000E+00
         0.00000E+00
         0.00000E+00
         0.00000E+00
         0.00000E+00
         0.00000E+00
         0.00000E+00
         0.00000E+00
         0.00000E+00
         0.00000E+00
         0.00000E+00
         0.00000E+00
         0.00000E+00
         0.00000E+00
         0.00000E+00
         0.00000E+00
         0.00000E+00
         0.00000E+00
         0.00000E+00
         0.00000E+00
         0.00000E+00
         0.00000E+00
         0.00000E+00
         0.00000E+00
         0.00000E+00
         0.00000E+00
         0.00000E+00
         0.00000E+00
         0.00000E+00
         0.00000E+00
         0.00000E+00
         0.00000E+00
         0.00000E+00
         0.00000E+00
         0.00000E+00
         0.00000E+00
         0.00000E+00
         0.00000E+00
         0.00000E+00
         0.00000E+00
         0.00000E+00
         0.00000E+00
         0.00000E+00
         0.00000E+00
         0.00000E+00
         0.00000E+00
         0.00000E+00
         0.00000E+00
         0.00000E+00
         0.00000E+00
         0.00000E+00
         0.00000E+00
         0.00000E+00
         0.00000E+00
         0.00000E+00
         0.00000E+00
         0.00000E+00
         0.00000E+00
         0.00000E+00
         0.00000E+00
         0.00000E+00
         0.00000E+00
         0.00000E+00
         0.00000E+00
         0.00000E+00
         0.00000E+00
         0.00000E+00
         0.00000E+00
         0.00000E+00
         0.00000E+00
         0.00000E+00
         0.00000E+00
         0.00000E+00
         0.00000E+00
         0.00000E+00
         0.00000E+00
         0.00000E+00
         0.00000E+00
         0.00000E+00
         0.00000E+00
         0.00000E+00
         0.00000E+00
         0.00000E+00
         0.00000E+00
         0.00000E+00
         0.00000E+00
         0.00000E+00
         0.00000E+00
         0.00000E+00
         0.00000E+00
         0.00000E+00
         0.00000E+00
         0.00000E+00
         0.00000E+00
         0.00000E+00
         0.00000E+00
         0.00000E+00
         0.00000E+00
         0.00000E+00
         0.00000E+00
         0.00000E+00
         0.00000E+00
         0.00000E+00
         0.00000E+00
         0.00000E+00
         0.00000E+00
         0.00000E+00
         0.00000E+00
         0.00000E+00
         0.00000E+00
         0.00000E+00
         0.00000E+00
         0.00000E+00
         0.00000E+00
         0.00000E+00
         0.00000E+00
         0.00000E+00
         0.00000E+00
         0.00000E+00
         0.00000E+00
         0.00000E+00
         0.00000E+00
         0.00000E+00
         0.00000E+00
         0.00000E+00
         0.00000E+00
         0.00000E+00
         0.00000E+00
         0.00000E+00
         0.00000E+00
         0.00000E+00
         0.00000E+00
         0.00000E+00
         0.00000E+00
         0.00000E+00
         0.00000E+00
         0.00000E+00
         0.00000E+00
         0.00000E+00
         0.00000E+00
         0.00000E+00
         0.00000E+00
         0.00000E+00
         0.00000E+00
         0.00000E+00
         0.00000E+00
         0.00000E+00
         0.00000E+00
         0.00000E+00
         0.00000E+00
         0.00000E+00
         0.00000E+00
         0.00000E+00
         0.00000E+00
         0.00000E+00
         0.00000E+00
         0.00000E+00
         0.00000E+00
         0.00000E+00
         0.00000E+00
         0.00000E+00
         0.00000E+00
         0.00000E+00
         0.00000E+00
         0.00000E+00
         0.00000E+00
         0.00000E+00
         0.00000E+00
         0.00000E+00
         0.00000E+00
         0.00000E+00
         0.00000E+00
         0.00000E+00
         0.00000E+00
         0.00000E+00
         0.00000E+00
         0.00000E+00
         0.00000E+00
         0.00000E+00
         0.00000E+00
         0.00000E+00
         0.00000E+00
         0.00000E+00
         0.00000E+00
         0.00000E+00
         0.00000E+00
         0.00000E+00
         0.00000E+00
         0.00000E+00
         0.00000E+00
         0.00000E+00
         0.00000E+00
         0.00000E+00
         0.00000E+00
         0.00000E+00
         0.00000E+00
         0.00000E+00
         0.00000E+00
         0.00000E+00
         0.00000E+00
         0.00000E+00
         0.00000E+00
         0.00000E+00
         0.00000E+00
         0.00000E+00
         0.00000E+00
         0.00000E+00
         0.00000E+00
         0.00000E+00
         0.00000E+00
         0.00000E+00
         0.00000E+00
         0.00000E+00
         0.00000E+00
         0.00000E+00
         0.00000E+00
         0.00000E+00
         0.00000E+00
         0.00000E+00
         0.00000E+00
         0.00000E+00
         0.00000E+00
         0.00000E+00
         0.00000E+00
         0.00000E+00
         0.00000E+00
         0.00000E+00
         0.00000E+00
         0.00000E+00
         0.00000E+00
         0.00000E+00
         0.00000E+00
         0.00000E+00
         0.00000E+00
         0.00000E+00
         0.00000E+00
         0.00000E+00
         0.00000E+00
         0.00000E+00
         0.00000E+00
         0.00000E+00
         0.00000E+00
         0.00000E+00
         0.00000E+00
         0.00000E+00
         0.00000E+00
         0.00000E+00
         0.00000E+00
         0.00000E+00
         0.00000E+00
         0.00000E+00
         0.00000E+00
         0.00000E+00
         0.00000E+00
         0.00000E+00
         0.00000E+00
         0.00000E+00
         0.00000E+00
         0.00000E+00
         0.00000E+00
         0.00000E+00
         0.00000E+00
         0.00000E+00
         0.00000E+00
         0.00000E+00
         0.00000E+00
         0.00000E+00
         0.00000E+00
         0.00000E+00
         0.00000E+00
         0.00000E+00
         0.00000E+00
         0.00000E+00
         0.00000E+00
         0.00000E+00
         0.00000E+00
         0.00000E+00
         0.00000E+00
         0.00000E+00
         0.00000E+00
         0.00000E+00
         0.00000E+00
         0.00000E+00
         0.00000E+00
         0.00000E+00
         0.00000E+00
         0.00000E+00
         0.00000E+00
         0.00000E+00
         0.00000E+00
         0.00000E+00
         0.00000E+00
         0.00000E+00
         0.00000E+00
         0.00000E+00
         0.00000E+00
         0.00000E+00
         0.00000E+00
         0.00000E+00
         0.00000E+00
         0.00000E+00
         0.00000E+00
         0.00000E+00
         0.00000E+00
         0.00000E+00
         0.00000E+00
         0.00000E+00
         0.00000E+00
         0.00000E+00
         0.00000E+00
         0.00000E+00
         0.00000E+00
         0.00000E+00
         0.00000E+00
         0.00000E+00
         0.00000E+00
         0.00000E+00
         0.00000E+00
         0.00000E+00
         0.00000E+00
         0.00000E+00
         0.00000E+00
         0.00000E+00
         0.00000E+00
         0.00000E+00
         0.00000E+00
         0.00000E+00
         0.00000E+00
         0.00000E+00
         0.00000E+00
         0.00000E+00
         0.00000E+00
         0.00000E+00
         0.00000E+00
         0.00000E+00
         0.00000E+00
         0.00000E+00
         0.00000E+00
         0.00000E+00
         0.00000E+00
         0.00000E+00
         0.00000E+00
         0.00000E+00
         0.00000E+00
         0.00000E+00
         0.00000E+00
         0.00000E+00
         0.00000E+00
         0.00000E+00
         0.00000E+00
         0.00000E+00
         0.00000E+00
         0.00000E+00
         0.00000E+00
         0.00000E+00
         0.00000E+00
         0.00000E+00
         0.00000E+00
         0.00000E+00
         0.00000E+00
         0.00000E+00
         0.00000E+00
         0.00000E+00
         0.00000E+00
         0.00000E+00
         0.00000E+00
         0.00000E+00
         0.00000E+00
         0.00000E+00
         0.00000E+00
         0.00000E+00
         0.00000E+00
         0.00000E+00
         0.00000E+00
         0.00000E+00
         0.00000E+00
         0.00000E+00
         0.00000E+00
         0.00000E+00
         0.00000E+00
         0.00000E+00
         0.00000E+00
         0.00000E+00
         0.00000E+00
         0.00000E+00
         0.00000E+00
         0.00000E+00
         0.00000E+00
         0.00000E+00
         0.00000E+00
         0.00000E+00
         0.00000E+00
         0.00000E+00
         0.00000E+00
         0.00000E+00
         0.00000E+00
         0.00000E+00
         0.00000E+00
         0.00000E+00
         0.00000E+00
         0.00000E+00
         0.00000E+00
         0.00000E+00
         0.00000E+00
         0.00000E+00
         0.00000E+00
         0.00000E+00
         0.00000E+00
         0.00000E+00
         0.00000E+00
         0.00000E+00
         0.00000E+00
         0.00000E+00
         0.00000E+00
         0.00000E+00
         0.00000E+00
         0.00000E+00
         0.00000E+00
         0.00000E+00
         0.00000E+00
         0.00000E+00
         0.00000E+00
         0.00000E+00
         0.00000E+00
         0.00000E+00
         0.00000E+00
         0.00000E+00
         0.00000E+00
         0.00000E+00
         0.00000E+00
         0.00000E+00
         0.00000E+00
         0.00000E+00
         0.00000E+00
         0.00000E+00
         0.00000E+00
         0.00000E+00
         0.00000E+00
         0.00000E+00
         0.00000E+00
         0.00000E+00
         0.00000E+00
         0.00000E+00
         0.00000E+00
         0.00000E+00
         0.00000E+00
         0.00000E+00
         0.00000E+00
         0.00000E+00
         0.00000E+00
         0.00000E+00
         0.00000E+00
         0.00000E+00
         0.00000E+00
  
SCALARS                        eps_vol  double 1
LOOKUP_TABLE default
         0.00000E+00
         0.00000E+00
         0.00000E+00
         0.00000E+00
         0.00000E+00
         0.00000E+00
         0.00000E+00
         0.00000E+00
         0.00000E+00
         0.00000E+00
         0.00000E+00
         0.00000E+00
         0.00000E+00
         0.00000E+00
         0.00000E+00
         0.00000E+00
         0.00000E+00
         0.00000E+00
         0.00000E+00
         0.00000E+00
         0.00000E+00
         0.00000E+00
         0.00000E+00
         0.00000E+00
         0.00000E+00
         0.00000E+00
         0.00000E+00
         0.00000E+00
         0.00000E+00
         0.00000E+00
         0.00000E+00
         0.00000E+00
         0.00000E+00
         0.00000E+00
         0.00000E+00
         0.00000E+00
         0.00000E+00
         0.00000E+00
         0.00000E+00
         0.00000E+00
         0.00000E+00
         0.00000E+00
         0.00000E+00
         0.00000E+00
         0.00000E+00
         0.00000E+00
         0.00000E+00
         0.00000E+00
         0.00000E+00
         0.00000E+00
         0.00000E+00
         0.00000E+00
         0.00000E+00
         0.00000E+00
         0.00000E+00
         0.00000E+00
         0.00000E+00
         0.00000E+00
         0.00000E+00
         0.00000E+00
         0.00000E+00
         0.00000E+00
         0.00000E+00
         0.00000E+00
         0.00000E+00
         0.00000E+00
         0.00000E+00
         0.00000E+00
         0.00000E+00
         0.00000E+00
         0.00000E+00
         0.00000E+00
         0.00000E+00
         0.00000E+00
         0.00000E+00
         0.00000E+00
         0.00000E+00
         0.00000E+00
         0.00000E+00
         0.00000E+00
         0.00000E+00
         0.00000E+00
         0.00000E+00
         0.00000E+00
         0.00000E+00
         0.00000E+00
         0.00000E+00
         0.00000E+00
         0.00000E+00
         0.00000E+00
         0.00000E+00
         0.00000E+00
         0.00000E+00
         0.00000E+00
         0.00000E+00
         0.00000E+00
         0.00000E+00
         0.00000E+00
         0.00000E+00
         0.00000E+00
         0.00000E+00
         0.00000E+00
         0.00000E+00
         0.00000E+00
         0.00000E+00
         0.00000E+00
         0.00000E+00
         0.00000E+00
         0.00000E+00
         0.00000E+00
         0.00000E+00
         0.00000E+00
         0.00000E+00
         0.00000E+00
         0.00000E+00
         0.00000E+00
         0.00000E+00
         0.00000E+00
         0.00000E+00
         0.00000E+00
         0.00000E+00
         0.00000E+00
         0.00000E+00
         0.00000E+00
         0.00000E+00
         0.00000E+00
         0.00000E+00
         0.00000E+00
         0.00000E+00
         0.00000E+00
         0.00000E+00
         0.00000E+00
         0.00000E+00
         0.00000E+00
         0.00000E+00
         0.00000E+00
         0.00000E+00
         0.00000E+00
         0.00000E+00
         0.00000E+00
         0.00000E+00
         0.00000E+00
         0.00000E+00
         0.00000E+00
         0.00000E+00
         0.00000E+00
         0.00000E+00
         0.00000E+00
         0.00000E+00
         0.00000E+00
         0.00000E+00
         0.00000E+00
         0.00000E+00
         0.00000E+00
         0.00000E+00
         0.00000E+00
         0.00000E+00
         0.00000E+00
         0.00000E+00
         0.00000E+00
         0.00000E+00
         0.00000E+00
         0.00000E+00
         0.00000E+00
         0.00000E+00
         0.00000E+00
         0.00000E+00
         0.00000E+00
         0.00000E+00
         0.00000E+00
         0.00000E+00
         0.00000E+00
         0.00000E+00
         0.00000E+00
         0.00000E+00
         0.00000E+00
         0.00000E+00
         0.00000E+00
         0.00000E+00
         0.00000E+00
         0.00000E+00
         0.00000E+00
         0.00000E+00
         0.00000E+00
         0.00000E+00
         0.00000E+00
         0.00000E+00
         0.00000E+00
         0.00000E+00
         0.00000E+00
         0.00000E+00
         0.00000E+00
         0.00000E+00
         0.00000E+00
         0.00000E+00
         0.00000E+00
         0.00000E+00
         0.00000E+00
         0.00000E+00
         0.00000E+00
         0.00000E+00
         0.00000E+00
         0.00000E+00
         0.00000E+00
         0.00000E+00
         0.00000E+00
         0.00000E+00
         0.00000E+00
         0.00000E+00
         0.00000E+00
         0.00000E+00
         0.00000E+00
         0.00000E+00
         0.00000E+00
         0.00000E+00
         0.00000E+00
         0.00000E+00
         0.00000E+00
         0.00000E+00
         0.00000E+00
         0.00000E+00
         0.00000E+00
         0.00000E+00
         0.00000E+00
         0.00000E+00
         0.00000E+00
         0.00000E+00
         0.00000E+00
         0.00000E+00
         0.00000E+00
         0.00000E+00
         0.00000E+00
         0.00000E+00
         0.00000E+00
         0.00000E+00
         0.00000E+00
         0.00000E+00
         0.00000E+00
         0.00000E+00
         0.00000E+00
         0.00000E+00
         0.00000E+00
         0.00000E+00
         0.00000E+00
         0.00000E+00
         0.00000E+00
         0.00000E+00
         0.00000E+00
         0.00000E+00
         0.00000E+00
         0.00000E+00
         0.00000E+00
         0.00000E+00
         0.00000E+00
         0.00000E+00
         0.00000E+00
         0.00000E+00
         0.00000E+00
         0.00000E+00
         0.00000E+00
         0.00000E+00
         0.00000E+00
         0.00000E+00
         0.00000E+00
         0.00000E+00
         0.00000E+00
         0.00000E+00
         0.00000E+00
         0.00000E+00
         0.00000E+00
         0.00000E+00
         0.00000E+00
         0.00000E+00
         0.00000E+00
         0.00000E+00
         0.00000E+00
         0.00000E+00
         0.00000E+00
         0.00000E+00
         0.00000E+00
         0.00000E+00
         0.00000E+00
         0.00000E+00
         0.00000E+00
         0.00000E+00
         0.00000E+00
         0.00000E+00
         0.00000E+00
         0.00000E+00
         0.00000E+00
         0.00000E+00
         0.00000E+00
         0.00000E+00
         0.00000E+00
         0.00000E+00
         0.00000E+00
         0.00000E+00
         0.00000E+00
         0.00000E+00
         0.00000E+00
         0.00000E+00
         0.00000E+00
         0.00000E+00
         0.00000E+00
         0.00000E+00
         0.00000E+00
         0.00000E+00
         0.00000E+00
         0.00000E+00
         0.00000E+00
         0.00000E+00
         0.00000E+00
         0.00000E+00
         0.00000E+00
         0.00000E+00
         0.00000E+00
         0.00000E+00
         0.00000E+00
         0.00000E+00
         0.00000E+00
         0.00000E+00
         0.00000E+00
         0.00000E+00
         0.00000E+00
         0.00000E+00
         0.00000E+00
         0.00000E+00
         0.00000E+00
         0.00000E+00
         0.00000E+00
         0.00000E+00
         0.00000E+00
         0.00000E+00
         0.00000E+00
         0.00000E+00
         0.00000E+00
         0.00000E+00
         0.00000E+00
         0.00000E+00
         0.00000E+00
         0.00000E+00
         0.00000E+00
         0.00000E+00
         0.00000E+00
         0.00000E+00
         0.00000E+00
         0.00000E+00
         0.00000E+00
         0.00000E+00
         0.00000E+00
         0.00000E+00
         0.00000E+00
         0.00000E+00
         0.00000E+00
         0.00000E+00
         0.00000E+00
         0.00000E+00
         0.00000E+00
         0.00000E+00
         0.00000E+00
         0.00000E+00
         0.00000E+00
         0.00000E+00
         0.00000E+00
         0.00000E+00
         0.00000E+00
         0.00000E+00
         0.00000E+00
         0.00000E+00
         0.00000E+00
         0.00000E+00
         0.00000E+00
         0.00000E+00
         0.00000E+00
         0.00000E+00
         0.00000E+00
         0.00000E+00
         0.00000E+00
         0.00000E+00
         0.00000E+00
         0.00000E+00
         0.00000E+00
         0.00000E+00
         0.00000E+00
         0.00000E+00
         0.00000E+00
         0.00000E+00
         0.00000E+00
         0.00000E+00
         0.00000E+00
         0.00000E+00
         0.00000E+00
         0.00000E+00
         0.00000E+00
         0.00000E+00
         0.00000E+00
         0.00000E+00
         0.00000E+00
         0.00000E+00
         0.00000E+00
         0.00000E+00
         0.00000E+00
         0.00000E+00
         0.00000E+00
         0.00000E+00
         0.00000E+00
         0.00000E+00
         0.00000E+00
         0.00000E+00
         0.00000E+00
         0.00000E+00
         0.00000E+00
         0.00000E+00
         0.00000E+00
         0.00000E+00
         0.00000E+00
         0.00000E+00
         0.00000E+00
         0.00000E+00
         0.00000E+00
         0.00000E+00
         0.00000E+00
         0.00000E+00
         0.00000E+00
         0.00000E+00
         0.00000E+00
         0.00000E+00
         0.00000E+00
         0.00000E+00
         0.00000E+00
         0.00000E+00
         0.00000E+00
         0.00000E+00
         0.00000E+00
         0.00000E+00
         0.00000E+00
         0.00000E+00
         0.00000E+00
         0.00000E+00
         0.00000E+00
         0.00000E+00
         0.00000E+00
         0.00000E+00
         0.00000E+00
         0.00000E+00
         0.00000E+00
         0.00000E+00
         0.00000E+00
         0.00000E+00
         0.00000E+00
         0.00000E+00
         0.00000E+00
         0.00000E+00
         0.00000E+00
         0.00000E+00
         0.00000E+00
         0.00000E+00
         0.00000E+00
         0.00000E+00
         0.00000E+00
         0.00000E+00
         0.00000E+00
         0.00000E+00
         0.00000E+00
         0.00000E+00
         0.00000E+00
         0.00000E+00
         0.00000E+00
         0.00000E+00
         0.00000E+00
         0.00000E+00
         0.00000E+00
         0.00000E+00
         0.00000E+00
         0.00000E+00
         0.00000E+00
         0.00000E+00
         0.00000E+00
         0.00000E+00
         0.00000E+00
         0.00000E+00
         0.00000E+00
         0.00000E+00
         0.00000E+00
         0.00000E+00
         0.00000E+00
         0.00000E+00
         0.00000E+00
         0.00000E+00
         0.00000E+00
         0.00000E+00
         0.00000E+00
         0.00000E+00
         0.00000E+00
         0.00000E+00
         0.00000E+00
         0.00000E+00
         0.00000E+00
         0.00000E+00
         0.00000E+00
         0.00000E+00
         0.00000E+00
         0.00000E+00
         0.00000E+00
         0.00000E+00
         0.00000E+00
         0.00000E+00
         0.00000E+00
         0.00000E+00
         0.00000E+00
         0.00000E+00
         0.00000E+00
         0.00000E+00
         0.00000E+00
         0.00000E+00
         0.00000E+00
         0.00000E+00
         0.00000E+00
         0.00000E+00
         0.00000E+00
         0.00000E+00
         0.00000E+00
         0.00000E+00
         0.00000E+00
         0.00000E+00
         0.00000E+00
         0.00000E+00
         0.00000E+00
         0.00000E+00
         0.00000E+00
         0.00000E+00
         0.00000E+00
         0.00000E+00
         0.00000E+00
         0.00000E+00
         0.00000E+00
         0.00000E+00
         0.00000E+00
         0.00000E+00
         0.00000E+00
         0.00000E+00
         0.00000E+00
         0.00000E+00
         0.00000E+00
         0.00000E+00
         0.00000E+00
         0.00000E+00
         0.00000E+00
         0.00000E+00
         0.00000E+00
         0.00000E+00
         0.00000E+00
         0.00000E+00
         0.00000E+00
         0.00000E+00
         0.00000E+00
         0.00000E+00
         0.00000E+00
         0.00000E+00
         0.00000E+00
         0.00000E+00
         0.00000E+00
         0.00000E+00
         0.00000E+00
         0.00000E+00
         0.00000E+00
         0.00000E+00
         0.00000E+00
         0.00000E+00
         0.00000E+00
         0.00000E+00
         0.00000E+00
         0.00000E+00
         0.00000E+00
         0.00000E+00
         0.00000E+00
         0.00000E+00
         0.00000E+00
         0.00000E+00
         0.00000E+00
         0.00000E+00
         0.00000E+00
         0.00000E+00
         0.00000E+00
         0.00000E+00
         0.00000E+00
         0.00000E+00
         0.00000E+00
         0.00000E+00
         0.00000E+00
         0.00000E+00
         0.00000E+00
         0.00000E+00
         0.00000E+00
         0.00000E+00
         0.00000E+00
         0.00000E+00
         0.00000E+00
         0.00000E+00
         0.00000E+00
         0.00000E+00
         0.00000E+00
         0.00000E+00
         0.00000E+00
         0.00000E+00
         0.00000E+00
         0.00000E+00
         0.00000E+00
         0.00000E+00
         0.00000E+00
         0.00000E+00
         0.00000E+00
         0.00000E+00
         0.00000E+00
         0.00000E+00
         0.00000E+00
         0.00000E+00
         0.00000E+00
         0.00000E+00
         0.00000E+00
         0.00000E+00
         0.00000E+00
         0.00000E+00
         0.00000E+00
         0.00000E+00
         0.00000E+00
         0.00000E+00
         0.00000E+00
         0.00000E+00
         0.00000E+00
         0.00000E+00
         0.00000E+00
         0.00000E+00
         0.00000E+00
         0.00000E+00
         0.00000E+00
         0.00000E+00
         0.00000E+00
         0.00000E+00
         0.00000E+00
         0.00000E+00
         0.00000E+00
         0.00000E+00
         0.00000E+00
         0.00000E+00
         0.00000E+00
         0.00000E+00
         0.00000E+00
         0.00000E+00
         0.00000E+00
         0.00000E+00
         0.00000E+00
         0.00000E+00
         0.00000E+00
         0.00000E+00
         0.00000E+00
         0.00000E+00
         0.00000E+00
         0.00000E+00
         0.00000E+00
         0.00000E+00
         0.00000E+00
         0.00000E+00
         0.00000E+00
         0.00000E+00
         0.00000E+00
         0.00000E+00
         0.00000E+00
         0.00000E+00
         0.00000E+00
         0.00000E+00
         0.00000E+00
         0.00000E+00
         0.00000E+00
         0.00000E+00
         0.00000E+00
         0.00000E+00
         0.00000E+00
         0.00000E+00
         0.00000E+00
         0.00000E+00
         0.00000E+00
         0.00000E+00
         0.00000E+00
         0.00000E+00
         0.00000E+00
         0.00000E+00
         0.00000E+00
         0.00000E+00
         0.00000E+00
         0.00000E+00
         0.00000E+00
         0.00000E+00
         0.00000E+00
         0.00000E+00
         0.00000E+00
         0.00000E+00
         0.00000E+00
         0.00000E+00
         0.00000E+00
         0.00000E+00
         0.00000E+00
         0.00000E+00
         0.00000E+00
         0.00000E+00
         0.00000E+00
         0.00000E+00
         0.00000E+00
         0.00000E+00
         0.00000E+00
         0.00000E+00
         0.00000E+00
         0.00000E+00
         0.00000E+00
         0.00000E+00
         0.00000E+00
         0.00000E+00
         0.00000E+00
         0.00000E+00
         0.00000E+00
         0.00000E+00
         0.00000E+00
         0.00000E+00
         0.00000E+00
         0.00000E+00
         0.00000E+00
         0.00000E+00
         0.00000E+00
         0.00000E+00
         0.00000E+00
         0.00000E+00
         0.00000E+00
         0.00000E+00
         0.00000E+00
         0.00000E+00
         0.00000E+00
         0.00000E+00
         0.00000E+00
         0.00000E+00
         0.00000E+00
         0.00000E+00
         0.00000E+00
         0.00000E+00
         0.00000E+00
         0.00000E+00
         0.00000E+00
         0.00000E+00
         0.00000E+00
         0.00000E+00
         0.00000E+00
         0.00000E+00
         0.00000E+00
         0.00000E+00
         0.00000E+00
         0.00000E+00
         0.00000E+00
         0.00000E+00
         0.00000E+00
         0.00000E+00
         0.00000E+00
         0.00000E+00
         0.00000E+00
         0.00000E+00
         0.00000E+00
         0.00000E+00
         0.00000E+00
         0.00000E+00
         0.00000E+00
         0.00000E+00
         0.00000E+00
         0.00000E+00
         0.00000E+00
         0.00000E+00
         0.00000E+00
         0.00000E+00
         0.00000E+00
         0.00000E+00
         0.00000E+00
         0.00000E+00
         0.00000E+00
         0.00000E+00
         0.00000E+00
         0.00000E+00
         0.00000E+00
         0.00000E+00
         0.00000E+00
         0.00000E+00
         0.00000E+00
         0.00000E+00
         0.00000E+00
         0.00000E+00
         0.00000E+00
         0.00000E+00
         0.00000E+00
         0.00000E+00
         0.00000E+00
         0.00000E+00
         0.00000E+00
         0.00000E+00
         0.00000E+00
         0.00000E+00
         0.00000E+00
         0.00000E+00
         0.00000E+00
         0.00000E+00
         0.00000E+00
         0.00000E+00
         0.00000E+00
         0.00000E+00
         0.00000E+00
         0.00000E+00
         0.00000E+00
         0.00000E+00
         0.00000E+00
         0.00000E+00
         0.00000E+00
         0.00000E+00
         0.00000E+00
         0.00000E+00
         0.00000E+00
         0.00000E+00
         0.00000E+00
         0.00000E+00
         0.00000E+00
         0.00000E+00
         0.00000E+00
         0.00000E+00
         0.00000E+00
         0.00000E+00
         0.00000E+00
         0.00000E+00
         0.00000E+00
         0.00000E+00
         0.00000E+00
         0.00000E+00
         0.00000E+00
         0.00000E+00
         0.00000E+00
         0.00000E+00
         0.00000E+00
         0.00000E+00
         0.00000E+00
         0.00000E+00
         0.00000E+00
         0.00000E+00
         0.00000E+00
         0.00000E+00
         0.00000E+00
         0.00000E+00
         0.00000E+00
         0.00000E+00
         0.00000E+00
         0.00000E+00
         0.00000E+00
         0.00000E+00
         0.00000E+00
         0.00000E+00
         0.00000E+00
         0.00000E+00
         0.00000E+00
         0.00000E+00
         0.00000E+00
         0.00000E+00
         0.00000E+00
         0.00000E+00
         0.00000E+00
         0.00000E+00
         0.00000E+00
         0.00000E+00
         0.00000E+00
         0.00000E+00
         0.00000E+00
         0.00000E+00
         0.00000E+00
         0.00000E+00
         0.00000E+00
         0.00000E+00
         0.00000E+00
         0.00000E+00
         0.00000E+00
         0.00000E+00
         0.00000E+00
         0.00000E+00
         0.00000E+00
         0.00000E+00
         0.00000E+00
         0.00000E+00
         0.00000E+00
         0.00000E+00
         0.00000E+00
         0.00000E+00
         0.00000E+00
         0.00000E+00
         0.00000E+00
         0.00000E+00
         0.00000E+00
         0.00000E+00
         0.00000E+00
         0.00000E+00
         0.00000E+00
         0.00000E+00
         0.00000E+00
         0.00000E+00
         0.00000E+00
         0.00000E+00
         0.00000E+00
         0.00000E+00
         0.00000E+00
         0.00000E+00
         0.00000E+00
         0.00000E+00
         0.00000E+00
         0.00000E+00
         0.00000E+00
         0.00000E+00
         0.00000E+00
         0.00000E+00
         0.00000E+00
         0.00000E+00
         0.00000E+00
         0.00000E+00
         0.00000E+00
         0.00000E+00
         0.00000E+00
         0.00000E+00
         0.00000E+00
         0.00000E+00
         0.00000E+00
         0.00000E+00
         0.00000E+00
         0.00000E+00
         0.00000E+00
         0.00000E+00
         0.00000E+00
         0.00000E+00
         0.00000E+00
         0.00000E+00
         0.00000E+00
         0.00000E+00
         0.00000E+00
         0.00000E+00
         0.00000E+00
         0.00000E+00
         0.00000E+00
         0.00000E+00
         0.00000E+00
         0.00000E+00
         0.00000E+00
         0.00000E+00
         0.00000E+00
         0.00000E+00
         0.00000E+00
         0.00000E+00
         0.00000E+00
         0.00000E+00
         0.00000E+00
         0.00000E+00
         0.00000E+00
         0.00000E+00
         0.00000E+00
         0.00000E+00
         0.00000E+00
         0.00000E+00
         0.00000E+00
         0.00000E+00
         0.00000E+00
         0.00000E+00
         0.00000E+00
         0.00000E+00
         0.00000E+00
         0.00000E+00
         0.00000E+00
         0.00000E+00
         0.00000E+00
         0.00000E+00
         0.00000E+00
         0.00000E+00
         0.00000E+00
         0.00000E+00
         0.00000E+00
         0.00000E+00
         0.00000E+00
         0.00000E+00
         0.00000E+00
         0.00000E+00
         0.00000E+00
         0.00000E+00
         0.00000E+00
         0.00000E+00
         0.00000E+00
         0.00000E+00
         0.00000E+00
         0.00000E+00
         0.00000E+00
         0.00000E+00
         0.00000E+00
         0.00000E+00
         0.00000E+00
         0.00000E+00
         0.00000E+00
         0.00000E+00
         0.00000E+00
         0.00000E+00
         0.00000E+00
         0.00000E+00
         0.00000E+00
         0.00000E+00
         0.00000E+00
         0.00000E+00
         0.00000E+00
         0.00000E+00
         0.00000E+00
         0.00000E+00
         0.00000E+00
         0.00000E+00
         0.00000E+00
         0.00000E+00
         0.00000E+00
         0.00000E+00
         0.00000E+00
         0.00000E+00
         0.00000E+00
         0.00000E+00
         0.00000E+00
         0.00000E+00
         0.00000E+00
         0.00000E+00
         0.00000E+00
         0.00000E+00
         0.00000E+00
         0.00000E+00
         0.00000E+00
         0.00000E+00
         0.00000E+00
         0.00000E+00
         0.00000E+00
         0.00000E+00
         0.00000E+00
         0.00000E+00
         0.00000E+00
         0.00000E+00
         0.00000E+00
         0.00000E+00
         0.00000E+00
         0.00000E+00
         0.00000E+00
         0.00000E+00
         0.00000E+00
         0.00000E+00
         0.00000E+00
         0.00000E+00
         0.00000E+00
         0.00000E+00
         0.00000E+00
         0.00000E+00
         0.00000E+00
         0.00000E+00
         0.00000E+00
         0.00000E+00
         0.00000E+00
         0.00000E+00
         0.00000E+00
         0.00000E+00
         0.00000E+00
         0.00000E+00
         0.00000E+00
         0.00000E+00
         0.00000E+00
         0.00000E+00
         0.00000E+00
         0.00000E+00
         0.00000E+00
         0.00000E+00
         0.00000E+00
         0.00000E+00
         0.00000E+00
         0.00000E+00
         0.00000E+00
         0.00000E+00
         0.00000E+00
         0.00000E+00
         0.00000E+00
         0.00000E+00
         0.00000E+00
         0.00000E+00
         0.00000E+00
         0.00000E+00
         0.00000E+00
         0.00000E+00
         0.00000E+00
         0.00000E+00
         0.00000E+00
         0.00000E+00
         0.00000E+00
         0.00000E+00
         0.00000E+00
         0.00000E+00
         0.00000E+00
         0.00000E+00
         0.00000E+00
         0.00000E+00
         0.00000E+00
         0.00000E+00
         0.00000E+00
         0.00000E+00
         0.00000E+00
         0.00000E+00
         0.00000E+00
         0.00000E+00
         0.00000E+00
         0.00000E+00
         0.00000E+00
         0.00000E+00
         0.00000E+00
         0.00000E+00
         0.00000E+00
         0.00000E+00
         0.00000E+00
         0.00000E+00
         0.00000E+00
         0.00000E+00
         0.00000E+00
         0.00000E+00
         0.00000E+00
         0.00000E+00
         0.00000E+00
         0.00000E+00
         0.00000E+00
         0.00000E+00
         0.00000E+00
         0.00000E+00
         0.00000E+00
         0.00000E+00
         0.00000E+00
         0.00000E+00
         0.00000E+00
         0.00000E+00
         0.00000E+00
         0.00000E+00
         0.00000E+00
         0.00000E+00
         0.00000E+00
         0.00000E+00
         0.00000E+00
         0.00000E+00
         0.00000E+00
         0.00000E+00
         0.00000E+00
         0.00000E+00
         0.00000E+00
         0.00000E+00
         0.00000E+00
         0.00000E+00
         0.00000E+00
         0.00000E+00
         0.00000E+00
         0.00000E+00
         0.00000E+00
         0.00000E+00
         0.00000E+00
         0.00000E+00
         0.00000E+00
         0.00000E+00
         0.00000E+00
         0.00000E+00
         0.00000E+00
         0.00000E+00
         0.00000E+00
         0.00000E+00
         0.00000E+00
         0.00000E+00
         0.00000E+00
         0.00000E+00
         0.00000E+00
         0.00000E+00
         0.00000E+00
         0.00000E+00
         0.00000E+00
         0.00000E+00
         0.00000E+00
         0.00000E+00
         0.00000E+00
         0.00000E+00
         0.00000E+00
         0.00000E+00
         0.00000E+00
         0.00000E+00
         0.00000E+00
         0.00000E+00
         0.00000E+00
         0.00000E+00
         0.00000E+00
         0.00000E+00
         0.00000E+00
         0.00000E+00
         0.00000E+00
         0.00000E+00
         0.00000E+00
         0.00000E+00
         0.00000E+00
         0.00000E+00
         0.00000E+00
         0.00000E+00
         0.00000E+00
         0.00000E+00
         0.00000E+00
         0.00000E+00
         0.00000E+00
         0.00000E+00
         0.00000E+00
         0.00000E+00
         0.00000E+00
         0.00000E+00
         0.00000E+00
         0.00000E+00
         0.00000E+00
         0.00000E+00
         0.00000E+00
         0.00000E+00
         0.00000E+00
         0.00000E+00
         0.00000E+00
         0.00000E+00
         0.00000E+00
         0.00000E+00
         0.00000E+00
         0.00000E+00
         0.00000E+00
         0.00000E+00
         0.00000E+00
         0.00000E+00
         0.00000E+00
         0.00000E+00
         0.00000E+00
         0.00000E+00
         0.00000E+00
         0.00000E+00
         0.00000E+00
         0.00000E+00
         0.00000E+00
         0.00000E+00
         0.00000E+00
         0.00000E+00
         0.00000E+00
         0.00000E+00
         0.00000E+00
         0.00000E+00
         0.00000E+00
         0.00000E+00
         0.00000E+00
         0.00000E+00
         0.00000E+00
         0.00000E+00
         0.00000E+00
         0.00000E+00
         0.00000E+00
         0.00000E+00
         0.00000E+00
         0.00000E+00
         0.00000E+00
         0.00000E+00
         0.00000E+00
         0.00000E+00
         0.00000E+00
         0.00000E+00
         0.00000E+00
         0.00000E+00
         0.00000E+00
         0.00000E+00
         0.00000E+00
         0.00000E+00
         0.00000E+00
         0.00000E+00
         0.00000E+00
         0.00000E+00
         0.00000E+00
         0.00000E+00
         0.00000E+00
         0.00000E+00
         0.00000E+00
         0.00000E+00
         0.00000E+00
         0.00000E+00
         0.00000E+00
         0.00000E+00
         0.00000E+00
         0.00000E+00
         0.00000E+00
         0.00000E+00
         0.00000E+00
         0.00000E+00
         0.00000E+00
         0.00000E+00
         0.00000E+00
         0.00000E+00
         0.00000E+00
         0.00000E+00
         0.00000E+00
         0.00000E+00
         0.00000E+00
         0.00000E+00
         0.00000E+00
         0.00000E+00
         0.00000E+00
         0.00000E+00
         0.00000E+00
         0.00000E+00
         0.00000E+00
         0.00000E+00
         0.00000E+00
         0.00000E+00
         0.00000E+00
         0.00000E+00
         0.00000E+00
         0.00000E+00
         0.00000E+00
         0.00000E+00
         0.00000E+00
         0.00000E+00
         0.00000E+00
         0.00000E+00
         0.00000E+00
         0.00000E+00
         0.00000E+00
         0.00000E+00
         0.00000E+00
         0.00000E+00
         0.00000E+00
         0.00000E+00
         0.00000E+00
         0.00000E+00
         0.00000E+00
         0.00000E+00
         0.00000E+00
         0.00000E+00
         0.00000E+00
         0.00000E+00
         0.00000E+00
         0.00000E+00
         0.00000E+00
         0.00000E+00
         0.00000E+00
         0.00000E+00
         0.00000E+00
         0.00000E+00
         0.00000E+00
         0.00000E+00
         0.00000E+00
         0.00000E+00
         0.00000E+00
         0.00000E+00
         0.00000E+00
         0.00000E+00
         0.00000E+00
         0.00000E+00
         0.00000E+00
         0.00000E+00
         0.00000E+00
         0.00000E+00
         0.00000E+00
         0.00000E+00
         0.00000E+00
         0.00000E+00
         0.00000E+00
         0.00000E+00
         0.00000E+00
         0.00000E+00
         0.00000E+00
         0.00000E+00
         0.00000E+00
         0.00000E+00
         0.00000E+00
         0.00000E+00
         0.00000E+00
         0.00000E+00
         0.00000E+00
         0.00000E+00
         0.00000E+00
         0.00000E+00
         0.00000E+00
         0.00000E+00
         0.00000E+00
         0.00000E+00
         0.00000E+00
         0.00000E+00
         0.00000E+00
         0.00000E+00
         0.00000E+00
         0.00000E+00
         0.00000E+00
         0.00000E+00
         0.00000E+00
         0.00000E+00
         0.00000E+00
         0.00000E+00
         0.00000E+00
         0.00000E+00
         0.00000E+00
         0.00000E+00
         0.00000E+00
         0.00000E+00
         0.00000E+00
         0.00000E+00
         0.00000E+00
         0.00000E+00
         0.00000E+00
         0.00000E+00
         0.00000E+00
         0.00000E+00
         0.00000E+00
         0.00000E+00
         0.00000E+00
         0.00000E+00
         0.00000E+00
         0.00000E+00
         0.00000E+00
         0.00000E+00
         0.00000E+00
         0.00000E+00
         0.00000E+00
         0.00000E+00
         0.00000E+00
         0.00000E+00
         0.00000E+00
         0.00000E+00
         0.00000E+00
         0.00000E+00
         0.00000E+00
         0.00000E+00
         0.00000E+00
         0.00000E+00
         0.00000E+00
         0.00000E+00
         0.00000E+00
         0.00000E+00
         0.00000E+00
         0.00000E+00
         0.00000E+00
         0.00000E+00
         0.00000E+00
         0.00000E+00
         0.00000E+00
         0.00000E+00
         0.00000E+00
         0.00000E+00
         0.00000E+00
         0.00000E+00
         0.00000E+00
         0.00000E+00
         0.00000E+00
         0.00000E+00
         0.00000E+00
         0.00000E+00
         0.00000E+00
         0.00000E+00
         0.00000E+00
         0.00000E+00
         0.00000E+00
         0.00000E+00
         0.00000E+00
         0.00000E+00
         0.00000E+00
         0.00000E+00
         0.00000E+00
         0.00000E+00
         0.00000E+00
         0.00000E+00
         0.00000E+00
         0.00000E+00
         0.00000E+00
         0.00000E+00
         0.00000E+00
         0.00000E+00
         0.00000E+00
         0.00000E+00
         0.00000E+00
         0.00000E+00
         0.00000E+00
         0.00000E+00
         0.00000E+00
         0.00000E+00
         0.00000E+00
         0.00000E+00
         0.00000E+00
         0.00000E+00
         0.00000E+00
         0.00000E+00
         0.00000E+00
         0.00000E+00
         0.00000E+00
         0.00000E+00
         0.00000E+00
         0.00000E+00
         0.00000E+00
         0.00000E+00
         0.00000E+00
         0.00000E+00
         0.00000E+00
         0.00000E+00
         0.00000E+00
         0.00000E+00
         0.00000E+00
         0.00000E+00
         0.00000E+00
         0.00000E+00
         0.00000E+00
         0.00000E+00
         0.00000E+00
         0.00000E+00
         0.00000E+00
         0.00000E+00
         0.00000E+00
         0.00000E+00
         0.00000E+00
         0.00000E+00
         0.00000E+00
         0.00000E+00
         0.00000E+00
         0.00000E+00
         0.00000E+00
         0.00000E+00
         0.00000E+00
         0.00000E+00
         0.00000E+00
         0.00000E+00
         0.00000E+00
         0.00000E+00
         0.00000E+00
         0.00000E+00
         0.00000E+00
         0.00000E+00
         0.00000E+00
         0.00000E+00
         0.00000E+00
         0.00000E+00
         0.00000E+00
         0.00000E+00
         0.00000E+00
         0.00000E+00
         0.00000E+00
         0.00000E+00
         0.00000E+00
         0.00000E+00
         0.00000E+00
         0.00000E+00
         0.00000E+00
         0.00000E+00
         0.00000E+00
         0.00000E+00
         0.00000E+00
         0.00000E+00
         0.00000E+00
         0.00000E+00
         0.00000E+00
         0.00000E+00
         0.00000E+00
         0.00000E+00
         0.00000E+00
         0.00000E+00
         0.00000E+00
         0.00000E+00
         0.00000E+00
         0.00000E+00
         0.00000E+00
         0.00000E+00
         0.00000E+00
         0.00000E+00
         0.00000E+00
         0.00000E+00
         0.00000E+00
         0.00000E+00
         0.00000E+00
         0.00000E+00
         0.00000E+00
         0.00000E+00
         0.00000E+00
         0.00000E+00
         0.00000E+00
         0.00000E+00
         0.00000E+00
         0.00000E+00
         0.00000E+00
         0.00000E+00
         0.00000E+00
         0.00000E+00
         0.00000E+00
         0.00000E+00
         0.00000E+00
         0.00000E+00
         0.00000E+00
         0.00000E+00
         0.00000E+00
         0.00000E+00
         0.00000E+00
         0.00000E+00
         0.00000E+00
         0.00000E+00
         0.00000E+00
         0.00000E+00
         0.00000E+00
         0.00000E+00
         0.00000E+00
         0.00000E+00
         0.00000E+00
         0.00000E+00
         0.00000E+00
         0.00000E+00
         0.00000E+00
         0.00000E+00
         0.00000E+00
         0.00000E+00
         0.00000E+00
         0.00000E+00
         0.00000E+00
         0.00000E+00
         0.00000E+00
         0.00000E+00
         0.00000E+00
         0.00000E+00
         0.00000E+00
         0.00000E+00
         0.00000E+00
         0.00000E+00
         0.00000E+00
         0.00000E+00
         0.00000E+00
         0.00000E+00
         0.00000E+00
         0.00000E+00
         0.00000E+00
         0.00000E+00
         0.00000E+00
         0.00000E+00
         0.00000E+00
         0.00000E+00
         0.00000E+00
         0.00000E+00
         0.00000E+00
         0.00000E+00
         0.00000E+00
         0.00000E+00
         0.00000E+00
         0.00000E+00
         0.00000E+00
         0.00000E+00
         0.00000E+00
         0.00000E+00
         0.00000E+00
         0.00000E+00
         0.00000E+00
         0.00000E+00
         0.00000E+00
         0.00000E+00
         0.00000E+00
         0.00000E+00
         0.00000E+00
         0.00000E+00
         0.00000E+00
         0.00000E+00
         0.00000E+00
         0.00000E+00
         0.00000E+00
         0.00000E+00
         0.00000E+00
         0.00000E+00
         0.00000E+00
         0.00000E+00
         0.00000E+00
         0.00000E+00
         0.00000E+00
         0.00000E+00
         0.00000E+00
         0.00000E+00
         0.00000E+00
         0.00000E+00
         0.00000E+00
         0.00000E+00
         0.00000E+00
         0.00000E+00
         0.00000E+00
         0.00000E+00
         0.00000E+00
         0.00000E+00
         0.00000E+00
         0.00000E+00
         0.00000E+00
         0.00000E+00
         0.00000E+00
         0.00000E+00
         0.00000E+00
         0.00000E+00
         0.00000E+00
         0.00000E+00
         0.00000E+00
         0.00000E+00
         0.00000E+00
         0.00000E+00
         0.00000E+00
         0.00000E+00
         0.00000E+00
         0.00000E+00
         0.00000E+00
         0.00000E+00
         0.00000E+00
         0.00000E+00
         0.00000E+00
         0.00000E+00
         0.00000E+00
         0.00000E+00
         0.00000E+00
         0.00000E+00
         0.00000E+00
         0.00000E+00
         0.00000E+00
         0.00000E+00
         0.00000E+00
         0.00000E+00
         0.00000E+00
         0.00000E+00
         0.00000E+00
         0.00000E+00
         0.00000E+00
         0.00000E+00
         0.00000E+00
         0.00000E+00
         0.00000E+00
         0.00000E+00
         0.00000E+00
         0.00000E+00
         0.00000E+00
         0.00000E+00
         0.00000E+00
         0.00000E+00
         0.00000E+00
         0.00000E+00
         0.00000E+00
         0.00000E+00
         0.00000E+00
         0.00000E+00
         0.00000E+00
         0.00000E+00
         0.00000E+00
         0.00000E+00
         0.00000E+00
         0.00000E+00
         0.00000E+00
         0.00000E+00
         0.00000E+00
         0.00000E+00
         0.00000E+00
         0.00000E+00
         0.00000E+00
         0.00000E+00
         0.00000E+00
         0.00000E+00
         0.00000E+00
         0.00000E+00
         0.00000E+00
         0.00000E+00
         0.00000E+00
         0.00000E+00
         0.00000E+00
         0.00000E+00
         0.00000E+00
         0.00000E+00
         0.00000E+00
         0.00000E+00
         0.00000E+00
         0.00000E+00
         0.00000E+00
         0.00000E+00
         0.00000E+00
         0.00000E+00
         0.00000E+00
         0.00000E+00
         0.00000E+00
         0.00000E+00
         0.00000E+00
         0.00000E+00
         0.00000E+00
         0.00000E+00
         0.00000E+00
         0.00000E+00
         0.00000E+00
         0.00000E+00
         0.00000E+00
         0.00000E+00
         0.00000E+00
         0.00000E+00
         0.00000E+00
         0.00000E+00
         0.00000E+00
         0.00000E+00
         0.00000E+00
         0.00000E+00
         0.00000E+00
         0.00000E+00
         0.00000E+00
         0.00000E+00
         0.00000E+00
         0.00000E+00
         0.00000E+00
         0.00000E+00
         0.00000E+00
         0.00000E+00
         0.00000E+00
         0.00000E+00
         0.00000E+00
         0.00000E+00
         0.00000E+00
         0.00000E+00
         0.00000E+00
         0.00000E+00
         0.00000E+00
         0.00000E+00
         0.00000E+00
         0.00000E+00
         0.00000E+00
         0.00000E+00
         0.00000E+00
         0.00000E+00
         0.00000E+00
         0.00000E+00
         0.00000E+00
         0.00000E+00
         0.00000E+00
         0.00000E+00
         0.00000E+00
         0.00000E+00
         0.00000E+00
         0.00000E+00
         0.00000E+00
         0.00000E+00
         0.00000E+00
         0.00000E+00
         0.00000E+00
         0.00000E+00
         0.00000E+00
         0.00000E+00
         0.00000E+00
         0.00000E+00
         0.00000E+00
         0.00000E+00
         0.00000E+00
         0.00000E+00
         0.00000E+00
         0.00000E+00
         0.00000E+00
         0.00000E+00
         0.00000E+00
         0.00000E+00
         0.00000E+00
         0.00000E+00
         0.00000E+00
         0.00000E+00
         0.00000E+00
         0.00000E+00
         0.00000E+00
         0.00000E+00
         0.00000E+00
         0.00000E+00
         0.00000E+00
         0.00000E+00
         0.00000E+00
         0.00000E+00
         0.00000E+00
         0.00000E+00
         0.00000E+00
         0.00000E+00
         0.00000E+00
         0.00000E+00
         0.00000E+00
         0.00000E+00
         0.00000E+00
         0.00000E+00
         0.00000E+00
         0.00000E+00
         0.00000E+00
         0.00000E+00
         0.00000E+00
         0.00000E+00
         0.00000E+00
         0.00000E+00
         0.00000E+00
         0.00000E+00
         0.00000E+00
         0.00000E+00
         0.00000E+00
         0.00000E+00
         0.00000E+00
         0.00000E+00
         0.00000E+00
         0.00000E+00
         0.00000E+00
         0.00000E+00
         0.00000E+00
         0.00000E+00
         0.00000E+00
         0.00000E+00
         0.00000E+00
         0.00000E+00
         0.00000E+00
         0.00000E+00
         0.00000E+00
         0.00000E+00
         0.00000E+00
         0.00000E+00
         0.00000E+00
         0.00000E+00
         0.00000E+00
         0.00000E+00
         0.00000E+00
         0.00000E+00
         0.00000E+00
         0.00000E+00
         0.00000E+00
         0.00000E+00
         0.00000E+00
         0.00000E+00
         0.00000E+00
         0.00000E+00
         0.00000E+00
         0.00000E+00
         0.00000E+00
         0.00000E+00
         0.00000E+00
         0.00000E+00
         0.00000E+00
         0.00000E+00
         0.00000E+00
         0.00000E+00
         0.00000E+00
         0.00000E+00
         0.00000E+00
         0.00000E+00
         0.00000E+00
         0.00000E+00
         0.00000E+00
         0.00000E+00
         0.00000E+00
         0.00000E+00
         0.00000E+00
         0.00000E+00
         0.00000E+00
         0.00000E+00
         0.00000E+00
         0.00000E+00
         0.00000E+00
         0.00000E+00
         0.00000E+00
  
SCALARS                            eps  double 1
LOOKUP_TABLE default
         0.20251E+00
         0.25592E+00
         0.23924E+00
         0.18617E+00
         0.00000E+00
         0.00000E+00
         0.00000E+00
         0.00000E+00
         0.26742E+00
         0.23142E+00
         0.00000E+00
         0.00000E+00
         0.25318E+00
         0.21321E+00
         0.00000E+00
         0.00000E+00
         0.17053E+00
         0.18971E+00
         0.00000E+00
         0.00000E+00
         0.24265E+00
         0.27905E+00
         0.29430E+00
         0.00000E+00
         0.00000E+00
         0.00000E+00
         0.20071E+00
         0.22244E+00
         0.00000E+00
         0.00000E+00
         0.15249E+00
         0.17495E+00
         0.15629E+00
         0.00000E+00
         0.00000E+00
         0.00000E+00
         0.18211E+00
         0.19144E+00
         0.00000E+00
         0.00000E+00
         0.24238E+00
         0.21284E+00
         0.00000E+00
         0.00000E+00
         0.25931E+00
         0.19889E+00
         0.00000E+00
         0.00000E+00
         0.19576E+00
         0.00000E+00
         0.18515E+00
         0.00000E+00
         0.17256E+00
         0.00000E+00
         0.18079E+00
         0.00000E+00
         0.21168E+00
         0.19280E+00
         0.00000E+00
         0.00000E+00
         0.16925E+00
         0.19805E+00
         0.00000E+00
         0.00000E+00
         0.15445E+00
         0.00000E+00
         0.15624E+00
         0.00000E+00
         0.31708E+00
         0.28629E+00
         0.00000E+00
         0.00000E+00
         0.27925E+00
         0.00000E+00
         0.16445E+00
         0.00000E+00
         0.23949E+00
         0.00000E+00
         0.38896E+00
         0.00000E+00
         0.57170E+00
         0.36173E+00
         0.00000E+00
         0.00000E+00
         0.22299E+00
         0.00000E+00
         0.26531E+00
         0.00000E+00
         0.26222E+00
         0.00000E+00
         0.26192E+00
         0.22673E+00
         0.00000E+00
         0.00000E+00
         0.18986E+00
         0.00000E+00
         0.16198E+00
         0.00000E+00
         0.17574E+00
         0.00000E+00
         0.22347E+00
         0.21704E+00
         0.00000E+00
         0.00000E+00
         0.43302E+00
         0.43127E+00
         0.00000E+00
         0.00000E+00
         0.32163E+00
         0.00000E+00
         0.24373E+00
         0.00000E+00
         0.23805E+00
         0.00000E+00
         0.23387E+00
         0.00000E+00
         0.23859E+00
         0.00000E+00
         0.32527E+00
         0.00000E+00
         0.60706E+00
         0.00000E+00
         0.10886E+01
         0.00000E+00
         0.11196E+01
         0.00000E+00
         0.66256E+00
         0.00000E+00
         0.43545E+00
         0.00000E+00
         0.33021E+00
         0.00000E+00
         0.33002E+00
         0.00000E+00
         0.36813E+00
         0.00000E+00
         0.42521E+00
         0.00000E+00
         0.41434E+00
         0.00000E+00
         0.34120E+00
         0.00000E+00
         0.27971E+00
         0.00000E+00
         0.24402E+00
         0.00000E+00
         0.23183E+00
         0.00000E+00
         0.27053E+00
         0.00000E+00
         0.33490E+00
         0.00000E+00
         0.34417E+00
         0.00000E+00
         0.32794E+00
         0.00000E+00
         0.10570E+00
         0.14933E+00
         0.15000E+00
         0.90063E-01
         0.19913E+00
         0.15228E+00
         0.17263E+00
         0.13727E+00
         0.79190E-01
         0.10577E+00
         0.17958E+00
         0.18860E+00
         0.18631E+00
         0.15686E+00
         0.19030E+00
         0.64992E-01
         0.75825E-01
         0.63296E-01
         0.94307E-01
         0.85003E-01
         0.17080E+00
         0.16773E+00
         0.18466E+00
         0.11839E+00
         0.97068E-01
         0.10435E+00
         0.14361E+00
         0.15386E+00
         0.20210E+00
         0.11207E+00
         0.74855E-01
         0.11554E+00
         0.75666E-01
         0.10737E+00
         0.25579E+00
         0.21666E+00
         0.18586E+00
         0.21505E+00
         0.26393E+00
         0.35566E+00
         0.47355E+00
         0.34788E+00
         0.23431E+00
         0.18116E+00
         0.19083E+00
         0.22254E+00
         0.17545E+00
         0.14196E+00
         0.16137E+00
         0.22605E+00
         0.28859E+00
         0.19256E+00
         0.36534E+00
         0.34323E+00
         0.30129E+00
         0.22425E+00
         0.18887E+00
         0.19425E+00
         0.22987E+00
         0.31742E+00
         0.50841E+00
         0.79804E+00
         0.90409E+00
         0.62702E+00
         0.42125E+00
         0.31318E+00
         0.30265E+00
         0.30318E+00
         0.30820E+00
         0.32302E+00
         0.33992E+00
         0.33534E+00
         0.34926E+00
         0.46168E+00
         0.60913E+00
         0.58728E+00
         0.41902E+00
         0.32061E+00
         0.32961E-01
         0.51737E-01
         0.84418E-01
         0.54472E-01
         0.15846E+00
         0.16432E+00
         0.56492E-01
         0.42006E-01
         0.24850E-01
         0.29104E-01
         0.75887E-01
         0.10891E+00
         0.82570E-01
         0.80445E-01
         0.15013E+00
         0.45271E-01
         0.29746E-01
         0.39263E-01
         0.33243E-01
         0.32700E-01
         0.67471E-01
         0.12090E+00
         0.60054E-01
         0.44844E-01
         0.35096E-01
         0.61453E-01
         0.86625E-01
         0.11662E+00
         0.19114E+00
         0.92598E-01
         0.61449E-01
         0.86116E-01
         0.71337E-01
         0.13140E+00
         0.19214E+00
         0.14398E+00
         0.91382E-01
         0.18924E+00
         0.23658E+00
         0.30748E+00
         0.36840E+00
         0.30833E+00
         0.21370E+00
         0.84589E-01
         0.12962E+00
         0.17119E+00
         0.14393E+00
         0.14148E+00
         0.19624E+00
         0.29912E+00
         0.39235E+00
         0.26236E+00
         0.29470E+00
         0.28778E+00
         0.25036E+00
         0.16623E+00
         0.13255E+00
         0.15577E+00
         0.21570E+00
         0.29998E+00
         0.38751E+00
         0.42938E+00
         0.39602E+00
         0.39575E+00
         0.35466E+00
         0.25661E+00
         0.18029E+00
         0.13956E+00
         0.15923E+00
         0.22837E+00
         0.25924E+00
         0.25269E+00
         0.30104E+00
         0.46247E+00
         0.67972E+00
         0.73011E+00
         0.54008E+00
         0.34851E+00
         0.38723E-01
         0.46203E-01
         0.58089E-01
         0.46084E-01
         0.88079E-01
         0.84397E-01
         0.44692E-01
         0.38184E-01
         0.32363E-01
         0.31156E-01
         0.48593E-01
         0.65106E-01
         0.53787E-01
         0.47593E-01
         0.91375E-01
         0.37624E-01
         0.29766E-01
         0.39187E-01
         0.32175E-01
         0.34366E-01
         0.56023E-01
         0.89035E-01
         0.45387E-01
         0.37643E-01
         0.31413E-01
         0.45623E-01
         0.53045E-01
         0.79005E-01
         0.13272E+00
         0.63578E-01
         0.48829E-01
         0.58967E-01
         0.50884E-01
         0.70262E-01
         0.10654E+00
         0.84131E-01
         0.60821E-01
         0.12773E+00
         0.17681E+00
         0.23926E+00
         0.28960E+00
         0.22182E+00
         0.14728E+00
         0.54183E-01
         0.75495E-01
         0.95660E-01
         0.84791E-01
         0.79533E-01
         0.88035E-01
         0.11500E+00
         0.14367E+00
         0.11208E+00
         0.15386E+00
         0.13543E+00
         0.12915E+00
         0.87702E-01
         0.72468E-01
         0.94858E-01
         0.15376E+00
         0.23381E+00
         0.31966E+00
         0.36968E+00
         0.37327E+00
         0.35440E+00
         0.28473E+00
         0.19724E+00
         0.13200E+00
         0.89649E-01
         0.85346E-01
         0.11345E+00
         0.13302E+00
         0.13419E+00
         0.13783E+00
         0.15275E+00
         0.18892E+00
         0.21733E+00
         0.18560E+00
         0.13873E+00
         0.85097E-02
         0.85692E-02
         0.11783E-01
         0.11569E-01
         0.25478E-01
         0.29698E-01
         0.87018E-02
         0.97071E-02
         0.10547E-01
         0.15150E-01
         0.99887E-02
         0.21413E-01
         0.14319E-01
         0.10820E-01
         0.38812E-01
         0.96658E-02
         0.15425E-01
         0.11068E-01
         0.14567E-01
         0.23832E-01
         0.32002E-01
         0.51454E-01
         0.21003E-01
         0.12903E-01
         0.20841E-01
         0.10823E-01
         0.19974E-01
         0.39598E-01
         0.76020E-01
         0.37263E-01
         0.14165E-01
         0.14695E-01
         0.17865E-01
         0.26592E-01
         0.32033E-01
         0.22569E-01
         0.15339E-01
         0.67194E-01
         0.10655E+00
         0.15594E+00
         0.19840E+00
         0.14012E+00
         0.86807E-01
         0.16755E-01
         0.21187E-01
         0.30930E-01
         0.28162E-01
         0.28266E-01
         0.34754E-01
         0.49251E-01
         0.64368E-01
         0.48239E-01
         0.54801E-01
         0.51022E-01
         0.45111E-01
         0.29851E-01
         0.25958E-01
         0.44897E-01
         0.89396E-01
         0.15274E+00
         0.23232E+00
         0.29794E+00
         0.31341E+00
         0.26703E+00
         0.18626E+00
         0.11807E+00
         0.75392E-01
         0.46061E-01
         0.36204E-01
         0.40338E-01
         0.50476E-01
         0.59524E-01
         0.66528E-01
         0.78620E-01
         0.94669E-01
         0.10342E+00
         0.89833E-01
         0.63297E-01
         0.39759E-02
         0.32696E-02
         0.35245E-02
         0.28494E-02
         0.90039E-02
         0.12291E-01
         0.41684E-02
         0.67201E-02
         0.65104E-02
         0.11376E-01
         0.35623E-02
         0.62469E-02
         0.46158E-02
         0.47443E-02
         0.14002E-01
         0.38105E-02
         0.10014E-01
         0.29144E-02
         0.72391E-02
         0.14430E-01
         0.12795E-01
         0.23242E-01
         0.69680E-02
         0.47012E-02
         0.15854E-01
         0.21152E-02
         0.10037E-01
         0.20557E-01
         0.40495E-01
         0.22392E-01
         0.14109E-02
         0.20727E-02
         0.31194E-02
         0.85086E-02
         0.98812E-02
         0.65692E-02
         0.48489E-02
         0.30501E-01
         0.54943E-01
         0.86571E-01
         0.11579E+00
         0.78013E-01
         0.44106E-01
         0.40950E-02
         0.57624E-02
         0.96380E-02
         0.76605E-02
         0.73212E-02
         0.11059E-01
         0.18540E-01
         0.26215E-01
         0.19769E-01
         0.18870E-01
         0.20365E-01
         0.14913E-01
         0.95134E-02
         0.91799E-02
         0.19293E-01
         0.45260E-01
         0.87254E-01
         0.14245E+00
         0.19129E+00
         0.20637E+00
         0.16727E+00
         0.10068E+00
         0.54651E-01
         0.32680E-01
         0.18330E-01
         0.13217E-01
         0.13730E-01
         0.16540E-01
         0.16825E-01
         0.18191E-01
         0.26119E-01
         0.37747E-01
         0.44548E-01
         0.40076E-01
         0.28586E-01
         0.66770E-04
         0.00000E+00
         0.00000E+00
         0.00000E+00
         0.21951E-02
         0.18521E-02
         0.53346E-03
         0.16483E-02
         0.11385E-02
         0.40018E-02
         0.11214E-02
         0.23936E-02
         0.13139E-02
         0.17999E-02
         0.46240E-02
         0.00000E+00
         0.27477E-02
         0.00000E+00
         0.10126E-02
         0.48126E-02
         0.23312E-02
         0.59082E-02
         0.13820E-02
         0.23901E-03
         0.68822E-02
         0.00000E+00
         0.40185E-02
         0.80723E-02
         0.14756E-01
         0.90749E-02
         0.00000E+00
         0.00000E+00
         0.00000E+00
         0.44754E-04
         0.20713E-02
         0.23272E-03
         0.54152E-03
         0.10297E-01
         0.20537E-01
         0.33984E-01
         0.46352E-01
         0.28108E-01
         0.13655E-01
         0.84809E-03
         0.72215E-03
         0.15586E-02
         0.57633E-03
         0.10794E-02
         0.25932E-02
         0.46097E-02
         0.60089E-02
         0.34475E-02
         0.45292E-02
         0.69567E-02
         0.12202E-02
         0.27693E-02
         0.35826E-02
         0.69779E-02
         0.18031E-01
         0.38948E-01
         0.68395E-01
         0.93131E-01
         0.96055E-01
         0.70260E-01
         0.35938E-01
         0.16662E-01
         0.97499E-02
         0.64894E-02
         0.60796E-02
         0.54886E-02
         0.46624E-02
         0.39710E-02
         0.54628E-02
         0.87875E-02
         0.11253E-01
         0.11007E-01
         0.80949E-02
         0.59183E-02
         0.00000E+00
         0.00000E+00
         0.00000E+00
         0.00000E+00
         0.11911E-02
         0.14278E-02
         0.00000E+00
         0.00000E+00
         0.00000E+00
         0.00000E+00
         0.00000E+00
         0.51390E-03
         0.00000E+00
         0.00000E+00
         0.15819E-02
         0.00000E+00
         0.00000E+00
         0.00000E+00
         0.00000E+00
         0.00000E+00
         0.36201E-03
         0.43323E-03
         0.87347E-03
         0.00000E+00
         0.12530E-02
         0.00000E+00
         0.68517E-03
         0.20658E-02
         0.24781E-02
         0.19896E-02
         0.00000E+00
         0.00000E+00
         0.00000E+00
         0.31110E-03
         0.55681E-03
         0.00000E+00
         0.00000E+00
         0.27740E-02
         0.40459E-02
         0.58869E-02
         0.78658E-02
         0.15909E-02
         0.39035E-03
         0.67469E-03
         0.39034E-03
         0.60490E-03
         0.00000E+00
         0.18647E-03
         0.17269E-02
         0.36722E-02
         0.49789E-02
         0.30301E-02
         0.22393E-02
         0.50447E-02
         0.63556E-04
         0.22644E-02
         0.24373E-02
         0.28165E-02
         0.65953E-02
         0.13954E-01
         0.23318E-01
         0.30141E-01
         0.27394E-01
         0.15863E-01
         0.64828E-02
         0.47031E-02
         0.41517E-02
         0.45240E-02
         0.46808E-02
         0.40863E-02
         0.29137E-02
         0.16641E-02
         0.25151E-02
         0.53885E-02
         0.79989E-02
         0.81442E-02
         0.55292E-02
         0.40578E-02
         0.00000E+00
         0.00000E+00
         0.00000E+00
         0.00000E+00
         0.10425E-02
         0.16283E-02
         0.00000E+00
         0.00000E+00
         0.00000E+00
         0.00000E+00
         0.00000E+00
         0.00000E+00
         0.00000E+00
         0.00000E+00
         0.58004E-03
         0.00000E+00
         0.00000E+00
         0.00000E+00
         0.00000E+00
         0.00000E+00
         0.57064E-03
         0.10776E-02
         0.73691E-03
         0.00000E+00
         0.00000E+00
         0.00000E+00
         0.00000E+00
         0.79248E-03
         0.32278E-02
         0.00000E+00
         0.00000E+00
         0.00000E+00
         0.00000E+00
         0.00000E+00
         0.24016E-03
         0.00000E+00
         0.00000E+00
         0.29607E-02
         0.62345E-02
         0.10578E-01
         0.14630E-01
         0.84566E-02
         0.37725E-02
         0.28038E-03
         0.00000E+00
         0.00000E+00
         0.00000E+00
         0.00000E+00
         0.89305E-03
         0.26715E-02
         0.40949E-02
         0.28521E-02
         0.20579E-02
         0.47896E-02
         0.88835E-03
         0.21321E-02
         0.19348E-02
         0.17354E-02
         0.42182E-02
         0.10309E-01
         0.18853E-01
         0.27591E-01
         0.30503E-01
         0.23544E-01
         0.14869E-01
         0.77965E-02
         0.41957E-02
         0.38518E-02
         0.35027E-02
         0.28722E-02
         0.19564E-02
         0.94103E-03
         0.11905E-02
         0.32742E-02
         0.54812E-02
         0.65046E-02
         0.57737E-02
         0.49165E-02
         0.00000E+00
         0.00000E+00
         0.00000E+00
         0.00000E+00
         0.13419E-02
         0.21711E-02
         0.00000E+00
         0.00000E+00
         0.00000E+00
         0.00000E+00
         0.00000E+00
         0.00000E+00
         0.00000E+00
         0.00000E+00
         0.50733E-03
         0.00000E+00
         0.00000E+00
         0.00000E+00
         0.00000E+00
         0.00000E+00
         0.17255E-02
         0.25629E-02
         0.15860E-02
         0.00000E+00
         0.00000E+00
         0.00000E+00
         0.00000E+00
         0.83599E-03
         0.45228E-02
         0.00000E+00
         0.00000E+00
         0.00000E+00
         0.00000E+00
         0.21552E-03
         0.42665E-03
         0.00000E+00
         0.00000E+00
         0.39663E-02
         0.87566E-02
         0.14757E-01
         0.20337E-01
         0.12251E-01
         0.60241E-02
         0.89701E-03
         0.29060E-03
         0.26703E-03
         0.00000E+00
         0.00000E+00
         0.12785E-02
         0.34687E-02
         0.52533E-02
         0.36793E-02
         0.24886E-02
         0.54614E-02
         0.11448E-02
         0.20725E-02
         0.18578E-02
         0.14634E-02
         0.44350E-02
         0.12899E-01
         0.25107E-01
         0.36977E-01
         0.41018E-01
         0.32105E-01
         0.20288E-01
         0.11031E-01
         0.67636E-02
         0.55209E-02
         0.45512E-02
         0.36873E-02
         0.24951E-02
         0.13113E-02
         0.17094E-02
         0.43278E-02
         0.71550E-02
         0.85436E-02
         0.75757E-02
         0.62079E-02
         0.00000E+00
         0.00000E+00
         0.00000E+00
         0.00000E+00
         0.17726E-02
         0.27235E-02
         0.00000E+00
         0.00000E+00
         0.00000E+00
         0.00000E+00
         0.00000E+00
         0.00000E+00
         0.00000E+00
         0.00000E+00
         0.10516E-02
         0.00000E+00
         0.00000E+00
         0.00000E+00
         0.00000E+00
         0.00000E+00
         0.29105E-02
         0.38823E-02
         0.27920E-02
         0.00000E+00
         0.00000E+00
         0.00000E+00
         0.00000E+00
         0.12297E-02
         0.53152E-02
         0.00000E+00
         0.00000E+00
         0.00000E+00
         0.00000E+00
         0.67463E-03
         0.78927E-03
         0.00000E+00
         0.00000E+00
         0.53976E-02
         0.11048E-01
         0.17500E-01
         0.23079E-01
         0.13684E-01
         0.72673E-02
         0.20304E-02
         0.13679E-02
         0.14488E-02
         0.18634E-03
         0.50286E-03
         0.23575E-02
         0.48179E-02
         0.67498E-02
         0.46267E-02
         0.29930E-02
         0.63534E-02
         0.15835E-02
         0.27040E-02
         0.24011E-02
         0.20272E-02
         0.58382E-02
         0.16495E-01
         0.31477E-01
         0.44526E-01
         0.46430E-01
         0.34547E-01
         0.22911E-01
         0.13546E-01
         0.87651E-02
         0.73157E-02
         0.62163E-02
         0.52771E-02
         0.41530E-02
         0.29386E-02
         0.35511E-02
         0.66216E-02
         0.96783E-02
         0.10826E-01
         0.91136E-02
         0.72544E-02
         0.00000E+00
         0.00000E+00
         0.00000E+00
         0.00000E+00
         0.18901E-02
         0.27835E-02
         0.00000E+00
         0.00000E+00
         0.00000E+00
         0.00000E+00
         0.00000E+00
         0.00000E+00
         0.00000E+00
         0.00000E+00
         0.15261E-02
         0.00000E+00
         0.00000E+00
         0.00000E+00
         0.00000E+00
         0.00000E+00
         0.30014E-02
         0.40376E-02
         0.28864E-02
         0.00000E+00
         0.00000E+00
         0.00000E+00
         0.00000E+00
         0.19712E-02
         0.68825E-02
         0.00000E+00
         0.00000E+00
         0.00000E+00
         0.00000E+00
         0.88402E-03
         0.96606E-03
         0.00000E+00
         0.00000E+00
         0.65574E-02
         0.13294E-01
         0.21119E-01
         0.27709E-01
         0.16352E-01
         0.82398E-02
         0.21502E-02
         0.15603E-02
         0.18064E-02
         0.66120E-03
         0.11753E-02
         0.30992E-02
         0.54029E-02
         0.71262E-02
         0.47861E-02
         0.31712E-02
         0.65197E-02
         0.17491E-02
         0.28194E-02
         0.23882E-02
         0.24489E-02
         0.70454E-02
         0.19067E-01
         0.36670E-01
         0.52598E-01
         0.55039E-01
         0.39852E-01
         0.24730E-01
         0.13875E-01
         0.88815E-02
         0.73049E-02
         0.62244E-02
         0.53775E-02
         0.45569E-02
         0.36221E-02
         0.47089E-02
         0.79800E-02
         0.10678E-01
         0.11249E-01
         0.91275E-02
         0.71913E-02
         0.00000E+00
         0.00000E+00
         0.00000E+00
         0.00000E+00
         0.21326E-02
         0.29403E-02
         0.00000E+00
         0.00000E+00
         0.00000E+00
         0.00000E+00
         0.00000E+00
         0.00000E+00
         0.00000E+00
         0.00000E+00
         0.16073E-02
         0.00000E+00
         0.00000E+00
         0.00000E+00
         0.00000E+00
         0.00000E+00
         0.28547E-02
         0.41296E-02
         0.26032E-02
         0.00000E+00
         0.00000E+00
         0.00000E+00
         0.00000E+00
         0.21425E-02
         0.76380E-02
         0.00000E+00
         0.00000E+00
         0.00000E+00
         0.00000E+00
         0.10022E-02
         0.11856E-02
         0.00000E+00
         0.00000E+00
         0.68700E-02
         0.14022E-01
         0.22820E-01
         0.30737E-01
         0.18400E-01
         0.90649E-02
         0.18650E-02
         0.13894E-02
         0.17368E-02
         0.68825E-03
         0.12271E-02
         0.31591E-02
         0.54604E-02
         0.71584E-02
         0.48791E-02
         0.35063E-02
         0.69827E-02
         0.15089E-02
         0.26417E-02
         0.22506E-02
         0.21888E-02
         0.75641E-02
         0.20092E-01
         0.38098E-01
         0.55939E-01
         0.61181E-01
         0.45382E-01
         0.26949E-01
         0.14313E-01
         0.88443E-02
         0.69038E-02
         0.57643E-02
         0.50507E-02
         0.43928E-02
         0.34461E-02
         0.45377E-02
         0.79540E-02
         0.10638E-01
         0.11140E-01
         0.91435E-02
         0.73810E-02
         0.00000E+00
         0.00000E+00
         0.00000E+00
         0.00000E+00
         0.23274E-02
         0.31723E-02
         0.00000E+00
         0.00000E+00
         0.00000E+00
         0.00000E+00
         0.00000E+00
         0.00000E+00
         0.00000E+00
         0.00000E+00
         0.16469E-02
         0.00000E+00
         0.00000E+00
         0.00000E+00
         0.00000E+00
         0.00000E+00
         0.26660E-02
         0.44810E-02
         0.22832E-02
         0.00000E+00
         0.00000E+00
         0.00000E+00
         0.00000E+00
         0.16236E-02
         0.71673E-02
         0.00000E+00
         0.00000E+00
         0.00000E+00
         0.00000E+00
         0.98340E-03
         0.12278E-02
         0.00000E+00
         0.00000E+00
         0.67163E-02
         0.13188E-01
         0.21585E-01
         0.30163E-01
         0.18724E-01
         0.97406E-02
         0.15911E-02
         0.11315E-02
         0.14387E-02
         0.47081E-03
         0.90080E-03
         0.27183E-02
         0.51173E-02
         0.70090E-02
         0.49843E-02
         0.36203E-02
         0.73902E-02
         0.11084E-02
         0.23413E-02
         0.19886E-02
         0.19430E-02
         0.78608E-02
         0.20187E-01
         0.36442E-01
         0.53163E-01
         0.60901E-01
         0.47913E-01
         0.29450E-01
         0.15519E-01
         0.87033E-02
         0.64529E-02
         0.53679E-02
         0.45492E-02
         0.38303E-02
         0.29125E-02
         0.37149E-02
         0.69316E-02
         0.99015E-02
         0.10883E-01
         0.93527E-02
         0.78076E-02
         0.00000E+00
         0.00000E+00
         0.00000E+00
         0.00000E+00
         0.20902E-02
         0.28532E-02
         0.00000E+00
         0.00000E+00
         0.00000E+00
         0.00000E+00
         0.00000E+00
         0.00000E+00
         0.00000E+00
         0.00000E+00
         0.15535E-02
         0.00000E+00
         0.00000E+00
         0.00000E+00
         0.00000E+00
         0.00000E+00
         0.23394E-02
         0.44784E-02
         0.18913E-02
         0.00000E+00
         0.00000E+00
         0.00000E+00
         0.00000E+00
         0.13334E-02
         0.66359E-02
         0.00000E+00
         0.00000E+00
         0.00000E+00
         0.00000E+00
         0.64934E-03
         0.10329E-02
         0.00000E+00
         0.00000E+00
         0.63084E-02
         0.12126E-01
         0.19747E-01
         0.27987E-01
         0.17942E-01
         0.98260E-02
         0.12742E-02
         0.87641E-03
         0.11899E-02
         0.37102E-03
         0.76564E-03
         0.23352E-02
         0.45119E-02
         0.63291E-02
         0.44770E-02
         0.34016E-02
         0.69622E-02
         0.87287E-03
         0.19635E-02
         0.17024E-02
         0.16916E-02
         0.73665E-02
         0.19204E-01
         0.33939E-01
         0.48829E-01
         0.56556E-01
         0.46209E-01
         0.29799E-01
         0.15592E-01
         0.79893E-02
         0.57809E-02
         0.48416E-02
         0.40993E-02
         0.33736E-02
         0.26785E-02
         0.34179E-02
         0.61395E-02
         0.89167E-02
         0.10041E-01
         0.87005E-02
         0.73097E-02
         0.00000E+00
         0.00000E+00
         0.00000E+00
         0.00000E+00
         0.17686E-02
         0.23386E-02
         0.00000E+00
         0.00000E+00
         0.00000E+00
         0.00000E+00
         0.00000E+00
         0.00000E+00
         0.00000E+00
         0.00000E+00
         0.13767E-02
         0.00000E+00
         0.00000E+00
         0.00000E+00
         0.00000E+00
         0.00000E+00
         0.22206E-02
         0.41127E-02
         0.18243E-02
         0.00000E+00
         0.00000E+00
         0.00000E+00
         0.00000E+00
         0.11977E-02
         0.60811E-02
         0.00000E+00
         0.00000E+00
         0.00000E+00
         0.00000E+00
         0.48073E-03
         0.94674E-03
         0.00000E+00
         0.00000E+00
         0.57810E-02
         0.11481E-01
         0.18682E-01
         0.25943E-01
         0.16334E-01
         0.89208E-02
         0.12663E-02
         0.94374E-03
         0.12876E-02
         0.45448E-03
         0.85946E-03
         0.23644E-02
         0.42562E-02
         0.57288E-02
         0.38427E-02
         0.31444E-02
         0.61063E-02
         0.10029E-02
         0.20300E-02
         0.18415E-02
         0.18789E-02
         0.67579E-02
         0.17769E-01
         0.32461E-01
         0.46805E-01
         0.52269E-01
         0.41761E-01
         0.27470E-01
         0.14601E-01
         0.75261E-02
         0.56216E-02
         0.48359E-02
         0.42992E-02
         0.35797E-02
         0.28592E-02
         0.36002E-02
         0.61992E-02
         0.85756E-02
         0.91878E-02
         0.75375E-02
         0.61682E-02
         0.00000E+00
         0.00000E+00
         0.00000E+00
         0.00000E+00
         0.14415E-02
         0.19162E-02
         0.00000E+00
         0.00000E+00
         0.00000E+00
         0.00000E+00
         0.00000E+00
         0.00000E+00
         0.00000E+00
         0.00000E+00
         0.12258E-02
         0.00000E+00
         0.00000E+00
         0.00000E+00
         0.00000E+00
         0.00000E+00
         0.26381E-02
         0.42200E-02
         0.22988E-02
         0.00000E+00
         0.00000E+00
         0.00000E+00
         0.00000E+00
         0.12530E-02
         0.60987E-02
         0.00000E+00
         0.00000E+00
         0.00000E+00
         0.00000E+00
         0.34894E-03
         0.75881E-03
         0.00000E+00
         0.00000E+00
         0.55955E-02
         0.11595E-01
         0.18988E-01
         0.26132E-01
         0.16149E-01
         0.86658E-02
         0.16095E-02
         0.11547E-02
         0.14200E-02
         0.49521E-03
         0.82066E-03
         0.21910E-02
         0.38421E-02
         0.50964E-02
         0.33188E-02
         0.28023E-02
         0.54110E-02
         0.85559E-03
         0.19433E-02
         0.18579E-02
         0.20970E-02
         0.65463E-02
         0.17338E-01
         0.33017E-01
         0.47939E-01
         0.52767E-01
         0.41197E-01
         0.26328E-01
         0.14304E-01
         0.81988E-02
         0.64067E-02
         0.53489E-02
         0.46137E-02
         0.38255E-02
         0.29873E-02
         0.36489E-02
         0.60321E-02
         0.79595E-02
         0.82224E-02
         0.65611E-02
         0.52831E-02
         0.00000E+00
         0.00000E+00
         0.00000E+00
         0.00000E+00
         0.12108E-02
         0.15712E-02
         0.00000E+00
         0.00000E+00
         0.00000E+00
         0.00000E+00
         0.00000E+00
         0.00000E+00
         0.00000E+00
         0.00000E+00
         0.69463E-03
         0.00000E+00
         0.00000E+00
         0.00000E+00
         0.00000E+00
         0.00000E+00
         0.29495E-02
         0.44276E-02
         0.26567E-02
         0.00000E+00
         0.00000E+00
         0.00000E+00
         0.00000E+00
         0.12711E-02
         0.64224E-02
         0.00000E+00
         0.00000E+00
         0.00000E+00
         0.00000E+00
         0.00000E+00
         0.53218E-03
         0.00000E+00
         0.00000E+00
         0.52180E-02
         0.11674E-01
         0.19795E-01
         0.27701E-01
         0.17086E-01
         0.90301E-02
         0.18859E-02
         0.12162E-02
         0.12630E-02
         0.20778E-03
         0.30674E-03
         0.14084E-02
         0.29125E-02
         0.41532E-02
         0.26882E-02
         0.26197E-02
         0.52017E-02
         0.56660E-03
         0.17205E-02
         0.16495E-02
         0.16223E-02
         0.56414E-02
         0.16685E-01
         0.33577E-01
         0.50376E-01
         0.56537E-01
         0.43758E-01
         0.26900E-01
         0.14520E-01
         0.87274E-02
         0.69139E-02
         0.57186E-02
         0.46638E-02
         0.36562E-02
         0.26647E-02
         0.29595E-02
         0.49535E-02
         0.67110E-02
         0.70444E-02
         0.57525E-02
         0.48990E-02
         0.00000E+00
         0.00000E+00
         0.00000E+00
         0.00000E+00
         0.75596E-03
         0.87459E-03
         0.00000E+00
         0.00000E+00
         0.00000E+00
         0.00000E+00
         0.00000E+00
         0.00000E+00
         0.00000E+00
         0.00000E+00
         0.66736E-04
         0.00000E+00
         0.00000E+00
         0.00000E+00
         0.00000E+00
         0.00000E+00
         0.23549E-02
         0.38579E-02
         0.22210E-02
         0.00000E+00
         0.00000E+00
         0.00000E+00
         0.00000E+00
         0.69897E-03
         0.58280E-02
         0.00000E+00
         0.00000E+00
         0.00000E+00
         0.00000E+00
         0.00000E+00
         0.84794E-04
         0.00000E+00
         0.00000E+00
         0.42015E-02
         0.10231E-01
         0.18276E-01
         0.26510E-01
         0.16497E-01
         0.85582E-02
         0.16943E-02
         0.10815E-02
         0.98227E-03
         0.00000E+00
         0.00000E+00
         0.14696E-03
         0.13915E-02
         0.25192E-02
         0.15028E-02
         0.21263E-02
         0.47482E-02
         0.16597E-03
         0.12176E-02
         0.96353E-03
         0.57990E-03
         0.39154E-02
         0.14190E-01
         0.30172E-01
         0.47049E-01
         0.54822E-01
         0.43087E-01
         0.25791E-01
         0.13297E-01
         0.74435E-02
         0.60220E-02
         0.52758E-02
         0.44232E-02
         0.33664E-02
         0.21773E-02
         0.18082E-02
         0.30863E-02
         0.46991E-02
         0.51323E-02
         0.43616E-02
         0.42125E-02
         0.00000E+00
         0.00000E+00
         0.00000E+00
         0.00000E+00
         0.00000E+00
         0.00000E+00
         0.00000E+00
         0.00000E+00
         0.00000E+00
         0.00000E+00
         0.00000E+00
         0.00000E+00
         0.00000E+00
         0.00000E+00
         0.20179E-03
         0.00000E+00
         0.00000E+00
         0.00000E+00
         0.00000E+00
         0.00000E+00
         0.15279E-02
         0.31959E-02
         0.15164E-02
         0.00000E+00
         0.00000E+00
         0.00000E+00
         0.00000E+00
         0.63631E-03
         0.61532E-02
         0.62450E-04
         0.00000E+00
         0.00000E+00
         0.00000E+00
         0.00000E+00
         0.00000E+00
         0.00000E+00
         0.00000E+00
         0.38890E-02
         0.96989E-02
         0.18134E-01
         0.27159E-01
         0.17374E-01
         0.87646E-02
         0.12359E-02
         0.79976E-03
         0.75709E-03
         0.00000E+00
         0.00000E+00
         0.00000E+00
         0.00000E+00
         0.21715E-03
         0.00000E+00
         0.15489E-02
         0.35970E-02
         0.67143E-03
         0.10661E-02
         0.57036E-03
         0.43490E-03
         0.35373E-02
         0.12829E-01
         0.28305E-01
         0.46000E-01
         0.55792E-01
         0.45321E-01
         0.25748E-01
         0.11385E-01
         0.56285E-02
         0.47408E-02
         0.43788E-02
         0.38604E-02
         0.32074E-02
         0.25250E-02
         0.20534E-02
         0.25550E-02
         0.34713E-02
         0.33930E-02
         0.27251E-02
         0.28637E-02
         0.00000E+00
         0.00000E+00
         0.00000E+00
         0.00000E+00
         0.10025E-03
         0.00000E+00
         0.00000E+00
         0.00000E+00
         0.00000E+00
         0.00000E+00
         0.00000E+00
         0.00000E+00
         0.00000E+00
         0.00000E+00
         0.14931E-02
         0.00000E+00
         0.00000E+00
         0.00000E+00
         0.00000E+00
         0.00000E+00
         0.14440E-02
         0.37761E-02
         0.10817E-02
         0.00000E+00
         0.00000E+00
         0.00000E+00
         0.00000E+00
         0.15947E-02
         0.76346E-02
         0.10291E-02
         0.00000E+00
         0.00000E+00
         0.00000E+00
         0.00000E+00
         0.10509E-02
         0.90083E-04
         0.00000E+00
         0.47562E-02
         0.10408E-01
         0.19334E-01
         0.29423E-01
         0.20108E-01
         0.10718E-01
         0.97821E-03
         0.11527E-02
         0.19507E-02
         0.11517E-02
         0.74410E-03
         0.91550E-03
         0.17521E-02
         0.28150E-02
         0.10005E-02
         0.42766E-02
         0.44383E-02
         0.40586E-02
         0.17240E-02
         0.77922E-03
         0.17039E-02
         0.52563E-02
         0.13237E-01
         0.27838E-01
         0.46233E-01
         0.58472E-01
         0.51246E-01
         0.29927E-01
         0.12381E-01
         0.56482E-02
         0.38085E-02
         0.36403E-02
         0.41949E-02
         0.51038E-02
         0.62490E-02
         0.66063E-02
         0.71175E-02
         0.81785E-02
         0.79197E-02
         0.62718E-02
         0.46117E-02
         0.00000E+00
         0.00000E+00
         0.00000E+00
         0.00000E+00
         0.10238E-02
         0.12664E-02
         0.00000E+00
         0.00000E+00
         0.00000E+00
         0.00000E+00
         0.00000E+00
         0.91377E-03
         0.00000E+00
         0.00000E+00
         0.31670E-02
         0.00000E+00
         0.00000E+00
         0.00000E+00
         0.00000E+00
         0.00000E+00
         0.43012E-02
         0.63720E-02
         0.35947E-02
         0.45161E-05
         0.00000E+00
         0.00000E+00
         0.25147E-03
         0.33329E-02
         0.10395E-01
         0.25307E-02
         0.00000E+00
         0.00000E+00
         0.00000E+00
         0.46087E-03
         0.25214E-02
         0.17710E-02
         0.00000E+00
         0.66323E-02
         0.12907E-01
         0.22862E-01
         0.34181E-01
         0.24693E-01
         0.14177E-01
         0.29392E-02
         0.36175E-02
         0.54300E-02
         0.38051E-02
         0.28351E-02
         0.25374E-02
         0.32218E-02
         0.46219E-02
         0.28316E-02
         0.54491E-02
         0.46682E-02
         0.69361E-02
         0.36686E-02
         0.23076E-02
         0.40620E-02
         0.83903E-02
         0.16519E-01
         0.31169E-01
         0.50337E-01
         0.64152E-01
         0.59827E-01
         0.38582E-01
         0.20505E-01
         0.13873E-01
         0.10306E-01
         0.86680E-02
         0.96402E-02
         0.11091E-01
         0.12732E-01
         0.12846E-01
         0.11533E-01
         0.11005E-01
         0.10222E-01
         0.86959E-02
         0.67868E-02
         0.33882E-02
         0.39186E-02
         0.56486E-02
         0.46578E-02
         0.74579E-02
         0.63299E-02
         0.32680E-02
         0.33763E-02
         0.31989E-02
         0.31315E-02
         0.20361E-02
         0.81475E-03
         0.19409E-02
         0.14217E-02
         0.21698E-02
         0.58824E-02
         0.44806E-02
         0.39920E-02
         0.10891E-01
         0.69218E-02
         0.26823E-01
         0.23434E-01
         0.29131E-01
         0.16409E-01
         0.27712E-02
         0.13665E-01
         0.92369E-03
         0.42822E-02
         0.14529E-01
         0.53381E-02
         0.71363E-02
         0.14383E-01
         0.62665E-02
         0.78985E-02
         0.97822E-02
         0.76153E-02
         0.40938E-02
         0.82017E-02
         0.18603E-01
         0.33715E-01
         0.50796E-01
         0.37333E-01
         0.25738E-01
         0.27412E-01
         0.26920E-01
         0.28890E-01
         0.21271E-01
         0.16295E-01
         0.15531E-01
         0.15887E-01
         0.15896E-01
         0.10011E-01
         0.12593E-01
         0.75187E-02
         0.10642E-01
         0.57284E-02
         0.38153E-02
         0.58628E-02
         0.12371E-01
         0.25444E-01
         0.48094E-01
         0.75974E-01
         0.95514E-01
         0.93084E-01
         0.73181E-01
         0.63738E-01
         0.61728E-01
         0.55775E-01
         0.48627E-01
         0.44775E-01
         0.42636E-01
         0.39881E-01
         0.38089E-01
         0.35714E-01
         0.31612E-01
         0.24004E-01
         0.14291E-01
         0.69321E-02
         0.13034E-01
         0.14733E-01
         0.18124E-01
         0.15663E-01
         0.21633E-01
         0.18767E-01
         0.14020E-01
         0.13626E-01
         0.12867E-01
         0.13057E-01
         0.12315E-01
         0.96822E-02
         0.12885E-01
         0.11367E-01
         0.76327E-02
         0.21033E-01
         0.16813E-01
         0.14419E-01
         0.34074E-01
         0.25357E-01
         0.67892E-01
         0.63914E-01
         0.70258E-01
         0.45555E-01
         0.13015E-01
         0.38870E-01
         0.91251E-02
         0.10995E-01
         0.30411E-01
         0.21238E-01
         0.22080E-01
         0.37997E-01
         0.20982E-01
         0.24644E-01
         0.26082E-01
         0.22927E-01
         0.16362E-01
         0.13311E-01
         0.30474E-01
         0.55202E-01
         0.82669E-01
         0.70522E-01
         0.63083E-01
         0.64861E-01
         0.60722E-01
         0.61279E-01
         0.46882E-01
         0.36911E-01
         0.38416E-01
         0.40056E-01
         0.38508E-01
         0.27109E-01
         0.30817E-01
         0.24536E-01
         0.29106E-01
         0.16884E-01
         0.92062E-02
         0.64393E-02
         0.13124E-01
         0.35101E-01
         0.69953E-01
         0.10896E+00
         0.14006E+00
         0.15202E+00
         0.14318E+00
         0.13886E+00
         0.13147E+00
         0.11525E+00
         0.98221E-01
         0.86324E-01
         0.79985E-01
         0.72031E-01
         0.68079E-01
         0.68013E-01
         0.62700E-01
         0.49479E-01
         0.32862E-01
         0.19940E-01
  
SCALARS                            dam  double 1
LOOKUP_TABLE default
         0.00000E+00
         0.00000E+00
         0.00000E+00
         0.00000E+00
         0.00000E+00
         0.00000E+00
         0.00000E+00
         0.00000E+00
         0.00000E+00
         0.00000E+00
         0.00000E+00
         0.00000E+00
         0.00000E+00
         0.00000E+00
         0.00000E+00
         0.00000E+00
         0.00000E+00
         0.00000E+00
         0.00000E+00
         0.00000E+00
         0.00000E+00
         0.00000E+00
         0.00000E+00
         0.00000E+00
         0.00000E+00
         0.00000E+00
         0.00000E+00
         0.00000E+00
         0.00000E+00
         0.00000E+00
         0.00000E+00
         0.00000E+00
         0.00000E+00
         0.00000E+00
         0.00000E+00
         0.00000E+00
         0.00000E+00
         0.00000E+00
         0.00000E+00
         0.00000E+00
         0.00000E+00
         0.00000E+00
         0.00000E+00
         0.00000E+00
         0.00000E+00
         0.00000E+00
         0.00000E+00
         0.00000E+00
         0.00000E+00
         0.00000E+00
         0.00000E+00
         0.00000E+00
         0.00000E+00
         0.00000E+00
         0.00000E+00
         0.00000E+00
         0.00000E+00
         0.00000E+00
         0.00000E+00
         0.00000E+00
         0.00000E+00
         0.00000E+00
         0.00000E+00
         0.00000E+00
         0.00000E+00
         0.00000E+00
         0.00000E+00
         0.00000E+00
         0.00000E+00
         0.00000E+00
         0.00000E+00
         0.00000E+00
         0.00000E+00
         0.00000E+00
         0.00000E+00
         0.00000E+00
         0.00000E+00
         0.00000E+00
         0.00000E+00
         0.00000E+00
         0.00000E+00
         0.00000E+00
         0.00000E+00
         0.00000E+00
         0.00000E+00
         0.00000E+00
         0.00000E+00
         0.00000E+00
         0.00000E+00
         0.00000E+00
         0.00000E+00
         0.00000E+00
         0.00000E+00
         0.00000E+00
         0.00000E+00
         0.00000E+00
         0.00000E+00
         0.00000E+00
         0.00000E+00
         0.00000E+00
         0.00000E+00
         0.00000E+00
         0.00000E+00
         0.00000E+00
         0.00000E+00
         0.00000E+00
         0.00000E+00
         0.00000E+00
         0.00000E+00
         0.00000E+00
         0.00000E+00
         0.00000E+00
         0.00000E+00
         0.00000E+00
         0.00000E+00
         0.00000E+00
         0.00000E+00
         0.00000E+00
         0.00000E+00
         0.00000E+00
         0.00000E+00
         0.00000E+00
         0.00000E+00
         0.00000E+00
         0.00000E+00
         0.00000E+00
         0.00000E+00
         0.00000E+00
         0.00000E+00
         0.00000E+00
         0.00000E+00
         0.00000E+00
         0.00000E+00
         0.00000E+00
         0.00000E+00
         0.00000E+00
         0.00000E+00
         0.00000E+00
         0.00000E+00
         0.00000E+00
         0.00000E+00
         0.00000E+00
         0.00000E+00
         0.00000E+00
         0.00000E+00
         0.00000E+00
         0.00000E+00
         0.00000E+00
         0.00000E+00
         0.00000E+00
         0.00000E+00
         0.00000E+00
         0.00000E+00
         0.00000E+00
         0.00000E+00
         0.00000E+00
         0.00000E+00
         0.00000E+00
         0.00000E+00
         0.00000E+00
         0.00000E+00
         0.00000E+00
         0.00000E+00
         0.00000E+00
         0.00000E+00
         0.00000E+00
         0.00000E+00
         0.00000E+00
         0.00000E+00
         0.00000E+00
         0.00000E+00
         0.00000E+00
         0.00000E+00
         0.00000E+00
         0.00000E+00
         0.00000E+00
         0.00000E+00
         0.00000E+00
         0.00000E+00
         0.00000E+00
         0.00000E+00
         0.00000E+00
         0.00000E+00
         0.00000E+00
         0.00000E+00
         0.00000E+00
         0.00000E+00
         0.00000E+00
         0.00000E+00
         0.00000E+00
         0.00000E+00
         0.00000E+00
         0.00000E+00
         0.00000E+00
         0.00000E+00
         0.00000E+00
         0.00000E+00
         0.00000E+00
         0.00000E+00
         0.00000E+00
         0.00000E+00
         0.00000E+00
         0.00000E+00
         0.00000E+00
         0.00000E+00
         0.00000E+00
         0.00000E+00
         0.00000E+00
         0.00000E+00
         0.00000E+00
         0.00000E+00
         0.00000E+00
         0.00000E+00
         0.00000E+00
         0.00000E+00
         0.00000E+00
         0.00000E+00
         0.00000E+00
         0.00000E+00
         0.00000E+00
         0.00000E+00
         0.00000E+00
         0.00000E+00
         0.00000E+00
         0.00000E+00
         0.00000E+00
         0.00000E+00
         0.00000E+00
         0.00000E+00
         0.00000E+00
         0.00000E+00
         0.00000E+00
         0.00000E+00
         0.00000E+00
         0.00000E+00
         0.00000E+00
         0.00000E+00
         0.00000E+00
         0.00000E+00
         0.00000E+00
         0.00000E+00
         0.00000E+00
         0.00000E+00
         0.00000E+00
         0.00000E+00
         0.00000E+00
         0.00000E+00
         0.00000E+00
         0.00000E+00
         0.00000E+00
         0.00000E+00
         0.00000E+00
         0.00000E+00
         0.00000E+00
         0.00000E+00
         0.00000E+00
         0.00000E+00
         0.00000E+00
         0.00000E+00
         0.00000E+00
         0.00000E+00
         0.00000E+00
         0.00000E+00
         0.00000E+00
         0.00000E+00
         0.00000E+00
         0.00000E+00
         0.00000E+00
         0.00000E+00
         0.00000E+00
         0.00000E+00
         0.00000E+00
         0.00000E+00
         0.00000E+00
         0.00000E+00
         0.00000E+00
         0.00000E+00
         0.00000E+00
         0.00000E+00
         0.00000E+00
         0.00000E+00
         0.00000E+00
         0.00000E+00
         0.00000E+00
         0.00000E+00
         0.00000E+00
         0.00000E+00
         0.00000E+00
         0.00000E+00
         0.00000E+00
         0.00000E+00
         0.00000E+00
         0.00000E+00
         0.00000E+00
         0.00000E+00
         0.00000E+00
         0.00000E+00
         0.00000E+00
         0.00000E+00
         0.00000E+00
         0.00000E+00
         0.00000E+00
         0.00000E+00
         0.00000E+00
         0.00000E+00
         0.00000E+00
         0.00000E+00
         0.00000E+00
         0.00000E+00
         0.00000E+00
         0.00000E+00
         0.00000E+00
         0.00000E+00
         0.00000E+00
         0.00000E+00
         0.00000E+00
         0.00000E+00
         0.00000E+00
         0.00000E+00
         0.00000E+00
         0.00000E+00
         0.00000E+00
         0.00000E+00
         0.00000E+00
         0.00000E+00
         0.00000E+00
         0.00000E+00
         0.00000E+00
         0.00000E+00
         0.00000E+00
         0.00000E+00
         0.00000E+00
         0.00000E+00
         0.00000E+00
         0.00000E+00
         0.00000E+00
         0.00000E+00
         0.00000E+00
         0.00000E+00
         0.00000E+00
         0.00000E+00
         0.00000E+00
         0.00000E+00
         0.00000E+00
         0.00000E+00
         0.00000E+00
         0.00000E+00
         0.00000E+00
         0.00000E+00
         0.00000E+00
         0.00000E+00
         0.00000E+00
         0.00000E+00
         0.00000E+00
         0.00000E+00
         0.00000E+00
         0.00000E+00
         0.00000E+00
         0.00000E+00
         0.00000E+00
         0.00000E+00
         0.00000E+00
         0.00000E+00
         0.00000E+00
         0.00000E+00
         0.00000E+00
         0.00000E+00
         0.00000E+00
         0.00000E+00
         0.00000E+00
         0.00000E+00
         0.00000E+00
         0.00000E+00
         0.00000E+00
         0.00000E+00
         0.00000E+00
         0.00000E+00
         0.00000E+00
         0.00000E+00
         0.00000E+00
         0.00000E+00
         0.00000E+00
         0.00000E+00
         0.00000E+00
         0.00000E+00
         0.00000E+00
         0.00000E+00
         0.00000E+00
         0.00000E+00
         0.00000E+00
         0.00000E+00
         0.00000E+00
         0.00000E+00
         0.00000E+00
         0.00000E+00
         0.00000E+00
         0.00000E+00
         0.00000E+00
         0.00000E+00
         0.00000E+00
         0.00000E+00
         0.00000E+00
         0.00000E+00
         0.00000E+00
         0.00000E+00
         0.00000E+00
         0.00000E+00
         0.00000E+00
         0.00000E+00
         0.00000E+00
         0.00000E+00
         0.00000E+00
         0.00000E+00
         0.00000E+00
         0.00000E+00
         0.00000E+00
         0.00000E+00
         0.00000E+00
         0.00000E+00
         0.00000E+00
         0.00000E+00
         0.00000E+00
         0.00000E+00
         0.00000E+00
         0.00000E+00
         0.00000E+00
         0.00000E+00
         0.00000E+00
         0.00000E+00
         0.00000E+00
         0.00000E+00
         0.00000E+00
         0.00000E+00
         0.00000E+00
         0.00000E+00
         0.00000E+00
         0.00000E+00
         0.00000E+00
         0.00000E+00
         0.00000E+00
         0.00000E+00
         0.00000E+00
         0.00000E+00
         0.00000E+00
         0.00000E+00
         0.00000E+00
         0.00000E+00
         0.00000E+00
         0.00000E+00
         0.00000E+00
         0.00000E+00
         0.00000E+00
         0.00000E+00
         0.00000E+00
         0.00000E+00
         0.00000E+00
         0.00000E+00
         0.00000E+00
         0.00000E+00
         0.00000E+00
         0.00000E+00
         0.00000E+00
         0.00000E+00
         0.00000E+00
         0.00000E+00
         0.00000E+00
         0.00000E+00
         0.00000E+00
         0.00000E+00
         0.00000E+00
         0.00000E+00
         0.00000E+00
         0.00000E+00
         0.00000E+00
         0.00000E+00
         0.00000E+00
         0.00000E+00
         0.00000E+00
         0.00000E+00
         0.00000E+00
         0.00000E+00
         0.00000E+00
         0.00000E+00
         0.00000E+00
         0.00000E+00
         0.00000E+00
         0.00000E+00
         0.00000E+00
         0.00000E+00
         0.00000E+00
         0.00000E+00
         0.00000E+00
         0.00000E+00
         0.00000E+00
         0.00000E+00
         0.00000E+00
         0.00000E+00
         0.00000E+00
         0.00000E+00
         0.00000E+00
         0.00000E+00
         0.00000E+00
         0.00000E+00
         0.00000E+00
         0.00000E+00
         0.00000E+00
         0.00000E+00
         0.00000E+00
         0.00000E+00
         0.00000E+00
         0.00000E+00
         0.00000E+00
         0.00000E+00
         0.00000E+00
         0.00000E+00
         0.00000E+00
         0.00000E+00
         0.00000E+00
         0.00000E+00
         0.00000E+00
         0.00000E+00
         0.00000E+00
         0.00000E+00
         0.00000E+00
         0.00000E+00
         0.00000E+00
         0.00000E+00
         0.00000E+00
         0.00000E+00
         0.00000E+00
         0.00000E+00
         0.00000E+00
         0.00000E+00
         0.00000E+00
         0.00000E+00
         0.00000E+00
         0.00000E+00
         0.00000E+00
         0.00000E+00
         0.00000E+00
         0.00000E+00
         0.00000E+00
         0.00000E+00
         0.00000E+00
         0.00000E+00
         0.00000E+00
         0.00000E+00
         0.00000E+00
         0.00000E+00
         0.00000E+00
         0.00000E+00
         0.00000E+00
         0.00000E+00
         0.00000E+00
         0.00000E+00
         0.00000E+00
         0.00000E+00
         0.00000E+00
         0.00000E+00
         0.00000E+00
         0.00000E+00
         0.00000E+00
         0.00000E+00
         0.00000E+00
         0.00000E+00
         0.00000E+00
         0.00000E+00
         0.00000E+00
         0.00000E+00
         0.00000E+00
         0.00000E+00
         0.00000E+00
         0.00000E+00
         0.00000E+00
         0.00000E+00
         0.00000E+00
         0.00000E+00
         0.00000E+00
         0.00000E+00
         0.00000E+00
         0.00000E+00
         0.00000E+00
         0.00000E+00
         0.00000E+00
         0.00000E+00
         0.00000E+00
         0.00000E+00
         0.00000E+00
         0.00000E+00
         0.00000E+00
         0.00000E+00
         0.00000E+00
         0.00000E+00
         0.00000E+00
         0.00000E+00
         0.00000E+00
         0.00000E+00
         0.00000E+00
         0.00000E+00
         0.00000E+00
         0.00000E+00
         0.00000E+00
         0.00000E+00
         0.00000E+00
         0.00000E+00
         0.00000E+00
         0.00000E+00
         0.00000E+00
         0.00000E+00
         0.00000E+00
         0.00000E+00
         0.00000E+00
         0.00000E+00
         0.00000E+00
         0.00000E+00
         0.00000E+00
         0.00000E+00
         0.00000E+00
         0.00000E+00
         0.00000E+00
         0.00000E+00
         0.00000E+00
         0.00000E+00
         0.00000E+00
         0.00000E+00
         0.00000E+00
         0.00000E+00
         0.00000E+00
         0.00000E+00
         0.00000E+00
         0.00000E+00
         0.00000E+00
         0.00000E+00
         0.00000E+00
         0.00000E+00
         0.00000E+00
         0.00000E+00
         0.00000E+00
         0.00000E+00
         0.00000E+00
         0.00000E+00
         0.00000E+00
         0.00000E+00
         0.00000E+00
         0.00000E+00
         0.00000E+00
         0.00000E+00
         0.00000E+00
         0.00000E+00
         0.00000E+00
         0.00000E+00
         0.00000E+00
         0.00000E+00
         0.00000E+00
         0.00000E+00
         0.00000E+00
         0.00000E+00
         0.00000E+00
         0.00000E+00
         0.00000E+00
         0.00000E+00
         0.00000E+00
         0.00000E+00
         0.00000E+00
         0.00000E+00
         0.00000E+00
         0.00000E+00
         0.00000E+00
         0.00000E+00
         0.00000E+00
         0.00000E+00
         0.00000E+00
         0.00000E+00
         0.00000E+00
         0.00000E+00
         0.00000E+00
         0.00000E+00
         0.00000E+00
         0.00000E+00
         0.00000E+00
         0.00000E+00
         0.00000E+00
         0.00000E+00
         0.00000E+00
         0.00000E+00
         0.00000E+00
         0.00000E+00
         0.00000E+00
         0.00000E+00
         0.00000E+00
         0.00000E+00
         0.00000E+00
         0.00000E+00
         0.00000E+00
         0.00000E+00
         0.00000E+00
         0.00000E+00
         0.00000E+00
         0.00000E+00
         0.00000E+00
         0.00000E+00
         0.00000E+00
         0.00000E+00
         0.00000E+00
         0.00000E+00
         0.00000E+00
         0.00000E+00
         0.00000E+00
         0.00000E+00
         0.00000E+00
         0.00000E+00
         0.00000E+00
         0.00000E+00
         0.00000E+00
         0.00000E+00
         0.00000E+00
         0.00000E+00
         0.00000E+00
         0.00000E+00
         0.00000E+00
         0.00000E+00
         0.00000E+00
         0.00000E+00
         0.00000E+00
         0.00000E+00
         0.00000E+00
         0.00000E+00
         0.00000E+00
         0.00000E+00
         0.00000E+00
         0.00000E+00
         0.00000E+00
         0.00000E+00
         0.00000E+00
         0.00000E+00
         0.00000E+00
         0.00000E+00
         0.00000E+00
         0.00000E+00
         0.00000E+00
         0.00000E+00
         0.00000E+00
         0.00000E+00
         0.00000E+00
         0.00000E+00
         0.00000E+00
         0.00000E+00
         0.00000E+00
         0.00000E+00
         0.00000E+00
         0.00000E+00
         0.00000E+00
         0.00000E+00
         0.00000E+00
         0.00000E+00
         0.00000E+00
         0.00000E+00
         0.00000E+00
         0.00000E+00
         0.00000E+00
         0.00000E+00
         0.00000E+00
         0.00000E+00
         0.00000E+00
         0.00000E+00
         0.00000E+00
         0.00000E+00
         0.00000E+00
         0.00000E+00
         0.00000E+00
         0.00000E+00
         0.00000E+00
         0.00000E+00
         0.00000E+00
         0.00000E+00
         0.00000E+00
         0.00000E+00
         0.00000E+00
         0.00000E+00
         0.00000E+00
         0.00000E+00
         0.00000E+00
         0.00000E+00
         0.00000E+00
         0.00000E+00
         0.00000E+00
         0.00000E+00
         0.00000E+00
         0.00000E+00
         0.00000E+00
         0.00000E+00
         0.00000E+00
         0.00000E+00
         0.00000E+00
         0.00000E+00
         0.00000E+00
         0.00000E+00
         0.00000E+00
         0.00000E+00
         0.00000E+00
         0.00000E+00
         0.00000E+00
         0.00000E+00
         0.00000E+00
         0.00000E+00
         0.00000E+00
         0.00000E+00
         0.00000E+00
         0.00000E+00
         0.00000E+00
         0.00000E+00
         0.00000E+00
         0.00000E+00
         0.00000E+00
         0.00000E+00
         0.00000E+00
         0.00000E+00
         0.00000E+00
         0.00000E+00
         0.00000E+00
         0.00000E+00
         0.00000E+00
         0.00000E+00
         0.00000E+00
         0.00000E+00
         0.00000E+00
         0.00000E+00
         0.00000E+00
         0.00000E+00
         0.00000E+00
         0.00000E+00
         0.00000E+00
         0.00000E+00
         0.00000E+00
         0.00000E+00
         0.00000E+00
         0.00000E+00
         0.00000E+00
         0.00000E+00
         0.00000E+00
         0.00000E+00
         0.00000E+00
         0.00000E+00
         0.00000E+00
         0.00000E+00
         0.00000E+00
         0.00000E+00
         0.00000E+00
         0.00000E+00
         0.00000E+00
         0.00000E+00
         0.00000E+00
         0.00000E+00
         0.00000E+00
         0.00000E+00
         0.00000E+00
         0.00000E+00
         0.00000E+00
         0.00000E+00
         0.00000E+00
         0.00000E+00
         0.00000E+00
         0.00000E+00
         0.00000E+00
         0.00000E+00
         0.00000E+00
         0.00000E+00
         0.00000E+00
         0.00000E+00
         0.00000E+00
         0.00000E+00
         0.00000E+00
         0.00000E+00
         0.00000E+00
         0.00000E+00
         0.00000E+00
         0.00000E+00
         0.00000E+00
         0.00000E+00
         0.00000E+00
         0.00000E+00
         0.00000E+00
         0.00000E+00
         0.00000E+00
         0.00000E+00
         0.00000E+00
         0.00000E+00
         0.00000E+00
         0.00000E+00
         0.00000E+00
         0.00000E+00
         0.00000E+00
         0.00000E+00
         0.00000E+00
         0.00000E+00
         0.00000E+00
         0.00000E+00
         0.00000E+00
         0.00000E+00
         0.00000E+00
         0.00000E+00
         0.00000E+00
         0.00000E+00
         0.00000E+00
         0.00000E+00
         0.00000E+00
         0.00000E+00
         0.00000E+00
         0.00000E+00
         0.00000E+00
         0.00000E+00
         0.00000E+00
         0.00000E+00
         0.00000E+00
         0.00000E+00
         0.00000E+00
         0.00000E+00
         0.00000E+00
         0.00000E+00
         0.00000E+00
         0.00000E+00
         0.00000E+00
         0.00000E+00
         0.00000E+00
         0.00000E+00
         0.00000E+00
         0.00000E+00
         0.00000E+00
         0.00000E+00
         0.00000E+00
         0.00000E+00
         0.00000E+00
         0.00000E+00
         0.00000E+00
         0.00000E+00
         0.00000E+00
         0.00000E+00
         0.00000E+00
         0.00000E+00
         0.00000E+00
         0.00000E+00
         0.00000E+00
         0.00000E+00
         0.00000E+00
         0.00000E+00
         0.00000E+00
         0.00000E+00
         0.00000E+00
         0.00000E+00
         0.00000E+00
         0.00000E+00
         0.00000E+00
         0.00000E+00
         0.00000E+00
         0.00000E+00
         0.00000E+00
         0.00000E+00
         0.00000E+00
         0.00000E+00
         0.00000E+00
         0.00000E+00
         0.00000E+00
         0.00000E+00
         0.00000E+00
         0.00000E+00
         0.00000E+00
         0.00000E+00
         0.00000E+00
         0.00000E+00
         0.00000E+00
         0.00000E+00
         0.00000E+00
         0.00000E+00
         0.00000E+00
         0.00000E+00
         0.00000E+00
         0.00000E+00
         0.00000E+00
         0.00000E+00
         0.00000E+00
         0.00000E+00
         0.00000E+00
         0.00000E+00
         0.00000E+00
         0.00000E+00
         0.00000E+00
         0.00000E+00
         0.00000E+00
         0.00000E+00
         0.00000E+00
         0.00000E+00
         0.00000E+00
         0.00000E+00
         0.00000E+00
         0.00000E+00
         0.00000E+00
         0.00000E+00
         0.00000E+00
         0.00000E+00
         0.00000E+00
         0.00000E+00
         0.00000E+00
         0.00000E+00
         0.00000E+00
         0.00000E+00
         0.00000E+00
         0.00000E+00
         0.00000E+00
         0.00000E+00
         0.00000E+00
         0.00000E+00
         0.00000E+00
         0.00000E+00
         0.00000E+00
         0.00000E+00
         0.00000E+00
         0.00000E+00
         0.00000E+00
         0.00000E+00
         0.00000E+00
         0.00000E+00
         0.00000E+00
         0.00000E+00
         0.00000E+00
         0.00000E+00
         0.00000E+00
         0.00000E+00
         0.00000E+00
         0.00000E+00
         0.00000E+00
         0.00000E+00
         0.00000E+00
         0.00000E+00
         0.00000E+00
         0.00000E+00
         0.00000E+00
         0.00000E+00
         0.00000E+00
         0.00000E+00
         0.00000E+00
         0.00000E+00
         0.00000E+00
         0.00000E+00
         0.00000E+00
         0.00000E+00
         0.00000E+00
         0.00000E+00
         0.00000E+00
         0.00000E+00
         0.00000E+00
         0.00000E+00
         0.00000E+00
         0.00000E+00
         0.00000E+00
         0.00000E+00
         0.00000E+00
         0.00000E+00
         0.00000E+00
         0.00000E+00
         0.00000E+00
         0.00000E+00
         0.00000E+00
         0.00000E+00
         0.00000E+00
         0.00000E+00
         0.00000E+00
         0.00000E+00
         0.00000E+00
         0.00000E+00
         0.00000E+00
         0.00000E+00
         0.00000E+00
         0.00000E+00
         0.00000E+00
         0.00000E+00
         0.00000E+00
         0.00000E+00
         0.00000E+00
         0.00000E+00
         0.00000E+00
         0.00000E+00
         0.00000E+00
         0.00000E+00
         0.00000E+00
         0.00000E+00
         0.00000E+00
         0.00000E+00
         0.00000E+00
         0.00000E+00
         0.00000E+00
         0.00000E+00
         0.00000E+00
         0.00000E+00
         0.00000E+00
         0.00000E+00
         0.00000E+00
         0.00000E+00
         0.00000E+00
         0.00000E+00
         0.00000E+00
         0.00000E+00
         0.00000E+00
         0.00000E+00
         0.00000E+00
         0.00000E+00
         0.00000E+00
         0.00000E+00
         0.00000E+00
         0.00000E+00
         0.00000E+00
         0.00000E+00
         0.00000E+00
         0.00000E+00
         0.00000E+00
         0.00000E+00
         0.00000E+00
         0.00000E+00
         0.00000E+00
         0.00000E+00
         0.00000E+00
         0.00000E+00
         0.00000E+00
         0.00000E+00
         0.00000E+00
         0.00000E+00
         0.00000E+00
         0.00000E+00
         0.00000E+00
         0.00000E+00
         0.00000E+00
         0.00000E+00
         0.00000E+00
         0.00000E+00
         0.00000E+00
         0.00000E+00
         0.00000E+00
         0.00000E+00
         0.00000E+00
         0.00000E+00
         0.00000E+00
         0.00000E+00
         0.00000E+00
         0.00000E+00
         0.00000E+00
         0.00000E+00
         0.00000E+00
         0.00000E+00
         0.00000E+00
         0.00000E+00
         0.00000E+00
         0.00000E+00
         0.00000E+00
         0.00000E+00
         0.00000E+00
         0.00000E+00
         0.00000E+00
         0.00000E+00
         0.00000E+00
         0.00000E+00
         0.00000E+00
         0.00000E+00
         0.00000E+00
         0.00000E+00
         0.00000E+00
         0.00000E+00
         0.00000E+00
         0.00000E+00
         0.00000E+00
         0.00000E+00
         0.00000E+00
         0.00000E+00
         0.00000E+00
         0.00000E+00
         0.00000E+00
         0.00000E+00
         0.00000E+00
         0.00000E+00
         0.00000E+00
         0.00000E+00
         0.00000E+00
         0.00000E+00
         0.00000E+00
         0.00000E+00
         0.00000E+00
         0.00000E+00
         0.00000E+00
         0.00000E+00
         0.00000E+00
         0.00000E+00
         0.00000E+00
         0.00000E+00
         0.00000E+00
         0.00000E+00
         0.00000E+00
         0.00000E+00
         0.00000E+00
         0.00000E+00
         0.00000E+00
         0.00000E+00
         0.00000E+00
         0.00000E+00
         0.00000E+00
         0.00000E+00
         0.00000E+00
         0.00000E+00
         0.00000E+00
         0.00000E+00
         0.00000E+00
         0.00000E+00
         0.00000E+00
         0.00000E+00
         0.00000E+00
         0.00000E+00
         0.00000E+00
         0.00000E+00
         0.00000E+00
         0.00000E+00
         0.00000E+00
         0.00000E+00
         0.00000E+00
         0.00000E+00
         0.00000E+00
         0.00000E+00
         0.00000E+00
         0.00000E+00
         0.00000E+00
         0.00000E+00
         0.00000E+00
         0.00000E+00
         0.00000E+00
         0.00000E+00
         0.00000E+00
         0.00000E+00
         0.00000E+00
         0.00000E+00
         0.00000E+00
         0.00000E+00
         0.00000E+00
         0.00000E+00
         0.00000E+00
         0.00000E+00
         0.00000E+00
         0.00000E+00
         0.00000E+00
         0.00000E+00
         0.00000E+00
         0.00000E+00
         0.00000E+00
         0.00000E+00
         0.00000E+00
         0.00000E+00
         0.00000E+00
         0.00000E+00
         0.00000E+00
         0.00000E+00
         0.00000E+00
         0.00000E+00
         0.00000E+00
         0.00000E+00
         0.00000E+00
         0.00000E+00
         0.00000E+00
         0.00000E+00
         0.00000E+00
         0.00000E+00
         0.00000E+00
         0.00000E+00
         0.00000E+00
         0.00000E+00
         0.00000E+00
         0.00000E+00
         0.00000E+00
         0.00000E+00
         0.00000E+00
         0.00000E+00
         0.00000E+00
         0.00000E+00
         0.00000E+00
         0.00000E+00
         0.00000E+00
         0.00000E+00
         0.00000E+00
         0.00000E+00
         0.00000E+00
         0.00000E+00
         0.00000E+00
         0.00000E+00
         0.00000E+00
         0.00000E+00
         0.00000E+00
         0.00000E+00
         0.00000E+00
         0.00000E+00
         0.00000E+00
         0.00000E+00
         0.00000E+00
         0.00000E+00
         0.00000E+00
         0.00000E+00
         0.00000E+00
         0.00000E+00
         0.00000E+00
         0.00000E+00
         0.00000E+00
         0.00000E+00
         0.00000E+00
         0.00000E+00
         0.00000E+00
         0.00000E+00
         0.00000E+00
         0.00000E+00
         0.00000E+00
         0.00000E+00
         0.00000E+00
         0.00000E+00
         0.00000E+00
         0.00000E+00
         0.00000E+00
         0.00000E+00
         0.00000E+00
         0.00000E+00
         0.00000E+00
         0.00000E+00
         0.00000E+00
         0.00000E+00
         0.00000E+00
         0.00000E+00
         0.00000E+00
         0.00000E+00
         0.00000E+00
         0.00000E+00
         0.00000E+00
         0.00000E+00
         0.00000E+00
         0.00000E+00
         0.00000E+00
         0.00000E+00
         0.00000E+00
         0.00000E+00
         0.00000E+00
         0.00000E+00
         0.00000E+00
         0.00000E+00
         0.00000E+00
         0.00000E+00
         0.00000E+00
         0.00000E+00
         0.00000E+00
         0.00000E+00
         0.00000E+00
         0.00000E+00
         0.00000E+00
         0.00000E+00
         0.00000E+00
         0.00000E+00
         0.00000E+00
         0.00000E+00
         0.00000E+00
         0.00000E+00
         0.00000E+00
         0.00000E+00
         0.00000E+00
         0.00000E+00
         0.00000E+00
         0.00000E+00
         0.00000E+00
         0.00000E+00
         0.00000E+00
         0.00000E+00
         0.00000E+00
         0.00000E+00
         0.00000E+00
         0.00000E+00
         0.00000E+00
         0.00000E+00
         0.00000E+00
         0.00000E+00
         0.00000E+00
         0.00000E+00
         0.00000E+00
         0.00000E+00
         0.00000E+00
         0.00000E+00
         0.00000E+00
         0.00000E+00
         0.00000E+00
         0.00000E+00
         0.00000E+00
         0.00000E+00
         0.00000E+00
         0.00000E+00
         0.00000E+00
         0.00000E+00
         0.00000E+00
         0.00000E+00
         0.00000E+00
         0.00000E+00
         0.00000E+00
         0.00000E+00
         0.00000E+00
         0.00000E+00
         0.00000E+00
         0.00000E+00
         0.00000E+00
         0.00000E+00
         0.00000E+00
         0.00000E+00
         0.00000E+00
         0.00000E+00
         0.00000E+00
         0.00000E+00
         0.00000E+00
         0.00000E+00
         0.00000E+00
         0.00000E+00
         0.00000E+00
         0.00000E+00
         0.00000E+00
         0.00000E+00
         0.00000E+00
         0.00000E+00
         0.00000E+00
         0.00000E+00
         0.00000E+00
         0.00000E+00
         0.00000E+00
         0.00000E+00
         0.00000E+00
         0.00000E+00
         0.00000E+00
         0.00000E+00
         0.00000E+00
         0.00000E+00
         0.00000E+00
         0.00000E+00
         0.00000E+00
         0.00000E+00
         0.00000E+00
         0.00000E+00
         0.00000E+00
         0.00000E+00
         0.00000E+00
         0.00000E+00
         0.00000E+00
         0.00000E+00
         0.00000E+00
         0.00000E+00
         0.00000E+00
         0.00000E+00
         0.00000E+00
         0.00000E+00
         0.00000E+00
         0.00000E+00
         0.00000E+00
         0.00000E+00
         0.00000E+00
         0.00000E+00
         0.00000E+00
         0.00000E+00
         0.00000E+00
         0.00000E+00
         0.00000E+00
         0.00000E+00
         0.00000E+00
         0.00000E+00
         0.00000E+00
         0.00000E+00
         0.00000E+00
         0.00000E+00
         0.00000E+00
         0.00000E+00
         0.00000E+00
         0.00000E+00
         0.00000E+00
         0.00000E+00
         0.00000E+00
         0.00000E+00
         0.00000E+00
         0.00000E+00
         0.00000E+00
         0.00000E+00
         0.00000E+00
         0.00000E+00
         0.00000E+00
         0.00000E+00
         0.00000E+00
         0.00000E+00
         0.00000E+00
         0.00000E+00
         0.00000E+00
         0.00000E+00
         0.00000E+00
         0.00000E+00
         0.00000E+00
         0.00000E+00
         0.00000E+00
         0.00000E+00
         0.00000E+00
         0.00000E+00
         0.00000E+00
         0.00000E+00
         0.00000E+00
         0.00000E+00
         0.00000E+00
         0.00000E+00
         0.00000E+00
         0.00000E+00
         0.00000E+00
         0.00000E+00
         0.00000E+00
         0.00000E+00
         0.00000E+00
         0.00000E+00
         0.00000E+00
         0.00000E+00
         0.00000E+00
         0.00000E+00
         0.00000E+00
         0.00000E+00
         0.00000E+00
         0.00000E+00
         0.00000E+00
         0.00000E+00
         0.00000E+00
         0.00000E+00
         0.00000E+00
         0.00000E+00
         0.00000E+00
         0.00000E+00
         0.00000E+00
         0.00000E+00
         0.00000E+00
         0.00000E+00
         0.00000E+00
         0.00000E+00
         0.00000E+00
         0.00000E+00
         0.00000E+00
         0.00000E+00
         0.00000E+00
         0.00000E+00
         0.00000E+00
         0.00000E+00
         0.00000E+00
         0.00000E+00
         0.00000E+00
         0.00000E+00
         0.00000E+00
         0.00000E+00
         0.00000E+00
         0.00000E+00
         0.00000E+00
         0.00000E+00
         0.00000E+00
         0.00000E+00
         0.00000E+00
         0.00000E+00
         0.00000E+00
         0.00000E+00
         0.00000E+00
         0.00000E+00
         0.00000E+00
         0.00000E+00
         0.00000E+00
         0.00000E+00
         0.00000E+00
         0.00000E+00
         0.00000E+00
         0.00000E+00
         0.00000E+00
         0.00000E+00
         0.00000E+00
         0.00000E+00
         0.00000E+00
         0.00000E+00
         0.00000E+00
         0.00000E+00
         0.00000E+00
         0.00000E+00
         0.00000E+00
         0.00000E+00
         0.00000E+00
         0.00000E+00
         0.00000E+00
         0.00000E+00
         0.00000E+00
         0.00000E+00
         0.00000E+00
         0.00000E+00
         0.00000E+00
         0.00000E+00
         0.00000E+00
         0.00000E+00
         0.00000E+00
         0.00000E+00
         0.00000E+00
         0.00000E+00
         0.00000E+00
         0.00000E+00
         0.00000E+00
         0.00000E+00
         0.00000E+00
         0.00000E+00
         0.00000E+00
         0.00000E+00
         0.00000E+00
         0.00000E+00
         0.00000E+00
         0.00000E+00
         0.00000E+00
         0.00000E+00
         0.00000E+00
         0.00000E+00
         0.00000E+00
         0.00000E+00
         0.00000E+00
         0.00000E+00
         0.00000E+00
         0.00000E+00
         0.00000E+00
         0.00000E+00
         0.00000E+00
         0.00000E+00
         0.00000E+00
         0.00000E+00
         0.00000E+00
         0.00000E+00
         0.00000E+00
         0.00000E+00
         0.00000E+00
         0.00000E+00
         0.00000E+00
         0.00000E+00
         0.00000E+00
         0.00000E+00
         0.00000E+00
         0.00000E+00
         0.00000E+00
         0.00000E+00
         0.00000E+00
         0.00000E+00
         0.00000E+00
         0.00000E+00
         0.00000E+00
         0.00000E+00
         0.00000E+00
         0.00000E+00
         0.00000E+00
         0.00000E+00
         0.00000E+00
         0.00000E+00
         0.00000E+00
         0.00000E+00
         0.00000E+00
         0.00000E+00
         0.00000E+00
         0.00000E+00
         0.00000E+00
         0.00000E+00
         0.00000E+00
         0.00000E+00
         0.00000E+00
         0.00000E+00
         0.00000E+00
         0.00000E+00
         0.00000E+00
         0.00000E+00
         0.00000E+00
         0.00000E+00
         0.00000E+00
         0.00000E+00
         0.00000E+00
         0.00000E+00
         0.00000E+00
         0.00000E+00
         0.00000E+00
         0.00000E+00
         0.00000E+00
         0.00000E+00
         0.00000E+00
         0.00000E+00
         0.00000E+00
         0.00000E+00
         0.00000E+00
         0.00000E+00
         0.00000E+00
         0.00000E+00
         0.00000E+00
         0.00000E+00
         0.00000E+00
         0.00000E+00
         0.00000E+00
         0.00000E+00
         0.00000E+00
         0.00000E+00
         0.00000E+00
         0.00000E+00
         0.00000E+00
         0.00000E+00
         0.00000E+00
         0.00000E+00
         0.00000E+00
         0.00000E+00
         0.00000E+00
         0.00000E+00
         0.00000E+00
         0.00000E+00
         0.00000E+00
         0.00000E+00
         0.00000E+00
         0.00000E+00
         0.00000E+00
         0.00000E+00
         0.00000E+00
         0.00000E+00
         0.00000E+00
         0.00000E+00
         0.00000E+00
         0.00000E+00
         0.00000E+00
         0.00000E+00
         0.00000E+00
         0.00000E+00
         0.00000E+00
         0.00000E+00
         0.00000E+00
         0.00000E+00
         0.00000E+00
         0.00000E+00
         0.00000E+00
         0.00000E+00
         0.00000E+00
         0.00000E+00
         0.00000E+00
         0.00000E+00
         0.00000E+00
         0.00000E+00
         0.00000E+00
         0.00000E+00
         0.00000E+00
         0.00000E+00
         0.00000E+00
         0.00000E+00
         0.00000E+00
         0.00000E+00
         0.00000E+00
         0.00000E+00
         0.00000E+00
         0.00000E+00
         0.00000E+00
         0.00000E+00
         0.00000E+00
         0.00000E+00
         0.00000E+00
         0.00000E+00
         0.00000E+00
         0.00000E+00
         0.00000E+00
         0.00000E+00
         0.00000E+00
         0.00000E+00
         0.00000E+00
         0.00000E+00
         0.00000E+00
         0.00000E+00
         0.00000E+00
         0.00000E+00
         0.00000E+00
         0.00000E+00
         0.00000E+00
         0.00000E+00
         0.00000E+00
         0.00000E+00
         0.00000E+00
         0.00000E+00
         0.00000E+00
         0.00000E+00
         0.00000E+00
         0.00000E+00
         0.00000E+00
         0.00000E+00
         0.00000E+00
         0.00000E+00
         0.00000E+00
         0.00000E+00
         0.00000E+00
         0.00000E+00
         0.00000E+00
         0.00000E+00
         0.00000E+00
         0.00000E+00
         0.00000E+00
         0.00000E+00
         0.00000E+00
         0.00000E+00
         0.00000E+00
         0.00000E+00
         0.00000E+00
         0.00000E+00
         0.00000E+00
         0.00000E+00
         0.00000E+00
         0.00000E+00
         0.00000E+00
         0.00000E+00
         0.00000E+00
         0.00000E+00
         0.00000E+00
         0.00000E+00
         0.00000E+00
         0.00000E+00
         0.00000E+00
         0.00000E+00
         0.00000E+00
         0.00000E+00
         0.00000E+00
         0.00000E+00
         0.00000E+00
         0.00000E+00
         0.00000E+00
         0.00000E+00
         0.00000E+00
         0.00000E+00
         0.00000E+00
         0.00000E+00
         0.00000E+00
         0.00000E+00
         0.00000E+00
         0.00000E+00
         0.00000E+00
         0.00000E+00
         0.00000E+00
         0.00000E+00
         0.00000E+00
         0.00000E+00
         0.00000E+00
         0.00000E+00
         0.00000E+00
         0.00000E+00
         0.00000E+00
         0.00000E+00
         0.00000E+00
         0.00000E+00
         0.00000E+00
         0.00000E+00
         0.00000E+00
         0.00000E+00
         0.00000E+00
         0.00000E+00
         0.00000E+00
         0.00000E+00
         0.00000E+00
         0.00000E+00
         0.00000E+00
         0.00000E+00
         0.00000E+00
         0.00000E+00
         0.00000E+00
         0.00000E+00
         0.00000E+00
         0.00000E+00
         0.00000E+00
         0.00000E+00
         0.00000E+00
         0.00000E+00
         0.00000E+00
         0.00000E+00
         0.00000E+00
         0.00000E+00
         0.00000E+00
         0.00000E+00
         0.00000E+00
         0.00000E+00
         0.00000E+00
         0.00000E+00
         0.00000E+00
         0.00000E+00
         0.00000E+00
         0.00000E+00
         0.00000E+00
         0.00000E+00
         0.00000E+00
         0.00000E+00
         0.00000E+00
         0.00000E+00
         0.00000E+00
         0.00000E+00
         0.00000E+00
         0.00000E+00
         0.00000E+00
         0.00000E+00
         0.00000E+00
         0.00000E+00
         0.00000E+00
         0.00000E+00
         0.00000E+00
         0.00000E+00
         0.00000E+00
         0.00000E+00
         0.00000E+00
         0.00000E+00
         0.00000E+00
         0.00000E+00
         0.00000E+00
         0.00000E+00
         0.00000E+00
         0.00000E+00
         0.00000E+00
         0.00000E+00
         0.00000E+00
         0.00000E+00
         0.00000E+00
         0.00000E+00
         0.00000E+00
         0.00000E+00
         0.00000E+00
         0.00000E+00
         0.00000E+00
         0.00000E+00
         0.00000E+00
         0.00000E+00
         0.00000E+00
         0.00000E+00
         0.00000E+00
         0.00000E+00
         0.00000E+00
         0.00000E+00
         0.00000E+00
         0.00000E+00
         0.00000E+00
         0.00000E+00
         0.00000E+00
         0.00000E+00
         0.00000E+00
         0.00000E+00
         0.00000E+00
         0.00000E+00
         0.00000E+00
         0.00000E+00
         0.00000E+00
         0.00000E+00
         0.00000E+00
         0.00000E+00
         0.00000E+00
         0.00000E+00
         0.00000E+00
         0.00000E+00
         0.00000E+00
         0.00000E+00
         0.00000E+00
  
SCALARS           initial_coordinate_x  double 1
LOOKUP_TABLE default
         0.10378E-02
         0.17452E-02
         0.23177E-02
         0.16698E-02
         0.10379E-02
         0.17453E-02
         0.23178E-02
         0.16700E-02
         0.30377E-02
         0.27791E-02
         0.30377E-02
         0.27788E-02
         0.12850E-02
         0.65139E-03
         0.12851E-02
         0.65164E-03
         0.12757E-03
        -0.12822E-03
         0.12783E-03
        -0.12804E-03
         0.94500E-03
         0.11327E-02
         0.17490E-02
         0.94533E-03
         0.11330E-02
         0.17494E-02
         0.40588E-03
         0.39779E-03
         0.40594E-03
         0.39781E-03
        -0.76303E-03
        -0.86604E-03
         0.46119E-03
        -0.76268E-03
        -0.86593E-03
         0.46164E-03
        -0.18300E-02
        -0.18440E-02
        -0.18297E-02
        -0.18441E-02
        -0.27238E-02
        -0.28028E-02
        -0.27238E-02
        -0.28031E-02
        -0.25365E-02
        -0.19287E-02
        -0.25363E-02
        -0.19283E-02
        -0.99363E-03
        -0.99377E-03
        -0.14380E-02
        -0.14377E-02
        -0.31574E-03
        -0.31594E-03
        -0.11068E-02
        -0.11071E-02
        -0.18845E-02
        -0.18713E-02
        -0.18846E-02
        -0.18714E-02
        -0.15871E-03
        -0.94089E-03
        -0.15844E-03
        -0.94029E-03
         0.78856E-03
         0.78922E-03
         0.17211E-02
         0.17211E-02
         0.32050E-02
         0.28046E-02
         0.32047E-02
         0.28047E-02
         0.23059E-02
         0.23060E-02
        -0.40614E-03
        -0.40627E-03
        -0.12092E-02
        -0.12092E-02
        -0.19448E-02
        -0.19448E-02
        -0.25029E-02
        -0.26371E-02
        -0.25029E-02
        -0.26372E-02
        -0.27671E-02
        -0.27674E-02
        -0.21123E-02
        -0.21122E-02
        -0.16087E-02
        -0.16087E-02
        -0.11939E-02
        -0.58641E-03
        -0.11937E-02
        -0.58606E-03
         0.20912E-03
         0.20952E-03
         0.10586E-02
         0.10589E-02
         0.18413E-02
         0.18413E-02
         0.24544E-02
         0.26022E-02
         0.24543E-02
         0.26021E-02
         0.37964E-02
         0.39100E-02
         0.37964E-02
         0.39100E-02
         0.34621E-02
         0.34621E-02
         0.29267E-02
         0.29267E-02
         0.22211E-02
         0.22211E-02
         0.13865E-02
         0.13865E-02
         0.47130E-03
         0.47130E-03
        -0.47130E-03
        -0.47130E-03
        -0.13865E-02
        -0.13865E-02
        -0.22211E-02
        -0.22211E-02
        -0.29267E-02
        -0.29267E-02
        -0.34621E-02
        -0.34621E-02
        -0.37964E-02
        -0.37964E-02
        -0.39100E-02
        -0.39100E-02
        -0.37964E-02
        -0.37964E-02
        -0.34621E-02
        -0.34621E-02
        -0.29267E-02
        -0.29267E-02
        -0.22211E-02
        -0.22211E-02
        -0.13865E-02
        -0.13865E-02
        -0.47130E-03
        -0.47130E-03
         0.47130E-03
         0.47130E-03
         0.13865E-02
         0.13865E-02
         0.22211E-02
         0.22211E-02
         0.29267E-02
         0.29267E-02
         0.34621E-02
         0.34621E-02
         0.37964E-02
         0.37964E-02
         0.10376E-02
         0.17450E-02
         0.23175E-02
         0.16696E-02
         0.30377E-02
         0.27795E-02
         0.12849E-02
         0.65115E-03
         0.12731E-03
        -0.12841E-03
         0.94467E-03
         0.11323E-02
         0.17487E-02
         0.40583E-03
         0.39777E-03
        -0.76338E-03
        -0.86615E-03
         0.46074E-03
        -0.18303E-02
        -0.18439E-02
        -0.27238E-02
        -0.28025E-02
        -0.25366E-02
        -0.19292E-02
        -0.99349E-03
        -0.14384E-02
        -0.31554E-03
        -0.11064E-02
        -0.18845E-02
        -0.18712E-02
        -0.15899E-03
        -0.94149E-03
         0.78790E-03
         0.17210E-02
         0.32053E-02
         0.28046E-02
         0.23058E-02
        -0.40600E-03
        -0.12092E-02
        -0.19447E-02
        -0.25028E-02
        -0.26370E-02
        -0.27668E-02
        -0.21125E-02
        -0.16088E-02
        -0.11940E-02
        -0.58676E-03
         0.20871E-03
         0.10583E-02
         0.18413E-02
         0.24545E-02
         0.26022E-02
         0.37964E-02
         0.39100E-02
         0.34621E-02
         0.29267E-02
         0.22211E-02
         0.13865E-02
         0.47130E-03
        -0.47130E-03
        -0.13865E-02
        -0.22211E-02
        -0.29267E-02
        -0.34621E-02
        -0.37964E-02
        -0.39100E-02
        -0.37964E-02
        -0.34621E-02
        -0.29267E-02
        -0.22211E-02
        -0.13865E-02
        -0.47130E-03
         0.47130E-03
         0.13865E-02
         0.22211E-02
         0.29267E-02
         0.34621E-02
         0.37964E-02
         0.10375E-02
         0.17448E-02
         0.23174E-02
         0.16694E-02
         0.30377E-02
         0.27798E-02
         0.12848E-02
         0.65090E-03
         0.12705E-03
        -0.12859E-03
         0.94434E-03
         0.11320E-02
         0.17483E-02
         0.40577E-03
         0.39776E-03
        -0.76374E-03
        -0.86626E-03
         0.46029E-03
        -0.18306E-02
        -0.18438E-02
        -0.27238E-02
        -0.28022E-02
        -0.25368E-02
        -0.19296E-02
        -0.99334E-03
        -0.14387E-02
        -0.31534E-03
        -0.11061E-02
        -0.18844E-02
        -0.18710E-02
        -0.15926E-03
        -0.94209E-03
         0.78724E-03
         0.17210E-02
         0.32056E-02
         0.28046E-02
         0.23057E-02
        -0.40586E-03
        -0.12092E-02
        -0.19447E-02
        -0.25028E-02
        -0.26369E-02
        -0.27665E-02
        -0.21126E-02
        -0.16088E-02
        -0.11941E-02
        -0.58711E-03
         0.20830E-03
         0.10580E-02
         0.18414E-02
         0.24546E-02
         0.26023E-02
         0.37964E-02
         0.39100E-02
         0.34621E-02
         0.29267E-02
         0.22211E-02
         0.13865E-02
         0.47130E-03
        -0.47130E-03
        -0.13865E-02
        -0.22211E-02
        -0.29267E-02
        -0.34621E-02
        -0.37964E-02
        -0.39100E-02
        -0.37964E-02
        -0.34621E-02
        -0.29267E-02
        -0.22211E-02
        -0.13865E-02
        -0.47130E-03
         0.47130E-03
         0.13865E-02
         0.22211E-02
         0.29267E-02
         0.34621E-02
         0.37964E-02
         0.10374E-02
         0.17446E-02
         0.23173E-02
         0.16692E-02
         0.30376E-02
         0.27801E-02
         0.12847E-02
         0.65065E-03
         0.12678E-03
        -0.12878E-03
         0.94401E-03
         0.11316E-02
         0.17479E-02
         0.40572E-03
         0.39774E-03
        -0.76409E-03
        -0.86637E-03
         0.45985E-03
        -0.18309E-02
        -0.18437E-02
        -0.27237E-02
        -0.28020E-02
        -0.25369E-02
        -0.19300E-02
        -0.99320E-03
        -0.14391E-02
        -0.31514E-03
        -0.11057E-02
        -0.18844E-02
        -0.18709E-02
        -0.15954E-03
        -0.94269E-03
         0.78658E-03
         0.17209E-02
         0.32060E-02
         0.28046E-02
         0.23056E-02
        -0.40572E-03
        -0.12092E-02
        -0.19446E-02
        -0.25028E-02
        -0.26368E-02
        -0.27662E-02
        -0.21128E-02
        -0.16088E-02
        -0.11942E-02
        -0.58746E-03
         0.20790E-03
         0.10577E-02
         0.18414E-02
         0.24548E-02
         0.26024E-02
         0.37964E-02
         0.39100E-02
         0.34621E-02
         0.29267E-02
         0.22211E-02
         0.13865E-02
         0.47130E-03
        -0.47130E-03
        -0.13865E-02
        -0.22211E-02
        -0.29267E-02
        -0.34621E-02
        -0.37964E-02
        -0.39100E-02
        -0.37964E-02
        -0.34621E-02
        -0.29267E-02
        -0.22211E-02
        -0.13865E-02
        -0.47130E-03
         0.47130E-03
         0.13865E-02
         0.22211E-02
         0.29267E-02
         0.34621E-02
         0.37964E-02
         0.10373E-02
         0.17445E-02
         0.23172E-02
         0.16689E-02
         0.30376E-02
         0.27805E-02
         0.12846E-02
         0.65041E-03
         0.12652E-03
        -0.12896E-03
         0.94367E-03
         0.11313E-02
         0.17475E-02
         0.40566E-03
         0.39772E-03
        -0.76444E-03
        -0.86648E-03
         0.45940E-03
        -0.18312E-02
        -0.18436E-02
        -0.27237E-02
        -0.28017E-02
        -0.25371E-02
        -0.19305E-02
        -0.99305E-03
        -0.14394E-02
        -0.31494E-03
        -0.11054E-02
        -0.18843E-02
        -0.18708E-02
        -0.15981E-03
        -0.94328E-03
         0.78592E-03
         0.17209E-02
         0.32063E-02
         0.28045E-02
         0.23055E-02
        -0.40558E-03
        -0.12092E-02
        -0.19446E-02
        -0.25027E-02
        -0.26367E-02
        -0.27658E-02
        -0.21129E-02
        -0.16089E-02
        -0.11943E-02
        -0.58781E-03
         0.20749E-03
         0.10574E-02
         0.18415E-02
         0.24549E-02
         0.26025E-02
         0.37964E-02
         0.39100E-02
         0.34621E-02
         0.29267E-02
         0.22211E-02
         0.13865E-02
         0.47130E-03
        -0.47130E-03
        -0.13865E-02
        -0.22211E-02
        -0.29267E-02
        -0.34621E-02
        -0.37964E-02
        -0.39100E-02
        -0.37964E-02
        -0.34621E-02
        -0.29267E-02
        -0.22211E-02
        -0.13865E-02
        -0.47130E-03
         0.47130E-03
         0.13865E-02
         0.22211E-02
         0.29267E-02
         0.34621E-02
         0.37964E-02
         0.10372E-02
         0.17443E-02
         0.23171E-02
         0.16687E-02
         0.30376E-02
         0.27808E-02
         0.12845E-02
         0.65016E-03
         0.12626E-03
        -0.12915E-03
         0.94334E-03
         0.11310E-02
         0.17471E-02
         0.40561E-03
         0.39770E-03
        -0.76480E-03
        -0.86659E-03
         0.45895E-03
        -0.18315E-02
        -0.18435E-02
        -0.27237E-02
        -0.28014E-02
        -0.25372E-02
        -0.19309E-02
        -0.99291E-03
        -0.14398E-02
        -0.31474E-03
        -0.11051E-02
        -0.18843E-02
        -0.18706E-02
        -0.16009E-03
        -0.94388E-03
         0.78526E-03
         0.17208E-02
         0.32066E-02
         0.28045E-02
         0.23053E-02
        -0.40545E-03
        -0.12092E-02
        -0.19446E-02
        -0.25027E-02
        -0.26366E-02
        -0.27655E-02
        -0.21130E-02
        -0.16089E-02
        -0.11944E-02
        -0.58816E-03
         0.20709E-03
         0.10571E-02
         0.18415E-02
         0.24550E-02
         0.26025E-02
         0.37964E-02
         0.39100E-02
         0.34621E-02
         0.29267E-02
         0.22211E-02
         0.13865E-02
         0.47130E-03
        -0.47130E-03
        -0.13865E-02
        -0.22211E-02
        -0.29267E-02
        -0.34621E-02
        -0.37964E-02
        -0.39100E-02
        -0.37964E-02
        -0.34621E-02
        -0.29267E-02
        -0.22211E-02
        -0.13865E-02
        -0.47130E-03
         0.47130E-03
         0.13865E-02
         0.22211E-02
         0.29267E-02
         0.34621E-02
         0.37964E-02
         0.10371E-02
         0.17441E-02
         0.23169E-02
         0.16685E-02
         0.30376E-02
         0.27812E-02
         0.12844E-02
         0.64992E-03
         0.12600E-03
        -0.12933E-03
         0.94301E-03
         0.11306E-02
         0.17467E-02
         0.40556E-03
         0.39769E-03
        -0.76515E-03
        -0.86670E-03
         0.45850E-03
        -0.18318E-02
        -0.18434E-02
        -0.27236E-02
        -0.28011E-02
        -0.25374E-02
        -0.19313E-02
        -0.99277E-03
        -0.14401E-02
        -0.31454E-03
        -0.11047E-02
        -0.18842E-02
        -0.18705E-02
        -0.16036E-03
        -0.94448E-03
         0.78460E-03
         0.17208E-02
         0.32070E-02
         0.28045E-02
         0.23052E-02
        -0.40531E-03
        -0.12092E-02
        -0.19445E-02
        -0.25027E-02
        -0.26366E-02
        -0.27652E-02
        -0.21132E-02
        -0.16090E-02
        -0.11946E-02
        -0.58851E-03
         0.20668E-03
         0.10567E-02
         0.18416E-02
         0.24551E-02
         0.26026E-02
         0.37964E-02
         0.39100E-02
         0.34621E-02
         0.29267E-02
         0.22211E-02
         0.13865E-02
         0.47130E-03
        -0.47130E-03
        -0.13865E-02
        -0.22211E-02
        -0.29267E-02
        -0.34621E-02
        -0.37964E-02
        -0.39100E-02
        -0.37964E-02
        -0.34621E-02
        -0.29267E-02
        -0.22211E-02
        -0.13865E-02
        -0.47130E-03
         0.47130E-03
         0.13865E-02
         0.22211E-02
         0.29267E-02
         0.34621E-02
         0.37964E-02
         0.10370E-02
         0.17439E-02
         0.23168E-02
         0.16683E-02
         0.30375E-02
         0.27815E-02
         0.12843E-02
         0.64967E-03
         0.12573E-03
        -0.12952E-03
         0.94268E-03
         0.11303E-02
         0.17463E-02
         0.40550E-03
         0.39767E-03
        -0.76551E-03
        -0.86680E-03
         0.45806E-03
        -0.18321E-02
        -0.18433E-02
        -0.27236E-02
        -0.28009E-02
        -0.25375E-02
        -0.19317E-02
        -0.99262E-03
        -0.14405E-02
        -0.31434E-03
        -0.11044E-02
        -0.18842E-02
        -0.18704E-02
        -0.16064E-03
        -0.94508E-03
         0.78394E-03
         0.17208E-02
         0.32073E-02
         0.28045E-02
         0.23051E-02
        -0.40517E-03
        -0.12092E-02
        -0.19445E-02
        -0.25026E-02
        -0.26365E-02
        -0.27649E-02
        -0.21133E-02
        -0.16090E-02
        -0.11947E-02
        -0.58886E-03
         0.20627E-03
         0.10564E-02
         0.18416E-02
         0.24553E-02
         0.26027E-02
         0.37964E-02
         0.39100E-02
         0.34621E-02
         0.29267E-02
         0.22211E-02
         0.13865E-02
         0.47130E-03
        -0.47130E-03
        -0.13865E-02
        -0.22211E-02
        -0.29267E-02
        -0.34621E-02
        -0.37964E-02
        -0.39100E-02
        -0.37964E-02
        -0.34621E-02
        -0.29267E-02
        -0.22211E-02
        -0.13865E-02
        -0.47130E-03
         0.47130E-03
         0.13865E-02
         0.22211E-02
         0.29267E-02
         0.34621E-02
         0.37964E-02
         0.10368E-02
         0.17438E-02
         0.23167E-02
         0.16681E-02
         0.30375E-02
         0.27819E-02
         0.12842E-02
         0.64943E-03
         0.12547E-03
        -0.12970E-03
         0.94235E-03
         0.11300E-02
         0.17459E-02
         0.40545E-03
         0.39766E-03
        -0.76586E-03
        -0.86691E-03
         0.45761E-03
        -0.18324E-02
        -0.18432E-02
        -0.27236E-02
        -0.28006E-02
        -0.25377E-02
        -0.19322E-02
        -0.99248E-03
        -0.14408E-02
        -0.31414E-03
        -0.11040E-02
        -0.18841E-02
        -0.18703E-02
        -0.16091E-03
        -0.94568E-03
         0.78328E-03
         0.17207E-02
         0.32076E-02
         0.28044E-02
         0.23050E-02
        -0.40503E-03
        -0.12092E-02
        -0.19445E-02
        -0.25026E-02
        -0.26364E-02
        -0.27646E-02
        -0.21134E-02
        -0.16091E-02
        -0.11948E-02
        -0.58921E-03
         0.20587E-03
         0.10561E-02
         0.18416E-02
         0.24554E-02
         0.26027E-02
         0.37964E-02
         0.39100E-02
         0.34621E-02
         0.29267E-02
         0.22211E-02
         0.13865E-02
         0.47130E-03
        -0.47130E-03
        -0.13865E-02
        -0.22211E-02
        -0.29267E-02
        -0.34621E-02
        -0.37964E-02
        -0.39100E-02
        -0.37964E-02
        -0.34621E-02
        -0.29267E-02
        -0.22211E-02
        -0.13865E-02
        -0.47130E-03
         0.47130E-03
         0.13865E-02
         0.22211E-02
         0.29267E-02
         0.34621E-02
         0.37964E-02
         0.10367E-02
         0.17436E-02
         0.23166E-02
         0.16679E-02
         0.30375E-02
         0.27822E-02
         0.12841E-02
         0.64918E-03
         0.12521E-03
        -0.12989E-03
         0.94202E-03
         0.11296E-02
         0.17455E-02
         0.40539E-03
         0.39764E-03
        -0.76621E-03
        -0.86702E-03
         0.45716E-03
        -0.18326E-02
        -0.18431E-02
        -0.27235E-02
        -0.28003E-02
        -0.25379E-02
        -0.19326E-02
        -0.99233E-03
        -0.14412E-02
        -0.31394E-03
        -0.11037E-02
        -0.18841E-02
        -0.18701E-02
        -0.16119E-03
        -0.94628E-03
         0.78262E-03
         0.17207E-02
         0.32079E-02
         0.28044E-02
         0.23049E-02
        -0.40490E-03
        -0.12093E-02
        -0.19444E-02
        -0.25026E-02
        -0.26363E-02
        -0.27643E-02
        -0.21136E-02
        -0.16091E-02
        -0.11949E-02
        -0.58956E-03
         0.20546E-03
         0.10558E-02
         0.18417E-02
         0.24555E-02
         0.26028E-02
         0.37964E-02
         0.39100E-02
         0.34621E-02
         0.29267E-02
         0.22211E-02
         0.13865E-02
         0.47130E-03
        -0.47130E-03
        -0.13865E-02
        -0.22211E-02
        -0.29267E-02
        -0.34621E-02
        -0.37964E-02
        -0.39100E-02
        -0.37964E-02
        -0.34621E-02
        -0.29267E-02
        -0.22211E-02
        -0.13865E-02
        -0.47130E-03
         0.47130E-03
         0.13865E-02
         0.22211E-02
         0.29267E-02
         0.34621E-02
         0.37964E-02
         0.10366E-02
         0.17434E-02
         0.23164E-02
         0.16677E-02
         0.30375E-02
         0.27825E-02
         0.12840E-02
         0.64894E-03
         0.12495E-03
        -0.13007E-03
         0.94169E-03
         0.11293E-02
         0.17451E-02
         0.40534E-03
         0.39762E-03
        -0.76657E-03
        -0.86713E-03
         0.45671E-03
        -0.18329E-02
        -0.18430E-02
        -0.27235E-02
        -0.28001E-02
        -0.25380E-02
        -0.19330E-02
        -0.99219E-03
        -0.14415E-02
        -0.31374E-03
        -0.11033E-02
        -0.18840E-02
        -0.18700E-02
        -0.16146E-03
        -0.94687E-03
         0.78195E-03
         0.17207E-02
         0.32083E-02
         0.28044E-02
         0.23048E-02
        -0.40476E-03
        -0.12093E-02
        -0.19444E-02
        -0.25026E-02
        -0.26362E-02
        -0.27640E-02
        -0.21137E-02
        -0.16091E-02
        -0.11950E-02
        -0.58991E-03
         0.20505E-03
         0.10555E-02
         0.18417E-02
         0.24556E-02
         0.26029E-02
         0.37964E-02
         0.39100E-02
         0.34621E-02
         0.29267E-02
         0.22211E-02
         0.13865E-02
         0.47130E-03
        -0.47130E-03
        -0.13865E-02
        -0.22211E-02
        -0.29267E-02
        -0.34621E-02
        -0.37964E-02
        -0.39100E-02
        -0.37964E-02
        -0.34621E-02
        -0.29267E-02
        -0.22211E-02
        -0.13865E-02
        -0.47130E-03
         0.47130E-03
         0.13865E-02
         0.22211E-02
         0.29267E-02
         0.34621E-02
         0.37964E-02
         0.10365E-02
         0.17432E-02
         0.23163E-02
         0.16675E-02
         0.30374E-02
         0.27829E-02
         0.12839E-02
         0.64869E-03
         0.12468E-03
        -0.13026E-03
         0.94135E-03
         0.11289E-02
         0.17447E-02
         0.40528E-03
         0.39760E-03
        -0.76692E-03
        -0.86724E-03
         0.45626E-03
        -0.18332E-02
        -0.18430E-02
        -0.27235E-02
        -0.27998E-02
        -0.25382E-02
        -0.19334E-02
        -0.99205E-03
        -0.14419E-02
        -0.31354E-03
        -0.11030E-02
        -0.18840E-02
        -0.18699E-02
        -0.16174E-03
        -0.94747E-03
         0.78129E-03
         0.17206E-02
         0.32086E-02
         0.28044E-02
         0.23047E-02
        -0.40462E-03
        -0.12093E-02
        -0.19444E-02
        -0.25025E-02
        -0.26361E-02
        -0.27637E-02
        -0.21139E-02
        -0.16092E-02
        -0.11951E-02
        -0.59025E-03
         0.20465E-03
         0.10552E-02
         0.18418E-02
         0.24558E-02
         0.26030E-02
         0.37964E-02
         0.39100E-02
         0.34621E-02
         0.29267E-02
         0.22211E-02
         0.13865E-02
         0.47130E-03
        -0.47130E-03
        -0.13865E-02
        -0.22211E-02
        -0.29267E-02
        -0.34621E-02
        -0.37964E-02
        -0.39100E-02
        -0.37964E-02
        -0.34621E-02
        -0.29267E-02
        -0.22211E-02
        -0.13865E-02
        -0.47130E-03
         0.47130E-03
         0.13865E-02
         0.22211E-02
         0.29267E-02
         0.34621E-02
         0.37964E-02
         0.10364E-02
         0.17430E-02
         0.23162E-02
         0.16672E-02
         0.30374E-02
         0.27832E-02
         0.12838E-02
         0.64845E-03
         0.12442E-03
        -0.13044E-03
         0.94102E-03
         0.11286E-02
         0.17443E-02
         0.40523E-03
         0.39759E-03
        -0.76727E-03
        -0.86735E-03
         0.45582E-03
        -0.18335E-02
        -0.18429E-02
        -0.27235E-02
        -0.27995E-02
        -0.25383E-02
        -0.19339E-02
        -0.99190E-03
        -0.14422E-02
        -0.31334E-03
        -0.11026E-02
        -0.18839E-02
        -0.18697E-02
        -0.16201E-03
        -0.94807E-03
         0.78063E-03
         0.17206E-02
         0.32089E-02
         0.28043E-02
         0.23046E-02
        -0.40448E-03
        -0.12093E-02
        -0.19443E-02
        -0.25025E-02
        -0.26360E-02
        -0.27633E-02
        -0.21140E-02
        -0.16092E-02
        -0.11953E-02
        -0.59060E-03
         0.20424E-03
         0.10549E-02
         0.18418E-02
         0.24559E-02
         0.26030E-02
         0.37964E-02
         0.39100E-02
         0.34621E-02
         0.29267E-02
         0.22211E-02
         0.13865E-02
         0.47130E-03
        -0.47130E-03
        -0.13865E-02
        -0.22211E-02
        -0.29267E-02
        -0.34621E-02
        -0.37964E-02
        -0.39100E-02
        -0.37964E-02
        -0.34621E-02
        -0.29267E-02
        -0.22211E-02
        -0.13865E-02
        -0.47130E-03
         0.47130E-03
         0.13865E-02
         0.22211E-02
         0.29267E-02
         0.34621E-02
         0.37964E-02
         0.10363E-02
         0.17429E-02
         0.23161E-02
         0.16670E-02
         0.30374E-02
         0.27836E-02
         0.12837E-02
         0.64820E-03
         0.12416E-03
        -0.13063E-03
         0.94069E-03
         0.11282E-02
         0.17439E-02
         0.40518E-03
         0.39757E-03
        -0.76763E-03
        -0.86746E-03
         0.45537E-03
        -0.18338E-02
        -0.18428E-02
        -0.27234E-02
        -0.27992E-02
        -0.25385E-02
        -0.19343E-02
        -0.99176E-03
        -0.14425E-02
        -0.31314E-03
        -0.11023E-02
        -0.18839E-02
        -0.18696E-02
        -0.16229E-03
        -0.94867E-03
         0.77997E-03
         0.17205E-02
         0.32092E-02
         0.28043E-02
         0.23044E-02
        -0.40434E-03
        -0.12093E-02
        -0.19443E-02
        -0.25025E-02
        -0.26359E-02
        -0.27630E-02
        -0.21141E-02
        -0.16093E-02
        -0.11954E-02
        -0.59095E-03
         0.20384E-03
         0.10546E-02
         0.18419E-02
         0.24560E-02
         0.26031E-02
         0.37964E-02
         0.39100E-02
         0.34621E-02
         0.29267E-02
         0.22211E-02
         0.13865E-02
         0.47130E-03
        -0.47130E-03
        -0.13865E-02
        -0.22211E-02
        -0.29267E-02
        -0.34621E-02
        -0.37964E-02
        -0.39100E-02
        -0.37964E-02
        -0.34621E-02
        -0.29267E-02
        -0.22211E-02
        -0.13865E-02
        -0.47130E-03
         0.47130E-03
         0.13865E-02
         0.22211E-02
         0.29267E-02
         0.34621E-02
         0.37964E-02
         0.10362E-02
         0.17427E-02
         0.23160E-02
         0.16668E-02
         0.30373E-02
         0.27839E-02
         0.12836E-02
         0.64796E-03
         0.12390E-03
        -0.13082E-03
         0.94036E-03
         0.11279E-02
         0.17435E-02
         0.40512E-03
         0.39755E-03
        -0.76798E-03
        -0.86756E-03
         0.45492E-03
        -0.18341E-02
        -0.18427E-02
        -0.27234E-02
        -0.27990E-02
        -0.25386E-02
        -0.19347E-02
        -0.99161E-03
        -0.14429E-02
        -0.31294E-03
        -0.11019E-02
        -0.18838E-02
        -0.18695E-02
        -0.16256E-03
        -0.94927E-03
         0.77931E-03
         0.17205E-02
         0.32096E-02
         0.28043E-02
         0.23043E-02
        -0.40420E-03
        -0.12093E-02
        -0.19443E-02
        -0.25024E-02
        -0.26358E-02
        -0.27627E-02
        -0.21143E-02
        -0.16093E-02
        -0.11955E-02
        -0.59130E-03
         0.20343E-03
         0.10543E-02
         0.18419E-02
         0.24561E-02
         0.26032E-02
         0.37964E-02
         0.39100E-02
         0.34621E-02
         0.29267E-02
         0.22211E-02
         0.13865E-02
         0.47130E-03
        -0.47130E-03
        -0.13865E-02
        -0.22211E-02
        -0.29267E-02
        -0.34621E-02
        -0.37964E-02
        -0.39100E-02
        -0.37964E-02
        -0.34621E-02
        -0.29267E-02
        -0.22211E-02
        -0.13865E-02
        -0.47130E-03
         0.47130E-03
         0.13865E-02
         0.22211E-02
         0.29267E-02
         0.34621E-02
         0.37964E-02
         0.10360E-02
         0.17425E-02
         0.23158E-02
         0.16666E-02
         0.30373E-02
         0.27842E-02
         0.12835E-02
         0.64771E-03
         0.12363E-03
        -0.13100E-03
         0.94003E-03
         0.11276E-02
         0.17432E-02
         0.40507E-03
         0.39754E-03
        -0.76834E-03
        -0.86767E-03
         0.45447E-03
        -0.18344E-02
        -0.18426E-02
        -0.27234E-02
        -0.27987E-02
        -0.25388E-02
        -0.19352E-02
        -0.99147E-03
        -0.14433E-02
        -0.31274E-03
        -0.11016E-02
        -0.18838E-02
        -0.18694E-02
        -0.16284E-03
        -0.94986E-03
         0.77865E-03
         0.17205E-02
         0.32099E-02
         0.28042E-02
         0.23042E-02
        -0.40407E-03
        -0.12093E-02
        -0.19442E-02
        -0.25024E-02
        -0.26358E-02
        -0.27624E-02
        -0.21144E-02
        -0.16094E-02
        -0.11956E-02
        -0.59165E-03
         0.20302E-03
         0.10540E-02
         0.18419E-02
         0.24563E-02
         0.26033E-02
         0.37964E-02
         0.39100E-02
         0.34621E-02
         0.29267E-02
         0.22211E-02
         0.13865E-02
         0.47130E-03
        -0.47130E-03
        -0.13865E-02
        -0.22211E-02
        -0.29267E-02
        -0.34621E-02
        -0.37964E-02
        -0.39100E-02
        -0.37964E-02
        -0.34621E-02
        -0.29267E-02
        -0.22211E-02
        -0.13865E-02
        -0.47130E-03
         0.47130E-03
         0.13865E-02
         0.22211E-02
         0.29267E-02
         0.34621E-02
         0.37964E-02
         0.10359E-02
         0.17423E-02
         0.23157E-02
         0.16664E-02
         0.30373E-02
         0.27846E-02
         0.12834E-02
         0.64747E-03
         0.12337E-03
        -0.13118E-03
         0.93970E-03
         0.11272E-02
         0.17428E-02
         0.40501E-03
         0.39752E-03
        -0.76869E-03
        -0.86778E-03
         0.45402E-03
        -0.18347E-02
        -0.18425E-02
        -0.27234E-02
        -0.27984E-02
        -0.25389E-02
        -0.19356E-02
        -0.99133E-03
        -0.14436E-02
        -0.31254E-03
        -0.11013E-02
        -0.18837E-02
        -0.18692E-02
        -0.16311E-03
        -0.95046E-03
         0.77799E-03
         0.17204E-02
         0.32102E-02
         0.28042E-02
         0.23041E-02
        -0.40393E-03
        -0.12093E-02
        -0.19442E-02
        -0.25024E-02
        -0.26357E-02
        -0.27621E-02
        -0.21146E-02
        -0.16094E-02
        -0.11957E-02
        -0.59200E-03
         0.20262E-03
         0.10536E-02
         0.18420E-02
         0.24564E-02
         0.26033E-02
         0.37964E-02
         0.39100E-02
         0.34621E-02
         0.29267E-02
         0.22211E-02
         0.13865E-02
         0.47130E-03
        -0.47130E-03
        -0.13865E-02
        -0.22211E-02
        -0.29267E-02
        -0.34621E-02
        -0.37964E-02
        -0.39100E-02
        -0.37964E-02
        -0.34621E-02
        -0.29267E-02
        -0.22211E-02
        -0.13865E-02
        -0.47130E-03
         0.47130E-03
         0.13865E-02
         0.22211E-02
         0.29267E-02
         0.34621E-02
         0.37964E-02
         0.10358E-02
         0.17422E-02
         0.23156E-02
         0.16662E-02
         0.30373E-02
         0.27849E-02
         0.12833E-02
         0.64722E-03
         0.12311E-03
        -0.13137E-03
         0.93937E-03
         0.11269E-02
         0.17424E-02
         0.40496E-03
         0.39750E-03
        -0.76904E-03
        -0.86789E-03
         0.45358E-03
        -0.18350E-02
        -0.18424E-02
        -0.27233E-02
        -0.27981E-02
        -0.25391E-02
        -0.19360E-02
        -0.99118E-03
        -0.14440E-02
        -0.31234E-03
        -0.11009E-02
        -0.18836E-02
        -0.18691E-02
        -0.16339E-03
        -0.95106E-03
         0.77733E-03
         0.17204E-02
         0.32105E-02
         0.28042E-02
         0.23040E-02
        -0.40379E-03
        -0.12093E-02
        -0.19441E-02
        -0.25023E-02
        -0.26356E-02
        -0.27618E-02
        -0.21147E-02
        -0.16094E-02
        -0.11958E-02
        -0.59235E-03
         0.20221E-03
         0.10533E-02
         0.18420E-02
         0.24565E-02
         0.26034E-02
         0.37964E-02
         0.39100E-02
         0.34621E-02
         0.29267E-02
         0.22211E-02
         0.13865E-02
         0.47130E-03
        -0.47130E-03
        -0.13865E-02
        -0.22211E-02
        -0.29267E-02
        -0.34621E-02
        -0.37964E-02
        -0.39100E-02
        -0.37964E-02
        -0.34621E-02
        -0.29267E-02
        -0.22211E-02
        -0.13865E-02
        -0.47130E-03
         0.47130E-03
         0.13865E-02
         0.22211E-02
         0.29267E-02
         0.34621E-02
         0.37964E-02
         0.10357E-02
         0.17420E-02
         0.23155E-02
         0.16660E-02
         0.30372E-02
         0.27853E-02
         0.12832E-02
         0.64698E-03
         0.12285E-03
        -0.13155E-03
         0.93903E-03
         0.11266E-02
         0.17420E-02
         0.40490E-03
         0.39749E-03
        -0.76940E-03
        -0.86800E-03
         0.45313E-03
        -0.18353E-02
        -0.18423E-02
        -0.27233E-02
        -0.27979E-02
        -0.25393E-02
        -0.19365E-02
        -0.99104E-03
        -0.14443E-02
        -0.31214E-03
        -0.11006E-02
        -0.18836E-02
        -0.18690E-02
        -0.16366E-03
        -0.95166E-03
         0.77667E-03
         0.17203E-02
         0.32109E-02
         0.28042E-02
         0.23039E-02
        -0.40365E-03
        -0.12093E-02
        -0.19441E-02
        -0.25023E-02
        -0.26355E-02
        -0.27615E-02
        -0.21148E-02
        -0.16095E-02
        -0.11960E-02
        -0.59270E-03
         0.20180E-03
         0.10530E-02
         0.18421E-02
         0.24566E-02
         0.26035E-02
         0.37964E-02
         0.39100E-02
         0.34621E-02
         0.29267E-02
         0.22211E-02
         0.13865E-02
         0.47130E-03
        -0.47130E-03
        -0.13865E-02
        -0.22211E-02
        -0.29267E-02
        -0.34621E-02
        -0.37964E-02
        -0.39100E-02
        -0.37964E-02
        -0.34621E-02
        -0.29267E-02
        -0.22211E-02
        -0.13865E-02
        -0.47130E-03
         0.47130E-03
         0.13865E-02
         0.22211E-02
         0.29267E-02
         0.34621E-02
         0.37964E-02
         0.10356E-02
         0.17418E-02
         0.23153E-02
         0.16657E-02
         0.30372E-02
         0.27856E-02
         0.12830E-02
         0.64673E-03
         0.12259E-03
        -0.13174E-03
         0.93870E-03
         0.11262E-02
         0.17416E-02
         0.40485E-03
         0.39747E-03
        -0.76975E-03
        -0.86811E-03
         0.45268E-03
        -0.18356E-02
        -0.18422E-02
        -0.27233E-02
        -0.27976E-02
        -0.25394E-02
        -0.19369E-02
        -0.99090E-03
        -0.14446E-02
        -0.31194E-03
        -0.11002E-02
        -0.18835E-02
        -0.18689E-02
        -0.16394E-03
        -0.95226E-03
         0.77601E-03
         0.17203E-02
         0.32112E-02
         0.28042E-02
         0.23038E-02
        -0.40352E-03
        -0.12093E-02
        -0.19441E-02
        -0.25023E-02
        -0.26354E-02
        -0.27612E-02
        -0.21150E-02
        -0.16095E-02
        -0.11961E-02
        -0.59305E-03
         0.20140E-03
         0.10527E-02
         0.18421E-02
         0.24568E-02
         0.26036E-02
         0.37964E-02
         0.39100E-02
         0.34621E-02
         0.29267E-02
         0.22211E-02
         0.13865E-02
         0.47130E-03
        -0.47130E-03
        -0.13865E-02
        -0.22211E-02
        -0.29267E-02
        -0.34621E-02
        -0.37964E-02
        -0.39100E-02
        -0.37964E-02
        -0.34621E-02
        -0.29267E-02
        -0.22211E-02
        -0.13865E-02
        -0.47130E-03
         0.47130E-03
         0.13865E-02
         0.22211E-02
         0.29267E-02
         0.34621E-02
         0.37964E-02
         0.10355E-02
         0.17416E-02
         0.23152E-02
         0.16655E-02
         0.30372E-02
         0.27860E-02
         0.12829E-02
         0.64649E-03
         0.12232E-03
        -0.13193E-03
         0.93837E-03
         0.11259E-02
         0.17412E-02
         0.40480E-03
         0.39745E-03
        -0.77011E-03
        -0.86822E-03
         0.45223E-03
        -0.18359E-02
        -0.18421E-02
        -0.27232E-02
        -0.27973E-02
        -0.25396E-02
        -0.19373E-02
        -0.99075E-03
        -0.14450E-02
        -0.31173E-03
        -0.10999E-02
        -0.18835E-02
        -0.18687E-02
        -0.16421E-03
        -0.95285E-03
         0.77535E-03
         0.17202E-02
         0.32115E-02
         0.28041E-02
         0.23037E-02
        -0.40338E-03
        -0.12093E-02
        -0.19440E-02
        -0.25023E-02
        -0.26353E-02
        -0.27609E-02
        -0.21151E-02
        -0.16096E-02
        -0.11962E-02
        -0.59340E-03
         0.20099E-03
         0.10524E-02
         0.18422E-02
         0.24569E-02
         0.26036E-02
         0.37964E-02
         0.39100E-02
         0.34621E-02
         0.29267E-02
         0.22211E-02
         0.13865E-02
         0.47130E-03
        -0.47130E-03
        -0.13865E-02
        -0.22211E-02
        -0.29267E-02
        -0.34621E-02
        -0.37964E-02
        -0.39100E-02
        -0.37964E-02
        -0.34621E-02
        -0.29267E-02
        -0.22211E-02
        -0.13865E-02
        -0.47130E-03
         0.47130E-03
         0.13865E-02
         0.22211E-02
         0.29267E-02
         0.34621E-02
         0.37964E-02
         0.10354E-02
         0.17414E-02
         0.23151E-02
         0.16653E-02
         0.30372E-02
         0.27863E-02
         0.12829E-02
         0.64624E-03
         0.12206E-03
        -0.13211E-03
         0.93804E-03
         0.11255E-02
         0.17408E-02
         0.40474E-03
         0.39744E-03
        -0.77046E-03
        -0.86832E-03
         0.45179E-03
        -0.18362E-02
        -0.18420E-02
        -0.27232E-02
        -0.27970E-02
        -0.25397E-02
        -0.19377E-02
        -0.99061E-03
        -0.14453E-02
        -0.31153E-03
        -0.10995E-02
        -0.18834E-02
        -0.18686E-02
        -0.16449E-03
        -0.95345E-03
         0.77469E-03
         0.17202E-02
         0.32119E-02
         0.28041E-02
         0.23036E-02
        -0.40324E-03
        -0.12093E-02
        -0.19440E-02
        -0.25022E-02
        -0.26352E-02
        -0.27606E-02
        -0.21152E-02
        -0.16096E-02
        -0.11963E-02
        -0.59375E-03
         0.20059E-03
         0.10521E-02
         0.18422E-02
         0.24570E-02
         0.26037E-02
         0.37964E-02
         0.39100E-02
         0.34621E-02
         0.29267E-02
         0.22211E-02
         0.13865E-02
         0.47130E-03
        -0.47130E-03
        -0.13865E-02
        -0.22211E-02
        -0.29267E-02
        -0.34621E-02
        -0.37964E-02
        -0.39100E-02
        -0.37964E-02
        -0.34621E-02
        -0.29267E-02
        -0.22211E-02
        -0.13865E-02
        -0.47130E-03
         0.47130E-03
         0.13865E-02
         0.22211E-02
         0.29267E-02
         0.34621E-02
         0.37964E-02
         0.10352E-02
         0.17413E-02
         0.23150E-02
         0.16651E-02
         0.30371E-02
         0.27866E-02
         0.12827E-02
         0.64600E-03
         0.12180E-03
        -0.13230E-03
         0.93771E-03
         0.11252E-02
         0.17404E-02
         0.40469E-03
         0.39742E-03
        -0.77081E-03
        -0.86843E-03
         0.45134E-03
        -0.18365E-02
        -0.18419E-02
        -0.27232E-02
        -0.27968E-02
        -0.25399E-02
        -0.19382E-02
        -0.99046E-03
        -0.14457E-02
        -0.31133E-03
        -0.10992E-02
        -0.18834E-02
        -0.18685E-02
        -0.16476E-03
        -0.95405E-03
         0.77402E-03
         0.17202E-02
         0.32122E-02
         0.28041E-02
         0.23034E-02
        -0.40310E-03
        -0.12093E-02
        -0.19440E-02
        -0.25022E-02
        -0.26351E-02
        -0.27602E-02
        -0.21154E-02
        -0.16097E-02
        -0.11964E-02
        -0.59409E-03
         0.20018E-03
         0.10518E-02
         0.18422E-02
         0.24571E-02
         0.26038E-02
         0.37964E-02
         0.39100E-02
         0.34621E-02
         0.29267E-02
         0.22211E-02
         0.13865E-02
         0.47130E-03
        -0.47130E-03
        -0.13865E-02
        -0.22211E-02
        -0.29267E-02
        -0.34621E-02
        -0.37964E-02
        -0.39100E-02
        -0.37964E-02
        -0.34621E-02
        -0.29267E-02
        -0.22211E-02
        -0.13865E-02
        -0.47130E-03
         0.47130E-03
         0.13865E-02
         0.22211E-02
         0.29267E-02
         0.34621E-02
         0.37964E-02
         0.10351E-02
         0.17411E-02
         0.23149E-02
         0.16649E-02
         0.30371E-02
         0.27870E-02
         0.12826E-02
         0.64575E-03
         0.12154E-03
        -0.13248E-03
         0.93738E-03
         0.11249E-02
         0.17400E-02
         0.40463E-03
         0.39740E-03
        -0.77117E-03
        -0.86854E-03
         0.45089E-03
        -0.18368E-02
        -0.18418E-02
        -0.27232E-02
        -0.27965E-02
        -0.25400E-02
        -0.19386E-02
        -0.99032E-03
        -0.14460E-02
        -0.31113E-03
        -0.10988E-02
        -0.18833E-02
        -0.18683E-02
        -0.16504E-03
        -0.95465E-03
         0.77336E-03
         0.17201E-02
         0.32125E-02
         0.28041E-02
         0.23033E-02
        -0.40296E-03
        -0.12093E-02
        -0.19439E-02
        -0.25022E-02
        -0.26350E-02
        -0.27599E-02
        -0.21155E-02
        -0.16097E-02
        -0.11965E-02
        -0.59444E-03
         0.19977E-03
         0.10515E-02
         0.18423E-02
         0.24573E-02
         0.26039E-02
         0.37964E-02
         0.39100E-02
         0.34621E-02
         0.29267E-02
         0.22211E-02
         0.13865E-02
         0.47130E-03
        -0.47130E-03
        -0.13865E-02
        -0.22211E-02
        -0.29267E-02
        -0.34621E-02
        -0.37964E-02
        -0.39100E-02
        -0.37964E-02
        -0.34621E-02
        -0.29267E-02
        -0.22211E-02
        -0.13865E-02
        -0.47130E-03
         0.47130E-03
         0.13865E-02
         0.22211E-02
         0.29267E-02
         0.34621E-02
         0.37964E-02
  
SCALARS           initial_coordinate_y  double 1
LOOKUP_TABLE default
         0.67292E-03
         0.12308E-02
         0.59151E-03
        -0.33775E-03
         0.67237E-03
         0.12301E-02
         0.59098E-03
        -0.33851E-03
         0.14882E-03
        -0.67643E-03
         0.14846E-03
        -0.67692E-03
         0.18412E-02
         0.14576E-02
         0.18410E-02
         0.14566E-02
         0.29933E-03
         0.11672E-02
         0.29819E-03
         0.11655E-02
         0.22748E-02
         0.28286E-02
         0.24238E-02
         0.22746E-02
         0.28291E-02
         0.24236E-02
         0.21685E-02
         0.29366E-02
         0.21684E-02
         0.29369E-02
        -0.10033E-02
         0.78969E-04
        -0.70318E-03
        -0.10032E-02
         0.78160E-04
        -0.70391E-03
        -0.71196E-03
         0.82749E-04
        -0.71210E-03
         0.82626E-04
        -0.77865E-03
         0.40713E-04
        -0.77882E-03
         0.40439E-04
        -0.15195E-02
        -0.13230E-02
        -0.15195E-02
        -0.13231E-02
         0.98847E-03
         0.98712E-03
        -0.17325E-02
        -0.17325E-02
         0.20220E-02
         0.20217E-02
         0.18615E-02
         0.18616E-02
         0.17175E-02
         0.90940E-03
         0.17175E-02
         0.90916E-03
        -0.19800E-02
        -0.23489E-02
        -0.19800E-02
        -0.23489E-02
        -0.17074E-02
        -0.17074E-02
        -0.14894E-02
        -0.14892E-02
         0.76036E-03
         0.12477E-02
         0.75936E-03
         0.12473E-02
         0.18665E-02
         0.18664E-02
         0.29038E-02
         0.29049E-02
         0.27207E-02
         0.27212E-02
         0.24642E-02
         0.24645E-02
         0.22359E-02
         0.16503E-02
         0.22359E-02
         0.16503E-02
         0.87493E-03
         0.87466E-03
        -0.21373E-02
        -0.21373E-02
        -0.26931E-02
        -0.26931E-02
        -0.31291E-02
        -0.30382E-02
        -0.31291E-02
        -0.30382E-02
        -0.28748E-02
        -0.28748E-02
        -0.26423E-02
        -0.26420E-02
        -0.23707E-02
        -0.23705E-02
        -0.21445E-02
        -0.15105E-02
        -0.21439E-02
        -0.15106E-02
         0.93572E-03
         0.00000E+00
         0.93572E-03
         0.00000E+00
         0.18171E-02
         0.18171E-02
         0.25928E-02
         0.25928E-02
         0.32179E-02
         0.32179E-02
         0.36559E-02
         0.36559E-02
         0.38815E-02
         0.38815E-02
         0.38815E-02
         0.38815E-02
         0.36559E-02
         0.36559E-02
         0.32179E-02
         0.32179E-02
         0.25928E-02
         0.25928E-02
         0.18171E-02
         0.18171E-02
         0.93572E-03
         0.93572E-03
         0.22152E-17
        -0.47884E-18
        -0.93572E-03
        -0.93572E-03
        -0.18171E-02
        -0.18171E-02
        -0.25928E-02
        -0.25928E-02
        -0.32179E-02
        -0.32179E-02
        -0.36559E-02
        -0.36559E-02
        -0.38815E-02
        -0.38815E-02
        -0.38815E-02
        -0.38815E-02
        -0.36559E-02
        -0.36559E-02
        -0.32179E-02
        -0.32179E-02
        -0.25928E-02
        -0.25928E-02
        -0.18171E-02
        -0.18171E-02
        -0.93572E-03
        -0.93572E-03
         0.67348E-03
         0.12314E-02
         0.59203E-03
        -0.33700E-03
         0.14918E-03
        -0.67594E-03
         0.18414E-02
         0.14586E-02
         0.30048E-03
         0.11690E-02
         0.22749E-02
         0.28282E-02
         0.24239E-02
         0.21685E-02
         0.29364E-02
        -0.10035E-02
         0.79778E-04
        -0.70245E-03
        -0.71182E-03
         0.82873E-04
        -0.77848E-03
         0.40986E-04
        -0.15194E-02
        -0.13228E-02
         0.98983E-03
        -0.17324E-02
         0.20223E-02
         0.18614E-02
         0.17175E-02
         0.90964E-03
        -0.19800E-02
        -0.23489E-02
        -0.17074E-02
        -0.14896E-02
         0.76137E-03
         0.12481E-02
         0.18665E-02
         0.29027E-02
         0.27202E-02
         0.24640E-02
         0.22359E-02
         0.16503E-02
         0.87519E-03
        -0.21373E-02
        -0.26932E-02
        -0.31291E-02
        -0.30382E-02
        -0.28748E-02
        -0.26426E-02
        -0.23709E-02
        -0.21450E-02
        -0.15104E-02
         0.93572E-03
         0.00000E+00
         0.18171E-02
         0.25928E-02
         0.32179E-02
         0.36559E-02
         0.38815E-02
         0.38815E-02
         0.36559E-02
         0.32179E-02
         0.25928E-02
         0.18171E-02
         0.93572E-03
        -0.47884E-18
        -0.93572E-03
        -0.18171E-02
        -0.25928E-02
        -0.32179E-02
        -0.36559E-02
        -0.38815E-02
        -0.38815E-02
        -0.36559E-02
        -0.32179E-02
        -0.25928E-02
        -0.18171E-02
        -0.93572E-03
         0.67403E-03
         0.12321E-02
         0.59255E-03
        -0.33624E-03
         0.14955E-03
        -0.67544E-03
         0.18415E-02
         0.14596E-02
         0.30163E-03
         0.11707E-02
         0.22750E-02
         0.28277E-02
         0.24241E-02
         0.21685E-02
         0.29361E-02
        -0.10036E-02
         0.80588E-04
        -0.70173E-03
        -0.71168E-03
         0.82996E-04
        -0.77831E-03
         0.41259E-04
        -0.15194E-02
        -0.13227E-02
         0.99119E-03
        -0.17324E-02
         0.20226E-02
         0.18613E-02
         0.17175E-02
         0.90988E-03
        -0.19801E-02
        -0.23490E-02
        -0.17074E-02
        -0.14899E-02
         0.76237E-03
         0.12485E-02
         0.18666E-02
         0.29017E-02
         0.27198E-02
         0.24638E-02
         0.22359E-02
         0.16503E-02
         0.87545E-03
        -0.21374E-02
        -0.26932E-02
        -0.31291E-02
        -0.30382E-02
        -0.28748E-02
        -0.26428E-02
        -0.23711E-02
        -0.21456E-02
        -0.15103E-02
         0.93572E-03
         0.00000E+00
         0.18171E-02
         0.25928E-02
         0.32179E-02
         0.36559E-02
         0.38815E-02
         0.38815E-02
         0.36559E-02
         0.32179E-02
         0.25928E-02
         0.18171E-02
         0.93572E-03
         0.39516E-17
        -0.93572E-03
        -0.18171E-02
        -0.25928E-02
        -0.32179E-02
        -0.36559E-02
        -0.38815E-02
        -0.38815E-02
        -0.36559E-02
        -0.32179E-02
        -0.25928E-02
        -0.18171E-02
        -0.93572E-03
         0.67459E-03
         0.12328E-02
         0.59308E-03
        -0.33549E-03
         0.14991E-03
        -0.67495E-03
         0.18417E-02
         0.14606E-02
         0.30278E-03
         0.11725E-02
         0.22752E-02
         0.28273E-02
         0.24242E-02
         0.21686E-02
         0.29359E-02
        -0.10038E-02
         0.81397E-04
        -0.70100E-03
        -0.71154E-03
         0.83120E-04
        -0.77814E-03
         0.41533E-04
        -0.15193E-02
        -0.13227E-02
         0.99254E-03
        -0.17324E-02
         0.20228E-02
         0.18611E-02
         0.17175E-02
         0.91012E-03
        -0.19801E-02
        -0.23490E-02
        -0.17074E-02
        -0.14901E-02
         0.76338E-03
         0.12490E-02
         0.18666E-02
         0.29006E-02
         0.27193E-02
         0.24636E-02
         0.22359E-02
         0.16503E-02
         0.87571E-03
        -0.21374E-02
        -0.26932E-02
        -0.31291E-02
        -0.30382E-02
        -0.28748E-02
        -0.26431E-02
        -0.23713E-02
        -0.21461E-02
        -0.15102E-02
         0.93572E-03
         0.00000E+00
         0.18171E-02
         0.25928E-02
         0.32179E-02
         0.36559E-02
         0.38815E-02
         0.38815E-02
         0.36559E-02
         0.32179E-02
         0.25928E-02
         0.18171E-02
         0.93572E-03
        -0.47884E-18
        -0.93572E-03
        -0.18171E-02
        -0.25928E-02
        -0.32179E-02
        -0.36559E-02
        -0.38815E-02
        -0.38815E-02
        -0.36559E-02
        -0.32179E-02
        -0.25928E-02
        -0.18171E-02
        -0.93572E-03
         0.67514E-03
         0.12334E-02
         0.59360E-03
        -0.33474E-03
         0.15027E-03
        -0.67446E-03
         0.18419E-02
         0.14616E-02
         0.30393E-03
         0.11742E-02
         0.22753E-02
         0.28269E-02
         0.24244E-02
         0.21686E-02
         0.29356E-02
        -0.10039E-02
         0.82206E-04
        -0.70028E-03
        -0.71140E-03
         0.83243E-04
        -0.77797E-03
         0.41806E-04
        -0.15193E-02
        -0.13226E-02
         0.99390E-03
        -0.17323E-02
         0.20231E-02
         0.18610E-02
         0.17175E-02
         0.91036E-03
        -0.19801E-02
        -0.23490E-02
        -0.17074E-02
        -0.14904E-02
         0.76439E-03
         0.12494E-02
         0.18666E-02
         0.28995E-02
         0.27188E-02
         0.24633E-02
         0.22359E-02
         0.16503E-02
         0.87597E-03
        -0.21374E-02
        -0.26932E-02
        -0.31291E-02
        -0.30382E-02
        -0.28748E-02
        -0.26434E-02
        -0.23715E-02
        -0.21467E-02
        -0.15101E-02
         0.93572E-03
         0.00000E+00
         0.18171E-02
         0.25928E-02
         0.32179E-02
         0.36559E-02
         0.38815E-02
         0.38815E-02
         0.36559E-02
         0.32179E-02
         0.25928E-02
         0.18171E-02
         0.93572E-03
        -0.47884E-18
        -0.93572E-03
        -0.18171E-02
        -0.25928E-02
        -0.32179E-02
        -0.36559E-02
        -0.38815E-02
        -0.38815E-02
        -0.36559E-02
        -0.32179E-02
        -0.25928E-02
        -0.18171E-02
        -0.93572E-03
         0.67570E-03
         0.12341E-02
         0.59412E-03
        -0.33398E-03
         0.15064E-03
        -0.67396E-03
         0.18421E-02
         0.14626E-02
         0.30507E-03
         0.11760E-02
         0.22754E-02
         0.28264E-02
         0.24245E-02
         0.21686E-02
         0.29353E-02
        -0.10040E-02
         0.83015E-04
        -0.69955E-03
        -0.71126E-03
         0.83367E-04
        -0.77780E-03
         0.42080E-04
        -0.15192E-02
        -0.13224E-02
         0.99526E-03
        -0.17323E-02
         0.20234E-02
         0.18609E-02
         0.17175E-02
         0.91060E-03
        -0.19801E-02
        -0.23490E-02
        -0.17074E-02
        -0.14906E-02
         0.76539E-03
         0.12498E-02
         0.18667E-02
         0.28984E-02
         0.27184E-02
         0.24631E-02
         0.22359E-02
         0.16503E-02
         0.87623E-03
        -0.21374E-02
        -0.26932E-02
        -0.31291E-02
        -0.30382E-02
        -0.28748E-02
        -0.26436E-02
        -0.23717E-02
        -0.21472E-02
        -0.15100E-02
         0.93572E-03
         0.00000E+00
         0.18171E-02
         0.25928E-02
         0.32179E-02
         0.36559E-02
         0.38815E-02
         0.38815E-02
         0.36559E-02
         0.32179E-02
         0.25928E-02
         0.18171E-02
         0.93572E-03
        -0.47884E-18
        -0.93572E-03
        -0.18171E-02
        -0.25928E-02
        -0.32179E-02
        -0.36559E-02
        -0.38815E-02
        -0.38815E-02
        -0.36559E-02
        -0.32179E-02
        -0.25928E-02
        -0.18171E-02
        -0.93572E-03
         0.67625E-03
         0.12348E-02
         0.59465E-03
        -0.33323E-03
         0.15100E-03
        -0.67347E-03
         0.18423E-02
         0.14636E-02
         0.30622E-03
         0.11777E-02
         0.22755E-02
         0.28260E-02
         0.24247E-02
         0.21687E-02
         0.29351E-02
        -0.10042E-02
         0.83825E-04
        -0.69882E-03
        -0.71112E-03
         0.83490E-04
        -0.77763E-03
         0.42353E-04
        -0.15192E-02
        -0.13223E-02
         0.99661E-03
        -0.17322E-02
         0.20237E-02
         0.18607E-02
         0.17175E-02
         0.91084E-03
        -0.19801E-02
        -0.23491E-02
        -0.17074E-02
        -0.14909E-02
         0.76640E-03
         0.12503E-02
         0.18667E-02
         0.28974E-02
         0.27179E-02
         0.24629E-02
         0.22359E-02
         0.16503E-02
         0.87650E-03
        -0.21374E-02
        -0.26933E-02
        -0.31291E-02
        -0.30382E-02
        -0.28749E-02
        -0.26439E-02
        -0.23719E-02
        -0.21478E-02
        -0.15099E-02
         0.93572E-03
         0.00000E+00
         0.18171E-02
         0.25928E-02
         0.32179E-02
         0.36559E-02
         0.38815E-02
         0.38815E-02
         0.36559E-02
         0.32179E-02
         0.25928E-02
         0.18171E-02
         0.93572E-03
        -0.47884E-18
        -0.93572E-03
        -0.18171E-02
        -0.25928E-02
        -0.32179E-02
        -0.36559E-02
        -0.38815E-02
        -0.38815E-02
        -0.36559E-02
        -0.32179E-02
        -0.25928E-02
        -0.18171E-02
        -0.93572E-03
         0.67680E-03
         0.12354E-02
         0.59517E-03
        -0.33247E-03
         0.15136E-03
        -0.67298E-03
         0.18425E-02
         0.14646E-02
         0.30737E-03
         0.11795E-02
         0.22757E-02
         0.28255E-02
         0.24248E-02
         0.21687E-02
         0.29348E-02
        -0.10043E-02
         0.84634E-04
        -0.69810E-03
        -0.71098E-03
         0.83614E-04
        -0.77746E-03
         0.42626E-04
        -0.15191E-02
        -0.13223E-02
         0.99797E-03
        -0.17322E-02
         0.20240E-02
         0.18606E-02
         0.17175E-02
         0.91108E-03
        -0.19802E-02
        -0.23491E-02
        -0.17074E-02
        -0.14911E-02
         0.76740E-03
         0.12507E-02
         0.18668E-02
         0.28963E-02
         0.27174E-02
         0.24627E-02
         0.22358E-02
         0.16503E-02
         0.87676E-03
        -0.21374E-02
        -0.26933E-02
        -0.31291E-02
        -0.30382E-02
        -0.28749E-02
        -0.26442E-02
        -0.23721E-02
        -0.21483E-02
        -0.15097E-02
         0.93572E-03
         0.00000E+00
         0.18171E-02
         0.25928E-02
         0.32179E-02
         0.36559E-02
         0.38815E-02
         0.38815E-02
         0.36559E-02
         0.32179E-02
         0.25928E-02
         0.18171E-02
         0.93572E-03
        -0.47884E-18
        -0.93572E-03
        -0.18171E-02
        -0.25928E-02
        -0.32179E-02
        -0.36559E-02
        -0.38815E-02
        -0.38815E-02
        -0.36559E-02
        -0.32179E-02
        -0.25928E-02
        -0.18171E-02
        -0.93572E-03
         0.67736E-03
         0.12361E-02
         0.59570E-03
        -0.33172E-03
         0.15173E-03
        -0.67248E-03
         0.18427E-02
         0.14656E-02
         0.30852E-03
         0.11812E-02
         0.22758E-02
         0.28251E-02
         0.24249E-02
         0.21688E-02
         0.29345E-02
        -0.10044E-02
         0.85443E-04
        -0.69737E-03
        -0.71084E-03
         0.83737E-04
        -0.77729E-03
         0.42899E-04
        -0.15191E-02
        -0.13222E-02
         0.99932E-03
        -0.17322E-02
         0.20243E-02
         0.18605E-02
         0.17175E-02
         0.91132E-03
        -0.19802E-02
        -0.23491E-02
        -0.17074E-02
        -0.14914E-02
         0.76841E-03
         0.12511E-02
         0.18668E-02
         0.28952E-02
         0.27170E-02
         0.24624E-02
         0.22358E-02
         0.16503E-02
         0.87702E-03
        -0.21374E-02
        -0.26933E-02
        -0.31291E-02
        -0.30382E-02
        -0.28749E-02
        -0.26444E-02
        -0.23723E-02
        -0.21489E-02
        -0.15096E-02
         0.93572E-03
         0.00000E+00
         0.18171E-02
         0.25928E-02
         0.32179E-02
         0.36559E-02
         0.38815E-02
         0.38815E-02
         0.36559E-02
         0.32179E-02
         0.25928E-02
         0.18171E-02
         0.93572E-03
        -0.47884E-18
        -0.93572E-03
        -0.18171E-02
        -0.25928E-02
        -0.32179E-02
        -0.36559E-02
        -0.38815E-02
        -0.38815E-02
        -0.36559E-02
        -0.32179E-02
        -0.25928E-02
        -0.18171E-02
        -0.93572E-03
         0.67791E-03
         0.12368E-02
         0.59622E-03
        -0.33096E-03
         0.15209E-03
        -0.67199E-03
         0.18429E-02
         0.14666E-02
         0.30967E-03
         0.11830E-02
         0.22759E-02
         0.28247E-02
         0.24251E-02
         0.21688E-02
         0.29343E-02
        -0.10046E-02
         0.86253E-04
        -0.69665E-03
        -0.71070E-03
         0.83861E-04
        -0.77712E-03
         0.43173E-04
        -0.15190E-02
        -0.13220E-02
         0.10007E-02
        -0.17321E-02
         0.20245E-02
         0.18603E-02
         0.17175E-02
         0.91156E-03
        -0.19802E-02
        -0.23491E-02
        -0.17074E-02
        -0.14916E-02
         0.76941E-03
         0.12515E-02
         0.18668E-02
         0.28942E-02
         0.27165E-02
         0.24622E-02
         0.22358E-02
         0.16503E-02
         0.87728E-03
        -0.21374E-02
        -0.26933E-02
        -0.31291E-02
        -0.30382E-02
        -0.28749E-02
        -0.26447E-02
        -0.23725E-02
        -0.21494E-02
        -0.15095E-02
         0.93572E-03
         0.00000E+00
         0.18171E-02
         0.25928E-02
         0.32179E-02
         0.36559E-02
         0.38815E-02
         0.38815E-02
         0.36559E-02
         0.32179E-02
         0.25928E-02
         0.18171E-02
         0.93572E-03
        -0.47884E-18
        -0.93572E-03
        -0.18171E-02
        -0.25928E-02
        -0.32179E-02
        -0.36559E-02
        -0.38815E-02
        -0.38815E-02
        -0.36559E-02
        -0.32179E-02
        -0.25928E-02
        -0.18171E-02
        -0.93572E-03
         0.67847E-03
         0.12374E-02
         0.59674E-03
        -0.33021E-03
         0.15245E-03
        -0.67150E-03
         0.18430E-02
         0.14676E-02
         0.31081E-03
         0.11847E-02
         0.22761E-02
         0.28242E-02
         0.24252E-02
         0.21688E-02
         0.29340E-02
        -0.10047E-02
         0.87062E-04
        -0.69592E-03
        -0.71056E-03
         0.83985E-04
        -0.77695E-03
         0.43446E-04
        -0.15190E-02
        -0.13219E-02
         0.10020E-02
        -0.17321E-02
         0.20248E-02
         0.18602E-02
         0.17175E-02
         0.91180E-03
        -0.19803E-02
        -0.23491E-02
        -0.17073E-02
        -0.14919E-02
         0.77042E-03
         0.12520E-02
         0.18669E-02
         0.28931E-02
         0.27160E-02
         0.24620E-02
         0.22358E-02
         0.16503E-02
         0.87754E-03
        -0.21374E-02
        -0.26933E-02
        -0.31291E-02
        -0.30382E-02
        -0.28749E-02
        -0.26450E-02
        -0.23727E-02
        -0.21500E-02
        -0.15094E-02
         0.93572E-03
         0.00000E+00
         0.18171E-02
         0.25928E-02
         0.32179E-02
         0.36559E-02
         0.38815E-02
         0.38815E-02
         0.36559E-02
         0.32179E-02
         0.25928E-02
         0.18171E-02
         0.93572E-03
         0.39516E-17
        -0.93572E-03
        -0.18171E-02
        -0.25928E-02
        -0.32179E-02
        -0.36559E-02
        -0.38815E-02
        -0.38815E-02
        -0.36559E-02
        -0.32179E-02
        -0.25928E-02
        -0.18171E-02
        -0.93572E-03
         0.67902E-03
         0.12381E-02
         0.59727E-03
        -0.32945E-03
         0.15282E-03
        -0.67100E-03
         0.18432E-02
         0.14686E-02
         0.31196E-03
         0.11865E-02
         0.22762E-02
         0.28238E-02
         0.24254E-02
         0.21688E-02
         0.29337E-02
        -0.10049E-02
         0.87871E-04
        -0.69519E-03
        -0.71042E-03
         0.84108E-04
        -0.77678E-03
         0.43720E-04
        -0.15189E-02
        -0.13219E-02
         0.10034E-02
        -0.17320E-02
         0.20251E-02
         0.18601E-02
         0.17175E-02
         0.91204E-03
        -0.19803E-02
        -0.23492E-02
        -0.17073E-02
        -0.14921E-02
         0.77142E-03
         0.12524E-02
         0.18669E-02
         0.28920E-02
         0.27155E-02
         0.24618E-02
         0.22358E-02
         0.16503E-02
         0.87781E-03
        -0.21374E-02
        -0.26934E-02
        -0.31291E-02
        -0.30382E-02
        -0.28749E-02
        -0.26452E-02
        -0.23729E-02
        -0.21505E-02
        -0.15093E-02
         0.93572E-03
         0.00000E+00
         0.18171E-02
         0.25928E-02
         0.32179E-02
         0.36559E-02
         0.38815E-02
         0.38815E-02
         0.36559E-02
         0.32179E-02
         0.25928E-02
         0.18171E-02
         0.93572E-03
        -0.47884E-18
        -0.93572E-03
        -0.18171E-02
        -0.25928E-02
        -0.32179E-02
        -0.36559E-02
        -0.38815E-02
        -0.38815E-02
        -0.36559E-02
        -0.32179E-02
        -0.25928E-02
        -0.18171E-02
        -0.93572E-03
         0.67958E-03
         0.12387E-02
         0.59779E-03
        -0.32870E-03
         0.15318E-03
        -0.67051E-03
         0.18434E-02
         0.14696E-02
         0.31311E-03
         0.11882E-02
         0.22763E-02
         0.28233E-02
         0.24255E-02
         0.21689E-02
         0.29335E-02
        -0.10050E-02
         0.88681E-04
        -0.69447E-03
        -0.71028E-03
         0.84232E-04
        -0.77661E-03
         0.43993E-04
        -0.15189E-02
        -0.13218E-02
         0.10048E-02
        -0.17320E-02
         0.20254E-02
         0.18599E-02
         0.17175E-02
         0.91228E-03
        -0.19803E-02
        -0.23492E-02
        -0.17073E-02
        -0.14923E-02
         0.77243E-03
         0.12528E-02
         0.18670E-02
         0.28910E-02
         0.27151E-02
         0.24615E-02
         0.22358E-02
         0.16503E-02
         0.87807E-03
        -0.21374E-02
        -0.26934E-02
        -0.31291E-02
        -0.30382E-02
        -0.28749E-02
        -0.26455E-02
        -0.23732E-02
        -0.21511E-02
        -0.15092E-02
         0.93572E-03
         0.00000E+00
         0.18171E-02
         0.25928E-02
         0.32179E-02
         0.36559E-02
         0.38815E-02
         0.38815E-02
         0.36559E-02
         0.32179E-02
         0.25928E-02
         0.18171E-02
         0.93572E-03
         0.22152E-17
        -0.93572E-03
        -0.18171E-02
        -0.25928E-02
        -0.32179E-02
        -0.36559E-02
        -0.38815E-02
        -0.38815E-02
        -0.36559E-02
        -0.32179E-02
        -0.25928E-02
        -0.18171E-02
        -0.93572E-03
         0.68013E-03
         0.12394E-02
         0.59831E-03
        -0.32794E-03
         0.15354E-03
        -0.67002E-03
         0.18436E-02
         0.14706E-02
         0.31426E-03
         0.11900E-02
         0.22765E-02
         0.28229E-02
         0.24257E-02
         0.21689E-02
         0.29332E-02
        -0.10051E-02
         0.89490E-04
        -0.69374E-03
        -0.71013E-03
         0.84355E-04
        -0.77644E-03
         0.44266E-04
        -0.15188E-02
        -0.13216E-02
         0.10061E-02
        -0.17320E-02
         0.20257E-02
         0.18598E-02
         0.17175E-02
         0.91252E-03
        -0.19803E-02
        -0.23492E-02
        -0.17073E-02
        -0.14926E-02
         0.77343E-03
         0.12533E-02
         0.18670E-02
         0.28899E-02
         0.27146E-02
         0.24613E-02
         0.22358E-02
         0.16503E-02
         0.87833E-03
        -0.21374E-02
        -0.26934E-02
        -0.31291E-02
        -0.30382E-02
        -0.28750E-02
        -0.26458E-02
        -0.23734E-02
        -0.21516E-02
        -0.15091E-02
         0.93572E-03
         0.00000E+00
         0.18171E-02
         0.25928E-02
         0.32179E-02
         0.36559E-02
         0.38815E-02
         0.38815E-02
         0.36559E-02
         0.32179E-02
         0.25928E-02
         0.18171E-02
         0.93572E-03
        -0.47884E-18
        -0.93572E-03
        -0.18171E-02
        -0.25928E-02
        -0.32179E-02
        -0.36559E-02
        -0.38815E-02
        -0.38815E-02
        -0.36559E-02
        -0.32179E-02
        -0.25928E-02
        -0.18171E-02
        -0.93572E-03
         0.68068E-03
         0.12401E-02
         0.59884E-03
        -0.32719E-03
         0.15391E-03
        -0.66953E-03
         0.18438E-02
         0.14716E-02
         0.31541E-03
         0.11917E-02
         0.22766E-02
         0.28225E-02
         0.24258E-02
         0.21690E-02
         0.29330E-02
        -0.10053E-02
         0.90299E-04
        -0.69302E-03
        -0.70999E-03
         0.84479E-04
        -0.77627E-03
         0.44540E-04
        -0.15188E-02
        -0.13215E-02
         0.10075E-02
        -0.17319E-02
         0.20260E-02
         0.18597E-02
         0.17175E-02
         0.91276E-03
        -0.19804E-02
        -0.23493E-02
        -0.17073E-02
        -0.14928E-02
         0.77444E-03
         0.12537E-02
         0.18670E-02
         0.28888E-02
         0.27141E-02
         0.24611E-02
         0.22358E-02
         0.16503E-02
         0.87859E-03
        -0.21374E-02
        -0.26934E-02
        -0.31291E-02
        -0.30382E-02
        -0.28750E-02
        -0.26460E-02
        -0.23736E-02
        -0.21521E-02
        -0.15090E-02
         0.93572E-03
         0.00000E+00
         0.18171E-02
         0.25928E-02
         0.32179E-02
         0.36559E-02
         0.38815E-02
         0.38815E-02
         0.36559E-02
         0.32179E-02
         0.25928E-02
         0.18171E-02
         0.93572E-03
         0.22152E-17
        -0.93572E-03
        -0.18171E-02
        -0.25928E-02
        -0.32179E-02
        -0.36559E-02
        -0.38815E-02
        -0.38815E-02
        -0.36559E-02
        -0.32179E-02
        -0.25928E-02
        -0.18171E-02
        -0.93572E-03
         0.68124E-03
         0.12407E-02
         0.59936E-03
        -0.32643E-03
         0.15427E-03
        -0.66903E-03
         0.18440E-02
         0.14727E-02
         0.31656E-03
         0.11935E-02
         0.22767E-02
         0.28220E-02
         0.24260E-02
         0.21690E-02
         0.29327E-02
        -0.10054E-02
         0.91108E-04
        -0.69229E-03
        -0.70985E-03
         0.84602E-04
        -0.77610E-03
         0.44813E-04
        -0.15187E-02
        -0.13215E-02
         0.10088E-02
        -0.17319E-02
         0.20262E-02
         0.18595E-02
         0.17175E-02
         0.91300E-03
        -0.19804E-02
        -0.23493E-02
        -0.17073E-02
        -0.14931E-02
         0.77544E-03
         0.12541E-02
         0.18671E-02
         0.28877E-02
         0.27137E-02
         0.24609E-02
         0.22358E-02
         0.16503E-02
         0.87885E-03
        -0.21374E-02
        -0.26934E-02
        -0.31291E-02
        -0.30382E-02
        -0.28750E-02
        -0.26463E-02
        -0.23738E-02
        -0.21527E-02
        -0.15088E-02
         0.93572E-03
         0.00000E+00
         0.18171E-02
         0.25928E-02
         0.32179E-02
         0.36559E-02
         0.38815E-02
         0.38815E-02
         0.36559E-02
         0.32179E-02
         0.25928E-02
         0.18171E-02
         0.93572E-03
        -0.47884E-18
        -0.93572E-03
        -0.18171E-02
        -0.25928E-02
        -0.32179E-02
        -0.36559E-02
        -0.38815E-02
        -0.38815E-02
        -0.36559E-02
        -0.32179E-02
        -0.25928E-02
        -0.18171E-02
        -0.93572E-03
         0.68179E-03
         0.12414E-02
         0.59988E-03
        -0.32568E-03
         0.15463E-03
        -0.66854E-03
         0.18442E-02
         0.14736E-02
         0.31770E-03
         0.11952E-02
         0.22768E-02
         0.28216E-02
         0.24261E-02
         0.21690E-02
         0.29324E-02
        -0.10056E-02
         0.91918E-04
        -0.69156E-03
        -0.70971E-03
         0.84726E-04
        -0.77593E-03
         0.45086E-04
        -0.15187E-02
        -0.13213E-02
         0.10102E-02
        -0.17318E-02
         0.20265E-02
         0.18594E-02
         0.17175E-02
         0.91324E-03
        -0.19804E-02
        -0.23493E-02
        -0.17073E-02
        -0.14933E-02
         0.77645E-03
         0.12545E-02
         0.18671E-02
         0.28867E-02
         0.27132E-02
         0.24606E-02
         0.22358E-02
         0.16503E-02
         0.87912E-03
        -0.21374E-02
        -0.26935E-02
        -0.31291E-02
        -0.30381E-02
        -0.28750E-02
        -0.26466E-02
        -0.23740E-02
        -0.21533E-02
        -0.15087E-02
         0.93572E-03
         0.00000E+00
         0.18171E-02
         0.25928E-02
         0.32179E-02
         0.36559E-02
         0.38815E-02
         0.38815E-02
         0.36559E-02
         0.32179E-02
         0.25928E-02
         0.18171E-02
         0.93572E-03
        -0.47884E-18
        -0.93572E-03
        -0.18171E-02
        -0.25928E-02
        -0.32179E-02
        -0.36559E-02
        -0.38815E-02
        -0.38815E-02
        -0.36559E-02
        -0.32179E-02
        -0.25928E-02
        -0.18171E-02
        -0.93572E-03
         0.68235E-03
         0.12421E-02
         0.60041E-03
        -0.32493E-03
         0.15500E-03
        -0.66805E-03
         0.18444E-02
         0.14747E-02
         0.31885E-03
         0.11970E-02
         0.22770E-02
         0.28211E-02
         0.24262E-02
         0.21691E-02
         0.29322E-02
        -0.10057E-02
         0.92727E-04
        -0.69084E-03
        -0.70957E-03
         0.84849E-04
        -0.77576E-03
         0.45359E-04
        -0.15186E-02
        -0.13212E-02
         0.10115E-02
        -0.17318E-02
         0.20268E-02
         0.18593E-02
         0.17175E-02
         0.91347E-03
        -0.19804E-02
        -0.23493E-02
        -0.17073E-02
        -0.14936E-02
         0.77745E-03
         0.12550E-02
         0.18671E-02
         0.28856E-02
         0.27127E-02
         0.24604E-02
         0.22358E-02
         0.16503E-02
         0.87938E-03
        -0.21374E-02
        -0.26935E-02
        -0.31291E-02
        -0.30381E-02
        -0.28750E-02
        -0.26468E-02
        -0.23742E-02
        -0.21538E-02
        -0.15086E-02
         0.93572E-03
         0.00000E+00
         0.18171E-02
         0.25928E-02
         0.32179E-02
         0.36559E-02
         0.38815E-02
         0.38815E-02
         0.36559E-02
         0.32179E-02
         0.25928E-02
         0.18171E-02
         0.93572E-03
        -0.47884E-18
        -0.93572E-03
        -0.18171E-02
        -0.25928E-02
        -0.32179E-02
        -0.36559E-02
        -0.38815E-02
        -0.38815E-02
        -0.36559E-02
        -0.32179E-02
        -0.25928E-02
        -0.18171E-02
        -0.93572E-03
         0.68290E-03
         0.12427E-02
         0.60093E-03
        -0.32417E-03
         0.15536E-03
        -0.66755E-03
         0.18445E-02
         0.14757E-02
         0.32000E-03
         0.11987E-02
         0.22771E-02
         0.28207E-02
         0.24264E-02
         0.21691E-02
         0.29319E-02
        -0.10058E-02
         0.93536E-04
        -0.69011E-03
        -0.70943E-03
         0.84973E-04
        -0.77559E-03
         0.45633E-04
        -0.15186E-02
        -0.13212E-02
         0.10129E-02
        -0.17318E-02
         0.20271E-02
         0.18592E-02
         0.17175E-02
         0.91371E-03
        -0.19805E-02
        -0.23493E-02
        -0.17073E-02
        -0.14938E-02
         0.77846E-03
         0.12554E-02
         0.18672E-02
         0.28845E-02
         0.27122E-02
         0.24602E-02
         0.22358E-02
         0.16502E-02
         0.87964E-03
        -0.21374E-02
        -0.26935E-02
        -0.31291E-02
        -0.30381E-02
        -0.28750E-02
        -0.26471E-02
        -0.23744E-02
        -0.21543E-02
        -0.15085E-02
         0.93572E-03
         0.00000E+00
         0.18171E-02
         0.25928E-02
         0.32179E-02
         0.36559E-02
         0.38815E-02
         0.38815E-02
         0.36559E-02
         0.32179E-02
         0.25928E-02
         0.18171E-02
         0.93572E-03
        -0.47884E-18
        -0.93572E-03
        -0.18171E-02
        -0.25928E-02
        -0.32179E-02
        -0.36559E-02
        -0.38815E-02
        -0.38815E-02
        -0.36559E-02
        -0.32179E-02
        -0.25928E-02
        -0.18171E-02
        -0.93572E-03
         0.68346E-03
         0.12434E-02
         0.60145E-03
        -0.32342E-03
         0.15572E-03
        -0.66706E-03
         0.18447E-02
         0.14767E-02
         0.32115E-03
         0.12005E-02
         0.22772E-02
         0.28203E-02
         0.24265E-02
         0.21691E-02
         0.29316E-02
        -0.10060E-02
         0.94345E-04
        -0.68939E-03
        -0.70929E-03
         0.85096E-04
        -0.77542E-03
         0.45906E-04
        -0.15185E-02
        -0.13211E-02
         0.10142E-02
        -0.17317E-02
         0.20274E-02
         0.18590E-02
         0.17175E-02
         0.91395E-03
        -0.19805E-02
        -0.23494E-02
        -0.17073E-02
        -0.14941E-02
         0.77946E-03
         0.12558E-02
         0.18672E-02
         0.28835E-02
         0.27118E-02
         0.24600E-02
         0.22358E-02
         0.16502E-02
         0.87990E-03
        -0.21374E-02
        -0.26935E-02
        -0.31291E-02
        -0.30381E-02
        -0.28750E-02
        -0.26474E-02
        -0.23746E-02
        -0.21549E-02
        -0.15084E-02
         0.93572E-03
         0.00000E+00
         0.18171E-02
         0.25928E-02
         0.32179E-02
         0.36559E-02
         0.38815E-02
         0.38815E-02
         0.36559E-02
         0.32179E-02
         0.25928E-02
         0.18171E-02
         0.93572E-03
         0.22152E-17
        -0.93572E-03
        -0.18171E-02
        -0.25928E-02
        -0.32179E-02
        -0.36559E-02
        -0.38815E-02
        -0.38815E-02
        -0.36559E-02
        -0.32179E-02
        -0.25928E-02
        -0.18171E-02
        -0.93572E-03
         0.68401E-03
         0.12440E-02
         0.60198E-03
        -0.32266E-03
         0.15609E-03
        -0.66657E-03
         0.18449E-02
         0.14777E-02
         0.32230E-03
         0.12022E-02
         0.22774E-02
         0.28198E-02
         0.24267E-02
         0.21692E-02
         0.29314E-02
        -0.10061E-02
         0.95155E-04
        -0.68866E-03
        -0.70915E-03
         0.85220E-04
        -0.77525E-03
         0.46180E-04
        -0.15185E-02
        -0.13210E-02
         0.10156E-02
        -0.17317E-02
         0.20277E-02
         0.18589E-02
         0.17175E-02
         0.91419E-03
        -0.19805E-02
        -0.23494E-02
        -0.17073E-02
        -0.14943E-02
         0.78047E-03
         0.12563E-02
         0.18672E-02
         0.28824E-02
         0.27113E-02
         0.24597E-02
         0.22358E-02
         0.16502E-02
         0.88016E-03
        -0.21374E-02
        -0.26935E-02
        -0.31291E-02
        -0.30381E-02
        -0.28751E-02
        -0.26476E-02
        -0.23748E-02
        -0.21554E-02
        -0.15083E-02
         0.93572E-03
         0.00000E+00
         0.18171E-02
         0.25928E-02
         0.32179E-02
         0.36559E-02
         0.38815E-02
         0.38815E-02
         0.36559E-02
         0.32179E-02
         0.25928E-02
         0.18171E-02
         0.93572E-03
        -0.47884E-18
        -0.93572E-03
        -0.18171E-02
        -0.25928E-02
        -0.32179E-02
        -0.36559E-02
        -0.38815E-02
        -0.38815E-02
        -0.36559E-02
        -0.32179E-02
        -0.25928E-02
        -0.18171E-02
        -0.93572E-03
         0.68457E-03
         0.12447E-02
         0.60250E-03
        -0.32191E-03
         0.15645E-03
        -0.66607E-03
         0.18451E-02
         0.14787E-02
         0.32345E-03
         0.12040E-02
         0.22775E-02
         0.28194E-02
         0.24268E-02
         0.21692E-02
         0.29311E-02
        -0.10062E-02
         0.95964E-04
        -0.68793E-03
        -0.70901E-03
         0.85343E-04
        -0.77507E-03
         0.46453E-04
        -0.15184E-02
        -0.13209E-02
         0.10169E-02
        -0.17316E-02
         0.20280E-02
         0.18588E-02
         0.17175E-02
         0.91443E-03
        -0.19806E-02
        -0.23494E-02
        -0.17073E-02
        -0.14945E-02
         0.78148E-03
         0.12567E-02
         0.18673E-02
         0.28813E-02
         0.27108E-02
         0.24595E-02
         0.22358E-02
         0.16502E-02
         0.88043E-03
        -0.21374E-02
        -0.26936E-02
        -0.31291E-02
        -0.30381E-02
        -0.28751E-02
        -0.26479E-02
        -0.23750E-02
        -0.21560E-02
        -0.15082E-02
         0.93572E-03
         0.00000E+00
         0.18171E-02
         0.25928E-02
         0.32179E-02
         0.36559E-02
         0.38815E-02
         0.38815E-02
         0.36559E-02
         0.32179E-02
         0.25928E-02
         0.18171E-02
         0.93572E-03
        -0.47884E-18
        -0.93572E-03
        -0.18171E-02
        -0.25928E-02
        -0.32179E-02
        -0.36559E-02
        -0.38815E-02
        -0.38815E-02
        -0.36559E-02
        -0.32179E-02
        -0.25928E-02
        -0.18171E-02
        -0.93572E-03
         0.68512E-03
         0.12454E-02
         0.60302E-03
        -0.32115E-03
         0.15681E-03
        -0.66558E-03
         0.18453E-02
         0.14797E-02
         0.32459E-03
         0.12058E-02
         0.22776E-02
         0.28189E-02
         0.24270E-02
         0.21693E-02
         0.29308E-02
        -0.10064E-02
         0.96773E-04
        -0.68721E-03
        -0.70887E-03
         0.85467E-04
        -0.77490E-03
         0.46726E-04
        -0.15184E-02
        -0.13208E-02
         0.10183E-02
        -0.17316E-02
         0.20283E-02
         0.18586E-02
         0.17175E-02
         0.91467E-03
        -0.19806E-02
        -0.23494E-02
        -0.17073E-02
        -0.14948E-02
         0.78248E-03
         0.12571E-02
         0.18673E-02
         0.28802E-02
         0.27103E-02
         0.24593E-02
         0.22358E-02
         0.16502E-02
         0.88069E-03
        -0.21374E-02
        -0.26936E-02
        -0.31291E-02
        -0.30381E-02
        -0.28751E-02
        -0.26482E-02
        -0.23752E-02
        -0.21565E-02
        -0.15081E-02
         0.93572E-03
         0.00000E+00
         0.18171E-02
         0.25928E-02
         0.32179E-02
         0.36559E-02
         0.38815E-02
         0.38815E-02
         0.36559E-02
         0.32179E-02
         0.25928E-02
         0.18171E-02
         0.93572E-03
        -0.47884E-18
        -0.93572E-03
        -0.18171E-02
        -0.25928E-02
        -0.32179E-02
        -0.36559E-02
        -0.38815E-02
        -0.38815E-02
        -0.36559E-02
        -0.32179E-02
        -0.25928E-02
        -0.18171E-02
        -0.93572E-03
         0.68567E-03
         0.12460E-02
         0.60355E-03
        -0.32040E-03
         0.15718E-03
        -0.66509E-03
         0.18455E-02
         0.14807E-02
         0.32574E-03
         0.12075E-02
         0.22777E-02
         0.28185E-02
         0.24271E-02
         0.21693E-02
         0.29306E-02
        -0.10065E-02
         0.97583E-04
        -0.68648E-03
        -0.70873E-03
         0.85591E-04
        -0.77474E-03
         0.47000E-04
        -0.15183E-02
        -0.13207E-02
         0.10197E-02
        -0.17316E-02
         0.20285E-02
         0.18585E-02
         0.17175E-02
         0.91491E-03
        -0.19806E-02
        -0.23495E-02
        -0.17073E-02
        -0.14950E-02
         0.78348E-03
         0.12576E-02
         0.18674E-02
         0.28792E-02
         0.27099E-02
         0.24591E-02
         0.22358E-02
         0.16502E-02
         0.88095E-03
        -0.21374E-02
        -0.26936E-02
        -0.31290E-02
        -0.30381E-02
        -0.28751E-02
        -0.26484E-02
        -0.23754E-02
        -0.21571E-02
        -0.15080E-02
         0.93572E-03
         0.00000E+00
         0.18171E-02
         0.25928E-02
         0.32179E-02
         0.36559E-02
         0.38815E-02
         0.38815E-02
         0.36559E-02
         0.32179E-02
         0.25928E-02
         0.18171E-02
         0.93572E-03
         0.47884E-18
        -0.93572E-03
        -0.18171E-02
        -0.25928E-02
        -0.32179E-02
        -0.36559E-02
        -0.38815E-02
        -0.38815E-02
        -0.36559E-02
        -0.32179E-02
        -0.25928E-02
        -0.18171E-02
        -0.93572E-03
  
SCALARS           initial_coordinate_z  double 1
LOOKUP_TABLE default
        -0.10771E-01
        -0.10771E-01
        -0.10771E-01
        -0.10771E-01
        -0.11750E-01
        -0.11750E-01
        -0.11750E-01
        -0.11750E-01
        -0.10771E-01
        -0.10771E-01
        -0.11750E-01
        -0.11750E-01
        -0.10771E-01
        -0.10771E-01
        -0.11750E-01
        -0.11750E-01
        -0.10771E-01
        -0.10771E-01
        -0.11750E-01
        -0.11750E-01
        -0.10771E-01
        -0.10771E-01
        -0.10771E-01
        -0.11750E-01
        -0.11750E-01
        -0.11750E-01
        -0.10771E-01
        -0.10771E-01
        -0.11750E-01
        -0.11750E-01
        -0.10771E-01
        -0.10771E-01
        -0.10771E-01
        -0.11750E-01
        -0.11750E-01
        -0.11750E-01
        -0.10771E-01
        -0.10771E-01
        -0.11750E-01
        -0.11750E-01
        -0.10771E-01
        -0.10771E-01
        -0.11750E-01
        -0.11750E-01
        -0.10771E-01
        -0.10771E-01
        -0.11750E-01
        -0.11750E-01
        -0.10771E-01
        -0.11750E-01
        -0.10771E-01
        -0.11750E-01
        -0.10771E-01
        -0.11750E-01
        -0.10771E-01
        -0.11750E-01
        -0.10771E-01
        -0.10771E-01
        -0.11750E-01
        -0.11750E-01
        -0.10771E-01
        -0.10771E-01
        -0.11750E-01
        -0.11750E-01
        -0.10771E-01
        -0.11750E-01
        -0.10771E-01
        -0.11750E-01
        -0.10771E-01
        -0.10771E-01
        -0.11750E-01
        -0.11750E-01
        -0.10771E-01
        -0.11750E-01
        -0.10771E-01
        -0.11750E-01
        -0.10771E-01
        -0.11750E-01
        -0.10771E-01
        -0.11750E-01
        -0.10771E-01
        -0.10771E-01
        -0.11750E-01
        -0.11750E-01
        -0.10771E-01
        -0.11750E-01
        -0.10771E-01
        -0.11750E-01
        -0.10771E-01
        -0.11750E-01
        -0.10771E-01
        -0.10771E-01
        -0.11750E-01
        -0.11750E-01
        -0.10771E-01
        -0.11750E-01
        -0.10771E-01
        -0.11750E-01
        -0.10771E-01
        -0.11750E-01
        -0.10771E-01
        -0.10771E-01
        -0.11750E-01
        -0.11750E-01
        -0.10771E-01
        -0.10771E-01
        -0.11750E-01
        -0.11750E-01
        -0.10771E-01
        -0.11750E-01
        -0.10771E-01
        -0.11750E-01
        -0.10771E-01
        -0.11750E-01
        -0.10771E-01
        -0.11750E-01
        -0.10771E-01
        -0.11750E-01
        -0.10771E-01
        -0.11750E-01
        -0.10771E-01
        -0.11750E-01
        -0.10771E-01
        -0.11750E-01
        -0.10771E-01
        -0.11750E-01
        -0.10771E-01
        -0.11750E-01
        -0.10771E-01
        -0.11750E-01
        -0.10771E-01
        -0.11750E-01
        -0.10771E-01
        -0.11750E-01
        -0.10771E-01
        -0.11750E-01
        -0.10771E-01
        -0.11750E-01
        -0.10771E-01
        -0.11750E-01
        -0.10771E-01
        -0.11750E-01
        -0.10771E-01
        -0.11750E-01
        -0.10771E-01
        -0.11750E-01
        -0.10771E-01
        -0.11750E-01
        -0.10771E-01
        -0.11750E-01
        -0.10771E-01
        -0.11750E-01
        -0.10771E-01
        -0.11750E-01
        -0.10771E-01
        -0.11750E-01
        -0.97917E-02
        -0.97917E-02
        -0.97917E-02
        -0.97917E-02
        -0.97917E-02
        -0.97917E-02
        -0.97917E-02
        -0.97917E-02
        -0.97917E-02
        -0.97917E-02
        -0.97917E-02
        -0.97917E-02
        -0.97917E-02
        -0.97917E-02
        -0.97917E-02
        -0.97917E-02
        -0.97917E-02
        -0.97917E-02
        -0.97917E-02
        -0.97917E-02
        -0.97917E-02
        -0.97917E-02
        -0.97917E-02
        -0.97917E-02
        -0.97917E-02
        -0.97917E-02
        -0.97917E-02
        -0.97917E-02
        -0.97917E-02
        -0.97917E-02
        -0.97917E-02
        -0.97917E-02
        -0.97917E-02
        -0.97917E-02
        -0.97917E-02
        -0.97917E-02
        -0.97917E-02
        -0.97917E-02
        -0.97917E-02
        -0.97917E-02
        -0.97917E-02
        -0.97917E-02
        -0.97917E-02
        -0.97917E-02
        -0.97917E-02
        -0.97917E-02
        -0.97917E-02
        -0.97917E-02
        -0.97917E-02
        -0.97917E-02
        -0.97917E-02
        -0.97917E-02
        -0.97917E-02
        -0.97917E-02
        -0.97917E-02
        -0.97917E-02
        -0.97917E-02
        -0.97917E-02
        -0.97917E-02
        -0.97917E-02
        -0.97917E-02
        -0.97917E-02
        -0.97917E-02
        -0.97917E-02
        -0.97917E-02
        -0.97917E-02
        -0.97917E-02
        -0.97917E-02
        -0.97917E-02
        -0.97917E-02
        -0.97917E-02
        -0.97917E-02
        -0.97917E-02
        -0.97917E-02
        -0.97917E-02
        -0.97917E-02
        -0.97917E-02
        -0.97917E-02
        -0.88125E-02
        -0.88125E-02
        -0.88125E-02
        -0.88125E-02
        -0.88125E-02
        -0.88125E-02
        -0.88125E-02
        -0.88125E-02
        -0.88125E-02
        -0.88125E-02
        -0.88125E-02
        -0.88125E-02
        -0.88125E-02
        -0.88125E-02
        -0.88125E-02
        -0.88125E-02
        -0.88125E-02
        -0.88125E-02
        -0.88125E-02
        -0.88125E-02
        -0.88125E-02
        -0.88125E-02
        -0.88125E-02
        -0.88125E-02
        -0.88125E-02
        -0.88125E-02
        -0.88125E-02
        -0.88125E-02
        -0.88125E-02
        -0.88125E-02
        -0.88125E-02
        -0.88125E-02
        -0.88125E-02
        -0.88125E-02
        -0.88125E-02
        -0.88125E-02
        -0.88125E-02
        -0.88125E-02
        -0.88125E-02
        -0.88125E-02
        -0.88125E-02
        -0.88125E-02
        -0.88125E-02
        -0.88125E-02
        -0.88125E-02
        -0.88125E-02
        -0.88125E-02
        -0.88125E-02
        -0.88125E-02
        -0.88125E-02
        -0.88125E-02
        -0.88125E-02
        -0.88125E-02
        -0.88125E-02
        -0.88125E-02
        -0.88125E-02
        -0.88125E-02
        -0.88125E-02
        -0.88125E-02
        -0.88125E-02
        -0.88125E-02
        -0.88125E-02
        -0.88125E-02
        -0.88125E-02
        -0.88125E-02
        -0.88125E-02
        -0.88125E-02
        -0.88125E-02
        -0.88125E-02
        -0.88125E-02
        -0.88125E-02
        -0.88125E-02
        -0.88125E-02
        -0.88125E-02
        -0.88125E-02
        -0.88125E-02
        -0.88125E-02
        -0.88125E-02
        -0.78333E-02
        -0.78333E-02
        -0.78333E-02
        -0.78333E-02
        -0.78333E-02
        -0.78333E-02
        -0.78333E-02
        -0.78333E-02
        -0.78333E-02
        -0.78333E-02
        -0.78333E-02
        -0.78333E-02
        -0.78333E-02
        -0.78333E-02
        -0.78333E-02
        -0.78333E-02
        -0.78333E-02
        -0.78333E-02
        -0.78333E-02
        -0.78333E-02
        -0.78333E-02
        -0.78333E-02
        -0.78333E-02
        -0.78333E-02
        -0.78333E-02
        -0.78333E-02
        -0.78333E-02
        -0.78333E-02
        -0.78333E-02
        -0.78333E-02
        -0.78333E-02
        -0.78333E-02
        -0.78333E-02
        -0.78333E-02
        -0.78333E-02
        -0.78333E-02
        -0.78333E-02
        -0.78333E-02
        -0.78333E-02
        -0.78333E-02
        -0.78333E-02
        -0.78333E-02
        -0.78333E-02
        -0.78333E-02
        -0.78333E-02
        -0.78333E-02
        -0.78333E-02
        -0.78333E-02
        -0.78333E-02
        -0.78333E-02
        -0.78333E-02
        -0.78333E-02
        -0.78333E-02
        -0.78333E-02
        -0.78333E-02
        -0.78333E-02
        -0.78333E-02
        -0.78333E-02
        -0.78333E-02
        -0.78333E-02
        -0.78333E-02
        -0.78333E-02
        -0.78333E-02
        -0.78333E-02
        -0.78333E-02
        -0.78333E-02
        -0.78333E-02
        -0.78333E-02
        -0.78333E-02
        -0.78333E-02
        -0.78333E-02
        -0.78333E-02
        -0.78333E-02
        -0.78333E-02
        -0.78333E-02
        -0.78333E-02
        -0.78333E-02
        -0.78333E-02
        -0.68542E-02
        -0.68542E-02
        -0.68542E-02
        -0.68542E-02
        -0.68542E-02
        -0.68542E-02
        -0.68542E-02
        -0.68542E-02
        -0.68542E-02
        -0.68542E-02
        -0.68542E-02
        -0.68542E-02
        -0.68542E-02
        -0.68542E-02
        -0.68542E-02
        -0.68542E-02
        -0.68542E-02
        -0.68542E-02
        -0.68542E-02
        -0.68542E-02
        -0.68542E-02
        -0.68542E-02
        -0.68542E-02
        -0.68542E-02
        -0.68542E-02
        -0.68542E-02
        -0.68542E-02
        -0.68542E-02
        -0.68542E-02
        -0.68542E-02
        -0.68542E-02
        -0.68542E-02
        -0.68542E-02
        -0.68542E-02
        -0.68542E-02
        -0.68542E-02
        -0.68542E-02
        -0.68542E-02
        -0.68542E-02
        -0.68542E-02
        -0.68542E-02
        -0.68542E-02
        -0.68542E-02
        -0.68542E-02
        -0.68542E-02
        -0.68542E-02
        -0.68542E-02
        -0.68542E-02
        -0.68542E-02
        -0.68542E-02
        -0.68542E-02
        -0.68542E-02
        -0.68542E-02
        -0.68542E-02
        -0.68542E-02
        -0.68542E-02
        -0.68542E-02
        -0.68542E-02
        -0.68542E-02
        -0.68542E-02
        -0.68542E-02
        -0.68542E-02
        -0.68542E-02
        -0.68542E-02
        -0.68542E-02
        -0.68542E-02
        -0.68542E-02
        -0.68542E-02
        -0.68542E-02
        -0.68542E-02
        -0.68542E-02
        -0.68542E-02
        -0.68542E-02
        -0.68542E-02
        -0.68542E-02
        -0.68542E-02
        -0.68542E-02
        -0.68542E-02
        -0.58750E-02
        -0.58750E-02
        -0.58750E-02
        -0.58750E-02
        -0.58750E-02
        -0.58750E-02
        -0.58750E-02
        -0.58750E-02
        -0.58750E-02
        -0.58750E-02
        -0.58750E-02
        -0.58750E-02
        -0.58750E-02
        -0.58750E-02
        -0.58750E-02
        -0.58750E-02
        -0.58750E-02
        -0.58750E-02
        -0.58750E-02
        -0.58750E-02
        -0.58750E-02
        -0.58750E-02
        -0.58750E-02
        -0.58750E-02
        -0.58750E-02
        -0.58750E-02
        -0.58750E-02
        -0.58750E-02
        -0.58750E-02
        -0.58750E-02
        -0.58750E-02
        -0.58750E-02
        -0.58750E-02
        -0.58750E-02
        -0.58750E-02
        -0.58750E-02
        -0.58750E-02
        -0.58750E-02
        -0.58750E-02
        -0.58750E-02
        -0.58750E-02
        -0.58750E-02
        -0.58750E-02
        -0.58750E-02
        -0.58750E-02
        -0.58750E-02
        -0.58750E-02
        -0.58750E-02
        -0.58750E-02
        -0.58750E-02
        -0.58750E-02
        -0.58750E-02
        -0.58750E-02
        -0.58750E-02
        -0.58750E-02
        -0.58750E-02
        -0.58750E-02
        -0.58750E-02
        -0.58750E-02
        -0.58750E-02
        -0.58750E-02
        -0.58750E-02
        -0.58750E-02
        -0.58750E-02
        -0.58750E-02
        -0.58750E-02
        -0.58750E-02
        -0.58750E-02
        -0.58750E-02
        -0.58750E-02
        -0.58750E-02
        -0.58750E-02
        -0.58750E-02
        -0.58750E-02
        -0.58750E-02
        -0.58750E-02
        -0.58750E-02
        -0.58750E-02
        -0.48958E-02
        -0.48958E-02
        -0.48958E-02
        -0.48958E-02
        -0.48958E-02
        -0.48958E-02
        -0.48958E-02
        -0.48958E-02
        -0.48958E-02
        -0.48958E-02
        -0.48958E-02
        -0.48958E-02
        -0.48958E-02
        -0.48958E-02
        -0.48958E-02
        -0.48958E-02
        -0.48958E-02
        -0.48958E-02
        -0.48958E-02
        -0.48958E-02
        -0.48958E-02
        -0.48958E-02
        -0.48958E-02
        -0.48958E-02
        -0.48958E-02
        -0.48958E-02
        -0.48958E-02
        -0.48958E-02
        -0.48958E-02
        -0.48958E-02
        -0.48958E-02
        -0.48958E-02
        -0.48958E-02
        -0.48958E-02
        -0.48958E-02
        -0.48958E-02
        -0.48958E-02
        -0.48958E-02
        -0.48958E-02
        -0.48958E-02
        -0.48958E-02
        -0.48958E-02
        -0.48958E-02
        -0.48958E-02
        -0.48958E-02
        -0.48958E-02
        -0.48958E-02
        -0.48958E-02
        -0.48958E-02
        -0.48958E-02
        -0.48958E-02
        -0.48958E-02
        -0.48958E-02
        -0.48958E-02
        -0.48958E-02
        -0.48958E-02
        -0.48958E-02
        -0.48958E-02
        -0.48958E-02
        -0.48958E-02
        -0.48958E-02
        -0.48958E-02
        -0.48958E-02
        -0.48958E-02
        -0.48958E-02
        -0.48958E-02
        -0.48958E-02
        -0.48958E-02
        -0.48958E-02
        -0.48958E-02
        -0.48958E-02
        -0.48958E-02
        -0.48958E-02
        -0.48958E-02
        -0.48958E-02
        -0.48958E-02
        -0.48958E-02
        -0.48958E-02
        -0.39167E-02
        -0.39167E-02
        -0.39167E-02
        -0.39167E-02
        -0.39167E-02
        -0.39167E-02
        -0.39167E-02
        -0.39167E-02
        -0.39167E-02
        -0.39167E-02
        -0.39167E-02
        -0.39167E-02
        -0.39167E-02
        -0.39167E-02
        -0.39167E-02
        -0.39167E-02
        -0.39167E-02
        -0.39167E-02
        -0.39167E-02
        -0.39167E-02
        -0.39167E-02
        -0.39167E-02
        -0.39167E-02
        -0.39167E-02
        -0.39167E-02
        -0.39167E-02
        -0.39167E-02
        -0.39167E-02
        -0.39167E-02
        -0.39167E-02
        -0.39167E-02
        -0.39167E-02
        -0.39167E-02
        -0.39167E-02
        -0.39167E-02
        -0.39167E-02
        -0.39167E-02
        -0.39167E-02
        -0.39167E-02
        -0.39167E-02
        -0.39167E-02
        -0.39167E-02
        -0.39167E-02
        -0.39167E-02
        -0.39167E-02
        -0.39167E-02
        -0.39167E-02
        -0.39167E-02
        -0.39167E-02
        -0.39167E-02
        -0.39167E-02
        -0.39167E-02
        -0.39167E-02
        -0.39167E-02
        -0.39167E-02
        -0.39167E-02
        -0.39167E-02
        -0.39167E-02
        -0.39167E-02
        -0.39167E-02
        -0.39167E-02
        -0.39167E-02
        -0.39167E-02
        -0.39167E-02
        -0.39167E-02
        -0.39167E-02
        -0.39167E-02
        -0.39167E-02
        -0.39167E-02
        -0.39167E-02
        -0.39167E-02
        -0.39167E-02
        -0.39167E-02
        -0.39167E-02
        -0.39167E-02
        -0.39167E-02
        -0.39167E-02
        -0.39167E-02
        -0.29375E-02
        -0.29375E-02
        -0.29375E-02
        -0.29375E-02
        -0.29375E-02
        -0.29375E-02
        -0.29375E-02
        -0.29375E-02
        -0.29375E-02
        -0.29375E-02
        -0.29375E-02
        -0.29375E-02
        -0.29375E-02
        -0.29375E-02
        -0.29375E-02
        -0.29375E-02
        -0.29375E-02
        -0.29375E-02
        -0.29375E-02
        -0.29375E-02
        -0.29375E-02
        -0.29375E-02
        -0.29375E-02
        -0.29375E-02
        -0.29375E-02
        -0.29375E-02
        -0.29375E-02
        -0.29375E-02
        -0.29375E-02
        -0.29375E-02
        -0.29375E-02
        -0.29375E-02
        -0.29375E-02
        -0.29375E-02
        -0.29375E-02
        -0.29375E-02
        -0.29375E-02
        -0.29375E-02
        -0.29375E-02
        -0.29375E-02
        -0.29375E-02
        -0.29375E-02
        -0.29375E-02
        -0.29375E-02
        -0.29375E-02
        -0.29375E-02
        -0.29375E-02
        -0.29375E-02
        -0.29375E-02
        -0.29375E-02
        -0.29375E-02
        -0.29375E-02
        -0.29375E-02
        -0.29375E-02
        -0.29375E-02
        -0.29375E-02
        -0.29375E-02
        -0.29375E-02
        -0.29375E-02
        -0.29375E-02
        -0.29375E-02
        -0.29375E-02
        -0.29375E-02
        -0.29375E-02
        -0.29375E-02
        -0.29375E-02
        -0.29375E-02
        -0.29375E-02
        -0.29375E-02
        -0.29375E-02
        -0.29375E-02
        -0.29375E-02
        -0.29375E-02
        -0.29375E-02
        -0.29375E-02
        -0.29375E-02
        -0.29375E-02
        -0.29375E-02
        -0.19583E-02
        -0.19583E-02
        -0.19583E-02
        -0.19583E-02
        -0.19583E-02
        -0.19583E-02
        -0.19583E-02
        -0.19583E-02
        -0.19583E-02
        -0.19583E-02
        -0.19583E-02
        -0.19583E-02
        -0.19583E-02
        -0.19583E-02
        -0.19583E-02
        -0.19583E-02
        -0.19583E-02
        -0.19583E-02
        -0.19583E-02
        -0.19583E-02
        -0.19583E-02
        -0.19583E-02
        -0.19583E-02
        -0.19583E-02
        -0.19583E-02
        -0.19583E-02
        -0.19583E-02
        -0.19583E-02
        -0.19583E-02
        -0.19583E-02
        -0.19583E-02
        -0.19583E-02
        -0.19583E-02
        -0.19583E-02
        -0.19583E-02
        -0.19583E-02
        -0.19583E-02
        -0.19583E-02
        -0.19583E-02
        -0.19583E-02
        -0.19583E-02
        -0.19583E-02
        -0.19583E-02
        -0.19583E-02
        -0.19583E-02
        -0.19583E-02
        -0.19583E-02
        -0.19583E-02
        -0.19583E-02
        -0.19583E-02
        -0.19583E-02
        -0.19583E-02
        -0.19583E-02
        -0.19583E-02
        -0.19583E-02
        -0.19583E-02
        -0.19583E-02
        -0.19583E-02
        -0.19583E-02
        -0.19583E-02
        -0.19583E-02
        -0.19583E-02
        -0.19583E-02
        -0.19583E-02
        -0.19583E-02
        -0.19583E-02
        -0.19583E-02
        -0.19583E-02
        -0.19583E-02
        -0.19583E-02
        -0.19583E-02
        -0.19583E-02
        -0.19583E-02
        -0.19583E-02
        -0.19583E-02
        -0.19583E-02
        -0.19583E-02
        -0.19583E-02
        -0.97917E-03
        -0.97917E-03
        -0.97917E-03
        -0.97917E-03
        -0.97917E-03
        -0.97917E-03
        -0.97917E-03
        -0.97917E-03
        -0.97917E-03
        -0.97917E-03
        -0.97917E-03
        -0.97917E-03
        -0.97917E-03
        -0.97917E-03
        -0.97917E-03
        -0.97917E-03
        -0.97917E-03
        -0.97917E-03
        -0.97917E-03
        -0.97917E-03
        -0.97917E-03
        -0.97917E-03
        -0.97917E-03
        -0.97917E-03
        -0.97917E-03
        -0.97917E-03
        -0.97917E-03
        -0.97917E-03
        -0.97917E-03
        -0.97917E-03
        -0.97917E-03
        -0.97917E-03
        -0.97917E-03
        -0.97917E-03
        -0.97917E-03
        -0.97917E-03
        -0.97917E-03
        -0.97917E-03
        -0.97917E-03
        -0.97917E-03
        -0.97917E-03
        -0.97917E-03
        -0.97917E-03
        -0.97917E-03
        -0.97917E-03
        -0.97917E-03
        -0.97917E-03
        -0.97917E-03
        -0.97917E-03
        -0.97917E-03
        -0.97917E-03
        -0.97917E-03
        -0.97917E-03
        -0.97917E-03
        -0.97917E-03
        -0.97917E-03
        -0.97917E-03
        -0.97917E-03
        -0.97917E-03
        -0.97917E-03
        -0.97917E-03
        -0.97917E-03
        -0.97917E-03
        -0.97917E-03
        -0.97917E-03
        -0.97917E-03
        -0.97917E-03
        -0.97917E-03
        -0.97917E-03
        -0.97917E-03
        -0.97917E-03
        -0.97917E-03
        -0.97917E-03
        -0.97917E-03
        -0.97917E-03
        -0.97917E-03
        -0.97917E-03
        -0.97917E-03
         0.38917E-18
         0.44621E-18
         0.34485E-18
         0.23671E-18
         0.26613E-18
         0.16162E-18
         0.53980E-18
         0.50579E-18
         0.36337E-18
         0.48798E-18
         0.60712E-18
         0.67611E-18
         0.60634E-18
         0.60658E-18
         0.70997E-18
         0.20892E-18
         0.35894E-18
         0.21887E-18
         0.27638E-18
         0.38382E-18
         0.29058E-18
         0.40326E-18
         0.18564E-18
         0.19650E-18
         0.48570E-18
         0.12837E-18
         0.60589E-18
         0.60416E-18
         0.60524E-18
         0.49621E-18
         0.61582E-19
         0.32255E-19
         0.73874E-19
         0.78478E-19
         0.34514E-18
         0.42054E-18
         0.51644E-18
         0.72521E-18
         0.72233E-18
         0.70722E-18
         0.69126E-18
         0.61573E-18
         0.51484E-18
         0.91170E-19
         0.30347E-20
        -0.66516E-19
        -0.69988E-19
        -0.68643E-19
        -0.59779E-19
        -0.43507E-19
        -0.29471E-19
         0.53205E-19
         0.86819E-18
         0.00000E+00
         0.86819E-18
         0.86819E-18
         0.00000E+00
         0.00000E+00
         0.00000E+00
         0.17364E-17
         0.17364E-17
         0.17364E-17
         0.43410E-18
         0.43410E-18
         0.43410E-18
         0.00000E+00
         0.00000E+00
         0.00000E+00
         0.00000E+00
         0.00000E+00
         0.21705E-18
        -0.21705E-18
         0.00000E+00
         0.00000E+00
         0.00000E+00
        -0.32557E-18
         0.54262E-19
        -0.40697E-18
         0.97917E-03
         0.97917E-03
         0.97917E-03
         0.97917E-03
         0.97917E-03
         0.97917E-03
         0.97917E-03
         0.97917E-03
         0.97917E-03
         0.97917E-03
         0.97917E-03
         0.97917E-03
         0.97917E-03
         0.97917E-03
         0.97917E-03
         0.97917E-03
         0.97917E-03
         0.97917E-03
         0.97917E-03
         0.97917E-03
         0.97917E-03
         0.97917E-03
         0.97917E-03
         0.97917E-03
         0.97917E-03
         0.97917E-03
         0.97917E-03
         0.97917E-03
         0.97917E-03
         0.97917E-03
         0.97917E-03
         0.97917E-03
         0.97917E-03
         0.97917E-03
         0.97917E-03
         0.97917E-03
         0.97917E-03
         0.97917E-03
         0.97917E-03
         0.97917E-03
         0.97917E-03
         0.97917E-03
         0.97917E-03
         0.97917E-03
         0.97917E-03
         0.97917E-03
         0.97917E-03
         0.97917E-03
         0.97917E-03
         0.97917E-03
         0.97917E-03
         0.97917E-03
         0.97917E-03
         0.97917E-03
         0.97917E-03
         0.97917E-03
         0.97917E-03
         0.97917E-03
         0.97917E-03
         0.97917E-03
         0.97917E-03
         0.97917E-03
         0.97917E-03
         0.97917E-03
         0.97917E-03
         0.97917E-03
         0.97917E-03
         0.97917E-03
         0.97917E-03
         0.97917E-03
         0.97917E-03
         0.97917E-03
         0.97917E-03
         0.97917E-03
         0.97917E-03
         0.97917E-03
         0.97917E-03
         0.97917E-03
         0.19583E-02
         0.19583E-02
         0.19583E-02
         0.19583E-02
         0.19583E-02
         0.19583E-02
         0.19583E-02
         0.19583E-02
         0.19583E-02
         0.19583E-02
         0.19583E-02
         0.19583E-02
         0.19583E-02
         0.19583E-02
         0.19583E-02
         0.19583E-02
         0.19583E-02
         0.19583E-02
         0.19583E-02
         0.19583E-02
         0.19583E-02
         0.19583E-02
         0.19583E-02
         0.19583E-02
         0.19583E-02
         0.19583E-02
         0.19583E-02
         0.19583E-02
         0.19583E-02
         0.19583E-02
         0.19583E-02
         0.19583E-02
         0.19583E-02
         0.19583E-02
         0.19583E-02
         0.19583E-02
         0.19583E-02
         0.19583E-02
         0.19583E-02
         0.19583E-02
         0.19583E-02
         0.19583E-02
         0.19583E-02
         0.19583E-02
         0.19583E-02
         0.19583E-02
         0.19583E-02
         0.19583E-02
         0.19583E-02
         0.19583E-02
         0.19583E-02
         0.19583E-02
         0.19583E-02
         0.19583E-02
         0.19583E-02
         0.19583E-02
         0.19583E-02
         0.19583E-02
         0.19583E-02
         0.19583E-02
         0.19583E-02
         0.19583E-02
         0.19583E-02
         0.19583E-02
         0.19583E-02
         0.19583E-02
         0.19583E-02
         0.19583E-02
         0.19583E-02
         0.19583E-02
         0.19583E-02
         0.19583E-02
         0.19583E-02
         0.19583E-02
         0.19583E-02
         0.19583E-02
         0.19583E-02
         0.19583E-02
         0.29375E-02
         0.29375E-02
         0.29375E-02
         0.29375E-02
         0.29375E-02
         0.29375E-02
         0.29375E-02
         0.29375E-02
         0.29375E-02
         0.29375E-02
         0.29375E-02
         0.29375E-02
         0.29375E-02
         0.29375E-02
         0.29375E-02
         0.29375E-02
         0.29375E-02
         0.29375E-02
         0.29375E-02
         0.29375E-02
         0.29375E-02
         0.29375E-02
         0.29375E-02
         0.29375E-02
         0.29375E-02
         0.29375E-02
         0.29375E-02
         0.29375E-02
         0.29375E-02
         0.29375E-02
         0.29375E-02
         0.29375E-02
         0.29375E-02
         0.29375E-02
         0.29375E-02
         0.29375E-02
         0.29375E-02
         0.29375E-02
         0.29375E-02
         0.29375E-02
         0.29375E-02
         0.29375E-02
         0.29375E-02
         0.29375E-02
         0.29375E-02
         0.29375E-02
         0.29375E-02
         0.29375E-02
         0.29375E-02
         0.29375E-02
         0.29375E-02
         0.29375E-02
         0.29375E-02
         0.29375E-02
         0.29375E-02
         0.29375E-02
         0.29375E-02
         0.29375E-02
         0.29375E-02
         0.29375E-02
         0.29375E-02
         0.29375E-02
         0.29375E-02
         0.29375E-02
         0.29375E-02
         0.29375E-02
         0.29375E-02
         0.29375E-02
         0.29375E-02
         0.29375E-02
         0.29375E-02
         0.29375E-02
         0.29375E-02
         0.29375E-02
         0.29375E-02
         0.29375E-02
         0.29375E-02
         0.29375E-02
         0.39167E-02
         0.39167E-02
         0.39167E-02
         0.39167E-02
         0.39167E-02
         0.39167E-02
         0.39167E-02
         0.39167E-02
         0.39167E-02
         0.39167E-02
         0.39167E-02
         0.39167E-02
         0.39167E-02
         0.39167E-02
         0.39167E-02
         0.39167E-02
         0.39167E-02
         0.39167E-02
         0.39167E-02
         0.39167E-02
         0.39167E-02
         0.39167E-02
         0.39167E-02
         0.39167E-02
         0.39167E-02
         0.39167E-02
         0.39167E-02
         0.39167E-02
         0.39167E-02
         0.39167E-02
         0.39167E-02
         0.39167E-02
         0.39167E-02
         0.39167E-02
         0.39167E-02
         0.39167E-02
         0.39167E-02
         0.39167E-02
         0.39167E-02
         0.39167E-02
         0.39167E-02
         0.39167E-02
         0.39167E-02
         0.39167E-02
         0.39167E-02
         0.39167E-02
         0.39167E-02
         0.39167E-02
         0.39167E-02
         0.39167E-02
         0.39167E-02
         0.39167E-02
         0.39167E-02
         0.39167E-02
         0.39167E-02
         0.39167E-02
         0.39167E-02
         0.39167E-02
         0.39167E-02
         0.39167E-02
         0.39167E-02
         0.39167E-02
         0.39167E-02
         0.39167E-02
         0.39167E-02
         0.39167E-02
         0.39167E-02
         0.39167E-02
         0.39167E-02
         0.39167E-02
         0.39167E-02
         0.39167E-02
         0.39167E-02
         0.39167E-02
         0.39167E-02
         0.39167E-02
         0.39167E-02
         0.39167E-02
         0.48958E-02
         0.48958E-02
         0.48958E-02
         0.48958E-02
         0.48958E-02
         0.48958E-02
         0.48958E-02
         0.48958E-02
         0.48958E-02
         0.48958E-02
         0.48958E-02
         0.48958E-02
         0.48958E-02
         0.48958E-02
         0.48958E-02
         0.48958E-02
         0.48958E-02
         0.48958E-02
         0.48958E-02
         0.48958E-02
         0.48958E-02
         0.48958E-02
         0.48958E-02
         0.48958E-02
         0.48958E-02
         0.48958E-02
         0.48958E-02
         0.48958E-02
         0.48958E-02
         0.48958E-02
         0.48958E-02
         0.48958E-02
         0.48958E-02
         0.48958E-02
         0.48958E-02
         0.48958E-02
         0.48958E-02
         0.48958E-02
         0.48958E-02
         0.48958E-02
         0.48958E-02
         0.48958E-02
         0.48958E-02
         0.48958E-02
         0.48958E-02
         0.48958E-02
         0.48958E-02
         0.48958E-02
         0.48958E-02
         0.48958E-02
         0.48958E-02
         0.48958E-02
         0.48958E-02
         0.48958E-02
         0.48958E-02
         0.48958E-02
         0.48958E-02
         0.48958E-02
         0.48958E-02
         0.48958E-02
         0.48958E-02
         0.48958E-02
         0.48958E-02
         0.48958E-02
         0.48958E-02
         0.48958E-02
         0.48958E-02
         0.48958E-02
         0.48958E-02
         0.48958E-02
         0.48958E-02
         0.48958E-02
         0.48958E-02
         0.48958E-02
         0.48958E-02
         0.48958E-02
         0.48958E-02
         0.48958E-02
         0.58750E-02
         0.58750E-02
         0.58750E-02
         0.58750E-02
         0.58750E-02
         0.58750E-02
         0.58750E-02
         0.58750E-02
         0.58750E-02
         0.58750E-02
         0.58750E-02
         0.58750E-02
         0.58750E-02
         0.58750E-02
         0.58750E-02
         0.58750E-02
         0.58750E-02
         0.58750E-02
         0.58750E-02
         0.58750E-02
         0.58750E-02
         0.58750E-02
         0.58750E-02
         0.58750E-02
         0.58750E-02
         0.58750E-02
         0.58750E-02
         0.58750E-02
         0.58750E-02
         0.58750E-02
         0.58750E-02
         0.58750E-02
         0.58750E-02
         0.58750E-02
         0.58750E-02
         0.58750E-02
         0.58750E-02
         0.58750E-02
         0.58750E-02
         0.58750E-02
         0.58750E-02
         0.58750E-02
         0.58750E-02
         0.58750E-02
         0.58750E-02
         0.58750E-02
         0.58750E-02
         0.58750E-02
         0.58750E-02
         0.58750E-02
         0.58750E-02
         0.58750E-02
         0.58750E-02
         0.58750E-02
         0.58750E-02
         0.58750E-02
         0.58750E-02
         0.58750E-02
         0.58750E-02
         0.58750E-02
         0.58750E-02
         0.58750E-02
         0.58750E-02
         0.58750E-02
         0.58750E-02
         0.58750E-02
         0.58750E-02
         0.58750E-02
         0.58750E-02
         0.58750E-02
         0.58750E-02
         0.58750E-02
         0.58750E-02
         0.58750E-02
         0.58750E-02
         0.58750E-02
         0.58750E-02
         0.58750E-02
         0.68542E-02
         0.68542E-02
         0.68542E-02
         0.68542E-02
         0.68542E-02
         0.68542E-02
         0.68542E-02
         0.68542E-02
         0.68542E-02
         0.68542E-02
         0.68542E-02
         0.68542E-02
         0.68542E-02
         0.68542E-02
         0.68542E-02
         0.68542E-02
         0.68542E-02
         0.68542E-02
         0.68542E-02
         0.68542E-02
         0.68542E-02
         0.68542E-02
         0.68542E-02
         0.68542E-02
         0.68542E-02
         0.68542E-02
         0.68542E-02
         0.68542E-02
         0.68542E-02
         0.68542E-02
         0.68542E-02
         0.68542E-02
         0.68542E-02
         0.68542E-02
         0.68542E-02
         0.68542E-02
         0.68542E-02
         0.68542E-02
         0.68542E-02
         0.68542E-02
         0.68542E-02
         0.68542E-02
         0.68542E-02
         0.68542E-02
         0.68542E-02
         0.68542E-02
         0.68542E-02
         0.68542E-02
         0.68542E-02
         0.68542E-02
         0.68542E-02
         0.68542E-02
         0.68542E-02
         0.68542E-02
         0.68542E-02
         0.68542E-02
         0.68542E-02
         0.68542E-02
         0.68542E-02
         0.68542E-02
         0.68542E-02
         0.68542E-02
         0.68542E-02
         0.68542E-02
         0.68542E-02
         0.68542E-02
         0.68542E-02
         0.68542E-02
         0.68542E-02
         0.68542E-02
         0.68542E-02
         0.68542E-02
         0.68542E-02
         0.68542E-02
         0.68542E-02
         0.68542E-02
         0.68542E-02
         0.68542E-02
         0.78333E-02
         0.78333E-02
         0.78333E-02
         0.78333E-02
         0.78333E-02
         0.78333E-02
         0.78333E-02
         0.78333E-02
         0.78333E-02
         0.78333E-02
         0.78333E-02
         0.78333E-02
         0.78333E-02
         0.78333E-02
         0.78333E-02
         0.78333E-02
         0.78333E-02
         0.78333E-02
         0.78333E-02
         0.78333E-02
         0.78333E-02
         0.78333E-02
         0.78333E-02
         0.78333E-02
         0.78333E-02
         0.78333E-02
         0.78333E-02
         0.78333E-02
         0.78333E-02
         0.78333E-02
         0.78333E-02
         0.78333E-02
         0.78333E-02
         0.78333E-02
         0.78333E-02
         0.78333E-02
         0.78333E-02
         0.78333E-02
         0.78333E-02
         0.78333E-02
         0.78333E-02
         0.78333E-02
         0.78333E-02
         0.78333E-02
         0.78333E-02
         0.78333E-02
         0.78333E-02
         0.78333E-02
         0.78333E-02
         0.78333E-02
         0.78333E-02
         0.78333E-02
         0.78333E-02
         0.78333E-02
         0.78333E-02
         0.78333E-02
         0.78333E-02
         0.78333E-02
         0.78333E-02
         0.78333E-02
         0.78333E-02
         0.78333E-02
         0.78333E-02
         0.78333E-02
         0.78333E-02
         0.78333E-02
         0.78333E-02
         0.78333E-02
         0.78333E-02
         0.78333E-02
         0.78333E-02
         0.78333E-02
         0.78333E-02
         0.78333E-02
         0.78333E-02
         0.78333E-02
         0.78333E-02
         0.78333E-02
         0.88125E-02
         0.88125E-02
         0.88125E-02
         0.88125E-02
         0.88125E-02
         0.88125E-02
         0.88125E-02
         0.88125E-02
         0.88125E-02
         0.88125E-02
         0.88125E-02
         0.88125E-02
         0.88125E-02
         0.88125E-02
         0.88125E-02
         0.88125E-02
         0.88125E-02
         0.88125E-02
         0.88125E-02
         0.88125E-02
         0.88125E-02
         0.88125E-02
         0.88125E-02
         0.88125E-02
         0.88125E-02
         0.88125E-02
         0.88125E-02
         0.88125E-02
         0.88125E-02
         0.88125E-02
         0.88125E-02
         0.88125E-02
         0.88125E-02
         0.88125E-02
         0.88125E-02
         0.88125E-02
         0.88125E-02
         0.88125E-02
         0.88125E-02
         0.88125E-02
         0.88125E-02
         0.88125E-02
         0.88125E-02
         0.88125E-02
         0.88125E-02
         0.88125E-02
         0.88125E-02
         0.88125E-02
         0.88125E-02
         0.88125E-02
         0.88125E-02
         0.88125E-02
         0.88125E-02
         0.88125E-02
         0.88125E-02
         0.88125E-02
         0.88125E-02
         0.88125E-02
         0.88125E-02
         0.88125E-02
         0.88125E-02
         0.88125E-02
         0.88125E-02
         0.88125E-02
         0.88125E-02
         0.88125E-02
         0.88125E-02
         0.88125E-02
         0.88125E-02
         0.88125E-02
         0.88125E-02
         0.88125E-02
         0.88125E-02
         0.88125E-02
         0.88125E-02
         0.88125E-02
         0.88125E-02
         0.88125E-02
         0.97917E-02
         0.97917E-02
         0.97917E-02
         0.97917E-02
         0.97917E-02
         0.97917E-02
         0.97917E-02
         0.97917E-02
         0.97917E-02
         0.97917E-02
         0.97917E-02
         0.97917E-02
         0.97917E-02
         0.97917E-02
         0.97917E-02
         0.97917E-02
         0.97917E-02
         0.97917E-02
         0.97917E-02
         0.97917E-02
         0.97917E-02
         0.97917E-02
         0.97917E-02
         0.97917E-02
         0.97917E-02
         0.97917E-02
         0.97917E-02
         0.97917E-02
         0.97917E-02
         0.97917E-02
         0.97917E-02
         0.97917E-02
         0.97917E-02
         0.97917E-02
         0.97917E-02
         0.97917E-02
         0.97917E-02
         0.97917E-02
         0.97917E-02
         0.97917E-02
         0.97917E-02
         0.97917E-02
         0.97917E-02
         0.97917E-02
         0.97917E-02
         0.97917E-02
         0.97917E-02
         0.97917E-02
         0.97917E-02
         0.97917E-02
         0.97917E-02
         0.97917E-02
         0.97917E-02
         0.97917E-02
         0.97917E-02
         0.97917E-02
         0.97917E-02
         0.97917E-02
         0.97917E-02
         0.97917E-02
         0.97917E-02
         0.97917E-02
         0.97917E-02
         0.97917E-02
         0.97917E-02
         0.97917E-02
         0.97917E-02
         0.97917E-02
         0.97917E-02
         0.97917E-02
         0.97917E-02
         0.97917E-02
         0.97917E-02
         0.97917E-02
         0.97917E-02
         0.97917E-02
         0.97917E-02
         0.97917E-02
         0.10771E-01
         0.10771E-01
         0.10771E-01
         0.10771E-01
         0.10771E-01
         0.10771E-01
         0.10771E-01
         0.10771E-01
         0.10771E-01
         0.10771E-01
         0.10771E-01
         0.10771E-01
         0.10771E-01
         0.10771E-01
         0.10771E-01
         0.10771E-01
         0.10771E-01
         0.10771E-01
         0.10771E-01
         0.10771E-01
         0.10771E-01
         0.10771E-01
         0.10771E-01
         0.10771E-01
         0.10771E-01
         0.10771E-01
         0.10771E-01
         0.10771E-01
         0.10771E-01
         0.10771E-01
         0.10771E-01
         0.10771E-01
         0.10771E-01
         0.10771E-01
         0.10771E-01
         0.10771E-01
         0.10771E-01
         0.10771E-01
         0.10771E-01
         0.10771E-01
         0.10771E-01
         0.10771E-01
         0.10771E-01
         0.10771E-01
         0.10771E-01
         0.10771E-01
         0.10771E-01
         0.10771E-01
         0.10771E-01
         0.10771E-01
         0.10771E-01
         0.10771E-01
         0.10771E-01
         0.10771E-01
         0.10771E-01
         0.10771E-01
         0.10771E-01
         0.10771E-01
         0.10771E-01
         0.10771E-01
         0.10771E-01
         0.10771E-01
         0.10771E-01
         0.10771E-01
         0.10771E-01
         0.10771E-01
         0.10771E-01
         0.10771E-01
         0.10771E-01
         0.10771E-01
         0.10771E-01
         0.10771E-01
         0.10771E-01
         0.10771E-01
         0.10771E-01
         0.10771E-01
         0.10771E-01
         0.10771E-01
         0.11750E-01
         0.11750E-01
         0.11750E-01
         0.11750E-01
         0.11750E-01
         0.11750E-01
         0.11750E-01
         0.11750E-01
         0.11750E-01
         0.11750E-01
         0.11750E-01
         0.11750E-01
         0.11750E-01
         0.11750E-01
         0.11750E-01
         0.11750E-01
         0.11750E-01
         0.11750E-01
         0.11750E-01
         0.11750E-01
         0.11750E-01
         0.11750E-01
         0.11750E-01
         0.11750E-01
         0.11750E-01
         0.11750E-01
         0.11750E-01
         0.11750E-01
         0.11750E-01
         0.11750E-01
         0.11750E-01
         0.11750E-01
         0.11750E-01
         0.11750E-01
         0.11750E-01
         0.11750E-01
         0.11750E-01
         0.11750E-01
         0.11750E-01
         0.11750E-01
         0.11750E-01
         0.11750E-01
         0.11750E-01
         0.11750E-01
         0.11750E-01
         0.11750E-01
         0.11750E-01
         0.11750E-01
         0.11750E-01
         0.11750E-01
         0.11750E-01
         0.11750E-01
         0.11750E-01
         0.11750E-01
         0.11750E-01
         0.11750E-01
         0.11750E-01
         0.11750E-01
         0.11750E-01
         0.11750E-01
         0.11750E-01
         0.11750E-01
         0.11750E-01
         0.11750E-01
         0.11750E-01
         0.11750E-01
         0.11750E-01
         0.11750E-01
         0.11750E-01
         0.11750E-01
         0.11750E-01
         0.11750E-01
         0.11750E-01
         0.11750E-01
         0.11750E-01
         0.11750E-01
         0.11750E-01
         0.11750E-01
  
SCALARS                init_velocity_x  double 1
LOOKUP_TABLE default
         0.00000E+00
         0.00000E+00
         0.00000E+00
         0.00000E+00
         0.00000E+00
         0.00000E+00
         0.00000E+00
         0.00000E+00
         0.00000E+00
         0.00000E+00
         0.00000E+00
         0.00000E+00
         0.00000E+00
         0.00000E+00
         0.00000E+00
         0.00000E+00
         0.00000E+00
         0.00000E+00
         0.00000E+00
         0.00000E+00
         0.00000E+00
         0.00000E+00
         0.00000E+00
         0.00000E+00
         0.00000E+00
         0.00000E+00
         0.00000E+00
         0.00000E+00
         0.00000E+00
         0.00000E+00
         0.00000E+00
         0.00000E+00
         0.00000E+00
         0.00000E+00
         0.00000E+00
         0.00000E+00
         0.00000E+00
         0.00000E+00
         0.00000E+00
         0.00000E+00
         0.00000E+00
         0.00000E+00
         0.00000E+00
         0.00000E+00
         0.00000E+00
         0.00000E+00
         0.00000E+00
         0.00000E+00
         0.00000E+00
         0.00000E+00
         0.00000E+00
         0.00000E+00
         0.00000E+00
         0.00000E+00
         0.00000E+00
         0.00000E+00
         0.00000E+00
         0.00000E+00
         0.00000E+00
         0.00000E+00
         0.00000E+00
         0.00000E+00
         0.00000E+00
         0.00000E+00
         0.00000E+00
         0.00000E+00
         0.00000E+00
         0.00000E+00
         0.00000E+00
         0.00000E+00
         0.00000E+00
         0.00000E+00
         0.00000E+00
         0.00000E+00
         0.00000E+00
         0.00000E+00
         0.00000E+00
         0.00000E+00
         0.00000E+00
         0.00000E+00
         0.00000E+00
         0.00000E+00
         0.00000E+00
         0.00000E+00
         0.00000E+00
         0.00000E+00
         0.00000E+00
         0.00000E+00
         0.00000E+00
         0.00000E+00
         0.00000E+00
         0.00000E+00
         0.00000E+00
         0.00000E+00
         0.00000E+00
         0.00000E+00
         0.00000E+00
         0.00000E+00
         0.00000E+00
         0.00000E+00
         0.00000E+00
         0.00000E+00
         0.00000E+00
         0.00000E+00
         0.00000E+00
         0.00000E+00
         0.00000E+00
         0.00000E+00
         0.00000E+00
         0.00000E+00
         0.00000E+00
         0.00000E+00
         0.00000E+00
         0.00000E+00
         0.00000E+00
         0.00000E+00
         0.00000E+00
         0.00000E+00
         0.00000E+00
         0.00000E+00
         0.00000E+00
         0.00000E+00
         0.00000E+00
         0.00000E+00
         0.00000E+00
         0.00000E+00
         0.00000E+00
         0.00000E+00
         0.00000E+00
         0.00000E+00
         0.00000E+00
         0.00000E+00
         0.00000E+00
         0.00000E+00
         0.00000E+00
         0.00000E+00
         0.00000E+00
         0.00000E+00
         0.00000E+00
         0.00000E+00
         0.00000E+00
         0.00000E+00
         0.00000E+00
         0.00000E+00
         0.00000E+00
         0.00000E+00
         0.00000E+00
         0.00000E+00
         0.00000E+00
         0.00000E+00
         0.00000E+00
         0.00000E+00
         0.00000E+00
         0.00000E+00
         0.00000E+00
         0.00000E+00
         0.00000E+00
         0.00000E+00
         0.00000E+00
         0.00000E+00
         0.00000E+00
         0.00000E+00
         0.00000E+00
         0.00000E+00
         0.00000E+00
         0.00000E+00
         0.00000E+00
         0.00000E+00
         0.00000E+00
         0.00000E+00
         0.00000E+00
         0.00000E+00
         0.00000E+00
         0.00000E+00
         0.00000E+00
         0.00000E+00
         0.00000E+00
         0.00000E+00
         0.00000E+00
         0.00000E+00
         0.00000E+00
         0.00000E+00
         0.00000E+00
         0.00000E+00
         0.00000E+00
         0.00000E+00
         0.00000E+00
         0.00000E+00
         0.00000E+00
         0.00000E+00
         0.00000E+00
         0.00000E+00
         0.00000E+00
         0.00000E+00
         0.00000E+00
         0.00000E+00
         0.00000E+00
         0.00000E+00
         0.00000E+00
         0.00000E+00
         0.00000E+00
         0.00000E+00
         0.00000E+00
         0.00000E+00
         0.00000E+00
         0.00000E+00
         0.00000E+00
         0.00000E+00
         0.00000E+00
         0.00000E+00
         0.00000E+00
         0.00000E+00
         0.00000E+00
         0.00000E+00
         0.00000E+00
         0.00000E+00
         0.00000E+00
         0.00000E+00
         0.00000E+00
         0.00000E+00
         0.00000E+00
         0.00000E+00
         0.00000E+00
         0.00000E+00
         0.00000E+00
         0.00000E+00
         0.00000E+00
         0.00000E+00
         0.00000E+00
         0.00000E+00
         0.00000E+00
         0.00000E+00
         0.00000E+00
         0.00000E+00
         0.00000E+00
         0.00000E+00
         0.00000E+00
         0.00000E+00
         0.00000E+00
         0.00000E+00
         0.00000E+00
         0.00000E+00
         0.00000E+00
         0.00000E+00
         0.00000E+00
         0.00000E+00
         0.00000E+00
         0.00000E+00
         0.00000E+00
         0.00000E+00
         0.00000E+00
         0.00000E+00
         0.00000E+00
         0.00000E+00
         0.00000E+00
         0.00000E+00
         0.00000E+00
         0.00000E+00
         0.00000E+00
         0.00000E+00
         0.00000E+00
         0.00000E+00
         0.00000E+00
         0.00000E+00
         0.00000E+00
         0.00000E+00
         0.00000E+00
         0.00000E+00
         0.00000E+00
         0.00000E+00
         0.00000E+00
         0.00000E+00
         0.00000E+00
         0.00000E+00
         0.00000E+00
         0.00000E+00
         0.00000E+00
         0.00000E+00
         0.00000E+00
         0.00000E+00
         0.00000E+00
         0.00000E+00
         0.00000E+00
         0.00000E+00
         0.00000E+00
         0.00000E+00
         0.00000E+00
         0.00000E+00
         0.00000E+00
         0.00000E+00
         0.00000E+00
         0.00000E+00
         0.00000E+00
         0.00000E+00
         0.00000E+00
         0.00000E+00
         0.00000E+00
         0.00000E+00
         0.00000E+00
         0.00000E+00
         0.00000E+00
         0.00000E+00
         0.00000E+00
         0.00000E+00
         0.00000E+00
         0.00000E+00
         0.00000E+00
         0.00000E+00
         0.00000E+00
         0.00000E+00
         0.00000E+00
         0.00000E+00
         0.00000E+00
         0.00000E+00
         0.00000E+00
         0.00000E+00
         0.00000E+00
         0.00000E+00
         0.00000E+00
         0.00000E+00
         0.00000E+00
         0.00000E+00
         0.00000E+00
         0.00000E+00
         0.00000E+00
         0.00000E+00
         0.00000E+00
         0.00000E+00
         0.00000E+00
         0.00000E+00
         0.00000E+00
         0.00000E+00
         0.00000E+00
         0.00000E+00
         0.00000E+00
         0.00000E+00
         0.00000E+00
         0.00000E+00
         0.00000E+00
         0.00000E+00
         0.00000E+00
         0.00000E+00
         0.00000E+00
         0.00000E+00
         0.00000E+00
         0.00000E+00
         0.00000E+00
         0.00000E+00
         0.00000E+00
         0.00000E+00
         0.00000E+00
         0.00000E+00
         0.00000E+00
         0.00000E+00
         0.00000E+00
         0.00000E+00
         0.00000E+00
         0.00000E+00
         0.00000E+00
         0.00000E+00
         0.00000E+00
         0.00000E+00
         0.00000E+00
         0.00000E+00
         0.00000E+00
         0.00000E+00
         0.00000E+00
         0.00000E+00
         0.00000E+00
         0.00000E+00
         0.00000E+00
         0.00000E+00
         0.00000E+00
         0.00000E+00
         0.00000E+00
         0.00000E+00
         0.00000E+00
         0.00000E+00
         0.00000E+00
         0.00000E+00
         0.00000E+00
         0.00000E+00
         0.00000E+00
         0.00000E+00
         0.00000E+00
         0.00000E+00
         0.00000E+00
         0.00000E+00
         0.00000E+00
         0.00000E+00
         0.00000E+00
         0.00000E+00
         0.00000E+00
         0.00000E+00
         0.00000E+00
         0.00000E+00
         0.00000E+00
         0.00000E+00
         0.00000E+00
         0.00000E+00
         0.00000E+00
         0.00000E+00
         0.00000E+00
         0.00000E+00
         0.00000E+00
         0.00000E+00
         0.00000E+00
         0.00000E+00
         0.00000E+00
         0.00000E+00
         0.00000E+00
         0.00000E+00
         0.00000E+00
         0.00000E+00
         0.00000E+00
         0.00000E+00
         0.00000E+00
         0.00000E+00
         0.00000E+00
         0.00000E+00
         0.00000E+00
         0.00000E+00
         0.00000E+00
         0.00000E+00
         0.00000E+00
         0.00000E+00
         0.00000E+00
         0.00000E+00
         0.00000E+00
         0.00000E+00
         0.00000E+00
         0.00000E+00
         0.00000E+00
         0.00000E+00
         0.00000E+00
         0.00000E+00
         0.00000E+00
         0.00000E+00
         0.00000E+00
         0.00000E+00
         0.00000E+00
         0.00000E+00
         0.00000E+00
         0.00000E+00
         0.00000E+00
         0.00000E+00
         0.00000E+00
         0.00000E+00
         0.00000E+00
         0.00000E+00
         0.00000E+00
         0.00000E+00
         0.00000E+00
         0.00000E+00
         0.00000E+00
         0.00000E+00
         0.00000E+00
         0.00000E+00
         0.00000E+00
         0.00000E+00
         0.00000E+00
         0.00000E+00
         0.00000E+00
         0.00000E+00
         0.00000E+00
         0.00000E+00
         0.00000E+00
         0.00000E+00
         0.00000E+00
         0.00000E+00
         0.00000E+00
         0.00000E+00
         0.00000E+00
         0.00000E+00
         0.00000E+00
         0.00000E+00
         0.00000E+00
         0.00000E+00
         0.00000E+00
         0.00000E+00
         0.00000E+00
         0.00000E+00
         0.00000E+00
         0.00000E+00
         0.00000E+00
         0.00000E+00
         0.00000E+00
         0.00000E+00
         0.00000E+00
         0.00000E+00
         0.00000E+00
         0.00000E+00
         0.00000E+00
         0.00000E+00
         0.00000E+00
         0.00000E+00
         0.00000E+00
         0.00000E+00
         0.00000E+00
         0.00000E+00
         0.00000E+00
         0.00000E+00
         0.00000E+00
         0.00000E+00
         0.00000E+00
         0.00000E+00
         0.00000E+00
         0.00000E+00
         0.00000E+00
         0.00000E+00
         0.00000E+00
         0.00000E+00
         0.00000E+00
         0.00000E+00
         0.00000E+00
         0.00000E+00
         0.00000E+00
         0.00000E+00
         0.00000E+00
         0.00000E+00
         0.00000E+00
         0.00000E+00
         0.00000E+00
         0.00000E+00
         0.00000E+00
         0.00000E+00
         0.00000E+00
         0.00000E+00
         0.00000E+00
         0.00000E+00
         0.00000E+00
         0.00000E+00
         0.00000E+00
         0.00000E+00
         0.00000E+00
         0.00000E+00
         0.00000E+00
         0.00000E+00
         0.00000E+00
         0.00000E+00
         0.00000E+00
         0.00000E+00
         0.00000E+00
         0.00000E+00
         0.00000E+00
         0.00000E+00
         0.00000E+00
         0.00000E+00
         0.00000E+00
         0.00000E+00
         0.00000E+00
         0.00000E+00
         0.00000E+00
         0.00000E+00
         0.00000E+00
         0.00000E+00
         0.00000E+00
         0.00000E+00
         0.00000E+00
         0.00000E+00
         0.00000E+00
         0.00000E+00
         0.00000E+00
         0.00000E+00
         0.00000E+00
         0.00000E+00
         0.00000E+00
         0.00000E+00
         0.00000E+00
         0.00000E+00
         0.00000E+00
         0.00000E+00
         0.00000E+00
         0.00000E+00
         0.00000E+00
         0.00000E+00
         0.00000E+00
         0.00000E+00
         0.00000E+00
         0.00000E+00
         0.00000E+00
         0.00000E+00
         0.00000E+00
         0.00000E+00
         0.00000E+00
         0.00000E+00
         0.00000E+00
         0.00000E+00
         0.00000E+00
         0.00000E+00
         0.00000E+00
         0.00000E+00
         0.00000E+00
         0.00000E+00
         0.00000E+00
         0.00000E+00
         0.00000E+00
         0.00000E+00
         0.00000E+00
         0.00000E+00
         0.00000E+00
         0.00000E+00
         0.00000E+00
         0.00000E+00
         0.00000E+00
         0.00000E+00
         0.00000E+00
         0.00000E+00
         0.00000E+00
         0.00000E+00
         0.00000E+00
         0.00000E+00
         0.00000E+00
         0.00000E+00
         0.00000E+00
         0.00000E+00
         0.00000E+00
         0.00000E+00
         0.00000E+00
         0.00000E+00
         0.00000E+00
         0.00000E+00
         0.00000E+00
         0.00000E+00
         0.00000E+00
         0.00000E+00
         0.00000E+00
         0.00000E+00
         0.00000E+00
         0.00000E+00
         0.00000E+00
         0.00000E+00
         0.00000E+00
         0.00000E+00
         0.00000E+00
         0.00000E+00
         0.00000E+00
         0.00000E+00
         0.00000E+00
         0.00000E+00
         0.00000E+00
         0.00000E+00
         0.00000E+00
         0.00000E+00
         0.00000E+00
         0.00000E+00
         0.00000E+00
         0.00000E+00
         0.00000E+00
         0.00000E+00
         0.00000E+00
         0.00000E+00
         0.00000E+00
         0.00000E+00
         0.00000E+00
         0.00000E+00
         0.00000E+00
         0.00000E+00
         0.00000E+00
         0.00000E+00
         0.00000E+00
         0.00000E+00
         0.00000E+00
         0.00000E+00
         0.00000E+00
         0.00000E+00
         0.00000E+00
         0.00000E+00
         0.00000E+00
         0.00000E+00
         0.00000E+00
         0.00000E+00
         0.00000E+00
         0.00000E+00
         0.00000E+00
         0.00000E+00
         0.00000E+00
         0.00000E+00
         0.00000E+00
         0.00000E+00
         0.00000E+00
         0.00000E+00
         0.00000E+00
         0.00000E+00
         0.00000E+00
         0.00000E+00
         0.00000E+00
         0.00000E+00
         0.00000E+00
         0.00000E+00
         0.00000E+00
         0.00000E+00
         0.00000E+00
         0.00000E+00
         0.00000E+00
         0.00000E+00
         0.00000E+00
         0.00000E+00
         0.00000E+00
         0.00000E+00
         0.00000E+00
         0.00000E+00
         0.00000E+00
         0.00000E+00
         0.00000E+00
         0.00000E+00
         0.00000E+00
         0.00000E+00
         0.00000E+00
         0.00000E+00
         0.00000E+00
         0.00000E+00
         0.00000E+00
         0.00000E+00
         0.00000E+00
         0.00000E+00
         0.00000E+00
         0.00000E+00
         0.00000E+00
         0.00000E+00
         0.00000E+00
         0.00000E+00
         0.00000E+00
         0.00000E+00
         0.00000E+00
         0.00000E+00
         0.00000E+00
         0.00000E+00
         0.00000E+00
         0.00000E+00
         0.00000E+00
         0.00000E+00
         0.00000E+00
         0.00000E+00
         0.00000E+00
         0.00000E+00
         0.00000E+00
         0.00000E+00
         0.00000E+00
         0.00000E+00
         0.00000E+00
         0.00000E+00
         0.00000E+00
         0.00000E+00
         0.00000E+00
         0.00000E+00
         0.00000E+00
         0.00000E+00
         0.00000E+00
         0.00000E+00
         0.00000E+00
         0.00000E+00
         0.00000E+00
         0.00000E+00
         0.00000E+00
         0.00000E+00
         0.00000E+00
         0.00000E+00
         0.00000E+00
         0.00000E+00
         0.00000E+00
         0.00000E+00
         0.00000E+00
         0.00000E+00
         0.00000E+00
         0.00000E+00
         0.00000E+00
         0.00000E+00
         0.00000E+00
         0.00000E+00
         0.00000E+00
         0.00000E+00
         0.00000E+00
         0.00000E+00
         0.00000E+00
         0.00000E+00
         0.00000E+00
         0.00000E+00
         0.00000E+00
         0.00000E+00
         0.00000E+00
         0.00000E+00
         0.00000E+00
         0.00000E+00
         0.00000E+00
         0.00000E+00
         0.00000E+00
         0.00000E+00
         0.00000E+00
         0.00000E+00
         0.00000E+00
         0.00000E+00
         0.00000E+00
         0.00000E+00
         0.00000E+00
         0.00000E+00
         0.00000E+00
         0.00000E+00
         0.00000E+00
         0.00000E+00
         0.00000E+00
         0.00000E+00
         0.00000E+00
         0.00000E+00
         0.00000E+00
         0.00000E+00
         0.00000E+00
         0.00000E+00
         0.00000E+00
         0.00000E+00
         0.00000E+00
         0.00000E+00
         0.00000E+00
         0.00000E+00
         0.00000E+00
         0.00000E+00
         0.00000E+00
         0.00000E+00
         0.00000E+00
         0.00000E+00
         0.00000E+00
         0.00000E+00
         0.00000E+00
         0.00000E+00
         0.00000E+00
         0.00000E+00
         0.00000E+00
         0.00000E+00
         0.00000E+00
         0.00000E+00
         0.00000E+00
         0.00000E+00
         0.00000E+00
         0.00000E+00
         0.00000E+00
         0.00000E+00
         0.00000E+00
         0.00000E+00
         0.00000E+00
         0.00000E+00
         0.00000E+00
         0.00000E+00
         0.00000E+00
         0.00000E+00
         0.00000E+00
         0.00000E+00
         0.00000E+00
         0.00000E+00
         0.00000E+00
         0.00000E+00
         0.00000E+00
         0.00000E+00
         0.00000E+00
         0.00000E+00
         0.00000E+00
         0.00000E+00
         0.00000E+00
         0.00000E+00
         0.00000E+00
         0.00000E+00
         0.00000E+00
         0.00000E+00
         0.00000E+00
         0.00000E+00
         0.00000E+00
         0.00000E+00
         0.00000E+00
         0.00000E+00
         0.00000E+00
         0.00000E+00
         0.00000E+00
         0.00000E+00
         0.00000E+00
         0.00000E+00
         0.00000E+00
         0.00000E+00
         0.00000E+00
         0.00000E+00
         0.00000E+00
         0.00000E+00
         0.00000E+00
         0.00000E+00
         0.00000E+00
         0.00000E+00
         0.00000E+00
         0.00000E+00
         0.00000E+00
         0.00000E+00
         0.00000E+00
         0.00000E+00
         0.00000E+00
         0.00000E+00
         0.00000E+00
         0.00000E+00
         0.00000E+00
         0.00000E+00
         0.00000E+00
         0.00000E+00
         0.00000E+00
         0.00000E+00
         0.00000E+00
         0.00000E+00
         0.00000E+00
         0.00000E+00
         0.00000E+00
         0.00000E+00
         0.00000E+00
         0.00000E+00
         0.00000E+00
         0.00000E+00
         0.00000E+00
         0.00000E+00
         0.00000E+00
         0.00000E+00
         0.00000E+00
         0.00000E+00
         0.00000E+00
         0.00000E+00
         0.00000E+00
         0.00000E+00
         0.00000E+00
         0.00000E+00
         0.00000E+00
         0.00000E+00
         0.00000E+00
         0.00000E+00
         0.00000E+00
         0.00000E+00
         0.00000E+00
         0.00000E+00
         0.00000E+00
         0.00000E+00
         0.00000E+00
         0.00000E+00
         0.00000E+00
         0.00000E+00
         0.00000E+00
         0.00000E+00
         0.00000E+00
         0.00000E+00
         0.00000E+00
         0.00000E+00
         0.00000E+00
         0.00000E+00
         0.00000E+00
         0.00000E+00
         0.00000E+00
         0.00000E+00
         0.00000E+00
         0.00000E+00
         0.00000E+00
         0.00000E+00
         0.00000E+00
         0.00000E+00
         0.00000E+00
         0.00000E+00
         0.00000E+00
         0.00000E+00
         0.00000E+00
         0.00000E+00
         0.00000E+00
         0.00000E+00
         0.00000E+00
         0.00000E+00
         0.00000E+00
         0.00000E+00
         0.00000E+00
         0.00000E+00
         0.00000E+00
         0.00000E+00
         0.00000E+00
         0.00000E+00
         0.00000E+00
         0.00000E+00
         0.00000E+00
         0.00000E+00
         0.00000E+00
         0.00000E+00
         0.00000E+00
         0.00000E+00
         0.00000E+00
         0.00000E+00
         0.00000E+00
         0.00000E+00
         0.00000E+00
         0.00000E+00
         0.00000E+00
         0.00000E+00
         0.00000E+00
         0.00000E+00
         0.00000E+00
         0.00000E+00
         0.00000E+00
         0.00000E+00
         0.00000E+00
         0.00000E+00
         0.00000E+00
         0.00000E+00
         0.00000E+00
         0.00000E+00
         0.00000E+00
         0.00000E+00
         0.00000E+00
         0.00000E+00
         0.00000E+00
         0.00000E+00
         0.00000E+00
         0.00000E+00
         0.00000E+00
         0.00000E+00
         0.00000E+00
         0.00000E+00
         0.00000E+00
         0.00000E+00
         0.00000E+00
         0.00000E+00
         0.00000E+00
         0.00000E+00
         0.00000E+00
         0.00000E+00
         0.00000E+00
         0.00000E+00
         0.00000E+00
         0.00000E+00
         0.00000E+00
         0.00000E+00
         0.00000E+00
         0.00000E+00
         0.00000E+00
         0.00000E+00
         0.00000E+00
         0.00000E+00
         0.00000E+00
         0.00000E+00
         0.00000E+00
         0.00000E+00
         0.00000E+00
         0.00000E+00
         0.00000E+00
         0.00000E+00
         0.00000E+00
         0.00000E+00
         0.00000E+00
         0.00000E+00
         0.00000E+00
         0.00000E+00
         0.00000E+00
         0.00000E+00
         0.00000E+00
         0.00000E+00
         0.00000E+00
         0.00000E+00
         0.00000E+00
         0.00000E+00
         0.00000E+00
         0.00000E+00
         0.00000E+00
         0.00000E+00
         0.00000E+00
         0.00000E+00
         0.00000E+00
         0.00000E+00
         0.00000E+00
         0.00000E+00
         0.00000E+00
         0.00000E+00
         0.00000E+00
         0.00000E+00
         0.00000E+00
         0.00000E+00
         0.00000E+00
         0.00000E+00
         0.00000E+00
         0.00000E+00
         0.00000E+00
         0.00000E+00
         0.00000E+00
         0.00000E+00
         0.00000E+00
         0.00000E+00
         0.00000E+00
         0.00000E+00
         0.00000E+00
         0.00000E+00
         0.00000E+00
         0.00000E+00
         0.00000E+00
         0.00000E+00
         0.00000E+00
         0.00000E+00
         0.00000E+00
         0.00000E+00
         0.00000E+00
         0.00000E+00
         0.00000E+00
         0.00000E+00
         0.00000E+00
         0.00000E+00
         0.00000E+00
         0.00000E+00
         0.00000E+00
         0.00000E+00
         0.00000E+00
         0.00000E+00
         0.00000E+00
         0.00000E+00
         0.00000E+00
         0.00000E+00
         0.00000E+00
         0.00000E+00
         0.00000E+00
         0.00000E+00
         0.00000E+00
         0.00000E+00
         0.00000E+00
         0.00000E+00
         0.00000E+00
         0.00000E+00
         0.00000E+00
         0.00000E+00
         0.00000E+00
         0.00000E+00
         0.00000E+00
         0.00000E+00
         0.00000E+00
         0.00000E+00
         0.00000E+00
         0.00000E+00
         0.00000E+00
         0.00000E+00
         0.00000E+00
         0.00000E+00
         0.00000E+00
         0.00000E+00
         0.00000E+00
         0.00000E+00
         0.00000E+00
         0.00000E+00
         0.00000E+00
         0.00000E+00
         0.00000E+00
         0.00000E+00
         0.00000E+00
         0.00000E+00
         0.00000E+00
         0.00000E+00
         0.00000E+00
         0.00000E+00
         0.00000E+00
         0.00000E+00
         0.00000E+00
         0.00000E+00
         0.00000E+00
         0.00000E+00
         0.00000E+00
         0.00000E+00
         0.00000E+00
         0.00000E+00
         0.00000E+00
         0.00000E+00
         0.00000E+00
         0.00000E+00
         0.00000E+00
         0.00000E+00
         0.00000E+00
         0.00000E+00
         0.00000E+00
         0.00000E+00
         0.00000E+00
         0.00000E+00
         0.00000E+00
         0.00000E+00
         0.00000E+00
         0.00000E+00
         0.00000E+00
         0.00000E+00
         0.00000E+00
         0.00000E+00
         0.00000E+00
         0.00000E+00
         0.00000E+00
         0.00000E+00
         0.00000E+00
         0.00000E+00
         0.00000E+00
         0.00000E+00
         0.00000E+00
         0.00000E+00
         0.00000E+00
         0.00000E+00
         0.00000E+00
         0.00000E+00
         0.00000E+00
         0.00000E+00
         0.00000E+00
         0.00000E+00
         0.00000E+00
         0.00000E+00
         0.00000E+00
         0.00000E+00
         0.00000E+00
         0.00000E+00
         0.00000E+00
         0.00000E+00
         0.00000E+00
         0.00000E+00
         0.00000E+00
         0.00000E+00
         0.00000E+00
         0.00000E+00
         0.00000E+00
         0.00000E+00
         0.00000E+00
         0.00000E+00
         0.00000E+00
         0.00000E+00
         0.00000E+00
         0.00000E+00
         0.00000E+00
         0.00000E+00
         0.00000E+00
         0.00000E+00
         0.00000E+00
         0.00000E+00
         0.00000E+00
         0.00000E+00
         0.00000E+00
         0.00000E+00
         0.00000E+00
         0.00000E+00
         0.00000E+00
         0.00000E+00
         0.00000E+00
         0.00000E+00
         0.00000E+00
         0.00000E+00
         0.00000E+00
         0.00000E+00
         0.00000E+00
         0.00000E+00
         0.00000E+00
         0.00000E+00
         0.00000E+00
         0.00000E+00
         0.00000E+00
         0.00000E+00
         0.00000E+00
         0.00000E+00
         0.00000E+00
         0.00000E+00
         0.00000E+00
         0.00000E+00
         0.00000E+00
         0.00000E+00
         0.00000E+00
         0.00000E+00
         0.00000E+00
         0.00000E+00
         0.00000E+00
         0.00000E+00
         0.00000E+00
         0.00000E+00
         0.00000E+00
         0.00000E+00
         0.00000E+00
         0.00000E+00
         0.00000E+00
         0.00000E+00
         0.00000E+00
         0.00000E+00
         0.00000E+00
         0.00000E+00
         0.00000E+00
         0.00000E+00
         0.00000E+00
         0.00000E+00
         0.00000E+00
         0.00000E+00
         0.00000E+00
         0.00000E+00
         0.00000E+00
         0.00000E+00
         0.00000E+00
         0.00000E+00
         0.00000E+00
         0.00000E+00
         0.00000E+00
         0.00000E+00
         0.00000E+00
         0.00000E+00
         0.00000E+00
         0.00000E+00
         0.00000E+00
         0.00000E+00
         0.00000E+00
         0.00000E+00
         0.00000E+00
         0.00000E+00
         0.00000E+00
         0.00000E+00
         0.00000E+00
         0.00000E+00
         0.00000E+00
         0.00000E+00
         0.00000E+00
         0.00000E+00
         0.00000E+00
         0.00000E+00
         0.00000E+00
         0.00000E+00
         0.00000E+00
         0.00000E+00
         0.00000E+00
         0.00000E+00
         0.00000E+00
         0.00000E+00
         0.00000E+00
         0.00000E+00
         0.00000E+00
         0.00000E+00
         0.00000E+00
         0.00000E+00
         0.00000E+00
         0.00000E+00
         0.00000E+00
         0.00000E+00
         0.00000E+00
         0.00000E+00
         0.00000E+00
         0.00000E+00
         0.00000E+00
         0.00000E+00
         0.00000E+00
         0.00000E+00
         0.00000E+00
         0.00000E+00
         0.00000E+00
         0.00000E+00
         0.00000E+00
         0.00000E+00
         0.00000E+00
         0.00000E+00
         0.00000E+00
         0.00000E+00
         0.00000E+00
         0.00000E+00
         0.00000E+00
         0.00000E+00
         0.00000E+00
         0.00000E+00
         0.00000E+00
         0.00000E+00
         0.00000E+00
         0.00000E+00
         0.00000E+00
         0.00000E+00
         0.00000E+00
         0.00000E+00
         0.00000E+00
         0.00000E+00
         0.00000E+00
         0.00000E+00
         0.00000E+00
         0.00000E+00
         0.00000E+00
         0.00000E+00
         0.00000E+00
         0.00000E+00
         0.00000E+00
         0.00000E+00
         0.00000E+00
         0.00000E+00
         0.00000E+00
         0.00000E+00
         0.00000E+00
         0.00000E+00
         0.00000E+00
         0.00000E+00
         0.00000E+00
         0.00000E+00
         0.00000E+00
         0.00000E+00
         0.00000E+00
         0.00000E+00
         0.00000E+00
         0.00000E+00
         0.00000E+00
         0.00000E+00
         0.00000E+00
         0.00000E+00
         0.00000E+00
         0.00000E+00
         0.00000E+00
         0.00000E+00
         0.00000E+00
         0.00000E+00
         0.00000E+00
         0.00000E+00
         0.00000E+00
         0.00000E+00
         0.00000E+00
         0.00000E+00
         0.00000E+00
         0.00000E+00
         0.00000E+00
         0.00000E+00
         0.00000E+00
         0.00000E+00
         0.00000E+00
         0.00000E+00
         0.00000E+00
         0.00000E+00
         0.00000E+00
         0.00000E+00
         0.00000E+00
         0.00000E+00
         0.00000E+00
         0.00000E+00
         0.00000E+00
         0.00000E+00
         0.00000E+00
         0.00000E+00
         0.00000E+00
         0.00000E+00
         0.00000E+00
         0.00000E+00
         0.00000E+00
         0.00000E+00
         0.00000E+00
         0.00000E+00
         0.00000E+00
         0.00000E+00
         0.00000E+00
         0.00000E+00
         0.00000E+00
         0.00000E+00
         0.00000E+00
         0.00000E+00
         0.00000E+00
         0.00000E+00
         0.00000E+00
         0.00000E+00
         0.00000E+00
         0.00000E+00
         0.00000E+00
         0.00000E+00
         0.00000E+00
         0.00000E+00
         0.00000E+00
         0.00000E+00
         0.00000E+00
         0.00000E+00
         0.00000E+00
         0.00000E+00
         0.00000E+00
         0.00000E+00
         0.00000E+00
         0.00000E+00
         0.00000E+00
         0.00000E+00
         0.00000E+00
         0.00000E+00
         0.00000E+00
         0.00000E+00
         0.00000E+00
         0.00000E+00
         0.00000E+00
         0.00000E+00
         0.00000E+00
         0.00000E+00
         0.00000E+00
         0.00000E+00
         0.00000E+00
         0.00000E+00
         0.00000E+00
         0.00000E+00
         0.00000E+00
         0.00000E+00
         0.00000E+00
         0.00000E+00
         0.00000E+00
         0.00000E+00
         0.00000E+00
         0.00000E+00
         0.00000E+00
         0.00000E+00
         0.00000E+00
         0.00000E+00
         0.00000E+00
         0.00000E+00
         0.00000E+00
         0.00000E+00
         0.00000E+00
         0.00000E+00
         0.00000E+00
         0.00000E+00
         0.00000E+00
         0.00000E+00
         0.00000E+00
         0.00000E+00
         0.00000E+00
         0.00000E+00
         0.00000E+00
         0.00000E+00
         0.00000E+00
         0.00000E+00
         0.00000E+00
         0.00000E+00
         0.00000E+00
         0.00000E+00
         0.00000E+00
         0.00000E+00
         0.00000E+00
         0.00000E+00
         0.00000E+00
         0.00000E+00
         0.00000E+00
         0.00000E+00
         0.00000E+00
         0.00000E+00
         0.00000E+00
         0.00000E+00
         0.00000E+00
         0.00000E+00
         0.00000E+00
         0.00000E+00
         0.00000E+00
         0.00000E+00
         0.00000E+00
         0.00000E+00
         0.00000E+00
         0.00000E+00
         0.00000E+00
         0.00000E+00
         0.00000E+00
         0.00000E+00
         0.00000E+00
         0.00000E+00
         0.00000E+00
         0.00000E+00
         0.00000E+00
         0.00000E+00
         0.00000E+00
         0.00000E+00
         0.00000E+00
         0.00000E+00
         0.00000E+00
         0.00000E+00
         0.00000E+00
         0.00000E+00
         0.00000E+00
         0.00000E+00
         0.00000E+00
         0.00000E+00
         0.00000E+00
         0.00000E+00
         0.00000E+00
         0.00000E+00
         0.00000E+00
         0.00000E+00
         0.00000E+00
         0.00000E+00
         0.00000E+00
         0.00000E+00
         0.00000E+00
         0.00000E+00
         0.00000E+00
         0.00000E+00
         0.00000E+00
         0.00000E+00
         0.00000E+00
         0.00000E+00
         0.00000E+00
         0.00000E+00
         0.00000E+00
         0.00000E+00
         0.00000E+00
         0.00000E+00
         0.00000E+00
         0.00000E+00
         0.00000E+00
         0.00000E+00
         0.00000E+00
         0.00000E+00
         0.00000E+00
         0.00000E+00
         0.00000E+00
         0.00000E+00
         0.00000E+00
         0.00000E+00
         0.00000E+00
         0.00000E+00
         0.00000E+00
         0.00000E+00
         0.00000E+00
         0.00000E+00
         0.00000E+00
         0.00000E+00
         0.00000E+00
         0.00000E+00
         0.00000E+00
         0.00000E+00
         0.00000E+00
         0.00000E+00
         0.00000E+00
         0.00000E+00
         0.00000E+00
         0.00000E+00
         0.00000E+00
         0.00000E+00
         0.00000E+00
         0.00000E+00
         0.00000E+00
         0.00000E+00
         0.00000E+00
         0.00000E+00
         0.00000E+00
         0.00000E+00
         0.00000E+00
         0.00000E+00
         0.00000E+00
         0.00000E+00
         0.00000E+00
         0.00000E+00
         0.00000E+00
         0.00000E+00
         0.00000E+00
         0.00000E+00
         0.00000E+00
         0.00000E+00
         0.00000E+00
         0.00000E+00
         0.00000E+00
         0.00000E+00
         0.00000E+00
         0.00000E+00
         0.00000E+00
         0.00000E+00
         0.00000E+00
         0.00000E+00
         0.00000E+00
         0.00000E+00
         0.00000E+00
         0.00000E+00
         0.00000E+00
         0.00000E+00
         0.00000E+00
         0.00000E+00
         0.00000E+00
         0.00000E+00
         0.00000E+00
         0.00000E+00
         0.00000E+00
         0.00000E+00
         0.00000E+00
         0.00000E+00
         0.00000E+00
         0.00000E+00
         0.00000E+00
         0.00000E+00
         0.00000E+00
         0.00000E+00
         0.00000E+00
         0.00000E+00
         0.00000E+00
         0.00000E+00
         0.00000E+00
         0.00000E+00
         0.00000E+00
         0.00000E+00
         0.00000E+00
         0.00000E+00
         0.00000E+00
         0.00000E+00
         0.00000E+00
         0.00000E+00
         0.00000E+00
         0.00000E+00
         0.00000E+00
         0.00000E+00
         0.00000E+00
         0.00000E+00
         0.00000E+00
         0.00000E+00
         0.00000E+00
         0.00000E+00
         0.00000E+00
         0.00000E+00
         0.00000E+00
         0.00000E+00
         0.00000E+00
         0.00000E+00
         0.00000E+00
         0.00000E+00
         0.00000E+00
         0.00000E+00
         0.00000E+00
         0.00000E+00
         0.00000E+00
         0.00000E+00
         0.00000E+00
         0.00000E+00
         0.00000E+00
         0.00000E+00
         0.00000E+00
         0.00000E+00
         0.00000E+00
         0.00000E+00
         0.00000E+00
         0.00000E+00
         0.00000E+00
         0.00000E+00
         0.00000E+00
         0.00000E+00
         0.00000E+00
         0.00000E+00
         0.00000E+00
         0.00000E+00
         0.00000E+00
         0.00000E+00
         0.00000E+00
         0.00000E+00
         0.00000E+00
         0.00000E+00
         0.00000E+00
         0.00000E+00
         0.00000E+00
         0.00000E+00
         0.00000E+00
         0.00000E+00
         0.00000E+00
         0.00000E+00
         0.00000E+00
         0.00000E+00
         0.00000E+00
         0.00000E+00
         0.00000E+00
         0.00000E+00
         0.00000E+00
         0.00000E+00
         0.00000E+00
         0.00000E+00
         0.00000E+00
         0.00000E+00
         0.00000E+00
         0.00000E+00
         0.00000E+00
         0.00000E+00
         0.00000E+00
         0.00000E+00
         0.00000E+00
         0.00000E+00
         0.00000E+00
         0.00000E+00
         0.00000E+00
         0.00000E+00
         0.00000E+00
         0.00000E+00
         0.00000E+00
         0.00000E+00
         0.00000E+00
         0.00000E+00
         0.00000E+00
         0.00000E+00
         0.00000E+00
         0.00000E+00
         0.00000E+00
         0.00000E+00
         0.00000E+00
         0.00000E+00
         0.00000E+00
         0.00000E+00
         0.00000E+00
         0.00000E+00
         0.00000E+00
         0.00000E+00
         0.00000E+00
         0.00000E+00
         0.00000E+00
         0.00000E+00
         0.00000E+00
         0.00000E+00
         0.00000E+00
         0.00000E+00
         0.00000E+00
         0.00000E+00
         0.00000E+00
         0.00000E+00
         0.00000E+00
         0.00000E+00
         0.00000E+00
         0.00000E+00
         0.00000E+00
         0.00000E+00
         0.00000E+00
         0.00000E+00
         0.00000E+00
         0.00000E+00
         0.00000E+00
         0.00000E+00
         0.00000E+00
         0.00000E+00
         0.00000E+00
         0.00000E+00
         0.00000E+00
         0.00000E+00
         0.00000E+00
         0.00000E+00
         0.00000E+00
         0.00000E+00
         0.00000E+00
         0.00000E+00
         0.00000E+00
         0.00000E+00
         0.00000E+00
         0.00000E+00
         0.00000E+00
         0.00000E+00
         0.00000E+00
         0.00000E+00
         0.00000E+00
         0.00000E+00
         0.00000E+00
         0.00000E+00
         0.00000E+00
         0.00000E+00
         0.00000E+00
         0.00000E+00
         0.00000E+00
         0.00000E+00
         0.00000E+00
         0.00000E+00
         0.00000E+00
         0.00000E+00
         0.00000E+00
         0.00000E+00
         0.00000E+00
         0.00000E+00
         0.00000E+00
         0.00000E+00
         0.00000E+00
         0.00000E+00
         0.00000E+00
         0.00000E+00
         0.00000E+00
         0.00000E+00
         0.00000E+00
         0.00000E+00
         0.00000E+00
         0.00000E+00
         0.00000E+00
         0.00000E+00
         0.00000E+00
         0.00000E+00
         0.00000E+00
         0.00000E+00
         0.00000E+00
         0.00000E+00
         0.00000E+00
         0.00000E+00
         0.00000E+00
         0.00000E+00
         0.00000E+00
         0.00000E+00
         0.00000E+00
         0.00000E+00
         0.00000E+00
         0.00000E+00
         0.00000E+00
         0.00000E+00
         0.00000E+00
         0.00000E+00
         0.00000E+00
         0.00000E+00
         0.00000E+00
         0.00000E+00
         0.00000E+00
         0.00000E+00
         0.00000E+00
         0.00000E+00
         0.00000E+00
         0.00000E+00
         0.00000E+00
         0.00000E+00
         0.00000E+00
         0.00000E+00
         0.00000E+00
         0.00000E+00
         0.00000E+00
         0.00000E+00
         0.00000E+00
         0.00000E+00
         0.00000E+00
         0.00000E+00
         0.00000E+00
         0.00000E+00
         0.00000E+00
         0.00000E+00
         0.00000E+00
         0.00000E+00
         0.00000E+00
         0.00000E+00
         0.00000E+00
         0.00000E+00
         0.00000E+00
         0.00000E+00
         0.00000E+00
         0.00000E+00
         0.00000E+00
         0.00000E+00
         0.00000E+00
         0.00000E+00
         0.00000E+00
         0.00000E+00
         0.00000E+00
         0.00000E+00
         0.00000E+00
         0.00000E+00
         0.00000E+00
         0.00000E+00
         0.00000E+00
         0.00000E+00
         0.00000E+00
         0.00000E+00
         0.00000E+00
         0.00000E+00
         0.00000E+00
         0.00000E+00
         0.00000E+00
         0.00000E+00
         0.00000E+00
         0.00000E+00
         0.00000E+00
         0.00000E+00
         0.00000E+00
         0.00000E+00
         0.00000E+00
         0.00000E+00
         0.00000E+00
         0.00000E+00
         0.00000E+00
         0.00000E+00
         0.00000E+00
         0.00000E+00
         0.00000E+00
         0.00000E+00
         0.00000E+00
         0.00000E+00
         0.00000E+00
         0.00000E+00
  
SCALARS                init_velocity_y  double 1
LOOKUP_TABLE default
         0.00000E+00
         0.00000E+00
         0.00000E+00
         0.00000E+00
         0.00000E+00
         0.00000E+00
         0.00000E+00
         0.00000E+00
         0.00000E+00
         0.00000E+00
         0.00000E+00
         0.00000E+00
         0.00000E+00
         0.00000E+00
         0.00000E+00
         0.00000E+00
         0.00000E+00
         0.00000E+00
         0.00000E+00
         0.00000E+00
         0.00000E+00
         0.00000E+00
         0.00000E+00
         0.00000E+00
         0.00000E+00
         0.00000E+00
         0.00000E+00
         0.00000E+00
         0.00000E+00
         0.00000E+00
         0.00000E+00
         0.00000E+00
         0.00000E+00
         0.00000E+00
         0.00000E+00
         0.00000E+00
         0.00000E+00
         0.00000E+00
         0.00000E+00
         0.00000E+00
         0.00000E+00
         0.00000E+00
         0.00000E+00
         0.00000E+00
         0.00000E+00
         0.00000E+00
         0.00000E+00
         0.00000E+00
         0.00000E+00
         0.00000E+00
         0.00000E+00
         0.00000E+00
         0.00000E+00
         0.00000E+00
         0.00000E+00
         0.00000E+00
         0.00000E+00
         0.00000E+00
         0.00000E+00
         0.00000E+00
         0.00000E+00
         0.00000E+00
         0.00000E+00
         0.00000E+00
         0.00000E+00
         0.00000E+00
         0.00000E+00
         0.00000E+00
         0.00000E+00
         0.00000E+00
         0.00000E+00
         0.00000E+00
         0.00000E+00
         0.00000E+00
         0.00000E+00
         0.00000E+00
         0.00000E+00
         0.00000E+00
         0.00000E+00
         0.00000E+00
         0.00000E+00
         0.00000E+00
         0.00000E+00
         0.00000E+00
         0.00000E+00
         0.00000E+00
         0.00000E+00
         0.00000E+00
         0.00000E+00
         0.00000E+00
         0.00000E+00
         0.00000E+00
         0.00000E+00
         0.00000E+00
         0.00000E+00
         0.00000E+00
         0.00000E+00
         0.00000E+00
         0.00000E+00
         0.00000E+00
         0.00000E+00
         0.00000E+00
         0.00000E+00
         0.00000E+00
         0.00000E+00
         0.00000E+00
         0.00000E+00
         0.00000E+00
         0.00000E+00
         0.00000E+00
         0.00000E+00
         0.00000E+00
         0.00000E+00
         0.00000E+00
         0.00000E+00
         0.00000E+00
         0.00000E+00
         0.00000E+00
         0.00000E+00
         0.00000E+00
         0.00000E+00
         0.00000E+00
         0.00000E+00
         0.00000E+00
         0.00000E+00
         0.00000E+00
         0.00000E+00
         0.00000E+00
         0.00000E+00
         0.00000E+00
         0.00000E+00
         0.00000E+00
         0.00000E+00
         0.00000E+00
         0.00000E+00
         0.00000E+00
         0.00000E+00
         0.00000E+00
         0.00000E+00
         0.00000E+00
         0.00000E+00
         0.00000E+00
         0.00000E+00
         0.00000E+00
         0.00000E+00
         0.00000E+00
         0.00000E+00
         0.00000E+00
         0.00000E+00
         0.00000E+00
         0.00000E+00
         0.00000E+00
         0.00000E+00
         0.00000E+00
         0.00000E+00
         0.00000E+00
         0.00000E+00
         0.00000E+00
         0.00000E+00
         0.00000E+00
         0.00000E+00
         0.00000E+00
         0.00000E+00
         0.00000E+00
         0.00000E+00
         0.00000E+00
         0.00000E+00
         0.00000E+00
         0.00000E+00
         0.00000E+00
         0.00000E+00
         0.00000E+00
         0.00000E+00
         0.00000E+00
         0.00000E+00
         0.00000E+00
         0.00000E+00
         0.00000E+00
         0.00000E+00
         0.00000E+00
         0.00000E+00
         0.00000E+00
         0.00000E+00
         0.00000E+00
         0.00000E+00
         0.00000E+00
         0.00000E+00
         0.00000E+00
         0.00000E+00
         0.00000E+00
         0.00000E+00
         0.00000E+00
         0.00000E+00
         0.00000E+00
         0.00000E+00
         0.00000E+00
         0.00000E+00
         0.00000E+00
         0.00000E+00
         0.00000E+00
         0.00000E+00
         0.00000E+00
         0.00000E+00
         0.00000E+00
         0.00000E+00
         0.00000E+00
         0.00000E+00
         0.00000E+00
         0.00000E+00
         0.00000E+00
         0.00000E+00
         0.00000E+00
         0.00000E+00
         0.00000E+00
         0.00000E+00
         0.00000E+00
         0.00000E+00
         0.00000E+00
         0.00000E+00
         0.00000E+00
         0.00000E+00
         0.00000E+00
         0.00000E+00
         0.00000E+00
         0.00000E+00
         0.00000E+00
         0.00000E+00
         0.00000E+00
         0.00000E+00
         0.00000E+00
         0.00000E+00
         0.00000E+00
         0.00000E+00
         0.00000E+00
         0.00000E+00
         0.00000E+00
         0.00000E+00
         0.00000E+00
         0.00000E+00
         0.00000E+00
         0.00000E+00
         0.00000E+00
         0.00000E+00
         0.00000E+00
         0.00000E+00
         0.00000E+00
         0.00000E+00
         0.00000E+00
         0.00000E+00
         0.00000E+00
         0.00000E+00
         0.00000E+00
         0.00000E+00
         0.00000E+00
         0.00000E+00
         0.00000E+00
         0.00000E+00
         0.00000E+00
         0.00000E+00
         0.00000E+00
         0.00000E+00
         0.00000E+00
         0.00000E+00
         0.00000E+00
         0.00000E+00
         0.00000E+00
         0.00000E+00
         0.00000E+00
         0.00000E+00
         0.00000E+00
         0.00000E+00
         0.00000E+00
         0.00000E+00
         0.00000E+00
         0.00000E+00
         0.00000E+00
         0.00000E+00
         0.00000E+00
         0.00000E+00
         0.00000E+00
         0.00000E+00
         0.00000E+00
         0.00000E+00
         0.00000E+00
         0.00000E+00
         0.00000E+00
         0.00000E+00
         0.00000E+00
         0.00000E+00
         0.00000E+00
         0.00000E+00
         0.00000E+00
         0.00000E+00
         0.00000E+00
         0.00000E+00
         0.00000E+00
         0.00000E+00
         0.00000E+00
         0.00000E+00
         0.00000E+00
         0.00000E+00
         0.00000E+00
         0.00000E+00
         0.00000E+00
         0.00000E+00
         0.00000E+00
         0.00000E+00
         0.00000E+00
         0.00000E+00
         0.00000E+00
         0.00000E+00
         0.00000E+00
         0.00000E+00
         0.00000E+00
         0.00000E+00
         0.00000E+00
         0.00000E+00
         0.00000E+00
         0.00000E+00
         0.00000E+00
         0.00000E+00
         0.00000E+00
         0.00000E+00
         0.00000E+00
         0.00000E+00
         0.00000E+00
         0.00000E+00
         0.00000E+00
         0.00000E+00
         0.00000E+00
         0.00000E+00
         0.00000E+00
         0.00000E+00
         0.00000E+00
         0.00000E+00
         0.00000E+00
         0.00000E+00
         0.00000E+00
         0.00000E+00
         0.00000E+00
         0.00000E+00
         0.00000E+00
         0.00000E+00
         0.00000E+00
         0.00000E+00
         0.00000E+00
         0.00000E+00
         0.00000E+00
         0.00000E+00
         0.00000E+00
         0.00000E+00
         0.00000E+00
         0.00000E+00
         0.00000E+00
         0.00000E+00
         0.00000E+00
         0.00000E+00
         0.00000E+00
         0.00000E+00
         0.00000E+00
         0.00000E+00
         0.00000E+00
         0.00000E+00
         0.00000E+00
         0.00000E+00
         0.00000E+00
         0.00000E+00
         0.00000E+00
         0.00000E+00
         0.00000E+00
         0.00000E+00
         0.00000E+00
         0.00000E+00
         0.00000E+00
         0.00000E+00
         0.00000E+00
         0.00000E+00
         0.00000E+00
         0.00000E+00
         0.00000E+00
         0.00000E+00
         0.00000E+00
         0.00000E+00
         0.00000E+00
         0.00000E+00
         0.00000E+00
         0.00000E+00
         0.00000E+00
         0.00000E+00
         0.00000E+00
         0.00000E+00
         0.00000E+00
         0.00000E+00
         0.00000E+00
         0.00000E+00
         0.00000E+00
         0.00000E+00
         0.00000E+00
         0.00000E+00
         0.00000E+00
         0.00000E+00
         0.00000E+00
         0.00000E+00
         0.00000E+00
         0.00000E+00
         0.00000E+00
         0.00000E+00
         0.00000E+00
         0.00000E+00
         0.00000E+00
         0.00000E+00
         0.00000E+00
         0.00000E+00
         0.00000E+00
         0.00000E+00
         0.00000E+00
         0.00000E+00
         0.00000E+00
         0.00000E+00
         0.00000E+00
         0.00000E+00
         0.00000E+00
         0.00000E+00
         0.00000E+00
         0.00000E+00
         0.00000E+00
         0.00000E+00
         0.00000E+00
         0.00000E+00
         0.00000E+00
         0.00000E+00
         0.00000E+00
         0.00000E+00
         0.00000E+00
         0.00000E+00
         0.00000E+00
         0.00000E+00
         0.00000E+00
         0.00000E+00
         0.00000E+00
         0.00000E+00
         0.00000E+00
         0.00000E+00
         0.00000E+00
         0.00000E+00
         0.00000E+00
         0.00000E+00
         0.00000E+00
         0.00000E+00
         0.00000E+00
         0.00000E+00
         0.00000E+00
         0.00000E+00
         0.00000E+00
         0.00000E+00
         0.00000E+00
         0.00000E+00
         0.00000E+00
         0.00000E+00
         0.00000E+00
         0.00000E+00
         0.00000E+00
         0.00000E+00
         0.00000E+00
         0.00000E+00
         0.00000E+00
         0.00000E+00
         0.00000E+00
         0.00000E+00
         0.00000E+00
         0.00000E+00
         0.00000E+00
         0.00000E+00
         0.00000E+00
         0.00000E+00
         0.00000E+00
         0.00000E+00
         0.00000E+00
         0.00000E+00
         0.00000E+00
         0.00000E+00
         0.00000E+00
         0.00000E+00
         0.00000E+00
         0.00000E+00
         0.00000E+00
         0.00000E+00
         0.00000E+00
         0.00000E+00
         0.00000E+00
         0.00000E+00
         0.00000E+00
         0.00000E+00
         0.00000E+00
         0.00000E+00
         0.00000E+00
         0.00000E+00
         0.00000E+00
         0.00000E+00
         0.00000E+00
         0.00000E+00
         0.00000E+00
         0.00000E+00
         0.00000E+00
         0.00000E+00
         0.00000E+00
         0.00000E+00
         0.00000E+00
         0.00000E+00
         0.00000E+00
         0.00000E+00
         0.00000E+00
         0.00000E+00
         0.00000E+00
         0.00000E+00
         0.00000E+00
         0.00000E+00
         0.00000E+00
         0.00000E+00
         0.00000E+00
         0.00000E+00
         0.00000E+00
         0.00000E+00
         0.00000E+00
         0.00000E+00
         0.00000E+00
         0.00000E+00
         0.00000E+00
         0.00000E+00
         0.00000E+00
         0.00000E+00
         0.00000E+00
         0.00000E+00
         0.00000E+00
         0.00000E+00
         0.00000E+00
         0.00000E+00
         0.00000E+00
         0.00000E+00
         0.00000E+00
         0.00000E+00
         0.00000E+00
         0.00000E+00
         0.00000E+00
         0.00000E+00
         0.00000E+00
         0.00000E+00
         0.00000E+00
         0.00000E+00
         0.00000E+00
         0.00000E+00
         0.00000E+00
         0.00000E+00
         0.00000E+00
         0.00000E+00
         0.00000E+00
         0.00000E+00
         0.00000E+00
         0.00000E+00
         0.00000E+00
         0.00000E+00
         0.00000E+00
         0.00000E+00
         0.00000E+00
         0.00000E+00
         0.00000E+00
         0.00000E+00
         0.00000E+00
         0.00000E+00
         0.00000E+00
         0.00000E+00
         0.00000E+00
         0.00000E+00
         0.00000E+00
         0.00000E+00
         0.00000E+00
         0.00000E+00
         0.00000E+00
         0.00000E+00
         0.00000E+00
         0.00000E+00
         0.00000E+00
         0.00000E+00
         0.00000E+00
         0.00000E+00
         0.00000E+00
         0.00000E+00
         0.00000E+00
         0.00000E+00
         0.00000E+00
         0.00000E+00
         0.00000E+00
         0.00000E+00
         0.00000E+00
         0.00000E+00
         0.00000E+00
         0.00000E+00
         0.00000E+00
         0.00000E+00
         0.00000E+00
         0.00000E+00
         0.00000E+00
         0.00000E+00
         0.00000E+00
         0.00000E+00
         0.00000E+00
         0.00000E+00
         0.00000E+00
         0.00000E+00
         0.00000E+00
         0.00000E+00
         0.00000E+00
         0.00000E+00
         0.00000E+00
         0.00000E+00
         0.00000E+00
         0.00000E+00
         0.00000E+00
         0.00000E+00
         0.00000E+00
         0.00000E+00
         0.00000E+00
         0.00000E+00
         0.00000E+00
         0.00000E+00
         0.00000E+00
         0.00000E+00
         0.00000E+00
         0.00000E+00
         0.00000E+00
         0.00000E+00
         0.00000E+00
         0.00000E+00
         0.00000E+00
         0.00000E+00
         0.00000E+00
         0.00000E+00
         0.00000E+00
         0.00000E+00
         0.00000E+00
         0.00000E+00
         0.00000E+00
         0.00000E+00
         0.00000E+00
         0.00000E+00
         0.00000E+00
         0.00000E+00
         0.00000E+00
         0.00000E+00
         0.00000E+00
         0.00000E+00
         0.00000E+00
         0.00000E+00
         0.00000E+00
         0.00000E+00
         0.00000E+00
         0.00000E+00
         0.00000E+00
         0.00000E+00
         0.00000E+00
         0.00000E+00
         0.00000E+00
         0.00000E+00
         0.00000E+00
         0.00000E+00
         0.00000E+00
         0.00000E+00
         0.00000E+00
         0.00000E+00
         0.00000E+00
         0.00000E+00
         0.00000E+00
         0.00000E+00
         0.00000E+00
         0.00000E+00
         0.00000E+00
         0.00000E+00
         0.00000E+00
         0.00000E+00
         0.00000E+00
         0.00000E+00
         0.00000E+00
         0.00000E+00
         0.00000E+00
         0.00000E+00
         0.00000E+00
         0.00000E+00
         0.00000E+00
         0.00000E+00
         0.00000E+00
         0.00000E+00
         0.00000E+00
         0.00000E+00
         0.00000E+00
         0.00000E+00
         0.00000E+00
         0.00000E+00
         0.00000E+00
         0.00000E+00
         0.00000E+00
         0.00000E+00
         0.00000E+00
         0.00000E+00
         0.00000E+00
         0.00000E+00
         0.00000E+00
         0.00000E+00
         0.00000E+00
         0.00000E+00
         0.00000E+00
         0.00000E+00
         0.00000E+00
         0.00000E+00
         0.00000E+00
         0.00000E+00
         0.00000E+00
         0.00000E+00
         0.00000E+00
         0.00000E+00
         0.00000E+00
         0.00000E+00
         0.00000E+00
         0.00000E+00
         0.00000E+00
         0.00000E+00
         0.00000E+00
         0.00000E+00
         0.00000E+00
         0.00000E+00
         0.00000E+00
         0.00000E+00
         0.00000E+00
         0.00000E+00
         0.00000E+00
         0.00000E+00
         0.00000E+00
         0.00000E+00
         0.00000E+00
         0.00000E+00
         0.00000E+00
         0.00000E+00
         0.00000E+00
         0.00000E+00
         0.00000E+00
         0.00000E+00
         0.00000E+00
         0.00000E+00
         0.00000E+00
         0.00000E+00
         0.00000E+00
         0.00000E+00
         0.00000E+00
         0.00000E+00
         0.00000E+00
         0.00000E+00
         0.00000E+00
         0.00000E+00
         0.00000E+00
         0.00000E+00
         0.00000E+00
         0.00000E+00
         0.00000E+00
         0.00000E+00
         0.00000E+00
         0.00000E+00
         0.00000E+00
         0.00000E+00
         0.00000E+00
         0.00000E+00
         0.00000E+00
         0.00000E+00
         0.00000E+00
         0.00000E+00
         0.00000E+00
         0.00000E+00
         0.00000E+00
         0.00000E+00
         0.00000E+00
         0.00000E+00
         0.00000E+00
         0.00000E+00
         0.00000E+00
         0.00000E+00
         0.00000E+00
         0.00000E+00
         0.00000E+00
         0.00000E+00
         0.00000E+00
         0.00000E+00
         0.00000E+00
         0.00000E+00
         0.00000E+00
         0.00000E+00
         0.00000E+00
         0.00000E+00
         0.00000E+00
         0.00000E+00
         0.00000E+00
         0.00000E+00
         0.00000E+00
         0.00000E+00
         0.00000E+00
         0.00000E+00
         0.00000E+00
         0.00000E+00
         0.00000E+00
         0.00000E+00
         0.00000E+00
         0.00000E+00
         0.00000E+00
         0.00000E+00
         0.00000E+00
         0.00000E+00
         0.00000E+00
         0.00000E+00
         0.00000E+00
         0.00000E+00
         0.00000E+00
         0.00000E+00
         0.00000E+00
         0.00000E+00
         0.00000E+00
         0.00000E+00
         0.00000E+00
         0.00000E+00
         0.00000E+00
         0.00000E+00
         0.00000E+00
         0.00000E+00
         0.00000E+00
         0.00000E+00
         0.00000E+00
         0.00000E+00
         0.00000E+00
         0.00000E+00
         0.00000E+00
         0.00000E+00
         0.00000E+00
         0.00000E+00
         0.00000E+00
         0.00000E+00
         0.00000E+00
         0.00000E+00
         0.00000E+00
         0.00000E+00
         0.00000E+00
         0.00000E+00
         0.00000E+00
         0.00000E+00
         0.00000E+00
         0.00000E+00
         0.00000E+00
         0.00000E+00
         0.00000E+00
         0.00000E+00
         0.00000E+00
         0.00000E+00
         0.00000E+00
         0.00000E+00
         0.00000E+00
         0.00000E+00
         0.00000E+00
         0.00000E+00
         0.00000E+00
         0.00000E+00
         0.00000E+00
         0.00000E+00
         0.00000E+00
         0.00000E+00
         0.00000E+00
         0.00000E+00
         0.00000E+00
         0.00000E+00
         0.00000E+00
         0.00000E+00
         0.00000E+00
         0.00000E+00
         0.00000E+00
         0.00000E+00
         0.00000E+00
         0.00000E+00
         0.00000E+00
         0.00000E+00
         0.00000E+00
         0.00000E+00
         0.00000E+00
         0.00000E+00
         0.00000E+00
         0.00000E+00
         0.00000E+00
         0.00000E+00
         0.00000E+00
         0.00000E+00
         0.00000E+00
         0.00000E+00
         0.00000E+00
         0.00000E+00
         0.00000E+00
         0.00000E+00
         0.00000E+00
         0.00000E+00
         0.00000E+00
         0.00000E+00
         0.00000E+00
         0.00000E+00
         0.00000E+00
         0.00000E+00
         0.00000E+00
         0.00000E+00
         0.00000E+00
         0.00000E+00
         0.00000E+00
         0.00000E+00
         0.00000E+00
         0.00000E+00
         0.00000E+00
         0.00000E+00
         0.00000E+00
         0.00000E+00
         0.00000E+00
         0.00000E+00
         0.00000E+00
         0.00000E+00
         0.00000E+00
         0.00000E+00
         0.00000E+00
         0.00000E+00
         0.00000E+00
         0.00000E+00
         0.00000E+00
         0.00000E+00
         0.00000E+00
         0.00000E+00
         0.00000E+00
         0.00000E+00
         0.00000E+00
         0.00000E+00
         0.00000E+00
         0.00000E+00
         0.00000E+00
         0.00000E+00
         0.00000E+00
         0.00000E+00
         0.00000E+00
         0.00000E+00
         0.00000E+00
         0.00000E+00
         0.00000E+00
         0.00000E+00
         0.00000E+00
         0.00000E+00
         0.00000E+00
         0.00000E+00
         0.00000E+00
         0.00000E+00
         0.00000E+00
         0.00000E+00
         0.00000E+00
         0.00000E+00
         0.00000E+00
         0.00000E+00
         0.00000E+00
         0.00000E+00
         0.00000E+00
         0.00000E+00
         0.00000E+00
         0.00000E+00
         0.00000E+00
         0.00000E+00
         0.00000E+00
         0.00000E+00
         0.00000E+00
         0.00000E+00
         0.00000E+00
         0.00000E+00
         0.00000E+00
         0.00000E+00
         0.00000E+00
         0.00000E+00
         0.00000E+00
         0.00000E+00
         0.00000E+00
         0.00000E+00
         0.00000E+00
         0.00000E+00
         0.00000E+00
         0.00000E+00
         0.00000E+00
         0.00000E+00
         0.00000E+00
         0.00000E+00
         0.00000E+00
         0.00000E+00
         0.00000E+00
         0.00000E+00
         0.00000E+00
         0.00000E+00
         0.00000E+00
         0.00000E+00
         0.00000E+00
         0.00000E+00
         0.00000E+00
         0.00000E+00
         0.00000E+00
         0.00000E+00
         0.00000E+00
         0.00000E+00
         0.00000E+00
         0.00000E+00
         0.00000E+00
         0.00000E+00
         0.00000E+00
         0.00000E+00
         0.00000E+00
         0.00000E+00
         0.00000E+00
         0.00000E+00
         0.00000E+00
         0.00000E+00
         0.00000E+00
         0.00000E+00
         0.00000E+00
         0.00000E+00
         0.00000E+00
         0.00000E+00
         0.00000E+00
         0.00000E+00
         0.00000E+00
         0.00000E+00
         0.00000E+00
         0.00000E+00
         0.00000E+00
         0.00000E+00
         0.00000E+00
         0.00000E+00
         0.00000E+00
         0.00000E+00
         0.00000E+00
         0.00000E+00
         0.00000E+00
         0.00000E+00
         0.00000E+00
         0.00000E+00
         0.00000E+00
         0.00000E+00
         0.00000E+00
         0.00000E+00
         0.00000E+00
         0.00000E+00
         0.00000E+00
         0.00000E+00
         0.00000E+00
         0.00000E+00
         0.00000E+00
         0.00000E+00
         0.00000E+00
         0.00000E+00
         0.00000E+00
         0.00000E+00
         0.00000E+00
         0.00000E+00
         0.00000E+00
         0.00000E+00
         0.00000E+00
         0.00000E+00
         0.00000E+00
         0.00000E+00
         0.00000E+00
         0.00000E+00
         0.00000E+00
         0.00000E+00
         0.00000E+00
         0.00000E+00
         0.00000E+00
         0.00000E+00
         0.00000E+00
         0.00000E+00
         0.00000E+00
         0.00000E+00
         0.00000E+00
         0.00000E+00
         0.00000E+00
         0.00000E+00
         0.00000E+00
         0.00000E+00
         0.00000E+00
         0.00000E+00
         0.00000E+00
         0.00000E+00
         0.00000E+00
         0.00000E+00
         0.00000E+00
         0.00000E+00
         0.00000E+00
         0.00000E+00
         0.00000E+00
         0.00000E+00
         0.00000E+00
         0.00000E+00
         0.00000E+00
         0.00000E+00
         0.00000E+00
         0.00000E+00
         0.00000E+00
         0.00000E+00
         0.00000E+00
         0.00000E+00
         0.00000E+00
         0.00000E+00
         0.00000E+00
         0.00000E+00
         0.00000E+00
         0.00000E+00
         0.00000E+00
         0.00000E+00
         0.00000E+00
         0.00000E+00
         0.00000E+00
         0.00000E+00
         0.00000E+00
         0.00000E+00
         0.00000E+00
         0.00000E+00
         0.00000E+00
         0.00000E+00
         0.00000E+00
         0.00000E+00
         0.00000E+00
         0.00000E+00
         0.00000E+00
         0.00000E+00
         0.00000E+00
         0.00000E+00
         0.00000E+00
         0.00000E+00
         0.00000E+00
         0.00000E+00
         0.00000E+00
         0.00000E+00
         0.00000E+00
         0.00000E+00
         0.00000E+00
         0.00000E+00
         0.00000E+00
         0.00000E+00
         0.00000E+00
         0.00000E+00
         0.00000E+00
         0.00000E+00
         0.00000E+00
         0.00000E+00
         0.00000E+00
         0.00000E+00
         0.00000E+00
         0.00000E+00
         0.00000E+00
         0.00000E+00
         0.00000E+00
         0.00000E+00
         0.00000E+00
         0.00000E+00
         0.00000E+00
         0.00000E+00
         0.00000E+00
         0.00000E+00
         0.00000E+00
         0.00000E+00
         0.00000E+00
         0.00000E+00
         0.00000E+00
         0.00000E+00
         0.00000E+00
         0.00000E+00
         0.00000E+00
         0.00000E+00
         0.00000E+00
         0.00000E+00
         0.00000E+00
         0.00000E+00
         0.00000E+00
         0.00000E+00
         0.00000E+00
         0.00000E+00
         0.00000E+00
         0.00000E+00
         0.00000E+00
         0.00000E+00
         0.00000E+00
         0.00000E+00
         0.00000E+00
         0.00000E+00
         0.00000E+00
         0.00000E+00
         0.00000E+00
         0.00000E+00
         0.00000E+00
         0.00000E+00
         0.00000E+00
         0.00000E+00
         0.00000E+00
         0.00000E+00
         0.00000E+00
         0.00000E+00
         0.00000E+00
         0.00000E+00
         0.00000E+00
         0.00000E+00
         0.00000E+00
         0.00000E+00
         0.00000E+00
         0.00000E+00
         0.00000E+00
         0.00000E+00
         0.00000E+00
         0.00000E+00
         0.00000E+00
         0.00000E+00
         0.00000E+00
         0.00000E+00
         0.00000E+00
         0.00000E+00
         0.00000E+00
         0.00000E+00
         0.00000E+00
         0.00000E+00
         0.00000E+00
         0.00000E+00
         0.00000E+00
         0.00000E+00
         0.00000E+00
         0.00000E+00
         0.00000E+00
         0.00000E+00
         0.00000E+00
         0.00000E+00
         0.00000E+00
         0.00000E+00
         0.00000E+00
         0.00000E+00
         0.00000E+00
         0.00000E+00
         0.00000E+00
         0.00000E+00
         0.00000E+00
         0.00000E+00
         0.00000E+00
         0.00000E+00
         0.00000E+00
         0.00000E+00
         0.00000E+00
         0.00000E+00
         0.00000E+00
         0.00000E+00
         0.00000E+00
         0.00000E+00
         0.00000E+00
         0.00000E+00
         0.00000E+00
         0.00000E+00
         0.00000E+00
         0.00000E+00
         0.00000E+00
         0.00000E+00
         0.00000E+00
         0.00000E+00
         0.00000E+00
         0.00000E+00
         0.00000E+00
         0.00000E+00
         0.00000E+00
         0.00000E+00
         0.00000E+00
         0.00000E+00
         0.00000E+00
         0.00000E+00
         0.00000E+00
         0.00000E+00
         0.00000E+00
         0.00000E+00
         0.00000E+00
         0.00000E+00
         0.00000E+00
         0.00000E+00
         0.00000E+00
         0.00000E+00
         0.00000E+00
         0.00000E+00
         0.00000E+00
         0.00000E+00
         0.00000E+00
         0.00000E+00
         0.00000E+00
         0.00000E+00
         0.00000E+00
         0.00000E+00
         0.00000E+00
         0.00000E+00
         0.00000E+00
         0.00000E+00
         0.00000E+00
         0.00000E+00
         0.00000E+00
         0.00000E+00
         0.00000E+00
         0.00000E+00
         0.00000E+00
         0.00000E+00
         0.00000E+00
         0.00000E+00
         0.00000E+00
         0.00000E+00
         0.00000E+00
         0.00000E+00
         0.00000E+00
         0.00000E+00
         0.00000E+00
         0.00000E+00
         0.00000E+00
         0.00000E+00
         0.00000E+00
         0.00000E+00
         0.00000E+00
         0.00000E+00
         0.00000E+00
         0.00000E+00
         0.00000E+00
         0.00000E+00
         0.00000E+00
         0.00000E+00
         0.00000E+00
         0.00000E+00
         0.00000E+00
         0.00000E+00
         0.00000E+00
         0.00000E+00
         0.00000E+00
         0.00000E+00
         0.00000E+00
         0.00000E+00
         0.00000E+00
         0.00000E+00
         0.00000E+00
         0.00000E+00
         0.00000E+00
         0.00000E+00
         0.00000E+00
         0.00000E+00
         0.00000E+00
         0.00000E+00
         0.00000E+00
         0.00000E+00
         0.00000E+00
         0.00000E+00
         0.00000E+00
         0.00000E+00
         0.00000E+00
         0.00000E+00
         0.00000E+00
         0.00000E+00
         0.00000E+00
         0.00000E+00
         0.00000E+00
         0.00000E+00
         0.00000E+00
         0.00000E+00
         0.00000E+00
         0.00000E+00
         0.00000E+00
         0.00000E+00
         0.00000E+00
         0.00000E+00
         0.00000E+00
         0.00000E+00
         0.00000E+00
         0.00000E+00
         0.00000E+00
         0.00000E+00
         0.00000E+00
         0.00000E+00
         0.00000E+00
         0.00000E+00
         0.00000E+00
         0.00000E+00
         0.00000E+00
         0.00000E+00
         0.00000E+00
         0.00000E+00
         0.00000E+00
         0.00000E+00
         0.00000E+00
         0.00000E+00
         0.00000E+00
         0.00000E+00
         0.00000E+00
         0.00000E+00
         0.00000E+00
         0.00000E+00
         0.00000E+00
         0.00000E+00
         0.00000E+00
         0.00000E+00
         0.00000E+00
         0.00000E+00
         0.00000E+00
         0.00000E+00
         0.00000E+00
         0.00000E+00
         0.00000E+00
         0.00000E+00
         0.00000E+00
         0.00000E+00
         0.00000E+00
         0.00000E+00
         0.00000E+00
         0.00000E+00
         0.00000E+00
         0.00000E+00
         0.00000E+00
         0.00000E+00
         0.00000E+00
         0.00000E+00
         0.00000E+00
         0.00000E+00
         0.00000E+00
         0.00000E+00
         0.00000E+00
         0.00000E+00
         0.00000E+00
         0.00000E+00
         0.00000E+00
         0.00000E+00
         0.00000E+00
         0.00000E+00
         0.00000E+00
         0.00000E+00
         0.00000E+00
         0.00000E+00
         0.00000E+00
         0.00000E+00
         0.00000E+00
         0.00000E+00
         0.00000E+00
         0.00000E+00
         0.00000E+00
         0.00000E+00
         0.00000E+00
         0.00000E+00
         0.00000E+00
         0.00000E+00
         0.00000E+00
         0.00000E+00
         0.00000E+00
         0.00000E+00
         0.00000E+00
         0.00000E+00
         0.00000E+00
         0.00000E+00
         0.00000E+00
         0.00000E+00
         0.00000E+00
         0.00000E+00
         0.00000E+00
         0.00000E+00
         0.00000E+00
         0.00000E+00
         0.00000E+00
         0.00000E+00
         0.00000E+00
         0.00000E+00
         0.00000E+00
         0.00000E+00
         0.00000E+00
         0.00000E+00
         0.00000E+00
         0.00000E+00
         0.00000E+00
         0.00000E+00
         0.00000E+00
         0.00000E+00
         0.00000E+00
         0.00000E+00
         0.00000E+00
         0.00000E+00
         0.00000E+00
         0.00000E+00
         0.00000E+00
         0.00000E+00
         0.00000E+00
         0.00000E+00
         0.00000E+00
         0.00000E+00
         0.00000E+00
         0.00000E+00
         0.00000E+00
         0.00000E+00
         0.00000E+00
         0.00000E+00
         0.00000E+00
         0.00000E+00
         0.00000E+00
         0.00000E+00
         0.00000E+00
         0.00000E+00
         0.00000E+00
         0.00000E+00
         0.00000E+00
         0.00000E+00
         0.00000E+00
         0.00000E+00
         0.00000E+00
         0.00000E+00
         0.00000E+00
         0.00000E+00
         0.00000E+00
         0.00000E+00
         0.00000E+00
         0.00000E+00
         0.00000E+00
         0.00000E+00
         0.00000E+00
         0.00000E+00
         0.00000E+00
         0.00000E+00
         0.00000E+00
         0.00000E+00
         0.00000E+00
         0.00000E+00
         0.00000E+00
         0.00000E+00
         0.00000E+00
         0.00000E+00
         0.00000E+00
         0.00000E+00
         0.00000E+00
         0.00000E+00
         0.00000E+00
         0.00000E+00
         0.00000E+00
         0.00000E+00
         0.00000E+00
         0.00000E+00
         0.00000E+00
         0.00000E+00
         0.00000E+00
         0.00000E+00
         0.00000E+00
         0.00000E+00
         0.00000E+00
         0.00000E+00
         0.00000E+00
         0.00000E+00
         0.00000E+00
         0.00000E+00
         0.00000E+00
         0.00000E+00
         0.00000E+00
         0.00000E+00
         0.00000E+00
         0.00000E+00
         0.00000E+00
         0.00000E+00
         0.00000E+00
         0.00000E+00
         0.00000E+00
         0.00000E+00
         0.00000E+00
         0.00000E+00
         0.00000E+00
         0.00000E+00
         0.00000E+00
         0.00000E+00
         0.00000E+00
         0.00000E+00
         0.00000E+00
         0.00000E+00
         0.00000E+00
         0.00000E+00
         0.00000E+00
         0.00000E+00
         0.00000E+00
         0.00000E+00
         0.00000E+00
         0.00000E+00
         0.00000E+00
         0.00000E+00
         0.00000E+00
         0.00000E+00
         0.00000E+00
         0.00000E+00
         0.00000E+00
         0.00000E+00
         0.00000E+00
         0.00000E+00
         0.00000E+00
         0.00000E+00
         0.00000E+00
         0.00000E+00
         0.00000E+00
         0.00000E+00
         0.00000E+00
         0.00000E+00
         0.00000E+00
         0.00000E+00
         0.00000E+00
         0.00000E+00
         0.00000E+00
         0.00000E+00
         0.00000E+00
         0.00000E+00
         0.00000E+00
         0.00000E+00
         0.00000E+00
         0.00000E+00
         0.00000E+00
         0.00000E+00
         0.00000E+00
         0.00000E+00
         0.00000E+00
         0.00000E+00
         0.00000E+00
         0.00000E+00
         0.00000E+00
         0.00000E+00
         0.00000E+00
         0.00000E+00
         0.00000E+00
         0.00000E+00
         0.00000E+00
         0.00000E+00
         0.00000E+00
         0.00000E+00
         0.00000E+00
         0.00000E+00
         0.00000E+00
         0.00000E+00
         0.00000E+00
         0.00000E+00
         0.00000E+00
         0.00000E+00
         0.00000E+00
         0.00000E+00
         0.00000E+00
         0.00000E+00
         0.00000E+00
         0.00000E+00
         0.00000E+00
         0.00000E+00
         0.00000E+00
         0.00000E+00
         0.00000E+00
         0.00000E+00
         0.00000E+00
         0.00000E+00
         0.00000E+00
         0.00000E+00
         0.00000E+00
         0.00000E+00
         0.00000E+00
         0.00000E+00
         0.00000E+00
         0.00000E+00
         0.00000E+00
         0.00000E+00
         0.00000E+00
         0.00000E+00
         0.00000E+00
         0.00000E+00
         0.00000E+00
         0.00000E+00
         0.00000E+00
         0.00000E+00
         0.00000E+00
         0.00000E+00
         0.00000E+00
         0.00000E+00
         0.00000E+00
         0.00000E+00
         0.00000E+00
         0.00000E+00
         0.00000E+00
         0.00000E+00
         0.00000E+00
         0.00000E+00
         0.00000E+00
         0.00000E+00
         0.00000E+00
         0.00000E+00
         0.00000E+00
         0.00000E+00
         0.00000E+00
         0.00000E+00
         0.00000E+00
         0.00000E+00
         0.00000E+00
         0.00000E+00
         0.00000E+00
         0.00000E+00
         0.00000E+00
         0.00000E+00
         0.00000E+00
         0.00000E+00
         0.00000E+00
         0.00000E+00
         0.00000E+00
         0.00000E+00
         0.00000E+00
         0.00000E+00
         0.00000E+00
         0.00000E+00
         0.00000E+00
         0.00000E+00
         0.00000E+00
         0.00000E+00
         0.00000E+00
         0.00000E+00
         0.00000E+00
         0.00000E+00
         0.00000E+00
         0.00000E+00
         0.00000E+00
         0.00000E+00
         0.00000E+00
         0.00000E+00
         0.00000E+00
         0.00000E+00
         0.00000E+00
         0.00000E+00
         0.00000E+00
         0.00000E+00
         0.00000E+00
         0.00000E+00
         0.00000E+00
         0.00000E+00
         0.00000E+00
         0.00000E+00
         0.00000E+00
         0.00000E+00
         0.00000E+00
         0.00000E+00
         0.00000E+00
         0.00000E+00
         0.00000E+00
         0.00000E+00
         0.00000E+00
         0.00000E+00
         0.00000E+00
         0.00000E+00
         0.00000E+00
         0.00000E+00
         0.00000E+00
         0.00000E+00
         0.00000E+00
         0.00000E+00
         0.00000E+00
         0.00000E+00
         0.00000E+00
         0.00000E+00
         0.00000E+00
         0.00000E+00
         0.00000E+00
         0.00000E+00
         0.00000E+00
         0.00000E+00
         0.00000E+00
         0.00000E+00
         0.00000E+00
         0.00000E+00
         0.00000E+00
         0.00000E+00
         0.00000E+00
         0.00000E+00
         0.00000E+00
         0.00000E+00
         0.00000E+00
         0.00000E+00
         0.00000E+00
         0.00000E+00
         0.00000E+00
         0.00000E+00
         0.00000E+00
         0.00000E+00
         0.00000E+00
         0.00000E+00
         0.00000E+00
         0.00000E+00
         0.00000E+00
         0.00000E+00
         0.00000E+00
         0.00000E+00
         0.00000E+00
         0.00000E+00
         0.00000E+00
         0.00000E+00
         0.00000E+00
         0.00000E+00
         0.00000E+00
         0.00000E+00
         0.00000E+00
         0.00000E+00
         0.00000E+00
         0.00000E+00
         0.00000E+00
         0.00000E+00
         0.00000E+00
         0.00000E+00
         0.00000E+00
         0.00000E+00
         0.00000E+00
         0.00000E+00
         0.00000E+00
         0.00000E+00
         0.00000E+00
         0.00000E+00
         0.00000E+00
         0.00000E+00
         0.00000E+00
         0.00000E+00
         0.00000E+00
         0.00000E+00
         0.00000E+00
         0.00000E+00
         0.00000E+00
         0.00000E+00
         0.00000E+00
         0.00000E+00
         0.00000E+00
         0.00000E+00
         0.00000E+00
         0.00000E+00
         0.00000E+00
         0.00000E+00
         0.00000E+00
         0.00000E+00
         0.00000E+00
         0.00000E+00
         0.00000E+00
         0.00000E+00
         0.00000E+00
         0.00000E+00
         0.00000E+00
         0.00000E+00
         0.00000E+00
         0.00000E+00
         0.00000E+00
         0.00000E+00
         0.00000E+00
         0.00000E+00
         0.00000E+00
         0.00000E+00
         0.00000E+00
         0.00000E+00
         0.00000E+00
         0.00000E+00
         0.00000E+00
         0.00000E+00
         0.00000E+00
         0.00000E+00
         0.00000E+00
         0.00000E+00
         0.00000E+00
         0.00000E+00
         0.00000E+00
         0.00000E+00
         0.00000E+00
         0.00000E+00
         0.00000E+00
         0.00000E+00
         0.00000E+00
         0.00000E+00
         0.00000E+00
         0.00000E+00
         0.00000E+00
         0.00000E+00
         0.00000E+00
         0.00000E+00
         0.00000E+00
         0.00000E+00
         0.00000E+00
         0.00000E+00
         0.00000E+00
         0.00000E+00
         0.00000E+00
         0.00000E+00
         0.00000E+00
         0.00000E+00
         0.00000E+00
         0.00000E+00
         0.00000E+00
         0.00000E+00
         0.00000E+00
         0.00000E+00
         0.00000E+00
         0.00000E+00
         0.00000E+00
         0.00000E+00
         0.00000E+00
         0.00000E+00
         0.00000E+00
         0.00000E+00
         0.00000E+00
         0.00000E+00
         0.00000E+00
         0.00000E+00
         0.00000E+00
         0.00000E+00
         0.00000E+00
         0.00000E+00
         0.00000E+00
         0.00000E+00
         0.00000E+00
         0.00000E+00
         0.00000E+00
         0.00000E+00
         0.00000E+00
         0.00000E+00
         0.00000E+00
         0.00000E+00
         0.00000E+00
         0.00000E+00
         0.00000E+00
         0.00000E+00
         0.00000E+00
         0.00000E+00
         0.00000E+00
         0.00000E+00
         0.00000E+00
         0.00000E+00
         0.00000E+00
         0.00000E+00
         0.00000E+00
         0.00000E+00
         0.00000E+00
         0.00000E+00
         0.00000E+00
         0.00000E+00
         0.00000E+00
         0.00000E+00
         0.00000E+00
         0.00000E+00
         0.00000E+00
         0.00000E+00
         0.00000E+00
         0.00000E+00
         0.00000E+00
         0.00000E+00
         0.00000E+00
         0.00000E+00
         0.00000E+00
         0.00000E+00
         0.00000E+00
  
SCALARS                init_velocity_z  double 1
LOOKUP_TABLE default
        -0.37300E+03
        -0.37300E+03
        -0.37300E+03
        -0.37300E+03
        -0.37300E+03
        -0.37300E+03
        -0.37300E+03
        -0.37300E+03
        -0.37300E+03
        -0.37300E+03
        -0.37300E+03
        -0.37300E+03
        -0.37300E+03
        -0.37300E+03
        -0.37300E+03
        -0.37300E+03
        -0.37300E+03
        -0.37300E+03
        -0.37300E+03
        -0.37300E+03
        -0.37300E+03
        -0.37300E+03
        -0.37300E+03
        -0.37300E+03
        -0.37300E+03
        -0.37300E+03
        -0.37300E+03
        -0.37300E+03
        -0.37300E+03
        -0.37300E+03
        -0.37300E+03
        -0.37300E+03
        -0.37300E+03
        -0.37300E+03
        -0.37300E+03
        -0.37300E+03
        -0.37300E+03
        -0.37300E+03
        -0.37300E+03
        -0.37300E+03
        -0.37300E+03
        -0.37300E+03
        -0.37300E+03
        -0.37300E+03
        -0.37300E+03
        -0.37300E+03
        -0.37300E+03
        -0.37300E+03
        -0.37300E+03
        -0.37300E+03
        -0.37300E+03
        -0.37300E+03
        -0.37300E+03
        -0.37300E+03
        -0.37300E+03
        -0.37300E+03
        -0.37300E+03
        -0.37300E+03
        -0.37300E+03
        -0.37300E+03
        -0.37300E+03
        -0.37300E+03
        -0.37300E+03
        -0.37300E+03
        -0.37300E+03
        -0.37300E+03
        -0.37300E+03
        -0.37300E+03
        -0.37300E+03
        -0.37300E+03
        -0.37300E+03
        -0.37300E+03
        -0.37300E+03
        -0.37300E+03
        -0.37300E+03
        -0.37300E+03
        -0.37300E+03
        -0.37300E+03
        -0.37300E+03
        -0.37300E+03
        -0.37300E+03
        -0.37300E+03
        -0.37300E+03
        -0.37300E+03
        -0.37300E+03
        -0.37300E+03
        -0.37300E+03
        -0.37300E+03
        -0.37300E+03
        -0.37300E+03
        -0.37300E+03
        -0.37300E+03
        -0.37300E+03
        -0.37300E+03
        -0.37300E+03
        -0.37300E+03
        -0.37300E+03
        -0.37300E+03
        -0.37300E+03
        -0.37300E+03
        -0.37300E+03
        -0.37300E+03
        -0.37300E+03
        -0.37300E+03
        -0.37300E+03
        -0.37300E+03
        -0.37300E+03
        -0.37300E+03
        -0.37300E+03
        -0.37300E+03
        -0.37300E+03
        -0.37300E+03
        -0.37300E+03
        -0.37300E+03
        -0.37300E+03
        -0.37300E+03
        -0.37300E+03
        -0.37300E+03
        -0.37300E+03
        -0.37300E+03
        -0.37300E+03
        -0.37300E+03
        -0.37300E+03
        -0.37300E+03
        -0.37300E+03
        -0.37300E+03
        -0.37300E+03
        -0.37300E+03
        -0.37300E+03
        -0.37300E+03
        -0.37300E+03
        -0.37300E+03
        -0.37300E+03
        -0.37300E+03
        -0.37300E+03
        -0.37300E+03
        -0.37300E+03
        -0.37300E+03
        -0.37300E+03
        -0.37300E+03
        -0.37300E+03
        -0.37300E+03
        -0.37300E+03
        -0.37300E+03
        -0.37300E+03
        -0.37300E+03
        -0.37300E+03
        -0.37300E+03
        -0.37300E+03
        -0.37300E+03
        -0.37300E+03
        -0.37300E+03
        -0.37300E+03
        -0.37300E+03
        -0.37300E+03
        -0.37300E+03
        -0.37300E+03
        -0.37300E+03
        -0.37300E+03
        -0.37300E+03
        -0.37300E+03
        -0.37300E+03
        -0.37300E+03
        -0.37300E+03
        -0.37300E+03
        -0.37300E+03
        -0.37300E+03
        -0.37300E+03
        -0.37300E+03
        -0.37300E+03
        -0.37300E+03
        -0.37300E+03
        -0.37300E+03
        -0.37300E+03
        -0.37300E+03
        -0.37300E+03
        -0.37300E+03
        -0.37300E+03
        -0.37300E+03
        -0.37300E+03
        -0.37300E+03
        -0.37300E+03
        -0.37300E+03
        -0.37300E+03
        -0.37300E+03
        -0.37300E+03
        -0.37300E+03
        -0.37300E+03
        -0.37300E+03
        -0.37300E+03
        -0.37300E+03
        -0.37300E+03
        -0.37300E+03
        -0.37300E+03
        -0.37300E+03
        -0.37300E+03
        -0.37300E+03
        -0.37300E+03
        -0.37300E+03
        -0.37300E+03
        -0.37300E+03
        -0.37300E+03
        -0.37300E+03
        -0.37300E+03
        -0.37300E+03
        -0.37300E+03
        -0.37300E+03
        -0.37300E+03
        -0.37300E+03
        -0.37300E+03
        -0.37300E+03
        -0.37300E+03
        -0.37300E+03
        -0.37300E+03
        -0.37300E+03
        -0.37300E+03
        -0.37300E+03
        -0.37300E+03
        -0.37300E+03
        -0.37300E+03
        -0.37300E+03
        -0.37300E+03
        -0.37300E+03
        -0.37300E+03
        -0.37300E+03
        -0.37300E+03
        -0.37300E+03
        -0.37300E+03
        -0.37300E+03
        -0.37300E+03
        -0.37300E+03
        -0.37300E+03
        -0.37300E+03
        -0.37300E+03
        -0.37300E+03
        -0.37300E+03
        -0.37300E+03
        -0.37300E+03
        -0.37300E+03
        -0.37300E+03
        -0.37300E+03
        -0.37300E+03
        -0.37300E+03
        -0.37300E+03
        -0.37300E+03
        -0.37300E+03
        -0.37300E+03
        -0.37300E+03
        -0.37300E+03
        -0.37300E+03
        -0.37300E+03
        -0.37300E+03
        -0.37300E+03
        -0.37300E+03
        -0.37300E+03
        -0.37300E+03
        -0.37300E+03
        -0.37300E+03
        -0.37300E+03
        -0.37300E+03
        -0.37300E+03
        -0.37300E+03
        -0.37300E+03
        -0.37300E+03
        -0.37300E+03
        -0.37300E+03
        -0.37300E+03
        -0.37300E+03
        -0.37300E+03
        -0.37300E+03
        -0.37300E+03
        -0.37300E+03
        -0.37300E+03
        -0.37300E+03
        -0.37300E+03
        -0.37300E+03
        -0.37300E+03
        -0.37300E+03
        -0.37300E+03
        -0.37300E+03
        -0.37300E+03
        -0.37300E+03
        -0.37300E+03
        -0.37300E+03
        -0.37300E+03
        -0.37300E+03
        -0.37300E+03
        -0.37300E+03
        -0.37300E+03
        -0.37300E+03
        -0.37300E+03
        -0.37300E+03
        -0.37300E+03
        -0.37300E+03
        -0.37300E+03
        -0.37300E+03
        -0.37300E+03
        -0.37300E+03
        -0.37300E+03
        -0.37300E+03
        -0.37300E+03
        -0.37300E+03
        -0.37300E+03
        -0.37300E+03
        -0.37300E+03
        -0.37300E+03
        -0.37300E+03
        -0.37300E+03
        -0.37300E+03
        -0.37300E+03
        -0.37300E+03
        -0.37300E+03
        -0.37300E+03
        -0.37300E+03
        -0.37300E+03
        -0.37300E+03
        -0.37300E+03
        -0.37300E+03
        -0.37300E+03
        -0.37300E+03
        -0.37300E+03
        -0.37300E+03
        -0.37300E+03
        -0.37300E+03
        -0.37300E+03
        -0.37300E+03
        -0.37300E+03
        -0.37300E+03
        -0.37300E+03
        -0.37300E+03
        -0.37300E+03
        -0.37300E+03
        -0.37300E+03
        -0.37300E+03
        -0.37300E+03
        -0.37300E+03
        -0.37300E+03
        -0.37300E+03
        -0.37300E+03
        -0.37300E+03
        -0.37300E+03
        -0.37300E+03
        -0.37300E+03
        -0.37300E+03
        -0.37300E+03
        -0.37300E+03
        -0.37300E+03
        -0.37300E+03
        -0.37300E+03
        -0.37300E+03
        -0.37300E+03
        -0.37300E+03
        -0.37300E+03
        -0.37300E+03
        -0.37300E+03
        -0.37300E+03
        -0.37300E+03
        -0.37300E+03
        -0.37300E+03
        -0.37300E+03
        -0.37300E+03
        -0.37300E+03
        -0.37300E+03
        -0.37300E+03
        -0.37300E+03
        -0.37300E+03
        -0.37300E+03
        -0.37300E+03
        -0.37300E+03
        -0.37300E+03
        -0.37300E+03
        -0.37300E+03
        -0.37300E+03
        -0.37300E+03
        -0.37300E+03
        -0.37300E+03
        -0.37300E+03
        -0.37300E+03
        -0.37300E+03
        -0.37300E+03
        -0.37300E+03
        -0.37300E+03
        -0.37300E+03
        -0.37300E+03
        -0.37300E+03
        -0.37300E+03
        -0.37300E+03
        -0.37300E+03
        -0.37300E+03
        -0.37300E+03
        -0.37300E+03
        -0.37300E+03
        -0.37300E+03
        -0.37300E+03
        -0.37300E+03
        -0.37300E+03
        -0.37300E+03
        -0.37300E+03
        -0.37300E+03
        -0.37300E+03
        -0.37300E+03
        -0.37300E+03
        -0.37300E+03
        -0.37300E+03
        -0.37300E+03
        -0.37300E+03
        -0.37300E+03
        -0.37300E+03
        -0.37300E+03
        -0.37300E+03
        -0.37300E+03
        -0.37300E+03
        -0.37300E+03
        -0.37300E+03
        -0.37300E+03
        -0.37300E+03
        -0.37300E+03
        -0.37300E+03
        -0.37300E+03
        -0.37300E+03
        -0.37300E+03
        -0.37300E+03
        -0.37300E+03
        -0.37300E+03
        -0.37300E+03
        -0.37300E+03
        -0.37300E+03
        -0.37300E+03
        -0.37300E+03
        -0.37300E+03
        -0.37300E+03
        -0.37300E+03
        -0.37300E+03
        -0.37300E+03
        -0.37300E+03
        -0.37300E+03
        -0.37300E+03
        -0.37300E+03
        -0.37300E+03
        -0.37300E+03
        -0.37300E+03
        -0.37300E+03
        -0.37300E+03
        -0.37300E+03
        -0.37300E+03
        -0.37300E+03
        -0.37300E+03
        -0.37300E+03
        -0.37300E+03
        -0.37300E+03
        -0.37300E+03
        -0.37300E+03
        -0.37300E+03
        -0.37300E+03
        -0.37300E+03
        -0.37300E+03
        -0.37300E+03
        -0.37300E+03
        -0.37300E+03
        -0.37300E+03
        -0.37300E+03
        -0.37300E+03
        -0.37300E+03
        -0.37300E+03
        -0.37300E+03
        -0.37300E+03
        -0.37300E+03
        -0.37300E+03
        -0.37300E+03
        -0.37300E+03
        -0.37300E+03
        -0.37300E+03
        -0.37300E+03
        -0.37300E+03
        -0.37300E+03
        -0.37300E+03
        -0.37300E+03
        -0.37300E+03
        -0.37300E+03
        -0.37300E+03
        -0.37300E+03
        -0.37300E+03
        -0.37300E+03
        -0.37300E+03
        -0.37300E+03
        -0.37300E+03
        -0.37300E+03
        -0.37300E+03
        -0.37300E+03
        -0.37300E+03
        -0.37300E+03
        -0.37300E+03
        -0.37300E+03
        -0.37300E+03
        -0.37300E+03
        -0.37300E+03
        -0.37300E+03
        -0.37300E+03
        -0.37300E+03
        -0.37300E+03
        -0.37300E+03
        -0.37300E+03
        -0.37300E+03
        -0.37300E+03
        -0.37300E+03
        -0.37300E+03
        -0.37300E+03
        -0.37300E+03
        -0.37300E+03
        -0.37300E+03
        -0.37300E+03
        -0.37300E+03
        -0.37300E+03
        -0.37300E+03
        -0.37300E+03
        -0.37300E+03
        -0.37300E+03
        -0.37300E+03
        -0.37300E+03
        -0.37300E+03
        -0.37300E+03
        -0.37300E+03
        -0.37300E+03
        -0.37300E+03
        -0.37300E+03
        -0.37300E+03
        -0.37300E+03
        -0.37300E+03
        -0.37300E+03
        -0.37300E+03
        -0.37300E+03
        -0.37300E+03
        -0.37300E+03
        -0.37300E+03
        -0.37300E+03
        -0.37300E+03
        -0.37300E+03
        -0.37300E+03
        -0.37300E+03
        -0.37300E+03
        -0.37300E+03
        -0.37300E+03
        -0.37300E+03
        -0.37300E+03
        -0.37300E+03
        -0.37300E+03
        -0.37300E+03
        -0.37300E+03
        -0.37300E+03
        -0.37300E+03
        -0.37300E+03
        -0.37300E+03
        -0.37300E+03
        -0.37300E+03
        -0.37300E+03
        -0.37300E+03
        -0.37300E+03
        -0.37300E+03
        -0.37300E+03
        -0.37300E+03
        -0.37300E+03
        -0.37300E+03
        -0.37300E+03
        -0.37300E+03
        -0.37300E+03
        -0.37300E+03
        -0.37300E+03
        -0.37300E+03
        -0.37300E+03
        -0.37300E+03
        -0.37300E+03
        -0.37300E+03
        -0.37300E+03
        -0.37300E+03
        -0.37300E+03
        -0.37300E+03
        -0.37300E+03
        -0.37300E+03
        -0.37300E+03
        -0.37300E+03
        -0.37300E+03
        -0.37300E+03
        -0.37300E+03
        -0.37300E+03
        -0.37300E+03
        -0.37300E+03
        -0.37300E+03
        -0.37300E+03
        -0.37300E+03
        -0.37300E+03
        -0.37300E+03
        -0.37300E+03
        -0.37300E+03
        -0.37300E+03
        -0.37300E+03
        -0.37300E+03
        -0.37300E+03
        -0.37300E+03
        -0.37300E+03
        -0.37300E+03
        -0.37300E+03
        -0.37300E+03
        -0.37300E+03
        -0.37300E+03
        -0.37300E+03
        -0.37300E+03
        -0.37300E+03
        -0.37300E+03
        -0.37300E+03
        -0.37300E+03
        -0.37300E+03
        -0.37300E+03
        -0.37300E+03
        -0.37300E+03
        -0.37300E+03
        -0.37300E+03
        -0.37300E+03
        -0.37300E+03
        -0.37300E+03
        -0.37300E+03
        -0.37300E+03
        -0.37300E+03
        -0.37300E+03
        -0.37300E+03
        -0.37300E+03
        -0.37300E+03
        -0.37300E+03
        -0.37300E+03
        -0.37300E+03
        -0.37300E+03
        -0.37300E+03
        -0.37300E+03
        -0.37300E+03
        -0.37300E+03
        -0.37300E+03
        -0.37300E+03
        -0.37300E+03
        -0.37300E+03
        -0.37300E+03
        -0.37300E+03
        -0.37300E+03
        -0.37300E+03
        -0.37300E+03
        -0.37300E+03
        -0.37300E+03
        -0.37300E+03
        -0.37300E+03
        -0.37300E+03
        -0.37300E+03
        -0.37300E+03
        -0.37300E+03
        -0.37300E+03
        -0.37300E+03
        -0.37300E+03
        -0.37300E+03
        -0.37300E+03
        -0.37300E+03
        -0.37300E+03
        -0.37300E+03
        -0.37300E+03
        -0.37300E+03
        -0.37300E+03
        -0.37300E+03
        -0.37300E+03
        -0.37300E+03
        -0.37300E+03
        -0.37300E+03
        -0.37300E+03
        -0.37300E+03
        -0.37300E+03
        -0.37300E+03
        -0.37300E+03
        -0.37300E+03
        -0.37300E+03
        -0.37300E+03
        -0.37300E+03
        -0.37300E+03
        -0.37300E+03
        -0.37300E+03
        -0.37300E+03
        -0.37300E+03
        -0.37300E+03
        -0.37300E+03
        -0.37300E+03
        -0.37300E+03
        -0.37300E+03
        -0.37300E+03
        -0.37300E+03
        -0.37300E+03
        -0.37300E+03
        -0.37300E+03
        -0.37300E+03
        -0.37300E+03
        -0.37300E+03
        -0.37300E+03
        -0.37300E+03
        -0.37300E+03
        -0.37300E+03
        -0.37300E+03
        -0.37300E+03
        -0.37300E+03
        -0.37300E+03
        -0.37300E+03
        -0.37300E+03
        -0.37300E+03
        -0.37300E+03
        -0.37300E+03
        -0.37300E+03
        -0.37300E+03
        -0.37300E+03
        -0.37300E+03
        -0.37300E+03
        -0.37300E+03
        -0.37300E+03
        -0.37300E+03
        -0.37300E+03
        -0.37300E+03
        -0.37300E+03
        -0.37300E+03
        -0.37300E+03
        -0.37300E+03
        -0.37300E+03
        -0.37300E+03
        -0.37300E+03
        -0.37300E+03
        -0.37300E+03
        -0.37300E+03
        -0.37300E+03
        -0.37300E+03
        -0.37300E+03
        -0.37300E+03
        -0.37300E+03
        -0.37300E+03
        -0.37300E+03
        -0.37300E+03
        -0.37300E+03
        -0.37300E+03
        -0.37300E+03
        -0.37300E+03
        -0.37300E+03
        -0.37300E+03
        -0.37300E+03
        -0.37300E+03
        -0.37300E+03
        -0.37300E+03
        -0.37300E+03
        -0.37300E+03
        -0.37300E+03
        -0.37300E+03
        -0.37300E+03
        -0.37300E+03
        -0.37300E+03
        -0.37300E+03
        -0.37300E+03
        -0.37300E+03
        -0.37300E+03
        -0.37300E+03
        -0.37300E+03
        -0.37300E+03
        -0.37300E+03
        -0.37300E+03
        -0.37300E+03
        -0.37300E+03
        -0.37300E+03
        -0.37300E+03
        -0.37300E+03
        -0.37300E+03
        -0.37300E+03
        -0.37300E+03
        -0.37300E+03
        -0.37300E+03
        -0.37300E+03
        -0.37300E+03
        -0.37300E+03
        -0.37300E+03
        -0.37300E+03
        -0.37300E+03
        -0.37300E+03
        -0.37300E+03
        -0.37300E+03
        -0.37300E+03
        -0.37300E+03
        -0.37300E+03
        -0.37300E+03
        -0.37300E+03
        -0.37300E+03
        -0.37300E+03
        -0.37300E+03
        -0.37300E+03
        -0.37300E+03
        -0.37300E+03
        -0.37300E+03
        -0.37300E+03
        -0.37300E+03
        -0.37300E+03
        -0.37300E+03
        -0.37300E+03
        -0.37300E+03
        -0.37300E+03
        -0.37300E+03
        -0.37300E+03
        -0.37300E+03
        -0.37300E+03
        -0.37300E+03
        -0.37300E+03
        -0.37300E+03
        -0.37300E+03
        -0.37300E+03
        -0.37300E+03
        -0.37300E+03
        -0.37300E+03
        -0.37300E+03
        -0.37300E+03
        -0.37300E+03
        -0.37300E+03
        -0.37300E+03
        -0.37300E+03
        -0.37300E+03
        -0.37300E+03
        -0.37300E+03
        -0.37300E+03
        -0.37300E+03
        -0.37300E+03
        -0.37300E+03
        -0.37300E+03
        -0.37300E+03
        -0.37300E+03
        -0.37300E+03
        -0.37300E+03
        -0.37300E+03
        -0.37300E+03
        -0.37300E+03
        -0.37300E+03
        -0.37300E+03
        -0.37300E+03
        -0.37300E+03
        -0.37300E+03
        -0.37300E+03
        -0.37300E+03
        -0.37300E+03
        -0.37300E+03
        -0.37300E+03
        -0.37300E+03
        -0.37300E+03
        -0.37300E+03
        -0.37300E+03
        -0.37300E+03
        -0.37300E+03
        -0.37300E+03
        -0.37300E+03
        -0.37300E+03
        -0.37300E+03
        -0.37300E+03
        -0.37300E+03
        -0.37300E+03
        -0.37300E+03
        -0.37300E+03
        -0.37300E+03
        -0.37300E+03
        -0.37300E+03
        -0.37300E+03
        -0.37300E+03
        -0.37300E+03
        -0.37300E+03
        -0.37300E+03
        -0.37300E+03
        -0.37300E+03
        -0.37300E+03
        -0.37300E+03
        -0.37300E+03
        -0.37300E+03
        -0.37300E+03
        -0.37300E+03
        -0.37300E+03
        -0.37300E+03
        -0.37300E+03
        -0.37300E+03
        -0.37300E+03
        -0.37300E+03
        -0.37300E+03
        -0.37300E+03
        -0.37300E+03
        -0.37300E+03
        -0.37300E+03
        -0.37300E+03
        -0.37300E+03
        -0.37300E+03
        -0.37300E+03
        -0.37300E+03
        -0.37300E+03
        -0.37300E+03
        -0.37300E+03
        -0.37300E+03
        -0.37300E+03
        -0.37300E+03
        -0.37300E+03
        -0.37300E+03
        -0.37300E+03
        -0.37300E+03
        -0.37300E+03
        -0.37300E+03
        -0.37300E+03
        -0.37300E+03
        -0.37300E+03
        -0.37300E+03
        -0.37300E+03
        -0.37300E+03
        -0.37300E+03
        -0.37300E+03
        -0.37300E+03
        -0.37300E+03
        -0.37300E+03
        -0.37300E+03
        -0.37300E+03
        -0.37300E+03
        -0.37300E+03
        -0.37300E+03
        -0.37300E+03
        -0.37300E+03
        -0.37300E+03
        -0.37300E+03
        -0.37300E+03
        -0.37300E+03
        -0.37300E+03
        -0.37300E+03
        -0.37300E+03
        -0.37300E+03
        -0.37300E+03
        -0.37300E+03
        -0.37300E+03
        -0.37300E+03
        -0.37300E+03
        -0.37300E+03
        -0.37300E+03
        -0.37300E+03
        -0.37300E+03
        -0.37300E+03
        -0.37300E+03
        -0.37300E+03
        -0.37300E+03
        -0.37300E+03
        -0.37300E+03
        -0.37300E+03
        -0.37300E+03
        -0.37300E+03
        -0.37300E+03
        -0.37300E+03
        -0.37300E+03
        -0.37300E+03
        -0.37300E+03
        -0.37300E+03
        -0.37300E+03
        -0.37300E+03
        -0.37300E+03
        -0.37300E+03
        -0.37300E+03
        -0.37300E+03
        -0.37300E+03
        -0.37300E+03
        -0.37300E+03
        -0.37300E+03
        -0.37300E+03
        -0.37300E+03
        -0.37300E+03
        -0.37300E+03
        -0.37300E+03
        -0.37300E+03
        -0.37300E+03
        -0.37300E+03
        -0.37300E+03
        -0.37300E+03
        -0.37300E+03
        -0.37300E+03
        -0.37300E+03
        -0.37300E+03
        -0.37300E+03
        -0.37300E+03
        -0.37300E+03
        -0.37300E+03
        -0.37300E+03
        -0.37300E+03
        -0.37300E+03
        -0.37300E+03
        -0.37300E+03
        -0.37300E+03
        -0.37300E+03
        -0.37300E+03
        -0.37300E+03
        -0.37300E+03
        -0.37300E+03
        -0.37300E+03
        -0.37300E+03
        -0.37300E+03
        -0.37300E+03
        -0.37300E+03
        -0.37300E+03
        -0.37300E+03
        -0.37300E+03
        -0.37300E+03
        -0.37300E+03
        -0.37300E+03
        -0.37300E+03
        -0.37300E+03
        -0.37300E+03
        -0.37300E+03
        -0.37300E+03
        -0.37300E+03
        -0.37300E+03
        -0.37300E+03
        -0.37300E+03
        -0.37300E+03
        -0.37300E+03
        -0.37300E+03
        -0.37300E+03
        -0.37300E+03
        -0.37300E+03
        -0.37300E+03
        -0.37300E+03
        -0.37300E+03
        -0.37300E+03
        -0.37300E+03
        -0.37300E+03
        -0.37300E+03
        -0.37300E+03
        -0.37300E+03
        -0.37300E+03
        -0.37300E+03
        -0.37300E+03
        -0.37300E+03
        -0.37300E+03
        -0.37300E+03
        -0.37300E+03
        -0.37300E+03
        -0.37300E+03
        -0.37300E+03
        -0.37300E+03
        -0.37300E+03
        -0.37300E+03
        -0.37300E+03
        -0.37300E+03
        -0.37300E+03
        -0.37300E+03
        -0.37300E+03
        -0.37300E+03
        -0.37300E+03
        -0.37300E+03
        -0.37300E+03
        -0.37300E+03
        -0.37300E+03
        -0.37300E+03
        -0.37300E+03
        -0.37300E+03
        -0.37300E+03
        -0.37300E+03
        -0.37300E+03
        -0.37300E+03
        -0.37300E+03
        -0.37300E+03
        -0.37300E+03
        -0.37300E+03
        -0.37300E+03
        -0.37300E+03
        -0.37300E+03
        -0.37300E+03
        -0.37300E+03
        -0.37300E+03
        -0.37300E+03
        -0.37300E+03
        -0.37300E+03
        -0.37300E+03
        -0.37300E+03
        -0.37300E+03
        -0.37300E+03
        -0.37300E+03
        -0.37300E+03
        -0.37300E+03
        -0.37300E+03
        -0.37300E+03
        -0.37300E+03
        -0.37300E+03
        -0.37300E+03
        -0.37300E+03
        -0.37300E+03
        -0.37300E+03
        -0.37300E+03
        -0.37300E+03
        -0.37300E+03
        -0.37300E+03
        -0.37300E+03
        -0.37300E+03
        -0.37300E+03
        -0.37300E+03
        -0.37300E+03
        -0.37300E+03
        -0.37300E+03
        -0.37300E+03
        -0.37300E+03
        -0.37300E+03
        -0.37300E+03
        -0.37300E+03
        -0.37300E+03
        -0.37300E+03
        -0.37300E+03
        -0.37300E+03
        -0.37300E+03
        -0.37300E+03
        -0.37300E+03
        -0.37300E+03
        -0.37300E+03
        -0.37300E+03
        -0.37300E+03
        -0.37300E+03
        -0.37300E+03
        -0.37300E+03
        -0.37300E+03
        -0.37300E+03
        -0.37300E+03
        -0.37300E+03
        -0.37300E+03
        -0.37300E+03
        -0.37300E+03
        -0.37300E+03
        -0.37300E+03
        -0.37300E+03
        -0.37300E+03
        -0.37300E+03
        -0.37300E+03
        -0.37300E+03
        -0.37300E+03
        -0.37300E+03
        -0.37300E+03
        -0.37300E+03
        -0.37300E+03
        -0.37300E+03
        -0.37300E+03
        -0.37300E+03
        -0.37300E+03
        -0.37300E+03
        -0.37300E+03
        -0.37300E+03
        -0.37300E+03
        -0.37300E+03
        -0.37300E+03
        -0.37300E+03
        -0.37300E+03
        -0.37300E+03
        -0.37300E+03
        -0.37300E+03
        -0.37300E+03
        -0.37300E+03
        -0.37300E+03
        -0.37300E+03
        -0.37300E+03
        -0.37300E+03
        -0.37300E+03
        -0.37300E+03
        -0.37300E+03
        -0.37300E+03
        -0.37300E+03
        -0.37300E+03
        -0.37300E+03
        -0.37300E+03
        -0.37300E+03
        -0.37300E+03
        -0.37300E+03
        -0.37300E+03
        -0.37300E+03
        -0.37300E+03
        -0.37300E+03
        -0.37300E+03
        -0.37300E+03
        -0.37300E+03
        -0.37300E+03
        -0.37300E+03
        -0.37300E+03
        -0.37300E+03
        -0.37300E+03
        -0.37300E+03
        -0.37300E+03
        -0.37300E+03
        -0.37300E+03
        -0.37300E+03
        -0.37300E+03
        -0.37300E+03
        -0.37300E+03
        -0.37300E+03
        -0.37300E+03
        -0.37300E+03
        -0.37300E+03
        -0.37300E+03
        -0.37300E+03
        -0.37300E+03
        -0.37300E+03
        -0.37300E+03
        -0.37300E+03
        -0.37300E+03
        -0.37300E+03
        -0.37300E+03
        -0.37300E+03
        -0.37300E+03
        -0.37300E+03
        -0.37300E+03
        -0.37300E+03
        -0.37300E+03
        -0.37300E+03
        -0.37300E+03
        -0.37300E+03
        -0.37300E+03
        -0.37300E+03
        -0.37300E+03
        -0.37300E+03
        -0.37300E+03
        -0.37300E+03
        -0.37300E+03
        -0.37300E+03
        -0.37300E+03
        -0.37300E+03
        -0.37300E+03
        -0.37300E+03
        -0.37300E+03
        -0.37300E+03
        -0.37300E+03
        -0.37300E+03
        -0.37300E+03
        -0.37300E+03
        -0.37300E+03
        -0.37300E+03
        -0.37300E+03
        -0.37300E+03
        -0.37300E+03
        -0.37300E+03
        -0.37300E+03
        -0.37300E+03
        -0.37300E+03
        -0.37300E+03
        -0.37300E+03
        -0.37300E+03
        -0.37300E+03
        -0.37300E+03
        -0.37300E+03
        -0.37300E+03
        -0.37300E+03
        -0.37300E+03
        -0.37300E+03
        -0.37300E+03
        -0.37300E+03
        -0.37300E+03
        -0.37300E+03
        -0.37300E+03
        -0.37300E+03
        -0.37300E+03
        -0.37300E+03
        -0.37300E+03
        -0.37300E+03
        -0.37300E+03
        -0.37300E+03
        -0.37300E+03
        -0.37300E+03
        -0.37300E+03
        -0.37300E+03
        -0.37300E+03
        -0.37300E+03
        -0.37300E+03
        -0.37300E+03
        -0.37300E+03
        -0.37300E+03
        -0.37300E+03
        -0.37300E+03
        -0.37300E+03
        -0.37300E+03
        -0.37300E+03
        -0.37300E+03
        -0.37300E+03
        -0.37300E+03
        -0.37300E+03
        -0.37300E+03
        -0.37300E+03
        -0.37300E+03
        -0.37300E+03
        -0.37300E+03
        -0.37300E+03
        -0.37300E+03
        -0.37300E+03
        -0.37300E+03
        -0.37300E+03
        -0.37300E+03
        -0.37300E+03
        -0.37300E+03
        -0.37300E+03
        -0.37300E+03
        -0.37300E+03
        -0.37300E+03
        -0.37300E+03
        -0.37300E+03
        -0.37300E+03
        -0.37300E+03
        -0.37300E+03
        -0.37300E+03
        -0.37300E+03
        -0.37300E+03
        -0.37300E+03
        -0.37300E+03
        -0.37300E+03
        -0.37300E+03
        -0.37300E+03
        -0.37300E+03
        -0.37300E+03
        -0.37300E+03
        -0.37300E+03
        -0.37300E+03
        -0.37300E+03
        -0.37300E+03
        -0.37300E+03
        -0.37300E+03
        -0.37300E+03
        -0.37300E+03
        -0.37300E+03
        -0.37300E+03
        -0.37300E+03
        -0.37300E+03
        -0.37300E+03
        -0.37300E+03
        -0.37300E+03
        -0.37300E+03
        -0.37300E+03
        -0.37300E+03
        -0.37300E+03
        -0.37300E+03
        -0.37300E+03
        -0.37300E+03
        -0.37300E+03
        -0.37300E+03
        -0.37300E+03
        -0.37300E+03
        -0.37300E+03
        -0.37300E+03
        -0.37300E+03
        -0.37300E+03
        -0.37300E+03
        -0.37300E+03
        -0.37300E+03
        -0.37300E+03
        -0.37300E+03
        -0.37300E+03
        -0.37300E+03
        -0.37300E+03
        -0.37300E+03
        -0.37300E+03
        -0.37300E+03
        -0.37300E+03
        -0.37300E+03
        -0.37300E+03
        -0.37300E+03
        -0.37300E+03
        -0.37300E+03
        -0.37300E+03
        -0.37300E+03
        -0.37300E+03
        -0.37300E+03
        -0.37300E+03
        -0.37300E+03
        -0.37300E+03
        -0.37300E+03
        -0.37300E+03
        -0.37300E+03
        -0.37300E+03
        -0.37300E+03
        -0.37300E+03
        -0.37300E+03
        -0.37300E+03
        -0.37300E+03
        -0.37300E+03
        -0.37300E+03
        -0.37300E+03
        -0.37300E+03
        -0.37300E+03
        -0.37300E+03
        -0.37300E+03
        -0.37300E+03
        -0.37300E+03
        -0.37300E+03
        -0.37300E+03
        -0.37300E+03
        -0.37300E+03
        -0.37300E+03
        -0.37300E+03
        -0.37300E+03
        -0.37300E+03
        -0.37300E+03
        -0.37300E+03
        -0.37300E+03
        -0.37300E+03
        -0.37300E+03
        -0.37300E+03
        -0.37300E+03
        -0.37300E+03
        -0.37300E+03
        -0.37300E+03
        -0.37300E+03
        -0.37300E+03
        -0.37300E+03
        -0.37300E+03
        -0.37300E+03
        -0.37300E+03
        -0.37300E+03
        -0.37300E+03
        -0.37300E+03
        -0.37300E+03
        -0.37300E+03
        -0.37300E+03
        -0.37300E+03
        -0.37300E+03
        -0.37300E+03
        -0.37300E+03
        -0.37300E+03
        -0.37300E+03
        -0.37300E+03
        -0.37300E+03
        -0.37300E+03
        -0.37300E+03
        -0.37300E+03
        -0.37300E+03
        -0.37300E+03
        -0.37300E+03
        -0.37300E+03
        -0.37300E+03
        -0.37300E+03
        -0.37300E+03
        -0.37300E+03
        -0.37300E+03
        -0.37300E+03
        -0.37300E+03
        -0.37300E+03
        -0.37300E+03
        -0.37300E+03
        -0.37300E+03
        -0.37300E+03
        -0.37300E+03
        -0.37300E+03
        -0.37300E+03
        -0.37300E+03
        -0.37300E+03
        -0.37300E+03
        -0.37300E+03
        -0.37300E+03
        -0.37300E+03
        -0.37300E+03
        -0.37300E+03
        -0.37300E+03
        -0.37300E+03
        -0.37300E+03
        -0.37300E+03
        -0.37300E+03
        -0.37300E+03
        -0.37300E+03
        -0.37300E+03
        -0.37300E+03
        -0.37300E+03
        -0.37300E+03
        -0.37300E+03
        -0.37300E+03
        -0.37300E+03
        -0.37300E+03
        -0.37300E+03
        -0.37300E+03
        -0.37300E+03
        -0.37300E+03
        -0.37300E+03
        -0.37300E+03
        -0.37300E+03
        -0.37300E+03
        -0.37300E+03
        -0.37300E+03
        -0.37300E+03
        -0.37300E+03
        -0.37300E+03
        -0.37300E+03
        -0.37300E+03
        -0.37300E+03
        -0.37300E+03
        -0.37300E+03
        -0.37300E+03
        -0.37300E+03
        -0.37300E+03
        -0.37300E+03
        -0.37300E+03
        -0.37300E+03
        -0.37300E+03
        -0.37300E+03
        -0.37300E+03
        -0.37300E+03
        -0.37300E+03
        -0.37300E+03
        -0.37300E+03
        -0.37300E+03
        -0.37300E+03
        -0.37300E+03
        -0.37300E+03
        -0.37300E+03
        -0.37300E+03
        -0.37300E+03
        -0.37300E+03
        -0.37300E+03
        -0.37300E+03
        -0.37300E+03
        -0.37300E+03
        -0.37300E+03
        -0.37300E+03
        -0.37300E+03
        -0.37300E+03
        -0.37300E+03
        -0.37300E+03
        -0.37300E+03
        -0.37300E+03
        -0.37300E+03
        -0.37300E+03
        -0.37300E+03
        -0.37300E+03
        -0.37300E+03
        -0.37300E+03
        -0.37300E+03
        -0.37300E+03
        -0.37300E+03
        -0.37300E+03
        -0.37300E+03
        -0.37300E+03
        -0.37300E+03
        -0.37300E+03
        -0.37300E+03
        -0.37300E+03
        -0.37300E+03
        -0.37300E+03
        -0.37300E+03
        -0.37300E+03
        -0.37300E+03
        -0.37300E+03
        -0.37300E+03
        -0.37300E+03
        -0.37300E+03
        -0.37300E+03
        -0.37300E+03
        -0.37300E+03
        -0.37300E+03
        -0.37300E+03
        -0.37300E+03
        -0.37300E+03
        -0.37300E+03
        -0.37300E+03
        -0.37300E+03
        -0.37300E+03
        -0.37300E+03
        -0.37300E+03
        -0.37300E+03
        -0.37300E+03
        -0.37300E+03
        -0.37300E+03
        -0.37300E+03
        -0.37300E+03
        -0.37300E+03
        -0.37300E+03
        -0.37300E+03
        -0.37300E+03
        -0.37300E+03
        -0.37300E+03
        -0.37300E+03
        -0.37300E+03
        -0.37300E+03
        -0.37300E+03
        -0.37300E+03
        -0.37300E+03
        -0.37300E+03
        -0.37300E+03
        -0.37300E+03
        -0.37300E+03
        -0.37300E+03
        -0.37300E+03
        -0.37300E+03
        -0.37300E+03
        -0.37300E+03
        -0.37300E+03
        -0.37300E+03
        -0.37300E+03
        -0.37300E+03
        -0.37300E+03
        -0.37300E+03
        -0.37300E+03
        -0.37300E+03
        -0.37300E+03
        -0.37300E+03
        -0.37300E+03
        -0.37300E+03
        -0.37300E+03
        -0.37300E+03
        -0.37300E+03
        -0.37300E+03
        -0.37300E+03
        -0.37300E+03
        -0.37300E+03
        -0.37300E+03
        -0.37300E+03
        -0.37300E+03
        -0.37300E+03
        -0.37300E+03
        -0.37300E+03
        -0.37300E+03
        -0.37300E+03
        -0.37300E+03
        -0.37300E+03
        -0.37300E+03
        -0.37300E+03
        -0.37300E+03
        -0.37300E+03
        -0.37300E+03
        -0.37300E+03
        -0.37300E+03
        -0.37300E+03
        -0.37300E+03
        -0.37300E+03
        -0.37300E+03
        -0.37300E+03
        -0.37300E+03
        -0.37300E+03
        -0.37300E+03
        -0.37300E+03
        -0.37300E+03
        -0.37300E+03
        -0.37300E+03
        -0.37300E+03
        -0.37300E+03
        -0.37300E+03
        -0.37300E+03
        -0.37300E+03
        -0.37300E+03
        -0.37300E+03
        -0.37300E+03
        -0.37300E+03
        -0.37300E+03
        -0.37300E+03
        -0.37300E+03
        -0.37300E+03
        -0.37300E+03
        -0.37300E+03
        -0.37300E+03
        -0.37300E+03
        -0.37300E+03
        -0.37300E+03
        -0.37300E+03
        -0.37300E+03
        -0.37300E+03
        -0.37300E+03
        -0.37300E+03
        -0.37300E+03
        -0.37300E+03
        -0.37300E+03
        -0.37300E+03
        -0.37300E+03
        -0.37300E+03
        -0.37300E+03
        -0.37300E+03
        -0.37300E+03
        -0.37300E+03
        -0.37300E+03
        -0.37300E+03
        -0.37300E+03
        -0.37300E+03
        -0.37300E+03
        -0.37300E+03
        -0.37300E+03
        -0.37300E+03
        -0.37300E+03
        -0.37300E+03
        -0.37300E+03
        -0.37300E+03
        -0.37300E+03
        -0.37300E+03
        -0.37300E+03
        -0.37300E+03
        -0.37300E+03
        -0.37300E+03
        -0.37300E+03
        -0.37300E+03
        -0.37300E+03
        -0.37300E+03
        -0.37300E+03
        -0.37300E+03
        -0.37300E+03
        -0.37300E+03
        -0.37300E+03
        -0.37300E+03
        -0.37300E+03
        -0.37300E+03
        -0.37300E+03
        -0.37300E+03
        -0.37300E+03
        -0.37300E+03
        -0.37300E+03
        -0.37300E+03
        -0.37300E+03
        -0.37300E+03
        -0.37300E+03
        -0.37300E+03
        -0.37300E+03
        -0.37300E+03
        -0.37300E+03
        -0.37300E+03
        -0.37300E+03
        -0.37300E+03
        -0.37300E+03
        -0.37300E+03
        -0.37300E+03
        -0.37300E+03
        -0.37300E+03
        -0.37300E+03
        -0.37300E+03
        -0.37300E+03
        -0.37300E+03
        -0.37300E+03
        -0.37300E+03
        -0.37300E+03
        -0.37300E+03
        -0.37300E+03
        -0.37300E+03
        -0.37300E+03
        -0.37300E+03
        -0.37300E+03
        -0.37300E+03
        -0.37300E+03
        -0.37300E+03
        -0.37300E+03
        -0.37300E+03
        -0.37300E+03
        -0.37300E+03
        -0.37300E+03
        -0.37300E+03
        -0.37300E+03
        -0.37300E+03
        -0.37300E+03
        -0.37300E+03
        -0.37300E+03
        -0.37300E+03
        -0.37300E+03
        -0.37300E+03
        -0.37300E+03
        -0.37300E+03
        -0.37300E+03
        -0.37300E+03
        -0.37300E+03
        -0.37300E+03
        -0.37300E+03
        -0.37300E+03
        -0.37300E+03
        -0.37300E+03
        -0.37300E+03
        -0.37300E+03
        -0.37300E+03
        -0.37300E+03
        -0.37300E+03
        -0.37300E+03
        -0.37300E+03
        -0.37300E+03
        -0.37300E+03
        -0.37300E+03
        -0.37300E+03
        -0.37300E+03
        -0.37300E+03
        -0.37300E+03
        -0.37300E+03
        -0.37300E+03
        -0.37300E+03
        -0.37300E+03
        -0.37300E+03
        -0.37300E+03
        -0.37300E+03
        -0.37300E+03
        -0.37300E+03
        -0.37300E+03
        -0.37300E+03
        -0.37300E+03
        -0.37300E+03
        -0.37300E+03
        -0.37300E+03
        -0.37300E+03
        -0.37300E+03
        -0.37300E+03
        -0.37300E+03
        -0.37300E+03
        -0.37300E+03
        -0.37300E+03
        -0.37300E+03
        -0.37300E+03
        -0.37300E+03
        -0.37300E+03
        -0.37300E+03
        -0.37300E+03
        -0.37300E+03
        -0.37300E+03
        -0.37300E+03
        -0.37300E+03
        -0.37300E+03
        -0.37300E+03
        -0.37300E+03
        -0.37300E+03
        -0.37300E+03
        -0.37300E+03
        -0.37300E+03
        -0.37300E+03
        -0.37300E+03
        -0.37300E+03
        -0.37300E+03
        -0.37300E+03
        -0.37300E+03
        -0.37300E+03
        -0.37300E+03
        -0.37300E+03
        -0.37300E+03
        -0.37300E+03
        -0.37300E+03
        -0.37300E+03
        -0.37300E+03
        -0.37300E+03
        -0.37300E+03
        -0.37300E+03
        -0.37300E+03
        -0.37300E+03
        -0.37300E+03
        -0.37300E+03
        -0.37300E+03
        -0.37300E+03
        -0.37300E+03
        -0.37300E+03
        -0.37300E+03
        -0.37300E+03
        -0.37300E+03
        -0.37300E+03
        -0.37300E+03
        -0.37300E+03
        -0.37300E+03
        -0.37300E+03
        -0.37300E+03
        -0.37300E+03
        -0.37300E+03
        -0.37300E+03
        -0.37300E+03
        -0.37300E+03
        -0.37300E+03
        -0.37300E+03
        -0.37300E+03
        -0.37300E+03
        -0.37300E+03
        -0.37300E+03
        -0.37300E+03
        -0.37300E+03
        -0.37300E+03
        -0.37300E+03
        -0.37300E+03
        -0.37300E+03
        -0.37300E+03
        -0.37300E+03
        -0.37300E+03
        -0.37300E+03
        -0.37300E+03
        -0.37300E+03
        -0.37300E+03
        -0.37300E+03
        -0.37300E+03
        -0.37300E+03
        -0.37300E+03
        -0.37300E+03
        -0.37300E+03
        -0.37300E+03
        -0.37300E+03
        -0.37300E+03
        -0.37300E+03
        -0.37300E+03
        -0.37300E+03
        -0.37300E+03
        -0.37300E+03
        -0.37300E+03
        -0.37300E+03
        -0.37300E+03
        -0.37300E+03
        -0.37300E+03
        -0.37300E+03
        -0.37300E+03
        -0.37300E+03
        -0.37300E+03
        -0.37300E+03
        -0.37300E+03
        -0.37300E+03
        -0.37300E+03
        -0.37300E+03
        -0.37300E+03
        -0.37300E+03
        -0.37300E+03
        -0.37300E+03
        -0.37300E+03
        -0.37300E+03
        -0.37300E+03
        -0.37300E+03
        -0.37300E+03
        -0.37300E+03
        -0.37300E+03
        -0.37300E+03
        -0.37300E+03
        -0.37300E+03
        -0.37300E+03
        -0.37300E+03
        -0.37300E+03
        -0.37300E+03
        -0.37300E+03
        -0.37300E+03
        -0.37300E+03
        -0.37300E+03
        -0.37300E+03
        -0.37300E+03
        -0.37300E+03
        -0.37300E+03
        -0.37300E+03
        -0.37300E+03
        -0.37300E+03
        -0.37300E+03
        -0.37300E+03
        -0.37300E+03
        -0.37300E+03
        -0.37300E+03
        -0.37300E+03
        -0.37300E+03
        -0.37300E+03
        -0.37300E+03
        -0.37300E+03
        -0.37300E+03
        -0.37300E+03
        -0.37300E+03
        -0.37300E+03
        -0.37300E+03
        -0.37300E+03
        -0.37300E+03
        -0.37300E+03
        -0.37300E+03
        -0.37300E+03
        -0.37300E+03
        -0.37300E+03
        -0.37300E+03
        -0.37300E+03
        -0.37300E+03
        -0.37300E+03
        -0.37300E+03
        -0.37300E+03
        -0.37300E+03
        -0.37300E+03
  
SCALARS              normalized_window  double 1
LOOKUP_TABLE default
         0.27500E+01
         0.27500E+01
         0.27500E+01
         0.27500E+01
         0.27500E+01
         0.27500E+01
         0.27500E+01
         0.27500E+01
         0.27500E+01
         0.27500E+01
         0.27500E+01
         0.27500E+01
         0.27500E+01
         0.27500E+01
         0.27500E+01
         0.27500E+01
         0.27500E+01
         0.27500E+01
         0.27500E+01
         0.27500E+01
         0.27500E+01
         0.27500E+01
         0.27500E+01
         0.27500E+01
         0.27500E+01
         0.27500E+01
         0.27500E+01
         0.27500E+01
         0.27500E+01
         0.27500E+01
         0.27500E+01
         0.27500E+01
         0.27500E+01
         0.27500E+01
         0.27500E+01
         0.27500E+01
         0.27500E+01
         0.27500E+01
         0.27500E+01
         0.27500E+01
         0.27500E+01
         0.27500E+01
         0.27500E+01
         0.27500E+01
         0.27500E+01
         0.27500E+01
         0.27500E+01
         0.27500E+01
         0.27500E+01
         0.27500E+01
         0.27500E+01
         0.27500E+01
         0.27500E+01
         0.27500E+01
         0.27500E+01
         0.27500E+01
         0.27500E+01
         0.27500E+01
         0.27500E+01
         0.27500E+01
         0.27500E+01
         0.27500E+01
         0.27500E+01
         0.27500E+01
         0.27500E+01
         0.27500E+01
         0.27500E+01
         0.27500E+01
         0.27500E+01
         0.27500E+01
         0.27500E+01
         0.27500E+01
         0.27500E+01
         0.27500E+01
         0.27500E+01
         0.27500E+01
         0.27500E+01
         0.27500E+01
         0.27500E+01
         0.27500E+01
         0.27500E+01
         0.27500E+01
         0.27500E+01
         0.27500E+01
         0.27500E+01
         0.27500E+01
         0.27500E+01
         0.27500E+01
         0.27500E+01
         0.27500E+01
         0.27500E+01
         0.27500E+01
         0.27500E+01
         0.27500E+01
         0.27500E+01
         0.27500E+01
         0.27500E+01
         0.27500E+01
         0.27500E+01
         0.27500E+01
         0.27500E+01
         0.27500E+01
         0.27500E+01
         0.27500E+01
         0.27500E+01
         0.27500E+01
         0.27500E+01
         0.27500E+01
         0.27500E+01
         0.27500E+01
         0.27500E+01
         0.27500E+01
         0.27500E+01
         0.27500E+01
         0.27500E+01
         0.27500E+01
         0.27500E+01
         0.27500E+01
         0.27500E+01
         0.27500E+01
         0.27500E+01
         0.27500E+01
         0.27500E+01
         0.27500E+01
         0.27500E+01
         0.27500E+01
         0.27500E+01
         0.27500E+01
         0.27500E+01
         0.27500E+01
         0.27500E+01
         0.27500E+01
         0.27500E+01
         0.27500E+01
         0.27500E+01
         0.27500E+01
         0.27500E+01
         0.27500E+01
         0.27500E+01
         0.27500E+01
         0.27500E+01
         0.27500E+01
         0.27500E+01
         0.27500E+01
         0.27500E+01
         0.27500E+01
         0.27500E+01
         0.27500E+01
         0.27500E+01
         0.27500E+01
         0.27500E+01
         0.27500E+01
         0.27500E+01
         0.27500E+01
         0.27500E+01
         0.27500E+01
         0.27500E+01
         0.27500E+01
         0.27500E+01
         0.27500E+01
         0.27500E+01
         0.27500E+01
         0.27500E+01
         0.27500E+01
         0.27500E+01
         0.27500E+01
         0.27500E+01
         0.27500E+01
         0.27500E+01
         0.27500E+01
         0.27500E+01
         0.27500E+01
         0.27500E+01
         0.27500E+01
         0.27500E+01
         0.27500E+01
         0.27500E+01
         0.27500E+01
         0.27500E+01
         0.27500E+01
         0.27500E+01
         0.27500E+01
         0.27500E+01
         0.27500E+01
         0.27500E+01
         0.27500E+01
         0.27500E+01
         0.27500E+01
         0.27500E+01
         0.27500E+01
         0.27500E+01
         0.27500E+01
         0.27500E+01
         0.27500E+01
         0.27500E+01
         0.27500E+01
         0.27500E+01
         0.27500E+01
         0.27500E+01
         0.27500E+01
         0.27500E+01
         0.27500E+01
         0.27500E+01
         0.27500E+01
         0.27500E+01
         0.27500E+01
         0.27500E+01
         0.27500E+01
         0.27500E+01
         0.27500E+01
         0.27500E+01
         0.27500E+01
         0.27500E+01
         0.27500E+01
         0.27500E+01
         0.27500E+01
         0.27500E+01
         0.27500E+01
         0.27500E+01
         0.27500E+01
         0.27500E+01
         0.27500E+01
         0.27500E+01
         0.27500E+01
         0.27500E+01
         0.27500E+01
         0.27500E+01
         0.27500E+01
         0.27500E+01
         0.27500E+01
         0.27500E+01
         0.27500E+01
         0.27500E+01
         0.27500E+01
         0.27500E+01
         0.27500E+01
         0.27500E+01
         0.27500E+01
         0.27500E+01
         0.27500E+01
         0.27500E+01
         0.27500E+01
         0.27500E+01
         0.27500E+01
         0.27500E+01
         0.27500E+01
         0.27500E+01
         0.27500E+01
         0.27500E+01
         0.27500E+01
         0.27500E+01
         0.27500E+01
         0.27500E+01
         0.27500E+01
         0.27500E+01
         0.27500E+01
         0.27500E+01
         0.27500E+01
         0.27500E+01
         0.27500E+01
         0.27500E+01
         0.27500E+01
         0.27500E+01
         0.27500E+01
         0.27500E+01
         0.27500E+01
         0.27500E+01
         0.27500E+01
         0.27500E+01
         0.27500E+01
         0.27500E+01
         0.27500E+01
         0.27500E+01
         0.27500E+01
         0.27500E+01
         0.27500E+01
         0.27500E+01
         0.27500E+01
         0.27500E+01
         0.27500E+01
         0.27500E+01
         0.27500E+01
         0.27500E+01
         0.27500E+01
         0.27500E+01
         0.27500E+01
         0.27500E+01
         0.27500E+01
         0.27500E+01
         0.27500E+01
         0.27500E+01
         0.27500E+01
         0.27500E+01
         0.27500E+01
         0.27500E+01
         0.27500E+01
         0.27500E+01
         0.27500E+01
         0.27500E+01
         0.27500E+01
         0.27500E+01
         0.27500E+01
         0.27500E+01
         0.27500E+01
         0.27500E+01
         0.27500E+01
         0.27500E+01
         0.27500E+01
         0.27500E+01
         0.27500E+01
         0.27500E+01
         0.27500E+01
         0.27500E+01
         0.27500E+01
         0.27500E+01
         0.27500E+01
         0.27500E+01
         0.27500E+01
         0.27500E+01
         0.27500E+01
         0.27500E+01
         0.27500E+01
         0.27500E+01
         0.27500E+01
         0.27500E+01
         0.27500E+01
         0.27500E+01
         0.27500E+01
         0.27500E+01
         0.27500E+01
         0.27500E+01
         0.27500E+01
         0.27500E+01
         0.27500E+01
         0.27500E+01
         0.27500E+01
         0.27500E+01
         0.27500E+01
         0.27500E+01
         0.27500E+01
         0.27500E+01
         0.27500E+01
         0.27500E+01
         0.27500E+01
         0.27500E+01
         0.27500E+01
         0.27500E+01
         0.27500E+01
         0.27500E+01
         0.27500E+01
         0.27500E+01
         0.27500E+01
         0.27500E+01
         0.27500E+01
         0.27500E+01
         0.27500E+01
         0.27500E+01
         0.27500E+01
         0.27500E+01
         0.27500E+01
         0.27500E+01
         0.27500E+01
         0.27500E+01
         0.27500E+01
         0.27500E+01
         0.27500E+01
         0.27500E+01
         0.27500E+01
         0.27500E+01
         0.27500E+01
         0.27500E+01
         0.27500E+01
         0.27500E+01
         0.27500E+01
         0.27500E+01
         0.27500E+01
         0.27500E+01
         0.27500E+01
         0.27500E+01
         0.27500E+01
         0.27500E+01
         0.27500E+01
         0.27500E+01
         0.27500E+01
         0.27500E+01
         0.27500E+01
         0.27500E+01
         0.27500E+01
         0.27500E+01
         0.27500E+01
         0.27500E+01
         0.27500E+01
         0.27500E+01
         0.27500E+01
         0.27500E+01
         0.27500E+01
         0.27500E+01
         0.27500E+01
         0.27500E+01
         0.27500E+01
         0.27500E+01
         0.27500E+01
         0.27500E+01
         0.27500E+01
         0.27500E+01
         0.27500E+01
         0.27500E+01
         0.27500E+01
         0.27500E+01
         0.27500E+01
         0.27500E+01
         0.27500E+01
         0.27500E+01
         0.27500E+01
         0.27500E+01
         0.27500E+01
         0.27500E+01
         0.27500E+01
         0.27500E+01
         0.27500E+01
         0.27500E+01
         0.27500E+01
         0.27500E+01
         0.27500E+01
         0.27500E+01
         0.27500E+01
         0.27500E+01
         0.27500E+01
         0.27500E+01
         0.27500E+01
         0.27500E+01
         0.27500E+01
         0.27500E+01
         0.27500E+01
         0.27500E+01
         0.27500E+01
         0.27500E+01
         0.27500E+01
         0.27500E+01
         0.27500E+01
         0.27500E+01
         0.27500E+01
         0.27500E+01
         0.27500E+01
         0.27500E+01
         0.27500E+01
         0.27500E+01
         0.27500E+01
         0.27500E+01
         0.27500E+01
         0.27500E+01
         0.27500E+01
         0.27500E+01
         0.27500E+01
         0.27500E+01
         0.27500E+01
         0.27500E+01
         0.27500E+01
         0.27500E+01
         0.27500E+01
         0.27500E+01
         0.27500E+01
         0.27500E+01
         0.27500E+01
         0.27500E+01
         0.27500E+01
         0.27500E+01
         0.27500E+01
         0.27500E+01
         0.27500E+01
         0.27500E+01
         0.27500E+01
         0.27500E+01
         0.27500E+01
         0.27500E+01
         0.27500E+01
         0.27500E+01
         0.27500E+01
         0.27500E+01
         0.27500E+01
         0.27500E+01
         0.27500E+01
         0.27500E+01
         0.27500E+01
         0.27500E+01
         0.27500E+01
         0.27500E+01
         0.27500E+01
         0.27500E+01
         0.27500E+01
         0.27500E+01
         0.27500E+01
         0.27500E+01
         0.27500E+01
         0.27500E+01
         0.27500E+01
         0.27500E+01
         0.27500E+01
         0.27500E+01
         0.27500E+01
         0.27500E+01
         0.27500E+01
         0.27500E+01
         0.27500E+01
         0.27500E+01
         0.27500E+01
         0.27500E+01
         0.27500E+01
         0.27500E+01
         0.27500E+01
         0.27500E+01
         0.27500E+01
         0.27500E+01
         0.27500E+01
         0.27500E+01
         0.27500E+01
         0.27500E+01
         0.27500E+01
         0.27500E+01
         0.27500E+01
         0.27500E+01
         0.27500E+01
         0.27500E+01
         0.27500E+01
         0.27500E+01
         0.27500E+01
         0.27500E+01
         0.27500E+01
         0.27500E+01
         0.27500E+01
         0.27500E+01
         0.27500E+01
         0.27500E+01
         0.27500E+01
         0.27500E+01
         0.27500E+01
         0.27500E+01
         0.27500E+01
         0.27500E+01
         0.27500E+01
         0.27500E+01
         0.27500E+01
         0.27500E+01
         0.27500E+01
         0.27500E+01
         0.27500E+01
         0.27500E+01
         0.27500E+01
         0.27500E+01
         0.27500E+01
         0.27500E+01
         0.27500E+01
         0.27500E+01
         0.27500E+01
         0.27500E+01
         0.27500E+01
         0.27500E+01
         0.27500E+01
         0.27500E+01
         0.27500E+01
         0.27500E+01
         0.27500E+01
         0.27500E+01
         0.27500E+01
         0.27500E+01
         0.27500E+01
         0.27500E+01
         0.27500E+01
         0.27500E+01
         0.27500E+01
         0.27500E+01
         0.27500E+01
         0.27500E+01
         0.27500E+01
         0.27500E+01
         0.27500E+01
         0.27500E+01
         0.27500E+01
         0.27500E+01
         0.27500E+01
         0.27500E+01
         0.27500E+01
         0.27500E+01
         0.27500E+01
         0.27500E+01
         0.27500E+01
         0.27500E+01
         0.27500E+01
         0.27500E+01
         0.27500E+01
         0.27500E+01
         0.27500E+01
         0.27500E+01
         0.27500E+01
         0.27500E+01
         0.27500E+01
         0.27500E+01
         0.27500E+01
         0.27500E+01
         0.27500E+01
         0.27500E+01
         0.27500E+01
         0.27500E+01
         0.27500E+01
         0.27500E+01
         0.27500E+01
         0.27500E+01
         0.27500E+01
         0.27500E+01
         0.27500E+01
         0.27500E+01
         0.27500E+01
         0.27500E+01
         0.27500E+01
         0.27500E+01
         0.27500E+01
         0.27500E+01
         0.27500E+01
         0.27500E+01
         0.27500E+01
         0.27500E+01
         0.27500E+01
         0.27500E+01
         0.27500E+01
         0.27500E+01
         0.27500E+01
         0.27500E+01
         0.27500E+01
         0.27500E+01
         0.27500E+01
         0.27500E+01
         0.27500E+01
         0.27500E+01
         0.27500E+01
         0.27500E+01
         0.27500E+01
         0.27500E+01
         0.27500E+01
         0.27500E+01
         0.27500E+01
         0.27500E+01
         0.27500E+01
         0.27500E+01
         0.27500E+01
         0.27500E+01
         0.27500E+01
         0.27500E+01
         0.27500E+01
         0.27500E+01
         0.27500E+01
         0.27500E+01
         0.27500E+01
         0.27500E+01
         0.27500E+01
         0.27500E+01
         0.27500E+01
         0.27500E+01
         0.27500E+01
         0.27500E+01
         0.27500E+01
         0.27500E+01
         0.27500E+01
         0.27500E+01
         0.27500E+01
         0.27500E+01
         0.27500E+01
         0.27500E+01
         0.27500E+01
         0.27500E+01
         0.27500E+01
         0.27500E+01
         0.27500E+01
         0.27500E+01
         0.27500E+01
         0.27500E+01
         0.27500E+01
         0.27500E+01
         0.27500E+01
         0.27500E+01
         0.27500E+01
         0.27500E+01
         0.27500E+01
         0.27500E+01
         0.27500E+01
         0.27500E+01
         0.27500E+01
         0.27500E+01
         0.27500E+01
         0.27500E+01
         0.27500E+01
         0.27500E+01
         0.27500E+01
         0.27500E+01
         0.27500E+01
         0.27500E+01
         0.27500E+01
         0.27500E+01
         0.27500E+01
         0.27500E+01
         0.27500E+01
         0.27500E+01
         0.27500E+01
         0.27500E+01
         0.27500E+01
         0.27500E+01
         0.27500E+01
         0.27500E+01
         0.27500E+01
         0.27500E+01
         0.27500E+01
         0.27500E+01
         0.27500E+01
         0.27500E+01
         0.27500E+01
         0.27500E+01
         0.27500E+01
         0.27500E+01
         0.27500E+01
         0.27500E+01
         0.27500E+01
         0.27500E+01
         0.27500E+01
         0.27500E+01
         0.27500E+01
         0.27500E+01
         0.27500E+01
         0.27500E+01
         0.27500E+01
         0.27500E+01
         0.27500E+01
         0.27500E+01
         0.27500E+01
         0.27500E+01
         0.27500E+01
         0.27500E+01
         0.27500E+01
         0.27500E+01
         0.27500E+01
         0.27500E+01
         0.27500E+01
         0.27500E+01
         0.27500E+01
         0.27500E+01
         0.27500E+01
         0.27500E+01
         0.27500E+01
         0.27500E+01
         0.27500E+01
         0.27500E+01
         0.27500E+01
         0.27500E+01
         0.27500E+01
         0.27500E+01
         0.27500E+01
         0.27500E+01
         0.27500E+01
         0.27500E+01
         0.27500E+01
         0.27500E+01
         0.27500E+01
         0.27500E+01
         0.27500E+01
         0.27500E+01
         0.27500E+01
         0.27500E+01
         0.27500E+01
         0.27500E+01
         0.27500E+01
         0.27500E+01
         0.27500E+01
         0.27500E+01
         0.27500E+01
         0.27500E+01
         0.27500E+01
         0.27500E+01
         0.27500E+01
         0.27500E+01
         0.27500E+01
         0.27500E+01
         0.27500E+01
         0.27500E+01
         0.27500E+01
         0.27500E+01
         0.27500E+01
         0.27500E+01
         0.27500E+01
         0.27500E+01
         0.27500E+01
         0.27500E+01
         0.27500E+01
         0.27500E+01
         0.27500E+01
         0.27500E+01
         0.27500E+01
         0.27500E+01
         0.27500E+01
         0.27500E+01
         0.27500E+01
         0.27500E+01
         0.27500E+01
         0.27500E+01
         0.27500E+01
         0.27500E+01
         0.27500E+01
         0.27500E+01
         0.27500E+01
         0.27500E+01
         0.27500E+01
         0.27500E+01
         0.27500E+01
         0.27500E+01
         0.27500E+01
         0.27500E+01
         0.27500E+01
         0.27500E+01
         0.27500E+01
         0.27500E+01
         0.27500E+01
         0.27500E+01
         0.27500E+01
         0.27500E+01
         0.27500E+01
         0.27500E+01
         0.27500E+01
         0.27500E+01
         0.27500E+01
         0.27500E+01
         0.27500E+01
         0.27500E+01
         0.27500E+01
         0.27500E+01
         0.27500E+01
         0.27500E+01
         0.27500E+01
         0.27500E+01
         0.27500E+01
         0.27500E+01
         0.27500E+01
         0.27500E+01
         0.27500E+01
         0.27500E+01
         0.27500E+01
         0.27500E+01
         0.27500E+01
         0.27500E+01
         0.27500E+01
         0.27500E+01
         0.27500E+01
         0.27500E+01
         0.27500E+01
         0.27500E+01
         0.27500E+01
         0.27500E+01
         0.27500E+01
         0.27500E+01
         0.27500E+01
         0.27500E+01
         0.27500E+01
         0.27500E+01
         0.27500E+01
         0.27500E+01
         0.27500E+01
         0.27500E+01
         0.27500E+01
         0.27500E+01
         0.27500E+01
         0.27500E+01
         0.27500E+01
         0.27500E+01
         0.27500E+01
         0.27500E+01
         0.27500E+01
         0.27500E+01
         0.27500E+01
         0.27500E+01
         0.27500E+01
         0.27500E+01
         0.27500E+01
         0.27500E+01
         0.27500E+01
         0.27500E+01
         0.27500E+01
         0.27500E+01
         0.27500E+01
         0.27500E+01
         0.27500E+01
         0.27500E+01
         0.27500E+01
         0.27500E+01
         0.27500E+01
         0.27500E+01
         0.27500E+01
         0.27500E+01
         0.27500E+01
         0.27500E+01
         0.27500E+01
         0.27500E+01
         0.27500E+01
         0.27500E+01
         0.27500E+01
         0.27500E+01
         0.27500E+01
         0.27500E+01
         0.27500E+01
         0.27500E+01
         0.27500E+01
         0.27500E+01
         0.27500E+01
         0.27500E+01
         0.27500E+01
         0.27500E+01
         0.27500E+01
         0.27500E+01
         0.27500E+01
         0.27500E+01
         0.27500E+01
         0.27500E+01
         0.27500E+01
         0.27500E+01
         0.27500E+01
         0.27500E+01
         0.27500E+01
         0.27500E+01
         0.27500E+01
         0.27500E+01
         0.27500E+01
         0.27500E+01
         0.27500E+01
         0.27500E+01
         0.27500E+01
         0.27500E+01
         0.27500E+01
         0.27500E+01
         0.27500E+01
         0.27500E+01
         0.27500E+01
         0.27500E+01
         0.27500E+01
         0.27500E+01
         0.27500E+01
         0.27500E+01
         0.27500E+01
         0.27500E+01
         0.27500E+01
         0.27500E+01
         0.27500E+01
         0.27500E+01
         0.27500E+01
         0.27500E+01
         0.27500E+01
         0.27500E+01
         0.27500E+01
         0.27500E+01
         0.27500E+01
         0.27500E+01
         0.27500E+01
         0.27500E+01
         0.27500E+01
         0.27500E+01
         0.27500E+01
         0.27500E+01
         0.27500E+01
         0.27500E+01
         0.27500E+01
         0.27500E+01
         0.27500E+01
         0.27500E+01
         0.27500E+01
         0.27500E+01
         0.27500E+01
         0.27500E+01
         0.27500E+01
         0.27500E+01
         0.27500E+01
         0.27500E+01
         0.27500E+01
         0.27500E+01
         0.27500E+01
         0.27500E+01
         0.27500E+01
         0.27500E+01
         0.27500E+01
         0.27500E+01
         0.27500E+01
         0.27500E+01
         0.27500E+01
         0.27500E+01
         0.27500E+01
         0.27500E+01
         0.27500E+01
         0.27500E+01
         0.27500E+01
         0.27500E+01
         0.27500E+01
         0.27500E+01
         0.27500E+01
         0.27500E+01
         0.27500E+01
         0.27500E+01
         0.27500E+01
         0.27500E+01
         0.27500E+01
         0.27500E+01
         0.27500E+01
         0.27500E+01
         0.27500E+01
         0.27500E+01
         0.27500E+01
         0.27500E+01
         0.27500E+01
         0.27500E+01
         0.27500E+01
         0.27500E+01
         0.27500E+01
         0.27500E+01
         0.27500E+01
         0.27500E+01
         0.27500E+01
         0.27500E+01
         0.27500E+01
         0.27500E+01
         0.27500E+01
         0.27500E+01
         0.27500E+01
         0.27500E+01
         0.27500E+01
         0.27500E+01
         0.27500E+01
         0.27500E+01
         0.27500E+01
         0.27500E+01
         0.27500E+01
         0.27500E+01
         0.27500E+01
         0.27500E+01
         0.27500E+01
         0.27500E+01
         0.27500E+01
         0.27500E+01
         0.27500E+01
         0.27500E+01
         0.27500E+01
         0.27500E+01
         0.27500E+01
         0.27500E+01
         0.27500E+01
         0.27500E+01
         0.27500E+01
         0.27500E+01
         0.27500E+01
         0.27500E+01
         0.27500E+01
         0.27500E+01
         0.27500E+01
         0.27500E+01
         0.27500E+01
         0.27500E+01
         0.27500E+01
         0.27500E+01
         0.27500E+01
         0.27500E+01
         0.27500E+01
         0.27500E+01
         0.27500E+01
         0.27500E+01
         0.27500E+01
         0.27500E+01
         0.27500E+01
         0.27500E+01
         0.27500E+01
         0.27500E+01
         0.27500E+01
         0.27500E+01
         0.27500E+01
         0.27500E+01
         0.27500E+01
         0.27500E+01
         0.27500E+01
         0.27500E+01
         0.27500E+01
         0.27500E+01
         0.27500E+01
         0.27500E+01
         0.27500E+01
         0.27500E+01
         0.27500E+01
         0.27500E+01
         0.27500E+01
         0.27500E+01
         0.27500E+01
         0.27500E+01
         0.27500E+01
         0.27500E+01
         0.27500E+01
         0.27500E+01
         0.27500E+01
         0.27500E+01
         0.27500E+01
         0.27500E+01
         0.27500E+01
         0.27500E+01
         0.27500E+01
         0.27500E+01
         0.27500E+01
         0.27500E+01
         0.27500E+01
         0.27500E+01
         0.27500E+01
         0.27500E+01
         0.27500E+01
         0.27500E+01
         0.27500E+01
         0.27500E+01
         0.27500E+01
         0.27500E+01
         0.27500E+01
         0.27500E+01
         0.27500E+01
         0.27500E+01
         0.27500E+01
         0.27500E+01
         0.27500E+01
         0.27500E+01
         0.27500E+01
         0.27500E+01
         0.27500E+01
         0.27500E+01
         0.27500E+01
         0.27500E+01
         0.27500E+01
         0.27500E+01
         0.27500E+01
         0.27500E+01
         0.27500E+01
         0.27500E+01
         0.27500E+01
         0.27500E+01
         0.27500E+01
         0.27500E+01
         0.27500E+01
         0.27500E+01
         0.27500E+01
         0.27500E+01
         0.27500E+01
         0.27500E+01
         0.27500E+01
         0.27500E+01
         0.27500E+01
         0.27500E+01
         0.27500E+01
         0.27500E+01
         0.27500E+01
         0.27500E+01
         0.27500E+01
         0.27500E+01
         0.27500E+01
         0.27500E+01
         0.27500E+01
         0.27500E+01
         0.27500E+01
         0.27500E+01
         0.27500E+01
         0.27500E+01
         0.27500E+01
         0.27500E+01
         0.27500E+01
         0.27500E+01
         0.27500E+01
         0.27500E+01
         0.27500E+01
         0.27500E+01
         0.27500E+01
         0.27500E+01
         0.27500E+01
         0.27500E+01
         0.27500E+01
         0.27500E+01
         0.27500E+01
         0.27500E+01
         0.27500E+01
         0.27500E+01
         0.27500E+01
         0.27500E+01
         0.27500E+01
         0.27500E+01
         0.27500E+01
         0.27500E+01
         0.27500E+01
         0.27500E+01
         0.27500E+01
         0.27500E+01
         0.27500E+01
         0.27500E+01
         0.27500E+01
         0.27500E+01
         0.27500E+01
         0.27500E+01
         0.27500E+01
         0.27500E+01
         0.27500E+01
         0.27500E+01
         0.27500E+01
         0.27500E+01
         0.27500E+01
         0.27500E+01
         0.27500E+01
         0.27500E+01
         0.27500E+01
         0.27500E+01
         0.27500E+01
         0.27500E+01
         0.27500E+01
         0.27500E+01
         0.27500E+01
         0.27500E+01
         0.27500E+01
         0.27500E+01
         0.27500E+01
         0.27500E+01
         0.27500E+01
         0.27500E+01
         0.27500E+01
         0.27500E+01
         0.27500E+01
         0.27500E+01
         0.27500E+01
         0.27500E+01
         0.27500E+01
         0.27500E+01
         0.27500E+01
         0.27500E+01
         0.27500E+01
         0.27500E+01
         0.27500E+01
         0.27500E+01
         0.27500E+01
         0.27500E+01
         0.27500E+01
         0.27500E+01
         0.27500E+01
         0.27500E+01
         0.27500E+01
         0.27500E+01
         0.27500E+01
         0.27500E+01
         0.27500E+01
         0.27500E+01
         0.27500E+01
         0.27500E+01
         0.27500E+01
         0.27500E+01
         0.27500E+01
         0.27500E+01
         0.27500E+01
         0.27500E+01
         0.27500E+01
         0.27500E+01
         0.27500E+01
         0.27500E+01
         0.27500E+01
         0.27500E+01
         0.27500E+01
         0.27500E+01
         0.27500E+01
         0.27500E+01
         0.27500E+01
         0.27500E+01
         0.27500E+01
         0.27500E+01
         0.27500E+01
         0.27500E+01
         0.27500E+01
         0.27500E+01
         0.27500E+01
         0.27500E+01
         0.27500E+01
         0.27500E+01
         0.27500E+01
         0.27500E+01
         0.27500E+01
         0.27500E+01
         0.27500E+01
         0.27500E+01
         0.27500E+01
         0.27500E+01
         0.27500E+01
         0.27500E+01
         0.27500E+01
         0.27500E+01
         0.27500E+01
         0.27500E+01
         0.27500E+01
         0.27500E+01
         0.27500E+01
         0.27500E+01
         0.27500E+01
         0.27500E+01
         0.27500E+01
         0.27500E+01
         0.27500E+01
         0.27500E+01
         0.27500E+01
         0.27500E+01
         0.27500E+01
         0.27500E+01
         0.27500E+01
         0.27500E+01
         0.27500E+01
         0.27500E+01
         0.27500E+01
         0.27500E+01
         0.27500E+01
         0.27500E+01
         0.27500E+01
         0.27500E+01
         0.27500E+01
         0.27500E+01
         0.27500E+01
         0.27500E+01
         0.27500E+01
         0.27500E+01
         0.27500E+01
         0.27500E+01
         0.27500E+01
         0.27500E+01
         0.27500E+01
         0.27500E+01
         0.27500E+01
         0.27500E+01
         0.27500E+01
         0.27500E+01
         0.27500E+01
         0.27500E+01
         0.27500E+01
         0.27500E+01
         0.27500E+01
         0.27500E+01
         0.27500E+01
         0.27500E+01
         0.27500E+01
         0.27500E+01
         0.27500E+01
         0.27500E+01
         0.27500E+01
         0.27500E+01
         0.27500E+01
         0.27500E+01
         0.27500E+01
         0.27500E+01
         0.27500E+01
         0.27500E+01
         0.27500E+01
         0.27500E+01
         0.27500E+01
         0.27500E+01
         0.27500E+01
         0.27500E+01
         0.27500E+01
         0.27500E+01
         0.27500E+01
         0.27500E+01
         0.27500E+01
         0.27500E+01
         0.27500E+01
         0.27500E+01
         0.27500E+01
         0.27500E+01
         0.27500E+01
         0.27500E+01
         0.27500E+01
         0.27500E+01
         0.27500E+01
         0.27500E+01
         0.27500E+01
         0.27500E+01
         0.27500E+01
         0.27500E+01
         0.27500E+01
         0.27500E+01
         0.27500E+01
         0.27500E+01
         0.27500E+01
         0.27500E+01
         0.27500E+01
         0.27500E+01
         0.27500E+01
         0.27500E+01
         0.27500E+01
         0.27500E+01
         0.27500E+01
         0.27500E+01
         0.27500E+01
         0.27500E+01
         0.27500E+01
         0.27500E+01
         0.27500E+01
         0.27500E+01
         0.27500E+01
         0.27500E+01
         0.27500E+01
         0.27500E+01
         0.27500E+01
         0.27500E+01
         0.27500E+01
         0.27500E+01
         0.27500E+01
         0.27500E+01
         0.27500E+01
         0.27500E+01
         0.27500E+01
         0.27500E+01
         0.27500E+01
         0.27500E+01
         0.27500E+01
         0.27500E+01
         0.27500E+01
         0.27500E+01
         0.27500E+01
         0.27500E+01
         0.27500E+01
         0.27500E+01
         0.27500E+01
         0.27500E+01
         0.27500E+01
         0.27500E+01
         0.27500E+01
         0.27500E+01
         0.27500E+01
         0.27500E+01
         0.27500E+01
         0.27500E+01
         0.27500E+01
         0.27500E+01
         0.27500E+01
         0.27500E+01
         0.27500E+01
         0.27500E+01
         0.27500E+01
         0.27500E+01
         0.27500E+01
         0.27500E+01
         0.27500E+01
         0.27500E+01
         0.27500E+01
         0.27500E+01
         0.27500E+01
         0.27500E+01
         0.27500E+01
         0.27500E+01
         0.27500E+01
         0.27500E+01
         0.27500E+01
         0.27500E+01
         0.27500E+01
         0.27500E+01
         0.27500E+01
         0.27500E+01
         0.27500E+01
         0.27500E+01
         0.27500E+01
         0.27500E+01
         0.27500E+01
         0.27500E+01
         0.27500E+01
         0.27500E+01
         0.27500E+01
         0.27500E+01
         0.27500E+01
         0.27500E+01
         0.27500E+01
         0.27500E+01
         0.27500E+01
         0.27500E+01
         0.27500E+01
         0.27500E+01
         0.27500E+01
         0.27500E+01
         0.27500E+01
         0.27500E+01
         0.27500E+01
         0.27500E+01
         0.27500E+01
         0.27500E+01
         0.27500E+01
         0.27500E+01
         0.27500E+01
         0.27500E+01
         0.27500E+01
         0.27500E+01
         0.27500E+01
         0.27500E+01
         0.27500E+01
         0.27500E+01
         0.27500E+01
         0.27500E+01
         0.27500E+01
         0.27500E+01
         0.27500E+01
         0.27500E+01
         0.27500E+01
         0.27500E+01
         0.27500E+01
         0.27500E+01
         0.27500E+01
         0.27500E+01
         0.27500E+01
         0.27500E+01
         0.27500E+01
         0.27500E+01
         0.27500E+01
         0.27500E+01
         0.27500E+01
         0.27500E+01
         0.27500E+01
         0.27500E+01
         0.27500E+01
         0.27500E+01
         0.27500E+01
         0.27500E+01
         0.27500E+01
         0.27500E+01
         0.27500E+01
         0.27500E+01
         0.27500E+01
         0.27500E+01
         0.27500E+01
         0.27500E+01
         0.27500E+01
         0.27500E+01
         0.27500E+01
         0.27500E+01
         0.27500E+01
         0.27500E+01
         0.27500E+01
         0.27500E+01
         0.27500E+01
         0.27500E+01
         0.27500E+01
         0.27500E+01
         0.27500E+01
         0.27500E+01
         0.27500E+01
         0.27500E+01
         0.27500E+01
         0.27500E+01
         0.27500E+01
         0.27500E+01
         0.27500E+01
         0.27500E+01
         0.27500E+01
         0.27500E+01
         0.27500E+01
         0.27500E+01
         0.27500E+01
         0.27500E+01
         0.27500E+01
         0.27500E+01
         0.27500E+01
         0.27500E+01
         0.27500E+01
         0.27500E+01
         0.27500E+01
         0.27500E+01
         0.27500E+01
         0.27500E+01
         0.27500E+01
         0.27500E+01
         0.27500E+01
         0.27500E+01
         0.27500E+01
         0.27500E+01
         0.27500E+01
         0.27500E+01
         0.27500E+01
         0.27500E+01
         0.27500E+01
         0.27500E+01
         0.27500E+01
         0.27500E+01
         0.27500E+01
         0.27500E+01
         0.27500E+01
         0.27500E+01
         0.27500E+01
         0.27500E+01
         0.27500E+01
         0.27500E+01
         0.27500E+01
         0.27500E+01
         0.27500E+01
         0.27500E+01
         0.27500E+01
         0.27500E+01
         0.27500E+01
         0.27500E+01
         0.27500E+01
         0.27500E+01
         0.27500E+01
         0.27500E+01
         0.27500E+01
         0.27500E+01
         0.27500E+01
         0.27500E+01
         0.27500E+01
         0.27500E+01
         0.27500E+01
         0.27500E+01
         0.27500E+01
         0.27500E+01
         0.27500E+01
         0.27500E+01
         0.27500E+01
         0.27500E+01
         0.27500E+01
         0.27500E+01
         0.27500E+01
         0.27500E+01
         0.27500E+01
         0.27500E+01
         0.27500E+01
         0.27500E+01
         0.27500E+01
         0.27500E+01
         0.27500E+01
         0.27500E+01
         0.27500E+01
         0.27500E+01
         0.27500E+01
         0.27500E+01
         0.27500E+01
         0.27500E+01
         0.27500E+01
         0.27500E+01
         0.27500E+01
         0.27500E+01
         0.27500E+01
         0.27500E+01
         0.27500E+01
         0.27500E+01
         0.27500E+01
         0.27500E+01
         0.27500E+01
         0.27500E+01
         0.27500E+01
         0.27500E+01
         0.27500E+01
         0.27500E+01
         0.27500E+01
         0.27500E+01
         0.27500E+01
         0.27500E+01
         0.27500E+01
         0.27500E+01
         0.27500E+01
         0.27500E+01
         0.27500E+01
         0.27500E+01
         0.27500E+01
         0.27500E+01
         0.27500E+01
         0.27500E+01
         0.27500E+01
         0.27500E+01
         0.27500E+01
         0.27500E+01
         0.27500E+01
         0.27500E+01
         0.27500E+01
         0.27500E+01
         0.27500E+01
         0.27500E+01
         0.27500E+01
         0.27500E+01
         0.27500E+01
         0.27500E+01
         0.27500E+01
         0.27500E+01
         0.27500E+01
         0.27500E+01
         0.27500E+01
         0.27500E+01
         0.27500E+01
         0.27500E+01
         0.27500E+01
         0.27500E+01
         0.27500E+01
         0.27500E+01
         0.27500E+01
         0.27500E+01
         0.27500E+01
         0.27500E+01
         0.27500E+01
         0.27500E+01
         0.27500E+01
         0.27500E+01
         0.27500E+01
         0.27500E+01
         0.27500E+01
         0.27500E+01
         0.27500E+01
         0.27500E+01
         0.27500E+01
         0.27500E+01
         0.27500E+01
         0.27500E+01
         0.27500E+01
         0.27500E+01
         0.27500E+01
         0.27500E+01
         0.27500E+01
         0.27500E+01
         0.27500E+01
         0.27500E+01
         0.27500E+01
         0.27500E+01
         0.27500E+01
         0.27500E+01
         0.27500E+01
         0.27500E+01
         0.27500E+01
         0.27500E+01
         0.27500E+01
         0.27500E+01
         0.27500E+01
         0.27500E+01
         0.27500E+01
         0.27500E+01
         0.27500E+01
         0.27500E+01
         0.27500E+01
         0.27500E+01
         0.27500E+01
         0.27500E+01
         0.27500E+01
         0.27500E+01
         0.27500E+01
         0.27500E+01
         0.27500E+01
         0.27500E+01
         0.27500E+01
         0.27500E+01
         0.27500E+01
         0.27500E+01
         0.27500E+01
         0.27500E+01
         0.27500E+01
         0.27500E+01
         0.27500E+01
         0.27500E+01
         0.27500E+01
         0.27500E+01
         0.27500E+01
         0.27500E+01
         0.27500E+01
         0.27500E+01
         0.27500E+01
         0.27500E+01
         0.27500E+01
         0.27500E+01
         0.27500E+01
         0.27500E+01
         0.27500E+01
         0.27500E+01
         0.27500E+01
         0.27500E+01
         0.27500E+01
         0.27500E+01
         0.27500E+01
         0.27500E+01
         0.27500E+01
         0.27500E+01
         0.27500E+01
         0.27500E+01
         0.27500E+01
         0.27500E+01
         0.27500E+01
         0.27500E+01
         0.27500E+01
         0.27500E+01
         0.27500E+01
         0.27500E+01
         0.27500E+01
         0.27500E+01
         0.27500E+01
         0.27500E+01
         0.27500E+01
         0.27500E+01
         0.27500E+01
         0.27500E+01
         0.27500E+01
         0.27500E+01
         0.27500E+01
         0.27500E+01
         0.27500E+01
         0.27500E+01
         0.27500E+01
         0.27500E+01
         0.27500E+01
         0.27500E+01
         0.27500E+01
         0.27500E+01
         0.27500E+01
         0.27500E+01
         0.27500E+01
         0.27500E+01
         0.27500E+01
         0.27500E+01
         0.27500E+01
         0.27500E+01
         0.27500E+01
         0.27500E+01
         0.27500E+01
         0.27500E+01
         0.27500E+01
         0.27500E+01
         0.27500E+01
         0.27500E+01
         0.27500E+01
         0.27500E+01
         0.27500E+01
         0.27500E+01
         0.27500E+01
         0.27500E+01
         0.27500E+01
         0.27500E+01
         0.27500E+01
         0.27500E+01
         0.27500E+01
         0.27500E+01
         0.27500E+01
         0.27500E+01
         0.27500E+01
         0.27500E+01
         0.27500E+01
         0.27500E+01
         0.27500E+01
         0.27500E+01
         0.27500E+01
         0.27500E+01
         0.27500E+01
         0.27500E+01
         0.27500E+01
         0.27500E+01
         0.27500E+01
         0.27500E+01
         0.27500E+01
         0.27500E+01
         0.27500E+01
         0.27500E+01
         0.27500E+01
         0.27500E+01
         0.27500E+01
         0.27500E+01
         0.27500E+01
         0.27500E+01
         0.27500E+01
         0.27500E+01
         0.27500E+01
         0.27500E+01
         0.27500E+01
         0.27500E+01
         0.27500E+01
         0.27500E+01
         0.27500E+01
         0.27500E+01
         0.27500E+01
         0.27500E+01
         0.27500E+01
         0.27500E+01
         0.27500E+01
         0.27500E+01
         0.27500E+01
         0.27500E+01
         0.27500E+01
         0.27500E+01
         0.27500E+01
         0.27500E+01
         0.27500E+01
         0.27500E+01
         0.27500E+01
         0.27500E+01
         0.27500E+01
         0.27500E+01
         0.27500E+01
         0.27500E+01
         0.27500E+01
         0.27500E+01
         0.27500E+01
         0.27500E+01
         0.27500E+01
         0.27500E+01
         0.27500E+01
         0.27500E+01
         0.27500E+01
         0.27500E+01
         0.27500E+01
         0.27500E+01
         0.27500E+01
         0.27500E+01
         0.27500E+01
         0.27500E+01
         0.27500E+01
         0.27500E+01
         0.27500E+01
         0.27500E+01
         0.27500E+01
         0.27500E+01
         0.27500E+01
         0.27500E+01
         0.27500E+01
         0.27500E+01
         0.27500E+01
         0.27500E+01
         0.27500E+01
         0.27500E+01
         0.27500E+01
         0.27500E+01
         0.27500E+01
         0.27500E+01
         0.27500E+01
         0.27500E+01
         0.27500E+01
         0.27500E+01
         0.27500E+01
         0.27500E+01
         0.27500E+01
         0.27500E+01
         0.27500E+01
         0.27500E+01
         0.27500E+01
         0.27500E+01
         0.27500E+01
         0.27500E+01
         0.27500E+01
         0.27500E+01
         0.27500E+01
         0.27500E+01
         0.27500E+01
         0.27500E+01
         0.27500E+01
         0.27500E+01
         0.27500E+01
         0.27500E+01
         0.27500E+01
         0.27500E+01
         0.27500E+01
         0.27500E+01
         0.27500E+01
         0.27500E+01
         0.27500E+01
  
SCALARS              physical_window_x  double 1
LOOKUP_TABLE default
         0.42419E-02
         0.35201E-02
         0.37624E-02
         0.42419E-02
         0.42417E-02
         0.35201E-02
         0.37618E-02
         0.42417E-02
         0.37624E-02
         0.37624E-02
         0.37618E-02
         0.37618E-02
         0.30086E-02
         0.32069E-02
         0.30084E-02
         0.32067E-02
         0.42419E-02
         0.32069E-02
         0.42417E-02
         0.32067E-02
         0.24180E-02
         0.29942E-02
         0.32396E-02
         0.24180E-02
         0.29933E-02
         0.32385E-02
         0.26608E-02
         0.27190E-02
         0.26608E-02
         0.27190E-02
         0.42687E-02
         0.36511E-02
         0.42687E-02
         0.42687E-02
         0.36511E-02
         0.42687E-02
         0.32069E-02
         0.29739E-02
         0.32066E-02
         0.29739E-02
         0.34652E-02
         0.32621E-02
         0.34652E-02
         0.32621E-02
         0.37123E-02
         0.32069E-02
         0.37123E-02
         0.32066E-02
         0.30844E-02
         0.30844E-02
         0.35191E-02
         0.35189E-02
         0.26925E-02
         0.26925E-02
         0.26925E-02
         0.26925E-02
         0.24643E-02
         0.27651E-02
         0.24643E-02
         0.27651E-02
         0.42687E-02
         0.35191E-02
         0.42687E-02
         0.35189E-02
         0.42687E-02
         0.42687E-02
         0.34658E-02
         0.34648E-02
         0.27274E-02
         0.31799E-02
         0.27273E-02
         0.31796E-02
         0.32396E-02
         0.32385E-02
         0.26964E-02
         0.26960E-02
         0.27828E-02
         0.27828E-02
         0.27828E-02
         0.27828E-02
         0.27004E-02
         0.31883E-02
         0.27003E-02
         0.31880E-02
         0.31883E-02
         0.31880E-02
         0.37123E-02
         0.37123E-02
         0.36245E-02
         0.36245E-02
         0.28253E-02
         0.31642E-02
         0.28253E-02
         0.31636E-02
         0.33485E-02
         0.33485E-02
         0.33485E-02
         0.33485E-02
         0.31978E-02
         0.31969E-02
         0.29849E-02
         0.32843E-02
         0.29849E-02
         0.32843E-02
         0.27274E-02
         0.31109E-02
         0.27273E-02
         0.31109E-02
         0.31799E-02
         0.31796E-02
         0.32396E-02
         0.32385E-02
         0.32396E-02
         0.32385E-02
         0.29942E-02
         0.29933E-02
         0.27190E-02
         0.27190E-02
         0.26964E-02
         0.26960E-02
         0.27828E-02
         0.27828E-02
         0.27828E-02
         0.27828E-02
         0.27004E-02
         0.27003E-02
         0.31883E-02
         0.31880E-02
         0.31883E-02
         0.31880E-02
         0.32621E-02
         0.32621E-02
         0.34652E-02
         0.34652E-02
         0.37123E-02
         0.37123E-02
         0.37123E-02
         0.37123E-02
         0.36245E-02
         0.36245E-02
         0.28253E-02
         0.28253E-02
         0.29097E-02
         0.29087E-02
         0.32389E-02
         0.32378E-02
         0.32389E-02
         0.32378E-02
         0.31978E-02
         0.31969E-02
         0.29849E-02
         0.29849E-02
         0.32843E-02
         0.32843E-02
         0.32843E-02
         0.32843E-02
         0.42420E-02
         0.35201E-02
         0.37629E-02
         0.42420E-02
         0.37629E-02
         0.37629E-02
         0.30087E-02
         0.32071E-02
         0.42420E-02
         0.32071E-02
         0.24178E-02
         0.29952E-02
         0.32407E-02
         0.26596E-02
         0.27191E-02
         0.42679E-02
         0.36502E-02
         0.42679E-02
         0.32071E-02
         0.29727E-02
         0.34648E-02
         0.32622E-02
         0.37119E-02
         0.32071E-02
         0.30833E-02
         0.35193E-02
         0.26910E-02
         0.26910E-02
         0.24638E-02
         0.27644E-02
         0.42679E-02
         0.35193E-02
         0.42679E-02
         0.34670E-02
         0.27274E-02
         0.31802E-02
         0.32407E-02
         0.26968E-02
         0.27828E-02
         0.27828E-02
         0.27005E-02
         0.31885E-02
         0.31885E-02
         0.37119E-02
         0.36244E-02
         0.28250E-02
         0.31647E-02
         0.33484E-02
         0.33484E-02
         0.31986E-02
         0.29848E-02
         0.32841E-02
         0.27274E-02
         0.31099E-02
         0.31802E-02
         0.32407E-02
         0.32407E-02
         0.29952E-02
         0.27191E-02
         0.26968E-02
         0.27828E-02
         0.27828E-02
         0.27005E-02
         0.31885E-02
         0.31885E-02
         0.32622E-02
         0.34648E-02
         0.37119E-02
         0.37119E-02
         0.36244E-02
         0.28250E-02
         0.29106E-02
         0.32401E-02
         0.32401E-02
         0.31986E-02
         0.29848E-02
         0.32841E-02
         0.32841E-02
         0.42421E-02
         0.35201E-02
         0.37634E-02
         0.42421E-02
         0.37634E-02
         0.37634E-02
         0.30089E-02
         0.32073E-02
         0.42421E-02
         0.32073E-02
         0.24177E-02
         0.29961E-02
         0.32418E-02
         0.26584E-02
         0.27191E-02
         0.42670E-02
         0.36493E-02
         0.42670E-02
         0.32073E-02
         0.29714E-02
         0.34644E-02
         0.32623E-02
         0.37115E-02
         0.32073E-02
         0.30822E-02
         0.35195E-02
         0.26896E-02
         0.26896E-02
         0.24633E-02
         0.27638E-02
         0.42670E-02
         0.35195E-02
         0.42670E-02
         0.34681E-02
         0.27275E-02
         0.31805E-02
         0.32418E-02
         0.26972E-02
         0.27828E-02
         0.27828E-02
         0.27006E-02
         0.31888E-02
         0.31888E-02
         0.37115E-02
         0.36243E-02
         0.28247E-02
         0.31652E-02
         0.33483E-02
         0.33483E-02
         0.31995E-02
         0.29847E-02
         0.32839E-02
         0.27275E-02
         0.31090E-02
         0.31805E-02
         0.32418E-02
         0.32418E-02
         0.29961E-02
         0.27191E-02
         0.26972E-02
         0.27828E-02
         0.27828E-02
         0.27006E-02
         0.31888E-02
         0.31888E-02
         0.32623E-02
         0.34644E-02
         0.37115E-02
         0.37115E-02
         0.36243E-02
         0.28247E-02
         0.29116E-02
         0.32412E-02
         0.32412E-02
         0.31995E-02
         0.29847E-02
         0.32839E-02
         0.32839E-02
         0.42423E-02
         0.35200E-02
         0.37639E-02
         0.42423E-02
         0.37639E-02
         0.37639E-02
         0.30091E-02
         0.32075E-02
         0.42423E-02
         0.32075E-02
         0.24176E-02
         0.29970E-02
         0.32428E-02
         0.26572E-02
         0.27192E-02
         0.42662E-02
         0.36483E-02
         0.42662E-02
         0.32075E-02
         0.29702E-02
         0.34639E-02
         0.32624E-02
         0.37111E-02
         0.32075E-02
         0.30811E-02
         0.35197E-02
         0.26881E-02
         0.26881E-02
         0.24628E-02
         0.27631E-02
         0.42662E-02
         0.35197E-02
         0.42662E-02
         0.34692E-02
         0.27276E-02
         0.31808E-02
         0.32428E-02
         0.26975E-02
         0.27828E-02
         0.27828E-02
         0.27007E-02
         0.31890E-02
         0.31890E-02
         0.37111E-02
         0.36242E-02
         0.28243E-02
         0.31658E-02
         0.33482E-02
         0.33482E-02
         0.32003E-02
         0.29846E-02
         0.32837E-02
         0.27276E-02
         0.31081E-02
         0.31808E-02
         0.32428E-02
         0.32428E-02
         0.29970E-02
         0.27192E-02
         0.26975E-02
         0.27828E-02
         0.27828E-02
         0.27007E-02
         0.31890E-02
         0.31890E-02
         0.32624E-02
         0.34639E-02
         0.37111E-02
         0.37111E-02
         0.36242E-02
         0.28243E-02
         0.29125E-02
         0.32423E-02
         0.32423E-02
         0.32003E-02
         0.29846E-02
         0.32837E-02
         0.32837E-02
         0.42424E-02
         0.35200E-02
         0.37644E-02
         0.42424E-02
         0.37644E-02
         0.37644E-02
         0.30093E-02
         0.32077E-02
         0.42424E-02
         0.32077E-02
         0.24174E-02
         0.29979E-02
         0.32439E-02
         0.26559E-02
         0.27192E-02
         0.42653E-02
         0.36474E-02
         0.42653E-02
         0.32077E-02
         0.29690E-02
         0.34635E-02
         0.32624E-02
         0.37108E-02
         0.32077E-02
         0.30799E-02
         0.35199E-02
         0.26867E-02
         0.26867E-02
         0.24623E-02
         0.27625E-02
         0.42653E-02
         0.35199E-02
         0.42653E-02
         0.34703E-02
         0.27276E-02
         0.31812E-02
         0.32439E-02
         0.26979E-02
         0.27828E-02
         0.27828E-02
         0.27008E-02
         0.31893E-02
         0.31893E-02
         0.37108E-02
         0.36241E-02
         0.28240E-02
         0.31663E-02
         0.33481E-02
         0.33481E-02
         0.32012E-02
         0.29844E-02
         0.32835E-02
         0.27276E-02
         0.31071E-02
         0.31812E-02
         0.32439E-02
         0.32439E-02
         0.29979E-02
         0.27192E-02
         0.26979E-02
         0.27828E-02
         0.27828E-02
         0.27008E-02
         0.31893E-02
         0.31893E-02
         0.32624E-02
         0.34635E-02
         0.37108E-02
         0.37108E-02
         0.36241E-02
         0.28240E-02
         0.29135E-02
         0.32434E-02
         0.32434E-02
         0.32012E-02
         0.29844E-02
         0.32835E-02
         0.32835E-02
         0.42425E-02
         0.35200E-02
         0.37649E-02
         0.42425E-02
         0.37649E-02
         0.37649E-02
         0.30095E-02
         0.32079E-02
         0.42425E-02
         0.32079E-02
         0.24173E-02
         0.29989E-02
         0.32450E-02
         0.26547E-02
         0.27193E-02
         0.42645E-02
         0.36465E-02
         0.42645E-02
         0.32079E-02
         0.29677E-02
         0.34631E-02
         0.32625E-02
         0.37104E-02
         0.32079E-02
         0.30788E-02
         0.35201E-02
         0.26852E-02
         0.26852E-02
         0.24618E-02
         0.27618E-02
         0.42645E-02
         0.35201E-02
         0.42645E-02
         0.34715E-02
         0.27277E-02
         0.31815E-02
         0.32450E-02
         0.26983E-02
         0.27828E-02
         0.27828E-02
         0.27009E-02
         0.31895E-02
         0.31895E-02
         0.37104E-02
         0.36239E-02
         0.28237E-02
         0.31668E-02
         0.33480E-02
         0.33480E-02
         0.32020E-02
         0.29843E-02
         0.32833E-02
         0.27277E-02
         0.31062E-02
         0.31815E-02
         0.32450E-02
         0.32450E-02
         0.29989E-02
         0.27193E-02
         0.26983E-02
         0.27828E-02
         0.27828E-02
         0.27009E-02
         0.31895E-02
         0.31895E-02
         0.32625E-02
         0.34631E-02
         0.37104E-02
         0.37104E-02
         0.36239E-02
         0.28237E-02
         0.29145E-02
         0.32445E-02
         0.32445E-02
         0.32020E-02
         0.29843E-02
         0.32833E-02
         0.32833E-02
         0.42427E-02
         0.35200E-02
         0.37654E-02
         0.42427E-02
         0.37654E-02
         0.37654E-02
         0.30097E-02
         0.32081E-02
         0.42427E-02
         0.32081E-02
         0.24171E-02
         0.29998E-02
         0.32461E-02
         0.26535E-02
         0.27193E-02
         0.42636E-02
         0.36455E-02
         0.42636E-02
         0.32081E-02
         0.29665E-02
         0.34626E-02
         0.32626E-02
         0.37100E-02
         0.32081E-02
         0.30777E-02
         0.35203E-02
         0.26838E-02
         0.26838E-02
         0.24613E-02
         0.27611E-02
         0.42636E-02
         0.35203E-02
         0.42636E-02
         0.34726E-02
         0.27278E-02
         0.31818E-02
         0.32461E-02
         0.26987E-02
         0.27827E-02
         0.27827E-02
         0.27010E-02
         0.31898E-02
         0.31898E-02
         0.37100E-02
         0.36238E-02
         0.28234E-02
         0.31673E-02
         0.33479E-02
         0.33479E-02
         0.32029E-02
         0.29842E-02
         0.32831E-02
         0.27278E-02
         0.31052E-02
         0.31818E-02
         0.32461E-02
         0.32461E-02
         0.29998E-02
         0.27193E-02
         0.26987E-02
         0.27827E-02
         0.27827E-02
         0.27010E-02
         0.31898E-02
         0.31898E-02
         0.32626E-02
         0.34626E-02
         0.37100E-02
         0.37100E-02
         0.36238E-02
         0.28234E-02
         0.29154E-02
         0.32457E-02
         0.32457E-02
         0.32029E-02
         0.29842E-02
         0.32831E-02
         0.32831E-02
         0.42428E-02
         0.35199E-02
         0.37660E-02
         0.42428E-02
         0.37660E-02
         0.37660E-02
         0.30099E-02
         0.32083E-02
         0.42428E-02
         0.32083E-02
         0.24170E-02
         0.30007E-02
         0.32471E-02
         0.26523E-02
         0.27194E-02
         0.42628E-02
         0.36446E-02
         0.42628E-02
         0.32083E-02
         0.29652E-02
         0.34622E-02
         0.32627E-02
         0.37096E-02
         0.32083E-02
         0.30766E-02
         0.35205E-02
         0.26823E-02
         0.26823E-02
         0.24608E-02
         0.27605E-02
         0.42628E-02
         0.35205E-02
         0.42628E-02
         0.34737E-02
         0.27279E-02
         0.31821E-02
         0.32471E-02
         0.26991E-02
         0.27827E-02
         0.27827E-02
         0.27011E-02
         0.31900E-02
         0.31900E-02
         0.37096E-02
         0.36237E-02
         0.28231E-02
         0.31679E-02
         0.33478E-02
         0.33478E-02
         0.32038E-02
         0.29841E-02
         0.32829E-02
         0.27279E-02
         0.31043E-02
         0.31821E-02
         0.32471E-02
         0.32471E-02
         0.30007E-02
         0.27194E-02
         0.26991E-02
         0.27827E-02
         0.27827E-02
         0.27011E-02
         0.31900E-02
         0.31900E-02
         0.32627E-02
         0.34622E-02
         0.37096E-02
         0.37096E-02
         0.36237E-02
         0.28231E-02
         0.29164E-02
         0.32468E-02
         0.32468E-02
         0.32038E-02
         0.29841E-02
         0.32829E-02
         0.32829E-02
         0.42429E-02
         0.35199E-02
         0.37665E-02
         0.42429E-02
         0.37665E-02
         0.37665E-02
         0.30101E-02
         0.32085E-02
         0.42429E-02
         0.32085E-02
         0.24168E-02
         0.30017E-02
         0.32482E-02
         0.26510E-02
         0.27194E-02
         0.42619E-02
         0.36437E-02
         0.42619E-02
         0.32085E-02
         0.29640E-02
         0.34618E-02
         0.32627E-02
         0.37092E-02
         0.32085E-02
         0.30755E-02
         0.35207E-02
         0.26808E-02
         0.26808E-02
         0.24603E-02
         0.27599E-02
         0.42619E-02
         0.35207E-02
         0.42619E-02
         0.34748E-02
         0.27279E-02
         0.31824E-02
         0.32482E-02
         0.26994E-02
         0.27827E-02
         0.27827E-02
         0.27012E-02
         0.31902E-02
         0.31902E-02
         0.37092E-02
         0.36236E-02
         0.28227E-02
         0.31684E-02
         0.33477E-02
         0.33477E-02
         0.32046E-02
         0.29840E-02
         0.32827E-02
         0.27279E-02
         0.31034E-02
         0.31824E-02
         0.32482E-02
         0.32482E-02
         0.30017E-02
         0.27194E-02
         0.26994E-02
         0.27827E-02
         0.27827E-02
         0.27012E-02
         0.31902E-02
         0.31902E-02
         0.32627E-02
         0.34618E-02
         0.37092E-02
         0.37092E-02
         0.36236E-02
         0.28227E-02
         0.29173E-02
         0.32479E-02
         0.32479E-02
         0.32046E-02
         0.29840E-02
         0.32827E-02
         0.32827E-02
         0.42431E-02
         0.35199E-02
         0.37670E-02
         0.42431E-02
         0.37670E-02
         0.37670E-02
         0.30102E-02
         0.32087E-02
         0.42431E-02
         0.32087E-02
         0.24167E-02
         0.30026E-02
         0.32493E-02
         0.26498E-02
         0.27194E-02
         0.42611E-02
         0.36427E-02
         0.42611E-02
         0.32087E-02
         0.29628E-02
         0.34613E-02
         0.32628E-02
         0.37089E-02
         0.32087E-02
         0.30744E-02
         0.35209E-02
         0.26794E-02
         0.26794E-02
         0.24598E-02
         0.27592E-02
         0.42611E-02
         0.35209E-02
         0.42611E-02
         0.34759E-02
         0.27280E-02
         0.31827E-02
         0.32493E-02
         0.26998E-02
         0.27827E-02
         0.27827E-02
         0.27013E-02
         0.31905E-02
         0.31905E-02
         0.37089E-02
         0.36235E-02
         0.28224E-02
         0.31689E-02
         0.33476E-02
         0.33476E-02
         0.32055E-02
         0.29839E-02
         0.32825E-02
         0.27280E-02
         0.31024E-02
         0.31827E-02
         0.32493E-02
         0.32493E-02
         0.30026E-02
         0.27194E-02
         0.26998E-02
         0.27827E-02
         0.27827E-02
         0.27013E-02
         0.31905E-02
         0.31905E-02
         0.32628E-02
         0.34613E-02
         0.37089E-02
         0.37089E-02
         0.36235E-02
         0.28224E-02
         0.29183E-02
         0.32490E-02
         0.32490E-02
         0.32055E-02
         0.29839E-02
         0.32825E-02
         0.32825E-02
         0.42432E-02
         0.35199E-02
         0.37675E-02
         0.42432E-02
         0.37675E-02
         0.37675E-02
         0.30104E-02
         0.32089E-02
         0.42432E-02
         0.32089E-02
         0.24166E-02
         0.30035E-02
         0.32504E-02
         0.26486E-02
         0.27195E-02
         0.42603E-02
         0.36418E-02
         0.42603E-02
         0.32089E-02
         0.29615E-02
         0.34609E-02
         0.32629E-02
         0.37085E-02
         0.32089E-02
         0.30732E-02
         0.35211E-02
         0.26779E-02
         0.26779E-02
         0.24593E-02
         0.27585E-02
         0.42603E-02
         0.35211E-02
         0.42603E-02
         0.34771E-02
         0.27281E-02
         0.31830E-02
         0.32504E-02
         0.27002E-02
         0.27827E-02
         0.27827E-02
         0.27014E-02
         0.31907E-02
         0.31907E-02
         0.37085E-02
         0.36233E-02
         0.28221E-02
         0.31694E-02
         0.33475E-02
         0.33475E-02
         0.32063E-02
         0.29838E-02
         0.32823E-02
         0.27281E-02
         0.31015E-02
         0.31830E-02
         0.32504E-02
         0.32504E-02
         0.30035E-02
         0.27195E-02
         0.27002E-02
         0.27827E-02
         0.27827E-02
         0.27014E-02
         0.31907E-02
         0.31907E-02
         0.32629E-02
         0.34609E-02
         0.37085E-02
         0.37085E-02
         0.36233E-02
         0.28221E-02
         0.29193E-02
         0.32501E-02
         0.32501E-02
         0.32063E-02
         0.29838E-02
         0.32823E-02
         0.32823E-02
         0.42433E-02
         0.35199E-02
         0.37680E-02
         0.42433E-02
         0.37680E-02
         0.37680E-02
         0.30106E-02
         0.32091E-02
         0.42433E-02
         0.32091E-02
         0.24164E-02
         0.30045E-02
         0.32514E-02
         0.26474E-02
         0.27195E-02
         0.42594E-02
         0.36409E-02
         0.42594E-02
         0.32091E-02
         0.29603E-02
         0.34605E-02
         0.32630E-02
         0.37081E-02
         0.32091E-02
         0.30721E-02
         0.35213E-02
         0.26765E-02
         0.26765E-02
         0.24588E-02
         0.27579E-02
         0.42594E-02
         0.35213E-02
         0.42594E-02
         0.34782E-02
         0.27281E-02
         0.31833E-02
         0.32514E-02
         0.27006E-02
         0.27826E-02
         0.27826E-02
         0.27015E-02
         0.31910E-02
         0.31910E-02
         0.37081E-02
         0.36232E-02
         0.28218E-02
         0.31700E-02
         0.33474E-02
         0.33474E-02
         0.32072E-02
         0.29836E-02
         0.32821E-02
         0.27281E-02
         0.31005E-02
         0.31833E-02
         0.32514E-02
         0.32514E-02
         0.30045E-02
         0.27195E-02
         0.27006E-02
         0.27826E-02
         0.27826E-02
         0.27015E-02
         0.31910E-02
         0.31910E-02
         0.32630E-02
         0.34605E-02
         0.37081E-02
         0.37081E-02
         0.36232E-02
         0.28218E-02
         0.29202E-02
         0.32512E-02
         0.32512E-02
         0.32072E-02
         0.29836E-02
         0.32821E-02
         0.32821E-02
         0.42435E-02
         0.35199E-02
         0.37685E-02
         0.42435E-02
         0.37685E-02
         0.37685E-02
         0.30108E-02
         0.32093E-02
         0.42435E-02
         0.32093E-02
         0.24163E-02
         0.30054E-02
         0.32525E-02
         0.26461E-02
         0.27196E-02
         0.42586E-02
         0.36399E-02
         0.42586E-02
         0.32093E-02
         0.29591E-02
         0.34601E-02
         0.32630E-02
         0.37077E-02
         0.32093E-02
         0.30710E-02
         0.35215E-02
         0.26750E-02
         0.26750E-02
         0.24583E-02
         0.27572E-02
         0.42586E-02
         0.35215E-02
         0.42586E-02
         0.34793E-02
         0.27282E-02
         0.31836E-02
         0.32525E-02
         0.27010E-02
         0.27826E-02
         0.27826E-02
         0.27016E-02
         0.31912E-02
         0.31912E-02
         0.37077E-02
         0.36231E-02
         0.28215E-02
         0.31705E-02
         0.33473E-02
         0.33473E-02
         0.32080E-02
         0.29835E-02
         0.32819E-02
         0.27282E-02
         0.30996E-02
         0.31836E-02
         0.32525E-02
         0.32525E-02
         0.30054E-02
         0.27196E-02
         0.27010E-02
         0.27826E-02
         0.27826E-02
         0.27016E-02
         0.31912E-02
         0.31912E-02
         0.32630E-02
         0.34601E-02
         0.37077E-02
         0.37077E-02
         0.36231E-02
         0.28215E-02
         0.29212E-02
         0.32524E-02
         0.32524E-02
         0.32080E-02
         0.29835E-02
         0.32819E-02
         0.32819E-02
         0.42436E-02
         0.35198E-02
         0.37690E-02
         0.42436E-02
         0.37690E-02
         0.37690E-02
         0.30110E-02
         0.32095E-02
         0.42436E-02
         0.32095E-02
         0.24162E-02
         0.30064E-02
         0.32536E-02
         0.26449E-02
         0.27196E-02
         0.42577E-02
         0.36390E-02
         0.42577E-02
         0.32096E-02
         0.29578E-02
         0.34596E-02
         0.32631E-02
         0.37074E-02
         0.32096E-02
         0.30699E-02
         0.35217E-02
         0.26735E-02
         0.26735E-02
         0.24578E-02
         0.27566E-02
         0.42577E-02
         0.35217E-02
         0.42577E-02
         0.34804E-02
         0.27283E-02
         0.31839E-02
         0.32536E-02
         0.27013E-02
         0.27826E-02
         0.27826E-02
         0.27017E-02
         0.31915E-02
         0.31915E-02
         0.37074E-02
         0.36230E-02
         0.28211E-02
         0.31710E-02
         0.33472E-02
         0.33472E-02
         0.32089E-02
         0.29834E-02
         0.32817E-02
         0.27283E-02
         0.30986E-02
         0.31839E-02
         0.32536E-02
         0.32536E-02
         0.30064E-02
         0.27196E-02
         0.27013E-02
         0.27826E-02
         0.27826E-02
         0.27017E-02
         0.31915E-02
         0.31915E-02
         0.32631E-02
         0.34596E-02
         0.37074E-02
         0.37074E-02
         0.36230E-02
         0.28211E-02
         0.29221E-02
         0.32535E-02
         0.32535E-02
         0.32089E-02
         0.29834E-02
         0.32817E-02
         0.32817E-02
         0.42437E-02
         0.35198E-02
         0.37695E-02
         0.42437E-02
         0.37695E-02
         0.37695E-02
         0.30112E-02
         0.32097E-02
         0.42437E-02
         0.32097E-02
         0.24160E-02
         0.30073E-02
         0.32547E-02
         0.26437E-02
         0.27197E-02
         0.42569E-02
         0.36381E-02
         0.42569E-02
         0.32098E-02
         0.29566E-02
         0.34592E-02
         0.32632E-02
         0.37070E-02
         0.32098E-02
         0.30688E-02
         0.35219E-02
         0.26721E-02
         0.26721E-02
         0.24573E-02
         0.27560E-02
         0.42569E-02
         0.35219E-02
         0.42569E-02
         0.34815E-02
         0.27284E-02
         0.31843E-02
         0.32547E-02
         0.27017E-02
         0.27826E-02
         0.27826E-02
         0.27018E-02
         0.31917E-02
         0.31917E-02
         0.37070E-02
         0.36229E-02
         0.28208E-02
         0.31716E-02
         0.33471E-02
         0.33471E-02
         0.32097E-02
         0.29833E-02
         0.32815E-02
         0.27284E-02
         0.30977E-02
         0.31843E-02
         0.32547E-02
         0.32547E-02
         0.30073E-02
         0.27197E-02
         0.27017E-02
         0.27826E-02
         0.27826E-02
         0.27018E-02
         0.31917E-02
         0.31917E-02
         0.32632E-02
         0.34592E-02
         0.37070E-02
         0.37070E-02
         0.36229E-02
         0.28208E-02
         0.29231E-02
         0.32546E-02
         0.32546E-02
         0.32097E-02
         0.29833E-02
         0.32815E-02
         0.32815E-02
         0.42439E-02
         0.35198E-02
         0.37701E-02
         0.42439E-02
         0.37701E-02
         0.37701E-02
         0.30113E-02
         0.32099E-02
         0.42439E-02
         0.32099E-02
         0.24159E-02
         0.30082E-02
         0.32558E-02
         0.26425E-02
         0.27197E-02
         0.42560E-02
         0.36371E-02
         0.42560E-02
         0.32100E-02
         0.29554E-02
         0.34588E-02
         0.32633E-02
         0.37066E-02
         0.32100E-02
         0.30677E-02
         0.35221E-02
         0.26706E-02
         0.26706E-02
         0.24568E-02
         0.27553E-02
         0.42560E-02
         0.35221E-02
         0.42560E-02
         0.34827E-02
         0.27284E-02
         0.31846E-02
         0.32558E-02
         0.27021E-02
         0.27826E-02
         0.27826E-02
         0.27019E-02
         0.31920E-02
         0.31920E-02
         0.37066E-02
         0.36227E-02
         0.28205E-02
         0.31721E-02
         0.33470E-02
         0.33470E-02
         0.32106E-02
         0.29831E-02
         0.32813E-02
         0.27284E-02
         0.30968E-02
         0.31846E-02
         0.32558E-02
         0.32558E-02
         0.30082E-02
         0.27197E-02
         0.27021E-02
         0.27826E-02
         0.27826E-02
         0.27019E-02
         0.31920E-02
         0.31920E-02
         0.32633E-02
         0.34588E-02
         0.37066E-02
         0.37066E-02
         0.36227E-02
         0.28205E-02
         0.29241E-02
         0.32557E-02
         0.32557E-02
         0.32106E-02
         0.29831E-02
         0.32813E-02
         0.32813E-02
         0.42440E-02
         0.35198E-02
         0.37706E-02
         0.42440E-02
         0.37706E-02
         0.37706E-02
         0.30115E-02
         0.32101E-02
         0.42440E-02
         0.32101E-02
         0.24158E-02
         0.30091E-02
         0.32568E-02
         0.26412E-02
         0.27198E-02
         0.42552E-02
         0.36362E-02
         0.42552E-02
         0.32102E-02
         0.29541E-02
         0.34583E-02
         0.32633E-02
         0.37062E-02
         0.32102E-02
         0.30665E-02
         0.35223E-02
         0.26692E-02
         0.26692E-02
         0.24563E-02
         0.27546E-02
         0.42552E-02
         0.35223E-02
         0.42552E-02
         0.34838E-02
         0.27285E-02
         0.31849E-02
         0.32568E-02
         0.27025E-02
         0.27826E-02
         0.27826E-02
         0.27020E-02
         0.31922E-02
         0.31922E-02
         0.37062E-02
         0.36226E-02
         0.28202E-02
         0.31726E-02
         0.33469E-02
         0.33469E-02
         0.32114E-02
         0.29830E-02
         0.32811E-02
         0.27285E-02
         0.30958E-02
         0.31849E-02
         0.32568E-02
         0.32568E-02
         0.30091E-02
         0.27198E-02
         0.27025E-02
         0.27826E-02
         0.27826E-02
         0.27020E-02
         0.31922E-02
         0.31922E-02
         0.32633E-02
         0.34583E-02
         0.37062E-02
         0.37062E-02
         0.36226E-02
         0.28202E-02
         0.29250E-02
         0.32568E-02
         0.32568E-02
         0.32114E-02
         0.29830E-02
         0.32811E-02
         0.32811E-02
         0.42441E-02
         0.35198E-02
         0.37711E-02
         0.42441E-02
         0.37711E-02
         0.37711E-02
         0.30117E-02
         0.32103E-02
         0.42441E-02
         0.32103E-02
         0.24156E-02
         0.30101E-02
         0.32579E-02
         0.26400E-02
         0.27198E-02
         0.42543E-02
         0.36353E-02
         0.42543E-02
         0.32104E-02
         0.29529E-02
         0.34579E-02
         0.32634E-02
         0.37058E-02
         0.32104E-02
         0.30654E-02
         0.35225E-02
         0.26677E-02
         0.26677E-02
         0.24558E-02
         0.27540E-02
         0.42543E-02
         0.35225E-02
         0.42543E-02
         0.34849E-02
         0.27286E-02
         0.31852E-02
         0.32579E-02
         0.27029E-02
         0.27826E-02
         0.27826E-02
         0.27021E-02
         0.31924E-02
         0.31924E-02
         0.37058E-02
         0.36225E-02
         0.28198E-02
         0.31731E-02
         0.33468E-02
         0.33468E-02
         0.32123E-02
         0.29829E-02
         0.32809E-02
         0.27286E-02
         0.30949E-02
         0.31852E-02
         0.32579E-02
         0.32579E-02
         0.30101E-02
         0.27198E-02
         0.27029E-02
         0.27826E-02
         0.27826E-02
         0.27021E-02
         0.31924E-02
         0.31924E-02
         0.32634E-02
         0.34579E-02
         0.37058E-02
         0.37058E-02
         0.36225E-02
         0.28198E-02
         0.29260E-02
         0.32579E-02
         0.32579E-02
         0.32123E-02
         0.29829E-02
         0.32809E-02
         0.32809E-02
         0.42443E-02
         0.35197E-02
         0.37716E-02
         0.42443E-02
         0.37716E-02
         0.37716E-02
         0.30119E-02
         0.32105E-02
         0.42443E-02
         0.32105E-02
         0.24155E-02
         0.30110E-02
         0.32590E-02
         0.26388E-02
         0.27199E-02
         0.42535E-02
         0.36343E-02
         0.42535E-02
         0.32106E-02
         0.29517E-02
         0.34575E-02
         0.32635E-02
         0.37055E-02
         0.32106E-02
         0.30643E-02
         0.35227E-02
         0.26663E-02
         0.26663E-02
         0.24553E-02
         0.27533E-02
         0.42535E-02
         0.35227E-02
         0.42535E-02
         0.34860E-02
         0.27286E-02
         0.31855E-02
         0.32590E-02
         0.27032E-02
         0.27826E-02
         0.27826E-02
         0.27022E-02
         0.31927E-02
         0.31927E-02
         0.37055E-02
         0.36224E-02
         0.28195E-02
         0.31737E-02
         0.33467E-02
         0.33467E-02
         0.32132E-02
         0.29828E-02
         0.32807E-02
         0.27286E-02
         0.30939E-02
         0.31855E-02
         0.32590E-02
         0.32590E-02
         0.30110E-02
         0.27199E-02
         0.27032E-02
         0.27826E-02
         0.27826E-02
         0.27022E-02
         0.31927E-02
         0.31927E-02
         0.32635E-02
         0.34575E-02
         0.37055E-02
         0.37055E-02
         0.36224E-02
         0.28195E-02
         0.29269E-02
         0.32591E-02
         0.32591E-02
         0.32132E-02
         0.29828E-02
         0.32807E-02
         0.32807E-02
         0.42444E-02
         0.35197E-02
         0.37721E-02
         0.42444E-02
         0.37721E-02
         0.37721E-02
         0.30121E-02
         0.32107E-02
         0.42444E-02
         0.32107E-02
         0.24154E-02
         0.30119E-02
         0.32601E-02
         0.26376E-02
         0.27199E-02
         0.42527E-02
         0.36334E-02
         0.42527E-02
         0.32108E-02
         0.29504E-02
         0.34571E-02
         0.32636E-02
         0.37051E-02
         0.32108E-02
         0.30632E-02
         0.35229E-02
         0.26648E-02
         0.26648E-02
         0.24552E-02
         0.27527E-02
         0.42527E-02
         0.35229E-02
         0.42527E-02
         0.34871E-02
         0.27287E-02
         0.31858E-02
         0.32601E-02
         0.27036E-02
         0.27825E-02
         0.27825E-02
         0.27023E-02
         0.31929E-02
         0.31929E-02
         0.37051E-02
         0.36223E-02
         0.28192E-02
         0.31742E-02
         0.33466E-02
         0.33466E-02
         0.32140E-02
         0.29827E-02
         0.32805E-02
         0.27287E-02
         0.30930E-02
         0.31858E-02
         0.32601E-02
         0.32601E-02
         0.30119E-02
         0.27199E-02
         0.27036E-02
         0.27825E-02
         0.27825E-02
         0.27023E-02
         0.31929E-02
         0.31929E-02
         0.32636E-02
         0.34571E-02
         0.37051E-02
         0.37051E-02
         0.36223E-02
         0.28192E-02
         0.29279E-02
         0.32602E-02
         0.32602E-02
         0.32140E-02
         0.29827E-02
         0.32805E-02
         0.32805E-02
         0.42445E-02
         0.35197E-02
         0.37726E-02
         0.42445E-02
         0.37726E-02
         0.37726E-02
         0.30123E-02
         0.32108E-02
         0.42445E-02
         0.32108E-02
         0.24152E-02
         0.30129E-02
         0.32611E-02
         0.26363E-02
         0.27200E-02
         0.42518E-02
         0.36325E-02
         0.42518E-02
         0.32110E-02
         0.29492E-02
         0.34566E-02
         0.32636E-02
         0.37047E-02
         0.32110E-02
         0.30621E-02
         0.35231E-02
         0.26633E-02
         0.26633E-02
         0.24554E-02
         0.27520E-02
         0.42518E-02
         0.35231E-02
         0.42518E-02
         0.34882E-02
         0.27288E-02
         0.31861E-02
         0.32611E-02
         0.27040E-02
         0.27825E-02
         0.27825E-02
         0.27024E-02
         0.31932E-02
         0.31932E-02
         0.37047E-02
         0.36222E-02
         0.28189E-02
         0.31747E-02
         0.33465E-02
         0.33465E-02
         0.32149E-02
         0.29826E-02
         0.32803E-02
         0.27288E-02
         0.30921E-02
         0.31861E-02
         0.32611E-02
         0.32611E-02
         0.30129E-02
         0.27200E-02
         0.27040E-02
         0.27825E-02
         0.27825E-02
         0.27024E-02
         0.31932E-02
         0.31932E-02
         0.32636E-02
         0.34566E-02
         0.37047E-02
         0.37047E-02
         0.36222E-02
         0.28189E-02
         0.29289E-02
         0.32613E-02
         0.32613E-02
         0.32149E-02
         0.29826E-02
         0.32803E-02
         0.32803E-02
         0.42447E-02
         0.35196E-02
         0.37732E-02
         0.42447E-02
         0.37732E-02
         0.37732E-02
         0.30125E-02
         0.32111E-02
         0.42447E-02
         0.32111E-02
         0.24151E-02
         0.30138E-02
         0.32622E-02
         0.26351E-02
         0.27200E-02
         0.42510E-02
         0.36315E-02
         0.42510E-02
         0.32112E-02
         0.29480E-02
         0.34562E-02
         0.32637E-02
         0.37043E-02
         0.32112E-02
         0.30610E-02
         0.35233E-02
         0.26619E-02
         0.26619E-02
         0.24557E-02
         0.27514E-02
         0.42510E-02
         0.35233E-02
         0.42510E-02
         0.34894E-02
         0.27289E-02
         0.31864E-02
         0.32622E-02
         0.27044E-02
         0.27825E-02
         0.27825E-02
         0.27025E-02
         0.31934E-02
         0.31934E-02
         0.37043E-02
         0.36220E-02
         0.28186E-02
         0.31753E-02
         0.33464E-02
         0.33464E-02
         0.32157E-02
         0.29824E-02
         0.32801E-02
         0.27289E-02
         0.30911E-02
         0.31864E-02
         0.32622E-02
         0.32622E-02
         0.30138E-02
         0.27200E-02
         0.27044E-02
         0.27825E-02
         0.27825E-02
         0.27025E-02
         0.31934E-02
         0.31934E-02
         0.32637E-02
         0.34562E-02
         0.37043E-02
         0.37043E-02
         0.36220E-02
         0.28186E-02
         0.29298E-02
         0.32624E-02
         0.32624E-02
         0.32157E-02
         0.29824E-02
         0.32801E-02
         0.32801E-02
         0.42448E-02
         0.35196E-02
         0.37737E-02
         0.42448E-02
         0.37737E-02
         0.37737E-02
         0.30126E-02
         0.32112E-02
         0.42448E-02
         0.32112E-02
         0.24150E-02
         0.30147E-02
         0.32633E-02
         0.26339E-02
         0.27200E-02
         0.42501E-02
         0.36306E-02
         0.42501E-02
         0.32114E-02
         0.29467E-02
         0.34558E-02
         0.32638E-02
         0.37039E-02
         0.32114E-02
         0.30598E-02
         0.35235E-02
         0.26604E-02
         0.26604E-02
         0.24559E-02
         0.27507E-02
         0.42501E-02
         0.35235E-02
         0.42501E-02
         0.34905E-02
         0.27289E-02
         0.31867E-02
         0.32633E-02
         0.27048E-02
         0.27825E-02
         0.27825E-02
         0.27026E-02
         0.31937E-02
         0.31937E-02
         0.37039E-02
         0.36219E-02
         0.28183E-02
         0.31758E-02
         0.33463E-02
         0.33463E-02
         0.32166E-02
         0.29823E-02
         0.32799E-02
         0.27289E-02
         0.30902E-02
         0.31867E-02
         0.32633E-02
         0.32633E-02
         0.30147E-02
         0.27200E-02
         0.27048E-02
         0.27825E-02
         0.27825E-02
         0.27026E-02
         0.31937E-02
         0.31937E-02
         0.32638E-02
         0.34558E-02
         0.37039E-02
         0.37039E-02
         0.36219E-02
         0.28183E-02
         0.29308E-02
         0.32635E-02
         0.32635E-02
         0.32166E-02
         0.29823E-02
         0.32799E-02
         0.32799E-02
         0.42448E-02
         0.35196E-02
         0.37737E-02
         0.42448E-02
         0.37737E-02
         0.37737E-02
         0.30126E-02
         0.32112E-02
         0.42448E-02
         0.32112E-02
         0.24148E-02
         0.30147E-02
         0.32633E-02
         0.26327E-02
         0.27200E-02
         0.42493E-02
         0.36297E-02
         0.42493E-02
         0.32114E-02
         0.29455E-02
         0.34553E-02
         0.32638E-02
         0.37036E-02
         0.32114E-02
         0.30587E-02
         0.35235E-02
         0.26590E-02
         0.26590E-02
         0.24559E-02
         0.27501E-02
         0.42493E-02
         0.35235E-02
         0.42493E-02
         0.34905E-02
         0.27289E-02
         0.31867E-02
         0.32633E-02
         0.27048E-02
         0.27825E-02
         0.27825E-02
         0.27026E-02
         0.31937E-02
         0.31937E-02
         0.37036E-02
         0.36218E-02
         0.28180E-02
         0.31758E-02
         0.33462E-02
         0.33462E-02
         0.32166E-02
         0.29822E-02
         0.32797E-02
         0.27289E-02
         0.30892E-02
         0.31867E-02
         0.32633E-02
         0.32633E-02
         0.30147E-02
         0.27200E-02
         0.27048E-02
         0.27825E-02
         0.27825E-02
         0.27026E-02
         0.31937E-02
         0.31937E-02
         0.32638E-02
         0.34553E-02
         0.37036E-02
         0.37036E-02
         0.36218E-02
         0.28180E-02
         0.29308E-02
         0.32635E-02
         0.32635E-02
         0.32166E-02
         0.29822E-02
         0.32797E-02
         0.32797E-02
  
SCALARS              physical_window_y  double 1
LOOKUP_TABLE default
         0.43155E-02
         0.43155E-02
         0.43155E-02
         0.43155E-02
         0.43155E-02
         0.43155E-02
         0.43155E-02
         0.43155E-02
         0.34883E-02
         0.34883E-02
         0.34882E-02
         0.34882E-02
         0.32826E-02
         0.32142E-02
         0.32826E-02
         0.32142E-02
         0.37863E-02
         0.31884E-02
         0.37863E-02
         0.31884E-02
         0.27172E-02
         0.33887E-02
         0.37164E-02
         0.27172E-02
         0.33887E-02
         0.37164E-02
         0.27582E-02
         0.28966E-02
         0.27582E-02
         0.28954E-02
         0.37007E-02
         0.35859E-02
         0.37863E-02
         0.37007E-02
         0.35824E-02
         0.37863E-02
         0.29875E-02
         0.29875E-02
         0.29867E-02
         0.29867E-02
         0.28561E-02
         0.26860E-02
         0.28556E-02
         0.26852E-02
         0.29518E-02
         0.28068E-02
         0.29517E-02
         0.28066E-02
         0.29975E-02
         0.29949E-02
         0.37007E-02
         0.37007E-02
         0.28693E-02
         0.28693E-02
         0.28693E-02
         0.28693E-02
         0.27602E-02
         0.26193E-02
         0.27602E-02
         0.26193E-02
         0.37007E-02
         0.37007E-02
         0.37007E-02
         0.37007E-02
         0.37685E-02
         0.37665E-02
         0.37685E-02
         0.37665E-02
         0.30230E-02
         0.37003E-02
         0.30229E-02
         0.37003E-02
         0.37164E-02
         0.37164E-02
         0.31934E-02
         0.31921E-02
         0.32777E-02
         0.32771E-02
         0.32777E-02
         0.32771E-02
         0.27006E-02
         0.25920E-02
         0.27006E-02
         0.25920E-02
         0.25916E-02
         0.25916E-02
         0.29715E-02
         0.29715E-02
         0.29715E-02
         0.29715E-02
         0.26477E-02
         0.29102E-02
         0.26477E-02
         0.29102E-02
         0.34085E-02
         0.34085E-02
         0.35350E-02
         0.35350E-02
         0.35350E-02
         0.35350E-02
         0.29766E-02
         0.32272E-02
         0.29763E-02
         0.32254E-02
         0.29087E-02
         0.29835E-02
         0.29087E-02
         0.29825E-02
         0.37003E-02
         0.37003E-02
         0.37164E-02
         0.37164E-02
         0.37164E-02
         0.37164E-02
         0.33887E-02
         0.33887E-02
         0.28966E-02
         0.28954E-02
         0.31934E-02
         0.31921E-02
         0.32777E-02
         0.32771E-02
         0.32777E-02
         0.32771E-02
         0.27006E-02
         0.27006E-02
         0.25920E-02
         0.25920E-02
         0.25916E-02
         0.25916E-02
         0.26860E-02
         0.26852E-02
         0.28561E-02
         0.28556E-02
         0.29518E-02
         0.29517E-02
         0.29715E-02
         0.29715E-02
         0.29715E-02
         0.29715E-02
         0.26477E-02
         0.26477E-02
         0.27685E-02
         0.27685E-02
         0.34085E-02
         0.34085E-02
         0.35350E-02
         0.35350E-02
         0.35350E-02
         0.35350E-02
         0.29766E-02
         0.29763E-02
         0.31381E-02
         0.31368E-02
         0.31381E-02
         0.31368E-02
         0.43153E-02
         0.43153E-02
         0.43153E-02
         0.43153E-02
         0.34883E-02
         0.34883E-02
         0.32812E-02
         0.32132E-02
         0.37858E-02
         0.31880E-02
         0.27155E-02
         0.33883E-02
         0.37163E-02
         0.27535E-02
         0.28978E-02
         0.37004E-02
         0.35894E-02
         0.37858E-02
         0.29882E-02
         0.29882E-02
         0.28566E-02
         0.26867E-02
         0.29519E-02
         0.28071E-02
         0.30001E-02
         0.37004E-02
         0.28667E-02
         0.28667E-02
         0.27589E-02
         0.26183E-02
         0.37004E-02
         0.37004E-02
         0.37706E-02
         0.37706E-02
         0.30232E-02
         0.36991E-02
         0.37163E-02
         0.31947E-02
         0.32784E-02
         0.32784E-02
         0.27006E-02
         0.25920E-02
         0.25909E-02
         0.29715E-02
         0.29715E-02
         0.26476E-02
         0.29101E-02
         0.34078E-02
         0.35344E-02
         0.35344E-02
         0.29769E-02
         0.32290E-02
         0.29059E-02
         0.29845E-02
         0.36991E-02
         0.37163E-02
         0.37163E-02
         0.33883E-02
         0.28978E-02
         0.31947E-02
         0.32784E-02
         0.32784E-02
         0.27006E-02
         0.25920E-02
         0.25909E-02
         0.26867E-02
         0.28566E-02
         0.29519E-02
         0.29715E-02
         0.29715E-02
         0.26476E-02
         0.27685E-02
         0.34078E-02
         0.35344E-02
         0.35344E-02
         0.29769E-02
         0.31395E-02
         0.31395E-02
         0.43150E-02
         0.43150E-02
         0.43150E-02
         0.43150E-02
         0.34884E-02
         0.34884E-02
         0.32798E-02
         0.32122E-02
         0.37853E-02
         0.31876E-02
         0.27137E-02
         0.33879E-02
         0.37162E-02
         0.27488E-02
         0.28990E-02
         0.37001E-02
         0.35930E-02
         0.37853E-02
         0.29889E-02
         0.29889E-02
         0.28571E-02
         0.26875E-02
         0.29521E-02
         0.28074E-02
         0.30027E-02
         0.37001E-02
         0.28641E-02
         0.28641E-02
         0.27576E-02
         0.26173E-02
         0.37001E-02
         0.37001E-02
         0.37727E-02
         0.37727E-02
         0.30234E-02
         0.36979E-02
         0.37162E-02
         0.31960E-02
         0.32790E-02
         0.32790E-02
         0.27006E-02
         0.25920E-02
         0.25902E-02
         0.29715E-02
         0.29715E-02
         0.26476E-02
         0.29100E-02
         0.34071E-02
         0.35339E-02
         0.35339E-02
         0.29772E-02
         0.32307E-02
         0.29032E-02
         0.29855E-02
         0.36979E-02
         0.37162E-02
         0.37162E-02
         0.33879E-02
         0.28990E-02
         0.31960E-02
         0.32790E-02
         0.32790E-02
         0.27006E-02
         0.25920E-02
         0.25902E-02
         0.26875E-02
         0.28571E-02
         0.29521E-02
         0.29715E-02
         0.29715E-02
         0.26476E-02
         0.27684E-02
         0.34071E-02
         0.35339E-02
         0.35339E-02
         0.29772E-02
         0.31408E-02
         0.31408E-02
         0.43148E-02
         0.43148E-02
         0.43148E-02
         0.43148E-02
         0.34885E-02
         0.34885E-02
         0.32783E-02
         0.32112E-02
         0.37849E-02
         0.31872E-02
         0.27120E-02
         0.33875E-02
         0.37161E-02
         0.27441E-02
         0.29003E-02
         0.36998E-02
         0.35965E-02
         0.37849E-02
         0.29896E-02
         0.29896E-02
         0.28575E-02
         0.26882E-02
         0.29522E-02
         0.28077E-02
         0.30053E-02
         0.36998E-02
         0.28615E-02
         0.28615E-02
         0.27563E-02
         0.26163E-02
         0.36998E-02
         0.36998E-02
         0.37747E-02
         0.37747E-02
         0.30236E-02
         0.36967E-02
         0.37161E-02
         0.31973E-02
         0.32796E-02
         0.32796E-02
         0.27006E-02
         0.25920E-02
         0.25895E-02
         0.29714E-02
         0.29714E-02
         0.26475E-02
         0.29099E-02
         0.34063E-02
         0.35333E-02
         0.35333E-02
         0.29775E-02
         0.32325E-02
         0.29004E-02
         0.29865E-02
         0.36967E-02
         0.37161E-02
         0.37161E-02
         0.33875E-02
         0.29003E-02
         0.31973E-02
         0.32796E-02
         0.32796E-02
         0.27006E-02
         0.25920E-02
         0.25895E-02
         0.26882E-02
         0.28575E-02
         0.29522E-02
         0.29714E-02
         0.29714E-02
         0.26475E-02
         0.27684E-02
         0.34063E-02
         0.35333E-02
         0.35333E-02
         0.29775E-02
         0.31422E-02
         0.31422E-02
         0.43145E-02
         0.43145E-02
         0.43145E-02
         0.43145E-02
         0.34886E-02
         0.34886E-02
         0.32769E-02
         0.32102E-02
         0.37844E-02
         0.31868E-02
         0.27103E-02
         0.33871E-02
         0.37160E-02
         0.27394E-02
         0.29015E-02
         0.36995E-02
         0.36000E-02
         0.37844E-02
         0.29903E-02
         0.29903E-02
         0.28580E-02
         0.26890E-02
         0.29523E-02
         0.28079E-02
         0.30079E-02
         0.36995E-02
         0.28589E-02
         0.28589E-02
         0.27550E-02
         0.26152E-02
         0.36995E-02
         0.36995E-02
         0.37768E-02
         0.37768E-02
         0.30238E-02
         0.36956E-02
         0.37160E-02
         0.31986E-02
         0.32802E-02
         0.32802E-02
         0.27006E-02
         0.25920E-02
         0.25887E-02
         0.29714E-02
         0.29714E-02
         0.26475E-02
         0.29098E-02
         0.34056E-02
         0.35327E-02
         0.35327E-02
         0.29778E-02
         0.32342E-02
         0.28977E-02
         0.29875E-02
         0.36956E-02
         0.37160E-02
         0.37160E-02
         0.33871E-02
         0.29015E-02
         0.31986E-02
         0.32802E-02
         0.32802E-02
         0.27006E-02
         0.25920E-02
         0.25887E-02
         0.26890E-02
         0.28580E-02
         0.29523E-02
         0.29714E-02
         0.29714E-02
         0.26475E-02
         0.27683E-02
         0.34056E-02
         0.35327E-02
         0.35327E-02
         0.29778E-02
         0.31435E-02
         0.31435E-02
         0.43143E-02
         0.43143E-02
         0.43143E-02
         0.43143E-02
         0.34887E-02
         0.34887E-02
         0.32755E-02
         0.32091E-02
         0.37839E-02
         0.31864E-02
         0.27086E-02
         0.33867E-02
         0.37159E-02
         0.27347E-02
         0.29027E-02
         0.36991E-02
         0.36036E-02
         0.37839E-02
         0.29920E-02
         0.29920E-02
         0.28585E-02
         0.26897E-02
         0.29525E-02
         0.28082E-02
         0.30105E-02
         0.36991E-02
         0.28563E-02
         0.28563E-02
         0.27537E-02
         0.26142E-02
         0.36991E-02
         0.36991E-02
         0.37789E-02
         0.37789E-02
         0.30240E-02
         0.36944E-02
         0.37159E-02
         0.31999E-02
         0.32808E-02
         0.32808E-02
         0.27006E-02
         0.25920E-02
         0.25880E-02
         0.29714E-02
         0.29714E-02
         0.26474E-02
         0.29097E-02
         0.34049E-02
         0.35322E-02
         0.35322E-02
         0.29781E-02
         0.32360E-02
         0.28949E-02
         0.29885E-02
         0.36944E-02
         0.37159E-02
         0.37159E-02
         0.33867E-02
         0.29027E-02
         0.31999E-02
         0.32808E-02
         0.32808E-02
         0.27006E-02
         0.25920E-02
         0.25880E-02
         0.26897E-02
         0.28585E-02
         0.29525E-02
         0.29714E-02
         0.29714E-02
         0.26474E-02
         0.27683E-02
         0.34049E-02
         0.35322E-02
         0.35322E-02
         0.29781E-02
         0.31449E-02
         0.31449E-02
         0.43140E-02
         0.43140E-02
         0.43140E-02
         0.43140E-02
         0.34888E-02
         0.34888E-02
         0.32740E-02
         0.32081E-02
         0.37834E-02
         0.31860E-02
         0.27069E-02
         0.33863E-02
         0.37158E-02
         0.27299E-02
         0.29039E-02
         0.36988E-02
         0.36071E-02
         0.37834E-02
         0.29946E-02
         0.29946E-02
         0.28589E-02
         0.26905E-02
         0.29526E-02
         0.28085E-02
         0.30131E-02
         0.36988E-02
         0.28538E-02
         0.28538E-02
         0.27524E-02
         0.26132E-02
         0.36988E-02
         0.36988E-02
         0.37809E-02
         0.37809E-02
         0.30241E-02
         0.36932E-02
         0.37158E-02
         0.32012E-02
         0.32814E-02
         0.32814E-02
         0.27006E-02
         0.25920E-02
         0.25873E-02
         0.29714E-02
         0.29714E-02
         0.26473E-02
         0.29097E-02
         0.34041E-02
         0.35316E-02
         0.35316E-02
         0.29784E-02
         0.32378E-02
         0.28921E-02
         0.29895E-02
         0.36932E-02
         0.37158E-02
         0.37158E-02
         0.33863E-02
         0.29039E-02
         0.32012E-02
         0.32814E-02
         0.32814E-02
         0.27006E-02
         0.25920E-02
         0.25873E-02
         0.26905E-02
         0.28589E-02
         0.29526E-02
         0.29714E-02
         0.29714E-02
         0.26473E-02
         0.27683E-02
         0.34041E-02
         0.35316E-02
         0.35316E-02
         0.29784E-02
         0.31463E-02
         0.31463E-02
         0.43138E-02
         0.43138E-02
         0.43138E-02
         0.43138E-02
         0.34888E-02
         0.34888E-02
         0.32726E-02
         0.32071E-02
         0.37830E-02
         0.31856E-02
         0.27051E-02
         0.33859E-02
         0.37157E-02
         0.27252E-02
         0.29051E-02
         0.36985E-02
         0.36106E-02
         0.37830E-02
         0.29972E-02
         0.29972E-02
         0.28594E-02
         0.26912E-02
         0.29528E-02
         0.28087E-02
         0.30156E-02
         0.36985E-02
         0.28512E-02
         0.28512E-02
         0.27512E-02
         0.26122E-02
         0.36985E-02
         0.36985E-02
         0.37830E-02
         0.37830E-02
         0.30243E-02
         0.36920E-02
         0.37157E-02
         0.32025E-02
         0.32821E-02
         0.32821E-02
         0.27006E-02
         0.25920E-02
         0.25866E-02
         0.29714E-02
         0.29714E-02
         0.26473E-02
         0.29096E-02
         0.34034E-02
         0.35310E-02
         0.35310E-02
         0.29787E-02
         0.32396E-02
         0.28894E-02
         0.29905E-02
         0.36920E-02
         0.37157E-02
         0.37157E-02
         0.33859E-02
         0.29051E-02
         0.32025E-02
         0.32821E-02
         0.32821E-02
         0.27006E-02
         0.25920E-02
         0.25866E-02
         0.26912E-02
         0.28594E-02
         0.29528E-02
         0.29714E-02
         0.29714E-02
         0.26473E-02
         0.27682E-02
         0.34034E-02
         0.35310E-02
         0.35310E-02
         0.29787E-02
         0.31476E-02
         0.31476E-02
         0.43135E-02
         0.43135E-02
         0.43135E-02
         0.43135E-02
         0.34889E-02
         0.34889E-02
         0.32712E-02
         0.32061E-02
         0.37825E-02
         0.31852E-02
         0.27034E-02
         0.33856E-02
         0.37156E-02
         0.27205E-02
         0.29063E-02
         0.36982E-02
         0.36142E-02
         0.37851E-02
         0.29998E-02
         0.29998E-02
         0.28599E-02
         0.26920E-02
         0.29529E-02
         0.28090E-02
         0.30182E-02
         0.36982E-02
         0.28486E-02
         0.28486E-02
         0.27499E-02
         0.26112E-02
         0.36982E-02
         0.36982E-02
         0.37851E-02
         0.37851E-02
         0.30245E-02
         0.36908E-02
         0.37156E-02
         0.32038E-02
         0.32827E-02
         0.32827E-02
         0.27006E-02
         0.25920E-02
         0.25859E-02
         0.29714E-02
         0.29714E-02
         0.26472E-02
         0.29095E-02
         0.34027E-02
         0.35304E-02
         0.35304E-02
         0.29790E-02
         0.32413E-02
         0.28866E-02
         0.29915E-02
         0.36908E-02
         0.37156E-02
         0.37156E-02
         0.33856E-02
         0.29063E-02
         0.32038E-02
         0.32827E-02
         0.32827E-02
         0.27006E-02
         0.25920E-02
         0.25859E-02
         0.26920E-02
         0.28599E-02
         0.29529E-02
         0.29714E-02
         0.29714E-02
         0.26472E-02
         0.27682E-02
         0.34027E-02
         0.35304E-02
         0.35304E-02
         0.29790E-02
         0.31490E-02
         0.31490E-02
         0.43133E-02
         0.43133E-02
         0.43133E-02
         0.43133E-02
         0.34890E-02
         0.34890E-02
         0.32698E-02
         0.32051E-02
         0.37820E-02
         0.31848E-02
         0.27017E-02
         0.33851E-02
         0.37155E-02
         0.27158E-02
         0.29075E-02
         0.36979E-02
         0.36177E-02
         0.37871E-02
         0.30024E-02
         0.30024E-02
         0.28603E-02
         0.26927E-02
         0.29530E-02
         0.28093E-02
         0.30208E-02
         0.36979E-02
         0.28460E-02
         0.28460E-02
         0.27486E-02
         0.26101E-02
         0.36979E-02
         0.36979E-02
         0.37871E-02
         0.37871E-02
         0.30247E-02
         0.36896E-02
         0.37155E-02
         0.32051E-02
         0.32833E-02
         0.32833E-02
         0.27006E-02
         0.25920E-02
         0.25851E-02
         0.29714E-02
         0.29714E-02
         0.26472E-02
         0.29094E-02
         0.34019E-02
         0.35299E-02
         0.35299E-02
         0.29793E-02
         0.32431E-02
         0.28838E-02
         0.29925E-02
         0.36896E-02
         0.37155E-02
         0.37155E-02
         0.33851E-02
         0.29075E-02
         0.32051E-02
         0.32833E-02
         0.32833E-02
         0.27006E-02
         0.25920E-02
         0.25851E-02
         0.26927E-02
         0.28603E-02
         0.29530E-02
         0.29714E-02
         0.29714E-02
         0.26472E-02
         0.27681E-02
         0.34019E-02
         0.35299E-02
         0.35299E-02
         0.29793E-02
         0.31503E-02
         0.31503E-02
         0.43130E-02
         0.43130E-02
         0.43130E-02
         0.43130E-02
         0.34891E-02
         0.34891E-02
         0.32683E-02
         0.32041E-02
         0.37816E-02
         0.31844E-02
         0.27000E-02
         0.33848E-02
         0.37154E-02
         0.27111E-02
         0.29087E-02
         0.36976E-02
         0.36213E-02
         0.37892E-02
         0.30050E-02
         0.30050E-02
         0.28608E-02
         0.26935E-02
         0.29532E-02
         0.28096E-02
         0.30234E-02
         0.36976E-02
         0.28434E-02
         0.28434E-02
         0.27472E-02
         0.26091E-02
         0.36976E-02
         0.36976E-02
         0.37892E-02
         0.37892E-02
         0.30249E-02
         0.36885E-02
         0.37154E-02
         0.32064E-02
         0.32839E-02
         0.32839E-02
         0.27006E-02
         0.25920E-02
         0.25844E-02
         0.29714E-02
         0.29714E-02
         0.26471E-02
         0.29094E-02
         0.34012E-02
         0.35293E-02
         0.35293E-02
         0.29797E-02
         0.32449E-02
         0.28811E-02
         0.29935E-02
         0.36885E-02
         0.37154E-02
         0.37154E-02
         0.33848E-02
         0.29087E-02
         0.32064E-02
         0.32839E-02
         0.32839E-02
         0.27006E-02
         0.25920E-02
         0.25844E-02
         0.26935E-02
         0.28608E-02
         0.29532E-02
         0.29714E-02
         0.29714E-02
         0.26471E-02
         0.27681E-02
         0.34012E-02
         0.35293E-02
         0.35293E-02
         0.29797E-02
         0.31517E-02
         0.31517E-02
         0.43128E-02
         0.43128E-02
         0.43128E-02
         0.43128E-02
         0.34892E-02
         0.34892E-02
         0.32669E-02
         0.32031E-02
         0.37811E-02
         0.31840E-02
         0.26982E-02
         0.33844E-02
         0.37152E-02
         0.27063E-02
         0.29099E-02
         0.36973E-02
         0.36248E-02
         0.37913E-02
         0.30076E-02
         0.30076E-02
         0.28613E-02
         0.26942E-02
         0.29533E-02
         0.28099E-02
         0.30260E-02
         0.36973E-02
         0.28408E-02
         0.28408E-02
         0.27460E-02
         0.26081E-02
         0.36973E-02
         0.36973E-02
         0.37913E-02
         0.37913E-02
         0.30250E-02
         0.36873E-02
         0.37152E-02
         0.32077E-02
         0.32845E-02
         0.32845E-02
         0.27006E-02
         0.25920E-02
         0.25837E-02
         0.29714E-02
         0.29714E-02
         0.26471E-02
         0.29093E-02
         0.34005E-02
         0.35287E-02
         0.35287E-02
         0.29800E-02
         0.32467E-02
         0.28783E-02
         0.29945E-02
         0.36873E-02
         0.37152E-02
         0.37152E-02
         0.33844E-02
         0.29099E-02
         0.32077E-02
         0.32845E-02
         0.32845E-02
         0.27006E-02
         0.25920E-02
         0.25837E-02
         0.26942E-02
         0.28613E-02
         0.29533E-02
         0.29714E-02
         0.29714E-02
         0.26471E-02
         0.27681E-02
         0.34005E-02
         0.35287E-02
         0.35287E-02
         0.29800E-02
         0.31530E-02
         0.31530E-02
         0.43125E-02
         0.43125E-02
         0.43125E-02
         0.43125E-02
         0.34893E-02
         0.34893E-02
         0.32655E-02
         0.32021E-02
         0.37806E-02
         0.31836E-02
         0.26965E-02
         0.33840E-02
         0.37151E-02
         0.27016E-02
         0.29111E-02
         0.36969E-02
         0.36283E-02
         0.37933E-02
         0.30102E-02
         0.30102E-02
         0.28617E-02
         0.26950E-02
         0.29535E-02
         0.28101E-02
         0.30286E-02
         0.36969E-02
         0.28382E-02
         0.28382E-02
         0.27447E-02
         0.26071E-02
         0.36969E-02
         0.36969E-02
         0.37933E-02
         0.37933E-02
         0.30252E-02
         0.36861E-02
         0.37151E-02
         0.32090E-02
         0.32852E-02
         0.32852E-02
         0.27006E-02
         0.25920E-02
         0.25830E-02
         0.29714E-02
         0.29714E-02
         0.26470E-02
         0.29092E-02
         0.33997E-02
         0.35282E-02
         0.35282E-02
         0.29803E-02
         0.32484E-02
         0.28755E-02
         0.29955E-02
         0.36861E-02
         0.37151E-02
         0.37151E-02
         0.33840E-02
         0.29111E-02
         0.32090E-02
         0.32852E-02
         0.32852E-02
         0.27006E-02
         0.25920E-02
         0.25830E-02
         0.26950E-02
         0.28617E-02
         0.29535E-02
         0.29714E-02
         0.29714E-02
         0.26470E-02
         0.27680E-02
         0.33997E-02
         0.35282E-02
         0.35282E-02
         0.29803E-02
         0.31544E-02
         0.31544E-02
         0.43123E-02
         0.43123E-02
         0.43123E-02
         0.43123E-02
         0.34893E-02
         0.34893E-02
         0.32640E-02
         0.32011E-02
         0.37801E-02
         0.31832E-02
         0.26948E-02
         0.33836E-02
         0.37150E-02
         0.26969E-02
         0.29123E-02
         0.36966E-02
         0.36319E-02
         0.37954E-02
         0.30128E-02
         0.30128E-02
         0.28622E-02
         0.26957E-02
         0.29536E-02
         0.28104E-02
         0.30312E-02
         0.36966E-02
         0.28357E-02
         0.28357E-02
         0.27434E-02
         0.26061E-02
         0.36966E-02
         0.36966E-02
         0.37954E-02
         0.37954E-02
         0.30254E-02
         0.36849E-02
         0.37150E-02
         0.32103E-02
         0.32858E-02
         0.32858E-02
         0.27006E-02
         0.25920E-02
         0.25823E-02
         0.29714E-02
         0.29714E-02
         0.26470E-02
         0.29091E-02
         0.33990E-02
         0.35276E-02
         0.35276E-02
         0.29806E-02
         0.32502E-02
         0.28728E-02
         0.29965E-02
         0.36849E-02
         0.37150E-02
         0.37150E-02
         0.33836E-02
         0.29123E-02
         0.32103E-02
         0.32858E-02
         0.32858E-02
         0.27006E-02
         0.25920E-02
         0.25823E-02
         0.26957E-02
         0.28622E-02
         0.29536E-02
         0.29714E-02
         0.29714E-02
         0.26470E-02
         0.27680E-02
         0.33990E-02
         0.35276E-02
         0.35276E-02
         0.29806E-02
         0.31557E-02
         0.31557E-02
         0.43120E-02
         0.43120E-02
         0.43120E-02
         0.43120E-02
         0.34894E-02
         0.34894E-02
         0.32626E-02
         0.32001E-02
         0.37797E-02
         0.31828E-02
         0.26931E-02
         0.33832E-02
         0.37149E-02
         0.26922E-02
         0.29135E-02
         0.36963E-02
         0.36354E-02
         0.37975E-02
         0.30154E-02
         0.30154E-02
         0.28627E-02
         0.26965E-02
         0.29537E-02
         0.28107E-02
         0.30338E-02
         0.36963E-02
         0.28331E-02
         0.28331E-02
         0.27421E-02
         0.26051E-02
         0.36963E-02
         0.36963E-02
         0.37975E-02
         0.37975E-02
         0.30256E-02
         0.36838E-02
         0.37149E-02
         0.32116E-02
         0.32864E-02
         0.32864E-02
         0.27006E-02
         0.25920E-02
         0.25815E-02
         0.29714E-02
         0.29714E-02
         0.26469E-02
         0.29090E-02
         0.33983E-02
         0.35270E-02
         0.35270E-02
         0.29809E-02
         0.32519E-02
         0.28700E-02
         0.29975E-02
         0.36838E-02
         0.37149E-02
         0.37149E-02
         0.33832E-02
         0.29135E-02
         0.32116E-02
         0.32864E-02
         0.32864E-02
         0.27006E-02
         0.25920E-02
         0.25815E-02
         0.26965E-02
         0.28627E-02
         0.29537E-02
         0.29714E-02
         0.29714E-02
         0.26469E-02
         0.27680E-02
         0.33983E-02
         0.35270E-02
         0.35270E-02
         0.29809E-02
         0.31571E-02
         0.31571E-02
         0.43118E-02
         0.43118E-02
         0.43118E-02
         0.43118E-02
         0.34895E-02
         0.34895E-02
         0.32612E-02
         0.31990E-02
         0.37792E-02
         0.31824E-02
         0.26913E-02
         0.33828E-02
         0.37148E-02
         0.26875E-02
         0.29148E-02
         0.36960E-02
         0.36390E-02
         0.37995E-02
         0.30180E-02
         0.30180E-02
         0.28631E-02
         0.26972E-02
         0.29539E-02
         0.28110E-02
         0.30364E-02
         0.36960E-02
         0.28305E-02
         0.28305E-02
         0.27408E-02
         0.26040E-02
         0.36960E-02
         0.36960E-02
         0.37995E-02
         0.37995E-02
         0.30258E-02
         0.36826E-02
         0.37148E-02
         0.32129E-02
         0.32870E-02
         0.32870E-02
         0.27006E-02
         0.25920E-02
         0.25808E-02
         0.29713E-02
         0.29713E-02
         0.26468E-02
         0.29089E-02
         0.33975E-02
         0.35264E-02
         0.35264E-02
         0.29812E-02
         0.32537E-02
         0.28672E-02
         0.29985E-02
         0.36826E-02
         0.37148E-02
         0.37148E-02
         0.33828E-02
         0.29148E-02
         0.32129E-02
         0.32870E-02
         0.32870E-02
         0.27006E-02
         0.25920E-02
         0.25808E-02
         0.26972E-02
         0.28631E-02
         0.29539E-02
         0.29713E-02
         0.29713E-02
         0.26468E-02
         0.27679E-02
         0.33975E-02
         0.35264E-02
         0.35264E-02
         0.29812E-02
         0.31585E-02
         0.31585E-02
         0.43115E-02
         0.43115E-02
         0.43115E-02
         0.43115E-02
         0.34896E-02
         0.34896E-02
         0.32597E-02
         0.31980E-02
         0.37787E-02
         0.31820E-02
         0.26896E-02
         0.33824E-02
         0.37147E-02
         0.26827E-02
         0.29160E-02
         0.36957E-02
         0.36425E-02
         0.38016E-02
         0.30206E-02
         0.30206E-02
         0.28636E-02
         0.26980E-02
         0.29540E-02
         0.28112E-02
         0.30390E-02
         0.36957E-02
         0.28279E-02
         0.28279E-02
         0.27395E-02
         0.26030E-02
         0.36957E-02
         0.36957E-02
         0.38016E-02
         0.38016E-02
         0.30260E-02
         0.36814E-02
         0.37147E-02
         0.32141E-02
         0.32876E-02
         0.32876E-02
         0.27006E-02
         0.25920E-02
         0.25801E-02
         0.29713E-02
         0.29713E-02
         0.26468E-02
         0.29089E-02
         0.33968E-02
         0.35259E-02
         0.35259E-02
         0.29815E-02
         0.32555E-02
         0.28645E-02
         0.29995E-02
         0.36814E-02
         0.37147E-02
         0.37147E-02
         0.33824E-02
         0.29160E-02
         0.32141E-02
         0.32876E-02
         0.32876E-02
         0.27006E-02
         0.25920E-02
         0.25801E-02
         0.26980E-02
         0.28636E-02
         0.29540E-02
         0.29713E-02
         0.29713E-02
         0.26468E-02
         0.27679E-02
         0.33968E-02
         0.35259E-02
         0.35259E-02
         0.29815E-02
         0.31598E-02
         0.31598E-02
         0.43113E-02
         0.43113E-02
         0.43113E-02
         0.43113E-02
         0.34897E-02
         0.34897E-02
         0.32583E-02
         0.31970E-02
         0.37783E-02
         0.31816E-02
         0.26879E-02
         0.33820E-02
         0.37146E-02
         0.26780E-02
         0.29172E-02
         0.36954E-02
         0.36460E-02
         0.38037E-02
         0.30232E-02
         0.30232E-02
         0.28641E-02
         0.26987E-02
         0.29542E-02
         0.28115E-02
         0.30416E-02
         0.36954E-02
         0.28253E-02
         0.28253E-02
         0.27382E-02
         0.26020E-02
         0.36954E-02
         0.36954E-02
         0.38037E-02
         0.38037E-02
         0.30261E-02
         0.36802E-02
         0.37146E-02
         0.32154E-02
         0.32882E-02
         0.32882E-02
         0.27006E-02
         0.25921E-02
         0.25794E-02
         0.29713E-02
         0.29713E-02
         0.26467E-02
         0.29088E-02
         0.33961E-02
         0.35253E-02
         0.35253E-02
         0.29818E-02
         0.32573E-02
         0.28617E-02
         0.30005E-02
         0.36802E-02
         0.37146E-02
         0.37146E-02
         0.33820E-02
         0.29172E-02
         0.32154E-02
         0.32882E-02
         0.32882E-02
         0.27006E-02
         0.25921E-02
         0.25794E-02
         0.26987E-02
         0.28641E-02
         0.29542E-02
         0.29713E-02
         0.29713E-02
         0.26467E-02
         0.27678E-02
         0.33961E-02
         0.35253E-02
         0.35253E-02
         0.29818E-02
         0.31612E-02
         0.31612E-02
         0.43110E-02
         0.43110E-02
         0.43110E-02
         0.43110E-02
         0.34898E-02
         0.34898E-02
         0.32569E-02
         0.31960E-02
         0.37778E-02
         0.31812E-02
         0.26862E-02
         0.33816E-02
         0.37145E-02
         0.26733E-02
         0.29184E-02
         0.36950E-02
         0.36495E-02
         0.38057E-02
         0.30258E-02
         0.30258E-02
         0.28645E-02
         0.26995E-02
         0.29543E-02
         0.28118E-02
         0.30442E-02
         0.36950E-02
         0.28227E-02
         0.28227E-02
         0.27369E-02
         0.26010E-02
         0.36950E-02
         0.36950E-02
         0.38057E-02
         0.38057E-02
         0.30263E-02
         0.36790E-02
         0.37145E-02
         0.32167E-02
         0.32889E-02
         0.32889E-02
         0.27006E-02
         0.25921E-02
         0.25787E-02
         0.29713E-02
         0.29713E-02
         0.26467E-02
         0.29087E-02
         0.33953E-02
         0.35247E-02
         0.35247E-02
         0.29821E-02
         0.32590E-02
         0.28589E-02
         0.30015E-02
         0.36790E-02
         0.37145E-02
         0.37145E-02
         0.33816E-02
         0.29184E-02
         0.32167E-02
         0.32889E-02
         0.32889E-02
         0.27006E-02
         0.25921E-02
         0.25787E-02
         0.26995E-02
         0.28645E-02
         0.29543E-02
         0.29713E-02
         0.29713E-02
         0.26467E-02
         0.27678E-02
         0.33953E-02
         0.35247E-02
         0.35247E-02
         0.29821E-02
         0.31625E-02
         0.31625E-02
         0.43108E-02
         0.43108E-02
         0.43108E-02
         0.43108E-02
         0.34898E-02
         0.34898E-02
         0.32555E-02
         0.31950E-02
         0.37773E-02
         0.31808E-02
         0.26845E-02
         0.33812E-02
         0.37144E-02
         0.26686E-02
         0.29196E-02
         0.36948E-02
         0.36531E-02
         0.38078E-02
         0.30285E-02
         0.30285E-02
         0.28650E-02
         0.27002E-02
         0.29544E-02
         0.28120E-02
         0.30467E-02
         0.36948E-02
         0.28201E-02
         0.28201E-02
         0.27356E-02
         0.26000E-02
         0.36948E-02
         0.36948E-02
         0.38078E-02
         0.38078E-02
         0.30265E-02
         0.36779E-02
         0.37144E-02
         0.32181E-02
         0.32895E-02
         0.32895E-02
         0.27006E-02
         0.25921E-02
         0.25779E-02
         0.29713E-02
         0.29713E-02
         0.26466E-02
         0.29086E-02
         0.33946E-02
         0.35242E-02
         0.35242E-02
         0.29824E-02
         0.32608E-02
         0.28562E-02
         0.30025E-02
         0.36779E-02
         0.37144E-02
         0.37144E-02
         0.33812E-02
         0.29196E-02
         0.32181E-02
         0.32895E-02
         0.32895E-02
         0.27006E-02
         0.25921E-02
         0.25779E-02
         0.27002E-02
         0.28650E-02
         0.29544E-02
         0.29713E-02
         0.29713E-02
         0.26466E-02
         0.27678E-02
         0.33946E-02
         0.35242E-02
         0.35242E-02
         0.29824E-02
         0.31639E-02
         0.31639E-02
         0.43105E-02
         0.43105E-02
         0.43105E-02
         0.43105E-02
         0.34899E-02
         0.34899E-02
         0.32540E-02
         0.31940E-02
         0.37768E-02
         0.31804E-02
         0.26827E-02
         0.33808E-02
         0.37143E-02
         0.26639E-02
         0.29208E-02
         0.36944E-02
         0.36566E-02
         0.38099E-02
         0.30311E-02
         0.30311E-02
         0.28655E-02
         0.27010E-02
         0.29546E-02
         0.28123E-02
         0.30493E-02
         0.36944E-02
         0.28175E-02
         0.28175E-02
         0.27343E-02
         0.25990E-02
         0.36944E-02
         0.36944E-02
         0.38099E-02
         0.38099E-02
         0.30267E-02
         0.36767E-02
         0.37143E-02
         0.32193E-02
         0.32901E-02
         0.32901E-02
         0.27006E-02
         0.25921E-02
         0.25772E-02
         0.29713E-02
         0.29713E-02
         0.26466E-02
         0.29085E-02
         0.33939E-02
         0.35236E-02
         0.35236E-02
         0.29827E-02
         0.32626E-02
         0.28534E-02
         0.30035E-02
         0.36767E-02
         0.37143E-02
         0.37143E-02
         0.33808E-02
         0.29208E-02
         0.32193E-02
         0.32901E-02
         0.32901E-02
         0.27006E-02
         0.25921E-02
         0.25772E-02
         0.27010E-02
         0.28655E-02
         0.29546E-02
         0.29713E-02
         0.29713E-02
         0.26466E-02
         0.27677E-02
         0.33939E-02
         0.35236E-02
         0.35236E-02
         0.29827E-02
         0.31652E-02
         0.31652E-02
         0.43103E-02
         0.43103E-02
         0.43103E-02
         0.43103E-02
         0.34900E-02
         0.34900E-02
         0.32526E-02
         0.31930E-02
         0.37764E-02
         0.31800E-02
         0.26810E-02
         0.33804E-02
         0.37142E-02
         0.26591E-02
         0.29220E-02
         0.36941E-02
         0.36602E-02
         0.38119E-02
         0.30337E-02
         0.30337E-02
         0.28660E-02
         0.27017E-02
         0.29547E-02
         0.28126E-02
         0.30519E-02
         0.36941E-02
         0.28150E-02
         0.28150E-02
         0.27330E-02
         0.25979E-02
         0.36941E-02
         0.36941E-02
         0.38119E-02
         0.38119E-02
         0.30269E-02
         0.36755E-02
         0.37142E-02
         0.32206E-02
         0.32907E-02
         0.32907E-02
         0.27006E-02
         0.25921E-02
         0.25765E-02
         0.29713E-02
         0.29713E-02
         0.26465E-02
         0.29085E-02
         0.33931E-02
         0.35230E-02
         0.35230E-02
         0.29830E-02
         0.32643E-02
         0.28507E-02
         0.30045E-02
         0.36755E-02
         0.37142E-02
         0.37142E-02
         0.33804E-02
         0.29220E-02
         0.32206E-02
         0.32907E-02
         0.32907E-02
         0.27006E-02
         0.25921E-02
         0.25765E-02
         0.27017E-02
         0.28660E-02
         0.29547E-02
         0.29713E-02
         0.29713E-02
         0.26465E-02
         0.27677E-02
         0.33931E-02
         0.35230E-02
         0.35230E-02
         0.29830E-02
         0.31666E-02
         0.31666E-02
         0.43100E-02
         0.43100E-02
         0.43100E-02
         0.43100E-02
         0.34901E-02
         0.34901E-02
         0.32512E-02
         0.31920E-02
         0.37759E-02
         0.31796E-02
         0.26793E-02
         0.33800E-02
         0.37141E-02
         0.26544E-02
         0.29232E-02
         0.36938E-02
         0.36637E-02
         0.38140E-02
         0.30363E-02
         0.30363E-02
         0.28664E-02
         0.27025E-02
         0.29548E-02
         0.28129E-02
         0.30545E-02
         0.36938E-02
         0.28124E-02
         0.28124E-02
         0.27317E-02
         0.25969E-02
         0.36938E-02
         0.36938E-02
         0.38140E-02
         0.38140E-02
         0.30271E-02
         0.36743E-02
         0.37141E-02
         0.32219E-02
         0.32913E-02
         0.32913E-02
         0.27006E-02
         0.25921E-02
         0.25758E-02
         0.29713E-02
         0.29713E-02
         0.26465E-02
         0.29084E-02
         0.33924E-02
         0.35224E-02
         0.35224E-02
         0.29833E-02
         0.32661E-02
         0.28479E-02
         0.30055E-02
         0.36743E-02
         0.37141E-02
         0.37141E-02
         0.33800E-02
         0.29232E-02
         0.32219E-02
         0.32913E-02
         0.32913E-02
         0.27006E-02
         0.25921E-02
         0.25758E-02
         0.27025E-02
         0.28664E-02
         0.29548E-02
         0.29713E-02
         0.29713E-02
         0.26465E-02
         0.27677E-02
         0.33924E-02
         0.35224E-02
         0.35224E-02
         0.29833E-02
         0.31680E-02
         0.31680E-02
         0.43098E-02
         0.43098E-02
         0.43098E-02
         0.43098E-02
         0.34901E-02
         0.34901E-02
         0.32498E-02
         0.31910E-02
         0.37754E-02
         0.31792E-02
         0.26776E-02
         0.33796E-02
         0.37140E-02
         0.26497E-02
         0.29232E-02
         0.36935E-02
         0.36637E-02
         0.38140E-02
         0.30363E-02
         0.30363E-02
         0.28664E-02
         0.27025E-02
         0.29548E-02
         0.28129E-02
         0.30545E-02
         0.36935E-02
         0.28098E-02
         0.28098E-02
         0.27304E-02
         0.25959E-02
         0.36935E-02
         0.36935E-02
         0.38140E-02
         0.38140E-02
         0.30271E-02
         0.36731E-02
         0.37140E-02
         0.32219E-02
         0.32913E-02
         0.32913E-02
         0.27006E-02
         0.25921E-02
         0.25751E-02
         0.29713E-02
         0.29713E-02
         0.26464E-02
         0.29083E-02
         0.33916E-02
         0.35219E-02
         0.35219E-02
         0.29833E-02
         0.32661E-02
         0.28451E-02
         0.30055E-02
         0.36731E-02
         0.37140E-02
         0.37140E-02
         0.33796E-02
         0.29232E-02
         0.32219E-02
         0.32913E-02
         0.32913E-02
         0.27006E-02
         0.25921E-02
         0.25751E-02
         0.27025E-02
         0.28664E-02
         0.29548E-02
         0.29713E-02
         0.29713E-02
         0.26464E-02
         0.27676E-02
         0.33916E-02
         0.35219E-02
         0.35219E-02
         0.29833E-02
         0.31680E-02
         0.31680E-02
  
SCALARS              physical_window_z  double 1
LOOKUP_TABLE default
         0.26928E-02
         0.26928E-02
         0.26928E-02
         0.26928E-02
         0.26928E-02
         0.26928E-02
         0.26928E-02
         0.26928E-02
         0.26928E-02
         0.26928E-02
         0.26928E-02
         0.26928E-02
         0.26928E-02
         0.26928E-02
         0.26928E-02
         0.26928E-02
         0.26928E-02
         0.26928E-02
         0.26928E-02
         0.26928E-02
         0.26928E-02
         0.26928E-02
         0.26928E-02
         0.26928E-02
         0.26928E-02
         0.26928E-02
         0.26928E-02
         0.26928E-02
         0.26928E-02
         0.26928E-02
         0.26928E-02
         0.26928E-02
         0.26928E-02
         0.26928E-02
         0.26928E-02
         0.26928E-02
         0.26928E-02
         0.26928E-02
         0.26928E-02
         0.26928E-02
         0.26928E-02
         0.26928E-02
         0.26928E-02
         0.26928E-02
         0.26928E-02
         0.26928E-02
         0.26928E-02
         0.26928E-02
         0.26928E-02
         0.26928E-02
         0.26928E-02
         0.26928E-02
         0.26928E-02
         0.26928E-02
         0.26928E-02
         0.26928E-02
         0.26928E-02
         0.26928E-02
         0.26928E-02
         0.26928E-02
         0.26928E-02
         0.26928E-02
         0.26928E-02
         0.26928E-02
         0.26928E-02
         0.26928E-02
         0.26928E-02
         0.26928E-02
         0.26928E-02
         0.26928E-02
         0.26928E-02
         0.26928E-02
         0.26928E-02
         0.26928E-02
         0.26928E-02
         0.26928E-02
         0.26928E-02
         0.26928E-02
         0.26928E-02
         0.26928E-02
         0.26928E-02
         0.26928E-02
         0.26928E-02
         0.26928E-02
         0.26928E-02
         0.26928E-02
         0.26928E-02
         0.26928E-02
         0.26928E-02
         0.26928E-02
         0.26928E-02
         0.26928E-02
         0.26928E-02
         0.26928E-02
         0.26928E-02
         0.26928E-02
         0.26928E-02
         0.26928E-02
         0.26928E-02
         0.26928E-02
         0.26928E-02
         0.26928E-02
         0.26928E-02
         0.26928E-02
         0.26928E-02
         0.26928E-02
         0.26928E-02
         0.26928E-02
         0.26928E-02
         0.26928E-02
         0.26928E-02
         0.26928E-02
         0.26928E-02
         0.26928E-02
         0.26928E-02
         0.26928E-02
         0.26928E-02
         0.26928E-02
         0.26928E-02
         0.26928E-02
         0.26928E-02
         0.26928E-02
         0.26928E-02
         0.26928E-02
         0.26928E-02
         0.26928E-02
         0.26928E-02
         0.26928E-02
         0.26928E-02
         0.26928E-02
         0.26928E-02
         0.26928E-02
         0.26928E-02
         0.26928E-02
         0.26928E-02
         0.26928E-02
         0.26928E-02
         0.26928E-02
         0.26928E-02
         0.26928E-02
         0.26928E-02
         0.26928E-02
         0.26928E-02
         0.26928E-02
         0.26928E-02
         0.26928E-02
         0.26928E-02
         0.26928E-02
         0.26928E-02
         0.26928E-02
         0.26928E-02
         0.26928E-02
         0.26928E-02
         0.26928E-02
         0.26928E-02
         0.26928E-02
         0.26927E-02
         0.26927E-02
         0.26927E-02
         0.26927E-02
         0.26927E-02
         0.26927E-02
         0.26927E-02
         0.26927E-02
         0.26927E-02
         0.26927E-02
         0.26927E-02
         0.26927E-02
         0.26927E-02
         0.26927E-02
         0.26927E-02
         0.26927E-02
         0.26927E-02
         0.26927E-02
         0.26927E-02
         0.26927E-02
         0.26927E-02
         0.26927E-02
         0.26927E-02
         0.26927E-02
         0.26927E-02
         0.26927E-02
         0.26927E-02
         0.26927E-02
         0.26927E-02
         0.26927E-02
         0.26927E-02
         0.26927E-02
         0.26927E-02
         0.26927E-02
         0.26927E-02
         0.26927E-02
         0.26927E-02
         0.26927E-02
         0.26927E-02
         0.26927E-02
         0.26927E-02
         0.26927E-02
         0.26927E-02
         0.26927E-02
         0.26927E-02
         0.26927E-02
         0.26927E-02
         0.26927E-02
         0.26927E-02
         0.26927E-02
         0.26927E-02
         0.26927E-02
         0.26927E-02
         0.26927E-02
         0.26927E-02
         0.26927E-02
         0.26927E-02
         0.26927E-02
         0.26927E-02
         0.26927E-02
         0.26927E-02
         0.26927E-02
         0.26927E-02
         0.26927E-02
         0.26927E-02
         0.26927E-02
         0.26927E-02
         0.26927E-02
         0.26927E-02
         0.26927E-02
         0.26927E-02
         0.26927E-02
         0.26927E-02
         0.26927E-02
         0.26927E-02
         0.26927E-02
         0.26927E-02
         0.26927E-02
         0.26927E-02
         0.26927E-02
         0.26927E-02
         0.26927E-02
         0.26927E-02
         0.26927E-02
         0.26927E-02
         0.26927E-02
         0.26927E-02
         0.26927E-02
         0.26927E-02
         0.26927E-02
         0.26927E-02
         0.26927E-02
         0.26927E-02
         0.26927E-02
         0.26927E-02
         0.26927E-02
         0.26927E-02
         0.26927E-02
         0.26927E-02
         0.26927E-02
         0.26927E-02
         0.26927E-02
         0.26927E-02
         0.26927E-02
         0.26927E-02
         0.26927E-02
         0.26927E-02
         0.26927E-02
         0.26927E-02
         0.26927E-02
         0.26927E-02
         0.26927E-02
         0.26927E-02
         0.26927E-02
         0.26927E-02
         0.26927E-02
         0.26927E-02
         0.26927E-02
         0.26927E-02
         0.26927E-02
         0.26927E-02
         0.26927E-02
         0.26927E-02
         0.26927E-02
         0.26927E-02
         0.26927E-02
         0.26927E-02
         0.26927E-02
         0.26927E-02
         0.26927E-02
         0.26927E-02
         0.26927E-02
         0.26927E-02
         0.26927E-02
         0.26927E-02
         0.26927E-02
         0.26927E-02
         0.26927E-02
         0.26927E-02
         0.26927E-02
         0.26927E-02
         0.26927E-02
         0.26927E-02
         0.26927E-02
         0.26927E-02
         0.26927E-02
         0.26927E-02
         0.26927E-02
         0.26927E-02
         0.26927E-02
         0.26927E-02
         0.26927E-02
         0.26927E-02
         0.26927E-02
         0.26927E-02
         0.26927E-02
         0.26927E-02
         0.26927E-02
         0.26927E-02
         0.26927E-02
         0.26927E-02
         0.26927E-02
         0.26927E-02
         0.26927E-02
         0.26927E-02
         0.26927E-02
         0.26927E-02
         0.26927E-02
         0.26927E-02
         0.26927E-02
         0.26927E-02
         0.26927E-02
         0.26927E-02
         0.26927E-02
         0.26927E-02
         0.26927E-02
         0.26927E-02
         0.26927E-02
         0.26927E-02
         0.26927E-02
         0.26927E-02
         0.26927E-02
         0.26927E-02
         0.26927E-02
         0.26927E-02
         0.26927E-02
         0.26927E-02
         0.26927E-02
         0.26927E-02
         0.26927E-02
         0.26927E-02
         0.26927E-02
         0.26927E-02
         0.26927E-02
         0.26927E-02
         0.26927E-02
         0.26927E-02
         0.26927E-02
         0.26927E-02
         0.26927E-02
         0.26927E-02
         0.26927E-02
         0.26927E-02
         0.26927E-02
         0.26927E-02
         0.26927E-02
         0.26927E-02
         0.26927E-02
         0.26927E-02
         0.26927E-02
         0.26927E-02
         0.26927E-02
         0.26927E-02
         0.26927E-02
         0.26927E-02
         0.26927E-02
         0.26927E-02
         0.26927E-02
         0.26927E-02
         0.26927E-02
         0.26927E-02
         0.26927E-02
         0.26927E-02
         0.26927E-02
         0.26927E-02
         0.26927E-02
         0.26927E-02
         0.26927E-02
         0.26927E-02
         0.26927E-02
         0.26927E-02
         0.26927E-02
         0.26927E-02
         0.26927E-02
         0.26927E-02
         0.26927E-02
         0.26927E-02
         0.26927E-02
         0.26927E-02
         0.26927E-02
         0.26927E-02
         0.26927E-02
         0.26927E-02
         0.26927E-02
         0.26927E-02
         0.26927E-02
         0.26927E-02
         0.26927E-02
         0.26927E-02
         0.26927E-02
         0.26927E-02
         0.26927E-02
         0.26927E-02
         0.26927E-02
         0.26927E-02
         0.26927E-02
         0.26927E-02
         0.26927E-02
         0.26927E-02
         0.26927E-02
         0.26927E-02
         0.26927E-02
         0.26927E-02
         0.26927E-02
         0.26927E-02
         0.26927E-02
         0.26927E-02
         0.26927E-02
         0.26927E-02
         0.26927E-02
         0.26927E-02
         0.26927E-02
         0.26927E-02
         0.26927E-02
         0.26927E-02
         0.26927E-02
         0.26927E-02
         0.26927E-02
         0.26927E-02
         0.26927E-02
         0.26927E-02
         0.26927E-02
         0.26927E-02
         0.26927E-02
         0.26927E-02
         0.26927E-02
         0.26927E-02
         0.26927E-02
         0.26927E-02
         0.26927E-02
         0.26927E-02
         0.26927E-02
         0.26927E-02
         0.26927E-02
         0.26927E-02
         0.26927E-02
         0.26927E-02
         0.26927E-02
         0.26927E-02
         0.26927E-02
         0.26927E-02
         0.26927E-02
         0.26927E-02
         0.26927E-02
         0.26927E-02
         0.26927E-02
         0.26927E-02
         0.26927E-02
         0.26927E-02
         0.26927E-02
         0.26927E-02
         0.26927E-02
         0.26927E-02
         0.26927E-02
         0.26927E-02
         0.26927E-02
         0.26927E-02
         0.26927E-02
         0.26927E-02
         0.26927E-02
         0.26927E-02
         0.26927E-02
         0.26927E-02
         0.26927E-02
         0.26927E-02
         0.26927E-02
         0.26927E-02
         0.26927E-02
         0.26927E-02
         0.26927E-02
         0.26927E-02
         0.26927E-02
         0.26927E-02
         0.26927E-02
         0.26927E-02
         0.26927E-02
         0.26927E-02
         0.26927E-02
         0.26927E-02
         0.26927E-02
         0.26927E-02
         0.26927E-02
         0.26927E-02
         0.26927E-02
         0.26927E-02
         0.26927E-02
         0.26927E-02
         0.26927E-02
         0.26927E-02
         0.26927E-02
         0.26927E-02
         0.26927E-02
         0.26927E-02
         0.26927E-02
         0.26927E-02
         0.26927E-02
         0.26927E-02
         0.26927E-02
         0.26927E-02
         0.26927E-02
         0.26927E-02
         0.26927E-02
         0.26927E-02
         0.26927E-02
         0.26927E-02
         0.26927E-02
         0.26927E-02
         0.26927E-02
         0.26927E-02
         0.26927E-02
         0.26927E-02
         0.26927E-02
         0.26927E-02
         0.26927E-02
         0.26927E-02
         0.26927E-02
         0.26927E-02
         0.26927E-02
         0.26927E-02
         0.26927E-02
         0.26927E-02
         0.26927E-02
         0.26927E-02
         0.26927E-02
         0.26927E-02
         0.26927E-02
         0.26927E-02
         0.26927E-02
         0.26927E-02
         0.26927E-02
         0.26927E-02
         0.26927E-02
         0.26927E-02
         0.26927E-02
         0.26927E-02
         0.26927E-02
         0.26927E-02
         0.26927E-02
         0.26927E-02
         0.26927E-02
         0.26927E-02
         0.26927E-02
         0.26927E-02
         0.26927E-02
         0.26927E-02
         0.26927E-02
         0.26927E-02
         0.26927E-02
         0.26927E-02
         0.26927E-02
         0.26927E-02
         0.26927E-02
         0.26927E-02
         0.26927E-02
         0.26927E-02
         0.26927E-02
         0.26927E-02
         0.26927E-02
         0.26927E-02
         0.26927E-02
         0.26927E-02
         0.26927E-02
         0.26927E-02
         0.26927E-02
         0.26927E-02
         0.26927E-02
         0.26927E-02
         0.26927E-02
         0.26927E-02
         0.26927E-02
         0.26927E-02
         0.26927E-02
         0.26927E-02
         0.26927E-02
         0.26927E-02
         0.26927E-02
         0.26927E-02
         0.26927E-02
         0.26927E-02
         0.26927E-02
         0.26927E-02
         0.26927E-02
         0.26927E-02
         0.26927E-02
         0.26927E-02
         0.26927E-02
         0.26927E-02
         0.26927E-02
         0.26927E-02
         0.26927E-02
         0.26927E-02
         0.26927E-02
         0.26927E-02
         0.26927E-02
         0.26927E-02
         0.26927E-02
         0.26927E-02
         0.26927E-02
         0.26927E-02
         0.26927E-02
         0.26927E-02
         0.26927E-02
         0.26927E-02
         0.26927E-02
         0.26927E-02
         0.26927E-02
         0.26927E-02
         0.26927E-02
         0.26927E-02
         0.26927E-02
         0.26927E-02
         0.26927E-02
         0.26927E-02
         0.26927E-02
         0.26927E-02
         0.26927E-02
         0.26927E-02
         0.26927E-02
         0.26927E-02
         0.26927E-02
         0.26927E-02
         0.26927E-02
         0.26927E-02
         0.26927E-02
         0.26927E-02
         0.26927E-02
         0.26927E-02
         0.26927E-02
         0.26927E-02
         0.26927E-02
         0.26927E-02
         0.26927E-02
         0.26927E-02
         0.26927E-02
         0.26927E-02
         0.26927E-02
         0.26927E-02
         0.26927E-02
         0.26927E-02
         0.26927E-02
         0.26927E-02
         0.26927E-02
         0.26927E-02
         0.26927E-02
         0.26927E-02
         0.26927E-02
         0.26927E-02
         0.26927E-02
         0.26927E-02
         0.26927E-02
         0.26927E-02
         0.26927E-02
         0.26927E-02
         0.26927E-02
         0.26927E-02
         0.26927E-02
         0.26927E-02
         0.26927E-02
         0.26927E-02
         0.26927E-02
         0.26927E-02
         0.26927E-02
         0.26927E-02
         0.26927E-02
         0.26927E-02
         0.26927E-02
         0.26927E-02
         0.26927E-02
         0.26927E-02
         0.26927E-02
         0.26927E-02
         0.26927E-02
         0.26927E-02
         0.26927E-02
         0.26927E-02
         0.26927E-02
         0.26927E-02
         0.26927E-02
         0.26927E-02
         0.26927E-02
         0.26927E-02
         0.26927E-02
         0.26927E-02
         0.26927E-02
         0.26927E-02
         0.26927E-02
         0.26927E-02
         0.26927E-02
         0.26927E-02
         0.26927E-02
         0.26927E-02
         0.26927E-02
         0.26927E-02
         0.26927E-02
         0.26927E-02
         0.26927E-02
         0.26927E-02
         0.26927E-02
         0.26927E-02
         0.26927E-02
         0.26927E-02
         0.26927E-02
         0.26927E-02
         0.26927E-02
         0.26927E-02
         0.26927E-02
         0.26927E-02
         0.26927E-02
         0.26927E-02
         0.26927E-02
         0.26927E-02
         0.26927E-02
         0.26927E-02
         0.26927E-02
         0.26927E-02
         0.26927E-02
         0.26927E-02
         0.26927E-02
         0.26927E-02
         0.26927E-02
         0.26927E-02
         0.26927E-02
         0.26927E-02
         0.26927E-02
         0.26927E-02
         0.26927E-02
         0.26927E-02
         0.26927E-02
         0.26927E-02
         0.26927E-02
         0.26927E-02
         0.26927E-02
         0.26927E-02
         0.26927E-02
         0.26927E-02
         0.26927E-02
         0.26927E-02
         0.26927E-02
         0.26927E-02
         0.26927E-02
         0.26927E-02
         0.26927E-02
         0.26927E-02
         0.26927E-02
         0.26927E-02
         0.26927E-02
         0.26927E-02
         0.26927E-02
         0.26927E-02
         0.26927E-02
         0.26927E-02
         0.26927E-02
         0.26927E-02
         0.26927E-02
         0.26927E-02
         0.26927E-02
         0.26927E-02
         0.26927E-02
         0.26927E-02
         0.26927E-02
         0.26927E-02
         0.26927E-02
         0.26927E-02
         0.26927E-02
         0.26927E-02
         0.26927E-02
         0.26927E-02
         0.26927E-02
         0.26927E-02
         0.26927E-02
         0.26927E-02
         0.26927E-02
         0.26927E-02
         0.26927E-02
         0.26927E-02
         0.26927E-02
         0.26927E-02
         0.26927E-02
         0.26927E-02
         0.26927E-02
         0.26927E-02
         0.26927E-02
         0.26927E-02
         0.26927E-02
         0.26927E-02
         0.26927E-02
         0.26927E-02
         0.26927E-02
         0.26927E-02
         0.26927E-02
         0.26927E-02
         0.26927E-02
         0.26927E-02
         0.26927E-02
         0.26927E-02
         0.26927E-02
         0.26927E-02
         0.26927E-02
         0.26927E-02
         0.26927E-02
         0.26927E-02
         0.26927E-02
         0.26927E-02
         0.26927E-02
         0.26927E-02
         0.26927E-02
         0.26927E-02
         0.26927E-02
         0.26927E-02
         0.26927E-02
         0.26927E-02
         0.26927E-02
         0.26927E-02
         0.26927E-02
         0.26927E-02
         0.26927E-02
         0.26927E-02
         0.26927E-02
         0.26927E-02
         0.26927E-02
         0.26927E-02
         0.26927E-02
         0.26927E-02
         0.26927E-02
         0.26927E-02
         0.26927E-02
         0.26927E-02
         0.26927E-02
         0.26927E-02
         0.26927E-02
         0.26927E-02
         0.26927E-02
         0.26927E-02
         0.26927E-02
         0.26927E-02
         0.26927E-02
         0.26927E-02
         0.26927E-02
         0.26927E-02
         0.26927E-02
         0.26927E-02
         0.26927E-02
         0.26927E-02
         0.26927E-02
         0.26927E-02
         0.26927E-02
         0.26927E-02
         0.26927E-02
         0.26927E-02
         0.26927E-02
         0.26927E-02
         0.26927E-02
         0.26927E-02
         0.26927E-02
         0.26927E-02
         0.26927E-02
         0.26927E-02
         0.26927E-02
         0.26927E-02
         0.26927E-02
         0.26927E-02
         0.26927E-02
         0.26927E-02
         0.26927E-02
         0.26927E-02
         0.26927E-02
         0.26927E-02
         0.26927E-02
         0.26927E-02
         0.26927E-02
         0.26927E-02
         0.26927E-02
         0.26927E-02
         0.26927E-02
         0.26927E-02
         0.26927E-02
         0.26927E-02
         0.26927E-02
         0.26927E-02
         0.26927E-02
         0.26927E-02
         0.26927E-02
         0.26927E-02
         0.26927E-02
         0.26927E-02
         0.26927E-02
         0.26927E-02
         0.26927E-02
         0.26927E-02
         0.26927E-02
         0.26927E-02
         0.26927E-02
         0.26927E-02
         0.26927E-02
         0.26927E-02
         0.26927E-02
         0.26927E-02
         0.26927E-02
         0.26927E-02
         0.26927E-02
         0.26927E-02
         0.26927E-02
         0.26927E-02
         0.26927E-02
         0.26927E-02
         0.26927E-02
         0.26927E-02
         0.26927E-02
         0.26927E-02
         0.26927E-02
         0.26927E-02
         0.26927E-02
         0.26927E-02
         0.26927E-02
         0.26927E-02
         0.26927E-02
         0.26927E-02
         0.26927E-02
         0.26927E-02
         0.26927E-02
         0.26927E-02
         0.26927E-02
         0.26927E-02
         0.26927E-02
         0.26927E-02
         0.26927E-02
         0.26927E-02
         0.26927E-02
         0.26927E-02
         0.26927E-02
         0.26927E-02
         0.26927E-02
         0.26927E-02
         0.26927E-02
         0.26927E-02
         0.26927E-02
         0.26927E-02
         0.26927E-02
         0.26927E-02
         0.26927E-02
         0.26927E-02
         0.26927E-02
         0.26927E-02
         0.26927E-02
         0.26927E-02
         0.26927E-02
         0.26927E-02
         0.26927E-02
         0.26927E-02
         0.26927E-02
         0.26927E-02
         0.26927E-02
         0.26927E-02
         0.26927E-02
         0.26927E-02
         0.26927E-02
         0.26927E-02
         0.26927E-02
         0.26927E-02
         0.26927E-02
         0.26927E-02
         0.26927E-02
         0.26927E-02
         0.26927E-02
         0.26927E-02
         0.26927E-02
         0.26927E-02
         0.26927E-02
         0.26927E-02
         0.26927E-02
         0.26927E-02
         0.26927E-02
         0.26927E-02
         0.26927E-02
         0.26927E-02
         0.26927E-02
         0.26927E-02
         0.26927E-02
         0.26927E-02
         0.26927E-02
         0.26927E-02
         0.26927E-02
         0.26927E-02
         0.26927E-02
         0.26927E-02
         0.26927E-02
         0.26927E-02
         0.26927E-02
         0.26927E-02
         0.26927E-02
         0.26927E-02
         0.26927E-02
         0.26927E-02
         0.26927E-02
         0.26927E-02
         0.26927E-02
         0.26927E-02
         0.26927E-02
         0.26927E-02
         0.26927E-02
         0.26927E-02
         0.26927E-02
         0.26927E-02
         0.26927E-02
         0.26927E-02
         0.26927E-02
         0.26927E-02
         0.26927E-02
         0.26927E-02
         0.26927E-02
         0.26927E-02
         0.26927E-02
         0.26927E-02
         0.26927E-02
         0.26927E-02
         0.26927E-02
         0.26927E-02
         0.26927E-02
         0.26927E-02
         0.26927E-02
         0.26927E-02
         0.26927E-02
         0.26927E-02
         0.26927E-02
         0.26927E-02
         0.26927E-02
         0.26927E-02
         0.26927E-02
         0.26927E-02
         0.26927E-02
         0.26927E-02
         0.26927E-02
         0.26927E-02
         0.26927E-02
         0.26927E-02
         0.26927E-02
         0.26927E-02
         0.26927E-02
         0.26927E-02
         0.26927E-02
         0.26927E-02
         0.26927E-02
         0.26927E-02
         0.26927E-02
         0.26927E-02
         0.26927E-02
         0.26927E-02
         0.26927E-02
         0.26927E-02
         0.26927E-02
         0.26927E-02
         0.26927E-02
         0.26927E-02
         0.26927E-02
         0.26927E-02
         0.26927E-02
         0.26927E-02
         0.26927E-02
         0.26927E-02
         0.26927E-02
         0.26927E-02
         0.26927E-02
         0.26927E-02
         0.26927E-02
         0.26927E-02
         0.26927E-02
         0.26927E-02
         0.26927E-02
         0.26927E-02
         0.26927E-02
         0.26927E-02
         0.26927E-02
         0.26927E-02
         0.26927E-02
         0.26927E-02
         0.26927E-02
         0.26927E-02
         0.26927E-02
         0.26927E-02
         0.26927E-02
         0.26927E-02
         0.26927E-02
         0.26927E-02
         0.26927E-02
         0.26927E-02
         0.26927E-02
         0.26927E-02
         0.26927E-02
         0.26927E-02
         0.26927E-02
         0.26927E-02
         0.26927E-02
         0.26927E-02
         0.26927E-02
         0.26927E-02
         0.26927E-02
         0.26927E-02
         0.26927E-02
         0.26927E-02
         0.26927E-02
         0.26927E-02
         0.26927E-02
         0.26927E-02
         0.26927E-02
         0.26927E-02
         0.26927E-02
         0.26927E-02
         0.26927E-02
         0.26927E-02
         0.26927E-02
         0.26927E-02
         0.26927E-02
         0.26927E-02
         0.26927E-02
         0.26927E-02
         0.26927E-02
         0.26927E-02
         0.26927E-02
         0.26927E-02
         0.26927E-02
         0.26927E-02
         0.26927E-02
         0.26927E-02
         0.26927E-02
         0.26927E-02
         0.26927E-02
         0.26927E-02
         0.26927E-02
         0.26927E-02
         0.26927E-02
         0.26927E-02
         0.26927E-02
         0.26927E-02
         0.26927E-02
         0.26927E-02
         0.26927E-02
         0.26927E-02
         0.26927E-02
         0.26927E-02
         0.26927E-02
         0.26927E-02
         0.26927E-02
         0.26927E-02
         0.26927E-02
         0.26927E-02
         0.26927E-02
         0.26927E-02
         0.26927E-02
         0.26927E-02
         0.26927E-02
         0.26927E-02
         0.26927E-02
         0.26927E-02
         0.26927E-02
         0.26927E-02
         0.26927E-02
         0.26927E-02
         0.26927E-02
         0.26927E-02
         0.26927E-02
         0.26927E-02
         0.26927E-02
         0.26927E-02
         0.26927E-02
         0.26927E-02
         0.26927E-02
         0.26927E-02
         0.26927E-02
         0.26927E-02
         0.26927E-02
         0.26927E-02
         0.26927E-02
         0.26927E-02
         0.26927E-02
         0.26927E-02
         0.26927E-02
         0.26927E-02
         0.26927E-02
         0.26927E-02
         0.26927E-02
         0.26927E-02
         0.26927E-02
         0.26927E-02
         0.26927E-02
         0.26927E-02
         0.26927E-02
         0.26927E-02
         0.26927E-02
         0.26927E-02
         0.26927E-02
         0.26927E-02
         0.26927E-02
         0.26927E-02
         0.26927E-02
         0.26927E-02
         0.26927E-02
         0.26927E-02
         0.26927E-02
         0.26927E-02
         0.26927E-02
         0.26927E-02
         0.26927E-02
         0.26927E-02
         0.26927E-02
         0.26927E-02
         0.26927E-02
         0.26927E-02
         0.26927E-02
         0.26927E-02
         0.26927E-02
         0.26927E-02
         0.26927E-02
         0.26927E-02
         0.26927E-02
         0.26927E-02
         0.26927E-02
         0.26927E-02
         0.26927E-02
         0.26927E-02
         0.26927E-02
         0.26927E-02
         0.26927E-02
         0.26927E-02
         0.26927E-02
         0.26927E-02
         0.26927E-02
         0.26927E-02
         0.26927E-02
         0.26927E-02
         0.26927E-02
         0.26927E-02
         0.26927E-02
         0.26927E-02
         0.26927E-02
         0.26927E-02
         0.26927E-02
         0.26927E-02
         0.26927E-02
         0.26927E-02
         0.26927E-02
         0.26927E-02
         0.26927E-02
         0.26927E-02
         0.26927E-02
         0.26927E-02
         0.26927E-02
         0.26927E-02
         0.26927E-02
         0.26927E-02
         0.26927E-02
         0.26927E-02
         0.26927E-02
         0.26927E-02
         0.26927E-02
         0.26927E-02
         0.26927E-02
         0.26927E-02
         0.26927E-02
         0.26927E-02
         0.26927E-02
         0.26927E-02
         0.26927E-02
         0.26927E-02
         0.26927E-02
         0.26927E-02
         0.26927E-02
         0.26927E-02
         0.26927E-02
         0.26927E-02
         0.26927E-02
         0.26927E-02
         0.26927E-02
         0.26927E-02
         0.26927E-02
         0.26927E-02
         0.26927E-02
         0.26927E-02
         0.26927E-02
         0.26927E-02
         0.26927E-02
         0.26927E-02
         0.26927E-02
         0.26927E-02
         0.26927E-02
         0.26927E-02
         0.26927E-02
         0.26927E-02
         0.26927E-02
         0.26927E-02
         0.26927E-02
         0.26927E-02
         0.26927E-02
         0.26927E-02
         0.26927E-02
         0.26927E-02
         0.26927E-02
         0.26927E-02
         0.26927E-02
         0.26927E-02
         0.26927E-02
         0.26927E-02
         0.26927E-02
         0.26927E-02
         0.26927E-02
         0.26927E-02
         0.26927E-02
         0.26927E-02
         0.26927E-02
         0.26927E-02
         0.26927E-02
         0.26927E-02
         0.26927E-02
         0.26927E-02
         0.26927E-02
         0.26927E-02
         0.26927E-02
         0.26927E-02
         0.26927E-02
         0.26927E-02
         0.26927E-02
         0.26927E-02
         0.26927E-02
         0.26927E-02
         0.26927E-02
         0.26927E-02
         0.26927E-02
         0.26927E-02
         0.26927E-02
         0.26927E-02
         0.26927E-02
         0.26927E-02
         0.26927E-02
         0.26927E-02
         0.26927E-02
         0.26927E-02
         0.26927E-02
         0.26927E-02
         0.26927E-02
         0.26927E-02
         0.26927E-02
         0.26927E-02
         0.26927E-02
         0.26927E-02
         0.26927E-02
         0.26927E-02
         0.26927E-02
         0.26927E-02
         0.26927E-02
         0.26927E-02
         0.26927E-02
         0.26927E-02
         0.26927E-02
         0.26927E-02
         0.26927E-02
         0.26927E-02
         0.26927E-02
         0.26927E-02
         0.26927E-02
         0.26927E-02
         0.26927E-02
         0.26927E-02
         0.26927E-02
         0.26927E-02
         0.26927E-02
         0.26927E-02
         0.26927E-02
         0.26927E-02
         0.26927E-02
         0.26927E-02
         0.26927E-02
         0.26927E-02
         0.26927E-02
         0.26927E-02
         0.26927E-02
         0.26927E-02
         0.26927E-02
         0.26927E-02
         0.26927E-02
         0.26927E-02
         0.26927E-02
         0.26927E-02
         0.26927E-02
         0.26927E-02
         0.26927E-02
         0.26927E-02
         0.26927E-02
         0.26927E-02
         0.26927E-02
         0.26927E-02
         0.26927E-02
         0.26927E-02
         0.26927E-02
         0.26927E-02
         0.26927E-02
         0.26927E-02
         0.26927E-02
         0.26927E-02
         0.26927E-02
         0.26927E-02
         0.26927E-02
         0.26927E-02
         0.26927E-02
         0.26927E-02
         0.26927E-02
         0.26927E-02
         0.26927E-02
         0.26927E-02
         0.26927E-02
         0.26927E-02
         0.26927E-02
         0.26927E-02
         0.26927E-02
         0.26927E-02
         0.26927E-02
         0.26927E-02
         0.26927E-02
         0.26927E-02
         0.26927E-02
         0.26927E-02
         0.26927E-02
         0.26927E-02
         0.26927E-02
         0.26927E-02
         0.26927E-02
         0.26927E-02
         0.26927E-02
         0.26927E-02
         0.26927E-02
         0.26927E-02
         0.26927E-02
         0.26927E-02
         0.26927E-02
         0.26927E-02
         0.26927E-02
         0.26927E-02
         0.26927E-02
         0.26927E-02
         0.26927E-02
         0.26927E-02
         0.26927E-02
         0.26927E-02
         0.26927E-02
         0.26927E-02
         0.26927E-02
         0.26927E-02
         0.26927E-02
         0.26927E-02
         0.26927E-02
         0.26927E-02
         0.26927E-02
         0.26927E-02
         0.26927E-02
         0.26927E-02
         0.26927E-02
         0.26927E-02
         0.26927E-02
         0.26927E-02
         0.26927E-02
         0.26927E-02
         0.26927E-02
         0.26927E-02
         0.26927E-02
         0.26927E-02
         0.26927E-02
         0.26927E-02
         0.26927E-02
         0.26927E-02
         0.26927E-02
         0.26927E-02
         0.26927E-02
         0.26927E-02
         0.26927E-02
         0.26927E-02
         0.26927E-02
         0.26927E-02
         0.26927E-02
         0.26927E-02
         0.26927E-02
         0.26927E-02
         0.26927E-02
         0.26927E-02
         0.26927E-02
         0.26927E-02
         0.26927E-02
         0.26927E-02
         0.26927E-02
         0.26927E-02
         0.26927E-02
         0.26927E-02
         0.26927E-02
         0.26927E-02
         0.26927E-02
         0.26927E-02
         0.26927E-02
         0.26927E-02
         0.26927E-02
         0.26927E-02
         0.26927E-02
         0.26927E-02
         0.26927E-02
         0.26927E-02
         0.26927E-02
         0.26927E-02
         0.26927E-02
         0.26927E-02
         0.26927E-02
         0.26927E-02
         0.26927E-02
         0.26927E-02
         0.26927E-02
         0.26927E-02
         0.26927E-02
         0.26927E-02
         0.26927E-02
         0.26927E-02
         0.26927E-02
         0.26927E-02
         0.26927E-02
         0.26927E-02
         0.26927E-02
         0.26927E-02
         0.26927E-02
         0.26927E-02
         0.26927E-02
         0.26927E-02
         0.26927E-02
         0.26927E-02
         0.26927E-02
         0.26927E-02
         0.26927E-02
         0.26927E-02
         0.26927E-02
         0.26927E-02
         0.26927E-02
         0.26927E-02
         0.26927E-02
         0.26927E-02
         0.26927E-02
         0.26927E-02
         0.26927E-02
         0.26927E-02
         0.26927E-02
         0.26927E-02
         0.26927E-02
         0.26927E-02
         0.26927E-02
         0.26927E-02
         0.26927E-02
         0.26927E-02
         0.26927E-02
         0.26927E-02
         0.26927E-02
         0.26927E-02
         0.26927E-02
         0.26927E-02
         0.26927E-02
         0.26927E-02
         0.26927E-02
         0.26927E-02
         0.26927E-02
         0.26927E-02
         0.26927E-02
         0.26927E-02
         0.26927E-02
         0.26927E-02
         0.26927E-02
         0.26927E-02
         0.26927E-02
         0.26927E-02
         0.26927E-02
         0.26927E-02
         0.26927E-02
         0.26927E-02
         0.26927E-02
         0.26927E-02
         0.26927E-02
         0.26927E-02
         0.26927E-02
         0.26927E-02
         0.26927E-02
         0.26927E-02
         0.26927E-02
         0.26927E-02
         0.26927E-02
         0.26927E-02
         0.26927E-02
         0.26927E-02
         0.26927E-02
         0.26927E-02
         0.26927E-02
         0.26927E-02
         0.26927E-02
         0.26927E-02
         0.26927E-02
         0.26927E-02
         0.26927E-02
         0.26927E-02
         0.26927E-02
         0.26927E-02
         0.26927E-02
         0.26927E-02
         0.26927E-02
         0.26927E-02
         0.26927E-02
         0.26927E-02
         0.26927E-02
         0.26927E-02
         0.26927E-02
         0.26927E-02
         0.26927E-02
         0.26927E-02
         0.26927E-02
         0.26927E-02
         0.26927E-02
         0.26927E-02
         0.26927E-02
         0.26927E-02
         0.26927E-02
         0.26927E-02
         0.26927E-02
         0.26927E-02
         0.26927E-02
         0.26927E-02
         0.26927E-02
         0.26927E-02
         0.26927E-02
         0.26927E-02
         0.26927E-02
         0.26927E-02
         0.26927E-02
         0.26927E-02
         0.26927E-02
         0.26927E-02
         0.26927E-02
         0.26927E-02
         0.26927E-02
         0.26927E-02
         0.26927E-02
         0.26927E-02
         0.26927E-02
         0.26927E-02
         0.26927E-02
         0.26927E-02
         0.26927E-02
         0.26927E-02
         0.26927E-02
         0.26927E-02
         0.26927E-02
         0.26927E-02
         0.26927E-02
         0.26927E-02
         0.26927E-02
         0.26927E-02
         0.26927E-02
         0.26927E-02
         0.26927E-02
         0.26927E-02
         0.26927E-02
         0.26927E-02
         0.26927E-02
         0.26927E-02
         0.26927E-02
         0.26927E-02
         0.26927E-02
         0.26927E-02
         0.26927E-02
         0.26927E-02
         0.26927E-02
         0.26927E-02
         0.26927E-02
         0.26927E-02
         0.26927E-02
         0.26927E-02
         0.26927E-02
         0.26927E-02
         0.26927E-02
         0.26927E-02
         0.26927E-02
         0.26927E-02
         0.26927E-02
         0.26927E-02
         0.26927E-02
         0.26927E-02
         0.26927E-02
         0.26927E-02
         0.26927E-02
         0.26927E-02
         0.26927E-02
         0.26927E-02
         0.26927E-02
         0.26927E-02
         0.26927E-02
         0.26927E-02
         0.26927E-02
         0.26927E-02
         0.26927E-02
         0.26927E-02
         0.26927E-02
         0.26927E-02
         0.26927E-02
         0.26927E-02
         0.26927E-02
         0.26927E-02
         0.26927E-02
         0.26927E-02
         0.26927E-02
         0.26927E-02
         0.26927E-02
         0.26927E-02
         0.26927E-02
         0.26927E-02
         0.26927E-02
         0.26927E-02
         0.26927E-02
         0.26927E-02
         0.26927E-02
         0.26927E-02
         0.26927E-02
         0.26927E-02
         0.26927E-02
         0.26927E-02
         0.26927E-02
         0.26927E-02
         0.26927E-02
         0.26927E-02
         0.26927E-02
         0.26927E-02
         0.26927E-02
         0.26927E-02
         0.26927E-02
         0.26927E-02
         0.26927E-02
         0.26927E-02
         0.26927E-02
         0.26927E-02
         0.26927E-02
         0.26927E-02
         0.26927E-02
         0.26927E-02
         0.26927E-02
         0.26927E-02
         0.26927E-02
         0.26927E-02
         0.26927E-02
         0.26927E-02
         0.26927E-02
         0.26927E-02
         0.26927E-02
         0.26927E-02
         0.26927E-02
         0.26927E-02
         0.26927E-02
         0.26927E-02
         0.26927E-02
         0.26927E-02
         0.26927E-02
         0.26927E-02
         0.26927E-02
         0.26927E-02
         0.26927E-02
         0.26927E-02
         0.26927E-02
         0.26927E-02
         0.26927E-02
         0.26927E-02
         0.26927E-02
         0.26927E-02
         0.26927E-02
         0.26927E-02
         0.26927E-02
         0.26927E-02
         0.26927E-02
         0.26927E-02
         0.26927E-02
         0.26927E-02
         0.26927E-02
         0.26927E-02
         0.26927E-02
         0.26928E-02
         0.26928E-02
         0.26928E-02
         0.26928E-02
         0.26928E-02
         0.26928E-02
         0.26928E-02
         0.26928E-02
         0.26928E-02
         0.26928E-02
         0.26928E-02
         0.26928E-02
         0.26928E-02
         0.26928E-02
         0.26928E-02
         0.26928E-02
         0.26928E-02
         0.26928E-02
         0.26928E-02
         0.26928E-02
         0.26928E-02
         0.26928E-02
         0.26928E-02
         0.26928E-02
         0.26928E-02
         0.26928E-02
         0.26928E-02
         0.26928E-02
         0.26928E-02
         0.26928E-02
         0.26928E-02
         0.26928E-02
         0.26928E-02
         0.26928E-02
         0.26928E-02
         0.26928E-02
         0.26928E-02
         0.26928E-02
         0.26928E-02
         0.26928E-02
         0.26928E-02
         0.26928E-02
         0.26928E-02
         0.26928E-02
         0.26928E-02
         0.26928E-02
         0.26928E-02
         0.26928E-02
         0.26928E-02
         0.26928E-02
         0.26928E-02
         0.26928E-02
         0.26928E-02
         0.26928E-02
         0.26928E-02
         0.26928E-02
         0.26928E-02
         0.26928E-02
         0.26928E-02
         0.26928E-02
         0.26928E-02
         0.26928E-02
         0.26928E-02
         0.26928E-02
         0.26928E-02
         0.26928E-02
         0.26928E-02
         0.26928E-02
         0.26928E-02
         0.26928E-02
         0.26928E-02
         0.26928E-02
         0.26928E-02
         0.26928E-02
         0.26928E-02
         0.26928E-02
         0.26928E-02
         0.26928E-02
         0.26928E-02
         0.26928E-02
         0.26928E-02
         0.26928E-02
         0.26928E-02
         0.26928E-02
         0.26928E-02
         0.26928E-02
         0.26928E-02
         0.26928E-02
         0.26928E-02
         0.26928E-02
         0.26928E-02
         0.26928E-02
         0.26928E-02
         0.26928E-02
         0.26928E-02
         0.26928E-02
         0.26928E-02
         0.26928E-02
         0.26928E-02
         0.26928E-02
         0.26928E-02
         0.26928E-02
         0.26928E-02
         0.26928E-02
         0.26928E-02
         0.26928E-02
         0.26928E-02
         0.26928E-02
         0.26928E-02
         0.26928E-02
         0.26928E-02
         0.26928E-02
         0.26928E-02
         0.26928E-02
         0.26928E-02
         0.26928E-02
         0.26928E-02
         0.26928E-02
         0.26928E-02
         0.26928E-02
         0.26928E-02
         0.26928E-02
         0.26928E-02
         0.26928E-02
         0.26928E-02
         0.26928E-02
         0.26928E-02
         0.26928E-02
         0.26928E-02
         0.26928E-02
         0.26928E-02
         0.26928E-02
         0.26928E-02
         0.26928E-02
         0.26928E-02
         0.26928E-02
         0.26928E-02
         0.26928E-02
         0.26928E-02
         0.26928E-02
         0.26928E-02
         0.26928E-02
         0.26928E-02
         0.26928E-02
         0.26928E-02
         0.26928E-02
         0.26928E-02
         0.26928E-02
         0.26928E-02
         0.26928E-02
         0.26928E-02
         0.26928E-02
         0.26928E-02
         0.26928E-02
         0.26928E-02
         0.26928E-02
  
SCALARS                   nodal_volume  double 1
LOOKUP_TABLE default
         0.91140E-09
         0.72412E-09
         0.77574E-09
         0.13316E-08
         0.45570E-09
         0.36211E-09
         0.38787E-09
         0.66566E-09
         0.71537E-09
         0.91211E-09
         0.35767E-09
         0.45600E-09
         0.51195E-09
         0.61532E-09
         0.25605E-09
         0.30776E-09
         0.10101E-08
         0.74536E-09
         0.50500E-09
         0.37281E-09
         0.30273E-09
         0.57012E-09
         0.62699E-09
         0.15144E-09
         0.28509E-09
         0.31352E-09
         0.51329E-09
         0.64933E-09
         0.25683E-09
         0.32471E-09
         0.12026E-08
         0.93909E-09
         0.11935E-08
         0.60122E-09
         0.46945E-09
         0.59663E-09
         0.70296E-09
         0.80270E-09
         0.35149E-09
         0.40134E-09
         0.75859E-09
         0.84013E-09
         0.37932E-09
         0.42007E-09
         0.64542E-09
         0.40086E-09
         0.32274E-09
         0.20045E-09
         0.76288E-09
         0.38153E-09
         0.63346E-09
         0.31675E-09
         0.66583E-09
         0.33318E-09
         0.68008E-09
         0.34022E-09
         0.58930E-09
         0.71738E-09
         0.29472E-09
         0.35874E-09
         0.90938E-09
         0.64302E-09
         0.45469E-09
         0.32154E-09
         0.10152E-08
         0.50747E-09
         0.88120E-09
         0.44042E-09
         0.40077E-09
         0.61872E-09
         0.20039E-09
         0.30940E-09
         0.70206E-09
         0.35106E-09
         0.74172E-09
         0.37089E-09
         0.71539E-09
         0.35770E-09
         0.56226E-09
         0.28113E-09
         0.35349E-09
         0.58452E-09
         0.17675E-09
         0.29229E-09
         0.77354E-09
         0.38679E-09
         0.62469E-09
         0.31238E-09
         0.54957E-09
         0.27483E-09
         0.36009E-09
         0.61365E-09
         0.18007E-09
         0.30685E-09
         0.83268E-09
         0.41635E-09
         0.87287E-09
         0.43642E-09
         0.70438E-09
         0.35217E-09
         0.43365E-09
         0.74413E-09
         0.21683E-09
         0.37198E-09
         0.27660E-09
         0.35144E-09
         0.13833E-09
         0.17573E-09
         0.32921E-09
         0.16465E-09
         0.38764E-09
         0.19382E-09
         0.37797E-09
         0.18897E-09
         0.36707E-09
         0.18352E-09
         0.39112E-09
         0.19552E-09
         0.41268E-09
         0.20627E-09
         0.38876E-09
         0.19433E-09
         0.30402E-09
         0.15200E-09
         0.24796E-09
         0.12398E-09
         0.31999E-09
         0.16000E-09
         0.42608E-09
         0.21303E-09
         0.46805E-09
         0.23401E-09
         0.44933E-09
         0.22466E-09
         0.40550E-09
         0.20276E-09
         0.36826E-09
         0.18414E-09
         0.29911E-09
         0.14956E-09
         0.25178E-09
         0.12591E-09
         0.32888E-09
         0.16445E-09
         0.43529E-09
         0.21765E-09
         0.44963E-09
         0.22482E-09
         0.36384E-09
         0.18194E-09
         0.29543E-09
         0.14774E-09
         0.36126E-09
         0.18063E-09
         0.42771E-09
         0.21386E-09
         0.91143E-09
         0.72396E-09
         0.77579E-09
         0.13322E-08
         0.71547E-09
         0.91237E-09
         0.51167E-09
         0.61494E-09
         0.10105E-08
         0.74486E-09
         0.30244E-09
         0.57001E-09
         0.62694E-09
         0.51257E-09
         0.64918E-09
         0.12029E-08
         0.93950E-09
         0.11941E-08
         0.70298E-09
         0.80279E-09
         0.75855E-09
         0.84015E-09
         0.64535E-09
         0.40081E-09
         0.76254E-09
         0.63339E-09
         0.66483E-09
         0.67941E-09
         0.58904E-09
         0.71721E-09
         0.90946E-09
         0.64293E-09
         0.10157E-08
         0.88199E-09
         0.40076E-09
         0.61859E-09
         0.70195E-09
         0.74166E-09
         0.71543E-09
         0.56228E-09
         0.35349E-09
         0.58443E-09
         0.77349E-09
         0.62459E-09
         0.54943E-09
         0.35999E-09
         0.61359E-09
         0.83268E-09
         0.87299E-09
         0.70451E-09
         0.43366E-09
         0.74449E-09
         0.27651E-09
         0.35143E-09
         0.32904E-09
         0.38765E-09
         0.37805E-09
         0.36714E-09
         0.39129E-09
         0.41297E-09
         0.38899E-09
         0.30408E-09
         0.24798E-09
         0.31999E-09
         0.42613E-09
         0.46815E-09
         0.44938E-09
         0.40548E-09
         0.36823E-09
         0.29908E-09
         0.25174E-09
         0.32885E-09
         0.43527E-09
         0.44962E-09
         0.36376E-09
         0.29536E-09
         0.36130E-09
         0.42769E-09
         0.91151E-09
         0.72383E-09
         0.77587E-09
         0.13329E-08
         0.71560E-09
         0.91267E-09
         0.51142E-09
         0.61459E-09
         0.10109E-08
         0.74439E-09
         0.30216E-09
         0.56992E-09
         0.62691E-09
         0.51187E-09
         0.64906E-09
         0.12033E-08
         0.93995E-09
         0.11947E-08
         0.70302E-09
         0.80291E-09
         0.75853E-09
         0.84020E-09
         0.64530E-09
         0.40078E-09
         0.76223E-09
         0.63335E-09
         0.66385E-09
         0.67875E-09
         0.58880E-09
         0.71706E-09
         0.90957E-09
         0.64286E-09
         0.10162E-08
         0.88281E-09
         0.40076E-09
         0.61849E-09
         0.70188E-09
         0.74162E-09
         0.71550E-09
         0.56232E-09
         0.35350E-09
         0.58436E-09
         0.77347E-09
         0.62452E-09
         0.54931E-09
         0.35990E-09
         0.61355E-09
         0.83270E-09
         0.87315E-09
         0.70467E-09
         0.43368E-09
         0.74487E-09
         0.27643E-09
         0.35143E-09
         0.32889E-09
         0.38767E-09
         0.37814E-09
         0.36723E-09
         0.39147E-09
         0.41328E-09
         0.38923E-09
         0.30416E-09
         0.24800E-09
         0.32001E-09
         0.42620E-09
         0.46826E-09
         0.44944E-09
         0.40548E-09
         0.36821E-09
         0.29906E-09
         0.25171E-09
         0.32883E-09
         0.43527E-09
         0.44963E-09
         0.36369E-09
         0.29530E-09
         0.36135E-09
         0.42769E-09
         0.91156E-09
         0.72368E-09
         0.77594E-09
         0.13335E-08
         0.71571E-09
         0.91295E-09
         0.51115E-09
         0.61422E-09
         0.10112E-08
         0.74389E-09
         0.30187E-09
         0.56982E-09
         0.62686E-09
         0.51116E-09
         0.64892E-09
         0.12036E-08
         0.94038E-09
         0.11953E-08
         0.70304E-09
         0.80300E-09
         0.75850E-09
         0.84023E-09
         0.64523E-09
         0.40073E-09
         0.76190E-09
         0.63330E-09
         0.66285E-09
         0.67809E-09
         0.58855E-09
         0.71689E-09
         0.90966E-09
         0.64278E-09
         0.10168E-08
         0.88361E-09
         0.40076E-09
         0.61837E-09
         0.70178E-09
         0.74156E-09
         0.71554E-09
         0.56234E-09
         0.35350E-09
         0.58428E-09
         0.77343E-09
         0.62442E-09
         0.54918E-09
         0.35981E-09
         0.61349E-09
         0.83271E-09
         0.87328E-09
         0.70481E-09
         0.43369E-09
         0.74524E-09
         0.27634E-09
         0.35142E-09
         0.32873E-09
         0.38768E-09
         0.37823E-09
         0.36731E-09
         0.39163E-09
         0.41358E-09
         0.38945E-09
         0.30422E-09
         0.24802E-09
         0.32001E-09
         0.42625E-09
         0.46837E-09
         0.44949E-09
         0.40546E-09
         0.36819E-09
         0.29904E-09
         0.25167E-09
         0.32881E-09
         0.43526E-09
         0.44963E-09
         0.36362E-09
         0.29523E-09
         0.36139E-09
         0.42768E-09
         0.91161E-09
         0.72353E-09
         0.77600E-09
         0.13341E-08
         0.71583E-09
         0.91323E-09
         0.51088E-09
         0.61386E-09
         0.10116E-08
         0.74341E-09
         0.30158E-09
         0.56972E-09
         0.62682E-09
         0.51045E-09
         0.64879E-09
         0.12040E-08
         0.94081E-09
         0.11959E-08
         0.70307E-09
         0.80310E-09
         0.75847E-09
         0.84027E-09
         0.64517E-09
         0.40069E-09
         0.76158E-09
         0.63325E-09
         0.66186E-09
         0.67742E-09
         0.58831E-09
         0.71673E-09
         0.90975E-09
         0.64270E-09
         0.10173E-08
         0.88441E-09
         0.40075E-09
         0.61825E-09
         0.70169E-09
         0.74151E-09
         0.71559E-09
         0.56237E-09
         0.35350E-09
         0.58420E-09
         0.77339E-09
         0.62433E-09
         0.54905E-09
         0.35972E-09
         0.61344E-09
         0.83272E-09
         0.87341E-09
         0.70496E-09
         0.43370E-09
         0.74562E-09
         0.27626E-09
         0.35142E-09
         0.32857E-09
         0.38770E-09
         0.37832E-09
         0.36739E-09
         0.39181E-09
         0.41387E-09
         0.38968E-09
         0.30429E-09
         0.24804E-09
         0.32002E-09
         0.42631E-09
         0.46847E-09
         0.44954E-09
         0.40545E-09
         0.36816E-09
         0.29901E-09
         0.25163E-09
         0.32878E-09
         0.43525E-09
         0.44963E-09
         0.36354E-09
         0.29517E-09
         0.36144E-09
         0.42766E-09
         0.91167E-09
         0.72338E-09
         0.77607E-09
         0.13348E-08
         0.71594E-09
         0.91351E-09
         0.51062E-09
         0.61349E-09
         0.10119E-08
         0.74292E-09
         0.30129E-09
         0.56962E-09
         0.62678E-09
         0.50974E-09
         0.64865E-09
         0.12044E-08
         0.94125E-09
         0.11965E-08
         0.70310E-09
         0.80321E-09
         0.75844E-09
         0.84031E-09
         0.64511E-09
         0.40065E-09
         0.76125E-09
         0.63320E-09
         0.66087E-09
         0.67676E-09
         0.58806E-09
         0.71657E-09
         0.90984E-09
         0.64263E-09
         0.10179E-08
         0.88522E-09
         0.40075E-09
         0.61813E-09
         0.70160E-09
         0.74146E-09
         0.71564E-09
         0.56240E-09
         0.35350E-09
         0.58412E-09
         0.77336E-09
         0.62425E-09
         0.54892E-09
         0.35963E-09
         0.61339E-09
         0.83274E-09
         0.87355E-09
         0.70511E-09
         0.43371E-09
         0.74599E-09
         0.27618E-09
         0.35141E-09
         0.32841E-09
         0.38771E-09
         0.37841E-09
         0.36747E-09
         0.39198E-09
         0.41417E-09
         0.38992E-09
         0.30436E-09
         0.24806E-09
         0.32003E-09
         0.42637E-09
         0.46858E-09
         0.44960E-09
         0.40544E-09
         0.36814E-09
         0.29899E-09
         0.25159E-09
         0.32876E-09
         0.43525E-09
         0.44963E-09
         0.36347E-09
         0.29511E-09
         0.36148E-09
         0.42766E-09
         0.91171E-09
         0.72323E-09
         0.77613E-09
         0.13354E-08
         0.71606E-09
         0.91379E-09
         0.51035E-09
         0.61313E-09
         0.10123E-08
         0.74243E-09
         0.30101E-09
         0.56952E-09
         0.62674E-09
         0.50903E-09
         0.64851E-09
         0.12047E-08
         0.94167E-09
         0.11971E-08
         0.70312E-09
         0.80331E-09
         0.75840E-09
         0.84034E-09
         0.64504E-09
         0.40061E-09
         0.76092E-09
         0.63314E-09
         0.65988E-09
         0.67609E-09
         0.58781E-09
         0.71641E-09
         0.90993E-09
         0.64255E-09
         0.10184E-08
         0.88601E-09
         0.40075E-09
         0.61801E-09
         0.70151E-09
         0.74140E-09
         0.71569E-09
         0.56243E-09
         0.35350E-09
         0.58404E-09
         0.77332E-09
         0.62416E-09
         0.54879E-09
         0.35953E-09
         0.61334E-09
         0.83274E-09
         0.87368E-09
         0.70525E-09
         0.43372E-09
         0.74636E-09
         0.27609E-09
         0.35141E-09
         0.32825E-09
         0.38772E-09
         0.37849E-09
         0.36754E-09
         0.39215E-09
         0.41447E-09
         0.39014E-09
         0.30443E-09
         0.24808E-09
         0.32004E-09
         0.42642E-09
         0.46868E-09
         0.44965E-09
         0.40543E-09
         0.36812E-09
         0.29897E-09
         0.25155E-09
         0.32874E-09
         0.43524E-09
         0.44963E-09
         0.36340E-09
         0.29504E-09
         0.36153E-09
         0.42764E-09
         0.91176E-09
         0.72308E-09
         0.77620E-09
         0.13360E-08
         0.71617E-09
         0.91407E-09
         0.51008E-09
         0.61276E-09
         0.10126E-08
         0.74195E-09
         0.30072E-09
         0.56942E-09
         0.62670E-09
         0.50832E-09
         0.64838E-09
         0.12051E-08
         0.94210E-09
         0.11977E-08
         0.70314E-09
         0.80341E-09
         0.75837E-09
         0.84038E-09
         0.64498E-09
         0.40056E-09
         0.76060E-09
         0.63309E-09
         0.65888E-09
         0.67542E-09
         0.58756E-09
         0.71624E-09
         0.91002E-09
         0.64247E-09
         0.10189E-08
         0.88682E-09
         0.40074E-09
         0.61790E-09
         0.70142E-09
         0.74135E-09
         0.71574E-09
         0.56245E-09
         0.35351E-09
         0.58396E-09
         0.77328E-09
         0.62407E-09
         0.54866E-09
         0.35944E-09
         0.61329E-09
         0.83275E-09
         0.87382E-09
         0.70539E-09
         0.43373E-09
         0.74673E-09
         0.27601E-09
         0.35140E-09
         0.32809E-09
         0.38774E-09
         0.37858E-09
         0.36762E-09
         0.39232E-09
         0.41477E-09
         0.39037E-09
         0.30450E-09
         0.24810E-09
         0.32005E-09
         0.42648E-09
         0.46879E-09
         0.44970E-09
         0.40541E-09
         0.36809E-09
         0.29894E-09
         0.25151E-09
         0.32871E-09
         0.43523E-09
         0.44963E-09
         0.36333E-09
         0.29497E-09
         0.36157E-09
         0.42763E-09
         0.91182E-09
         0.72293E-09
         0.77627E-09
         0.13367E-08
         0.71629E-09
         0.91436E-09
         0.50982E-09
         0.61240E-09
         0.10130E-08
         0.74146E-09
         0.30043E-09
         0.56932E-09
         0.62666E-09
         0.50762E-09
         0.64825E-09
         0.12054E-08
         0.94253E-09
         0.11983E-08
         0.70317E-09
         0.80351E-09
         0.75834E-09
         0.84041E-09
         0.64491E-09
         0.40053E-09
         0.76028E-09
         0.63304E-09
         0.65790E-09
         0.67476E-09
         0.58731E-09
         0.71609E-09
         0.91012E-09
         0.64239E-09
         0.10195E-08
         0.88762E-09
         0.40074E-09
         0.61778E-09
         0.70133E-09
         0.74130E-09
         0.71579E-09
         0.56249E-09
         0.35351E-09
         0.58388E-09
         0.77324E-09
         0.62398E-09
         0.54853E-09
         0.35935E-09
         0.61324E-09
         0.83277E-09
         0.87396E-09
         0.70554E-09
         0.43375E-09
         0.74711E-09
         0.27592E-09
         0.35140E-09
         0.32793E-09
         0.38775E-09
         0.37867E-09
         0.36770E-09
         0.39249E-09
         0.41507E-09
         0.39061E-09
         0.30457E-09
         0.24812E-09
         0.32006E-09
         0.42654E-09
         0.46890E-09
         0.44975E-09
         0.40540E-09
         0.36807E-09
         0.29892E-09
         0.25148E-09
         0.32869E-09
         0.43522E-09
         0.44963E-09
         0.36325E-09
         0.29491E-09
         0.36162E-09
         0.42762E-09
         0.91187E-09
         0.72278E-09
         0.77633E-09
         0.13373E-08
         0.71640E-09
         0.91463E-09
         0.50955E-09
         0.61204E-09
         0.10134E-08
         0.74098E-09
         0.30015E-09
         0.56922E-09
         0.62662E-09
         0.50691E-09
         0.64811E-09
         0.12058E-08
         0.94296E-09
         0.11989E-08
         0.70320E-09
         0.80361E-09
         0.75831E-09
         0.84045E-09
         0.64485E-09
         0.40048E-09
         0.75995E-09
         0.63298E-09
         0.65690E-09
         0.67409E-09
         0.58706E-09
         0.71592E-09
         0.91020E-09
         0.64231E-09
         0.10200E-08
         0.88843E-09
         0.40074E-09
         0.61766E-09
         0.70124E-09
         0.74124E-09
         0.71584E-09
         0.56251E-09
         0.35351E-09
         0.58380E-09
         0.77320E-09
         0.62389E-09
         0.54840E-09
         0.35926E-09
         0.61318E-09
         0.83277E-09
         0.87409E-09
         0.70568E-09
         0.43376E-09
         0.74748E-09
         0.27584E-09
         0.35139E-09
         0.32777E-09
         0.38777E-09
         0.37876E-09
         0.36778E-09
         0.39266E-09
         0.41536E-09
         0.39084E-09
         0.30464E-09
         0.24814E-09
         0.32006E-09
         0.42659E-09
         0.46900E-09
         0.44980E-09
         0.40539E-09
         0.36805E-09
         0.29890E-09
         0.25144E-09
         0.32867E-09
         0.43521E-09
         0.44963E-09
         0.36318E-09
         0.29485E-09
         0.36166E-09
         0.42761E-09
         0.91192E-09
         0.72263E-09
         0.77640E-09
         0.13380E-08
         0.71652E-09
         0.91491E-09
         0.50928E-09
         0.61167E-09
         0.10137E-08
         0.74049E-09
         0.29986E-09
         0.56912E-09
         0.62657E-09
         0.50620E-09
         0.64797E-09
         0.12061E-08
         0.94339E-09
         0.11995E-08
         0.70322E-09
         0.80371E-09
         0.75827E-09
         0.84048E-09
         0.64478E-09
         0.40044E-09
         0.75962E-09
         0.63293E-09
         0.65591E-09
         0.67343E-09
         0.58681E-09
         0.71576E-09
         0.91029E-09
         0.64223E-09
         0.10205E-08
         0.88923E-09
         0.40073E-09
         0.61754E-09
         0.70114E-09
         0.74119E-09
         0.71588E-09
         0.56254E-09
         0.35351E-09
         0.58372E-09
         0.77316E-09
         0.62380E-09
         0.54827E-09
         0.35917E-09
         0.61313E-09
         0.83278E-09
         0.87422E-09
         0.70582E-09
         0.43377E-09
         0.74785E-09
         0.27575E-09
         0.35138E-09
         0.32761E-09
         0.38778E-09
         0.37885E-09
         0.36786E-09
         0.39283E-09
         0.41566E-09
         0.39107E-09
         0.30470E-09
         0.24816E-09
         0.32007E-09
         0.42665E-09
         0.46911E-09
         0.44985E-09
         0.40538E-09
         0.36802E-09
         0.29887E-09
         0.25140E-09
         0.32864E-09
         0.43520E-09
         0.44963E-09
         0.36310E-09
         0.29478E-09
         0.36170E-09
         0.42760E-09
         0.91198E-09
         0.72248E-09
         0.77646E-09
         0.13386E-08
         0.71663E-09
         0.91520E-09
         0.50901E-09
         0.61131E-09
         0.10141E-08
         0.74000E-09
         0.29957E-09
         0.56902E-09
         0.62653E-09
         0.50549E-09
         0.64784E-09
         0.12065E-08
         0.94382E-09
         0.12002E-08
         0.70325E-09
         0.80381E-09
         0.75824E-09
         0.84052E-09
         0.64472E-09
         0.40040E-09
         0.75929E-09
         0.63288E-09
         0.65492E-09
         0.67276E-09
         0.58657E-09
         0.71560E-09
         0.91038E-09
         0.64216E-09
         0.10211E-08
         0.89003E-09
         0.40073E-09
         0.61742E-09
         0.70105E-09
         0.74114E-09
         0.71593E-09
         0.56257E-09
         0.35351E-09
         0.58364E-09
         0.77313E-09
         0.62371E-09
         0.54814E-09
         0.35908E-09
         0.61308E-09
         0.83280E-09
         0.87436E-09
         0.70597E-09
         0.43378E-09
         0.74823E-09
         0.27567E-09
         0.35138E-09
         0.32745E-09
         0.38779E-09
         0.37893E-09
         0.36794E-09
         0.39300E-09
         0.41596E-09
         0.39130E-09
         0.30477E-09
         0.24818E-09
         0.32008E-09
         0.42671E-09
         0.46921E-09
         0.44991E-09
         0.40537E-09
         0.36800E-09
         0.29885E-09
         0.25136E-09
         0.32862E-09
         0.43520E-09
         0.44963E-09
         0.36303E-09
         0.29472E-09
         0.36175E-09
         0.42759E-09
         0.91203E-09
         0.72233E-09
         0.77653E-09
         0.13392E-08
         0.71675E-09
         0.91547E-09
         0.50875E-09
         0.61094E-09
         0.10144E-08
         0.73952E-09
         0.29928E-09
         0.56892E-09
         0.62649E-09
         0.50478E-09
         0.64770E-09
         0.12068E-08
         0.94424E-09
         0.12008E-08
         0.70327E-09
         0.80391E-09
         0.75821E-09
         0.84055E-09
         0.64465E-09
         0.40035E-09
         0.75896E-09
         0.63282E-09
         0.65393E-09
         0.67210E-09
         0.58632E-09
         0.71543E-09
         0.91047E-09
         0.64208E-09
         0.10216E-08
         0.89084E-09
         0.40073E-09
         0.61730E-09
         0.70096E-09
         0.74108E-09
         0.71598E-09
         0.56259E-09
         0.35351E-09
         0.58356E-09
         0.77309E-09
         0.62362E-09
         0.54801E-09
         0.35898E-09
         0.61303E-09
         0.83281E-09
         0.87449E-09
         0.70611E-09
         0.43379E-09
         0.74860E-09
         0.27558E-09
         0.35137E-09
         0.32729E-09
         0.38781E-09
         0.37902E-09
         0.36802E-09
         0.39317E-09
         0.41625E-09
         0.39153E-09
         0.30484E-09
         0.24820E-09
         0.32009E-09
         0.42677E-09
         0.46932E-09
         0.44996E-09
         0.40536E-09
         0.36798E-09
         0.29883E-09
         0.25132E-09
         0.32859E-09
         0.43519E-09
         0.44963E-09
         0.36296E-09
         0.29465E-09
         0.36179E-09
         0.42758E-09
         0.91208E-09
         0.72218E-09
         0.77659E-09
         0.13399E-08
         0.71686E-09
         0.91576E-09
         0.50848E-09
         0.61058E-09
         0.10148E-08
         0.73903E-09
         0.29900E-09
         0.56882E-09
         0.62645E-09
         0.50408E-09
         0.64757E-09
         0.12072E-08
         0.94467E-09
         0.12014E-08
         0.70330E-09
         0.80401E-09
         0.75818E-09
         0.84059E-09
         0.64459E-09
         0.40031E-09
         0.75864E-09
         0.63277E-09
         0.65294E-09
         0.67143E-09
         0.58607E-09
         0.71527E-09
         0.91057E-09
         0.64200E-09
         0.10221E-08
         0.89164E-09
         0.40072E-09
         0.61719E-09
         0.70087E-09
         0.74103E-09
         0.71603E-09
         0.56262E-09
         0.35352E-09
         0.58348E-09
         0.77305E-09
         0.62354E-09
         0.54788E-09
         0.35889E-09
         0.61298E-09
         0.83282E-09
         0.87463E-09
         0.70626E-09
         0.43380E-09
         0.74897E-09
         0.27550E-09
         0.35137E-09
         0.32713E-09
         0.38782E-09
         0.37911E-09
         0.36810E-09
         0.39334E-09
         0.41655E-09
         0.39176E-09
         0.30491E-09
         0.24822E-09
         0.32010E-09
         0.42682E-09
         0.46942E-09
         0.45001E-09
         0.40534E-09
         0.36796E-09
         0.29881E-09
         0.25128E-09
         0.32857E-09
         0.43518E-09
         0.44963E-09
         0.36288E-09
         0.29459E-09
         0.36184E-09
         0.42757E-09
         0.91214E-09
         0.72204E-09
         0.77666E-09
         0.13405E-08
         0.71698E-09
         0.91604E-09
         0.50822E-09
         0.61022E-09
         0.10151E-08
         0.73855E-09
         0.29871E-09
         0.56872E-09
         0.62641E-09
         0.50337E-09
         0.64743E-09
         0.12075E-08
         0.94510E-09
         0.12020E-08
         0.70333E-09
         0.80411E-09
         0.75815E-09
         0.84063E-09
         0.64453E-09
         0.40027E-09
         0.75831E-09
         0.63272E-09
         0.65196E-09
         0.67077E-09
         0.58582E-09
         0.71511E-09
         0.91066E-09
         0.64192E-09
         0.10227E-08
         0.89245E-09
         0.40072E-09
         0.61707E-09
         0.70078E-09
         0.74098E-09
         0.71608E-09
         0.56265E-09
         0.35352E-09
         0.58340E-09
         0.77301E-09
         0.62345E-09
         0.54775E-09
         0.35880E-09
         0.61293E-09
         0.83283E-09
         0.87476E-09
         0.70641E-09
         0.43382E-09
         0.74935E-09
         0.27541E-09
         0.35136E-09
         0.32697E-09
         0.38784E-09
         0.37920E-09
         0.36818E-09
         0.39352E-09
         0.41685E-09
         0.39199E-09
         0.30498E-09
         0.24824E-09
         0.32011E-09
         0.42688E-09
         0.46953E-09
         0.45007E-09
         0.40533E-09
         0.36793E-09
         0.29878E-09
         0.25124E-09
         0.32855E-09
         0.43517E-09
         0.44963E-09
         0.36281E-09
         0.29452E-09
         0.36188E-09
         0.42756E-09
         0.91219E-09
         0.72188E-09
         0.77672E-09
         0.13412E-08
         0.71709E-09
         0.91632E-09
         0.50795E-09
         0.60986E-09
         0.10155E-08
         0.73806E-09
         0.29842E-09
         0.56862E-09
         0.62636E-09
         0.50266E-09
         0.64730E-09
         0.12079E-08
         0.94552E-09
         0.12026E-08
         0.70335E-09
         0.80421E-09
         0.75811E-09
         0.84066E-09
         0.64446E-09
         0.40023E-09
         0.75798E-09
         0.63267E-09
         0.65096E-09
         0.67010E-09
         0.58557E-09
         0.71494E-09
         0.91074E-09
         0.64184E-09
         0.10232E-08
         0.89325E-09
         0.40072E-09
         0.61695E-09
         0.70069E-09
         0.74092E-09
         0.71612E-09
         0.56268E-09
         0.35352E-09
         0.58332E-09
         0.77297E-09
         0.62336E-09
         0.54762E-09
         0.35871E-09
         0.61287E-09
         0.83284E-09
         0.87489E-09
         0.70655E-09
         0.43383E-09
         0.74972E-09
         0.27533E-09
         0.35136E-09
         0.32681E-09
         0.38785E-09
         0.37929E-09
         0.36825E-09
         0.39369E-09
         0.41715E-09
         0.39222E-09
         0.30505E-09
         0.24826E-09
         0.32011E-09
         0.42694E-09
         0.46963E-09
         0.45011E-09
         0.40532E-09
         0.36791E-09
         0.29876E-09
         0.25120E-09
         0.32853E-09
         0.43516E-09
         0.44962E-09
         0.36274E-09
         0.29445E-09
         0.36192E-09
         0.42755E-09
         0.91224E-09
         0.72173E-09
         0.77679E-09
         0.13418E-08
         0.71720E-09
         0.91660E-09
         0.50768E-09
         0.60949E-09
         0.10158E-08
         0.73758E-09
         0.29814E-09
         0.56852E-09
         0.62632E-09
         0.50195E-09
         0.64716E-09
         0.12082E-08
         0.94595E-09
         0.12032E-08
         0.70337E-09
         0.80431E-09
         0.75808E-09
         0.84069E-09
         0.64440E-09
         0.40018E-09
         0.75766E-09
         0.63262E-09
         0.64998E-09
         0.66943E-09
         0.58532E-09
         0.71478E-09
         0.91083E-09
         0.64176E-09
         0.10238E-08
         0.89406E-09
         0.40071E-09
         0.61683E-09
         0.70059E-09
         0.74087E-09
         0.71617E-09
         0.56270E-09
         0.35352E-09
         0.58324E-09
         0.77294E-09
         0.62327E-09
         0.54749E-09
         0.35861E-09
         0.61282E-09
         0.83284E-09
         0.87503E-09
         0.70669E-09
         0.43384E-09
         0.75009E-09
         0.27524E-09
         0.35135E-09
         0.32665E-09
         0.38786E-09
         0.37937E-09
         0.36833E-09
         0.39386E-09
         0.41745E-09
         0.39245E-09
         0.30512E-09
         0.24828E-09
         0.32012E-09
         0.42699E-09
         0.46974E-09
         0.45017E-09
         0.40531E-09
         0.36788E-09
         0.29873E-09
         0.25117E-09
         0.32850E-09
         0.43515E-09
         0.44962E-09
         0.36266E-09
         0.29439E-09
         0.36197E-09
         0.42754E-09
         0.91230E-09
         0.72159E-09
         0.77686E-09
         0.13425E-08
         0.71732E-09
         0.91688E-09
         0.50742E-09
         0.60913E-09
         0.10162E-08
         0.73710E-09
         0.29785E-09
         0.56842E-09
         0.62628E-09
         0.50125E-09
         0.64703E-09
         0.12086E-08
         0.94638E-09
         0.12038E-08
         0.70340E-09
         0.80441E-09
         0.75805E-09
         0.84073E-09
         0.64433E-09
         0.40014E-09
         0.75733E-09
         0.63257E-09
         0.64899E-09
         0.66877E-09
         0.58508E-09
         0.71462E-09
         0.91093E-09
         0.64169E-09
         0.10243E-08
         0.89487E-09
         0.40071E-09
         0.61671E-09
         0.70051E-09
         0.74082E-09
         0.71622E-09
         0.56273E-09
         0.35352E-09
         0.58316E-09
         0.77290E-09
         0.62318E-09
         0.54737E-09
         0.35852E-09
         0.61277E-09
         0.83286E-09
         0.87517E-09
         0.70684E-09
         0.43385E-09
         0.75047E-09
         0.27516E-09
         0.35135E-09
         0.32649E-09
         0.38788E-09
         0.37946E-09
         0.36841E-09
         0.39403E-09
         0.41775E-09
         0.39268E-09
         0.30519E-09
         0.24830E-09
         0.32013E-09
         0.42705E-09
         0.46985E-09
         0.45022E-09
         0.40530E-09
         0.36786E-09
         0.29871E-09
         0.25113E-09
         0.32848E-09
         0.43515E-09
         0.44962E-09
         0.36259E-09
         0.29433E-09
         0.36201E-09
         0.42753E-09
         0.91235E-09
         0.72143E-09
         0.77692E-09
         0.13431E-08
         0.71743E-09
         0.91716E-09
         0.50715E-09
         0.60877E-09
         0.10165E-08
         0.73661E-09
         0.29757E-09
         0.56832E-09
         0.62624E-09
         0.50054E-09
         0.64689E-09
         0.12089E-08
         0.94680E-09
         0.12044E-08
         0.70342E-09
         0.80450E-09
         0.75802E-09
         0.84076E-09
         0.64427E-09
         0.40010E-09
         0.75700E-09
         0.63251E-09
         0.64800E-09
         0.66810E-09
         0.58482E-09
         0.71445E-09
         0.91101E-09
         0.64161E-09
         0.10248E-08
         0.89567E-09
         0.40071E-09
         0.61659E-09
         0.70041E-09
         0.74077E-09
         0.71627E-09
         0.56276E-09
         0.35352E-09
         0.58308E-09
         0.77286E-09
         0.62309E-09
         0.54723E-09
         0.35843E-09
         0.61272E-09
         0.83287E-09
         0.87530E-09
         0.70698E-09
         0.43386E-09
         0.75084E-09
         0.27507E-09
         0.35134E-09
         0.32633E-09
         0.38789E-09
         0.37955E-09
         0.36849E-09
         0.39420E-09
         0.41804E-09
         0.39291E-09
         0.30525E-09
         0.24832E-09
         0.32014E-09
         0.42711E-09
         0.46995E-09
         0.45027E-09
         0.40528E-09
         0.36784E-09
         0.29869E-09
         0.25109E-09
         0.32845E-09
         0.43514E-09
         0.44962E-09
         0.36252E-09
         0.29426E-09
         0.36206E-09
         0.42751E-09
         0.91240E-09
         0.72128E-09
         0.77698E-09
         0.13437E-08
         0.71755E-09
         0.91744E-09
         0.50688E-09
         0.60841E-09
         0.10169E-08
         0.73612E-09
         0.29728E-09
         0.56822E-09
         0.62619E-09
         0.49984E-09
         0.64676E-09
         0.12093E-08
         0.94723E-09
         0.12050E-08
         0.70345E-09
         0.80460E-09
         0.75798E-09
         0.84080E-09
         0.64420E-09
         0.40006E-09
         0.75667E-09
         0.63246E-09
         0.64701E-09
         0.66744E-09
         0.58457E-09
         0.71429E-09
         0.91110E-09
         0.64153E-09
         0.10254E-08
         0.89648E-09
         0.40070E-09
         0.61647E-09
         0.70032E-09
         0.74071E-09
         0.71632E-09
         0.56279E-09
         0.35353E-09
         0.58300E-09
         0.77282E-09
         0.62300E-09
         0.54710E-09
         0.35834E-09
         0.61266E-09
         0.83288E-09
         0.87543E-09
         0.70713E-09
         0.43387E-09
         0.75122E-09
         0.27499E-09
         0.35133E-09
         0.32617E-09
         0.38790E-09
         0.37964E-09
         0.36857E-09
         0.39437E-09
         0.41834E-09
         0.39314E-09
         0.30532E-09
         0.24834E-09
         0.32014E-09
         0.42716E-09
         0.47005E-09
         0.45032E-09
         0.40527E-09
         0.36781E-09
         0.29866E-09
         0.25105E-09
         0.32843E-09
         0.43513E-09
         0.44962E-09
         0.36244E-09
         0.29419E-09
         0.36210E-09
         0.42750E-09
         0.91246E-09
         0.72114E-09
         0.77705E-09
         0.13444E-08
         0.71767E-09
         0.91773E-09
         0.50662E-09
         0.60805E-09
         0.10173E-08
         0.73564E-09
         0.29700E-09
         0.56812E-09
         0.62616E-09
         0.49914E-09
         0.64663E-09
         0.12097E-08
         0.94766E-09
         0.12056E-08
         0.70348E-09
         0.80471E-09
         0.75796E-09
         0.84084E-09
         0.64414E-09
         0.40002E-09
         0.75635E-09
         0.63241E-09
         0.64603E-09
         0.66678E-09
         0.58433E-09
         0.71413E-09
         0.91120E-09
         0.64146E-09
         0.10259E-08
         0.89729E-09
         0.40070E-09
         0.61636E-09
         0.70023E-09
         0.74067E-09
         0.71637E-09
         0.56282E-09
         0.35353E-09
         0.58293E-09
         0.77279E-09
         0.62291E-09
         0.54698E-09
         0.35825E-09
         0.61261E-09
         0.83289E-09
         0.87557E-09
         0.70728E-09
         0.43389E-09
         0.75160E-09
         0.27491E-09
         0.35133E-09
         0.32601E-09
         0.38792E-09
         0.37972E-09
         0.36865E-09
         0.39454E-09
         0.41864E-09
         0.39337E-09
         0.30539E-09
         0.24836E-09
         0.32015E-09
         0.42722E-09
         0.47016E-09
         0.45038E-09
         0.40526E-09
         0.36779E-09
         0.29864E-09
         0.25101E-09
         0.32841E-09
         0.43512E-09
         0.44962E-09
         0.36237E-09
         0.29413E-09
         0.36215E-09
         0.42750E-09
         0.91249E-09
         0.72097E-09
         0.77710E-09
         0.13450E-08
         0.71777E-09
         0.91799E-09
         0.50634E-09
         0.60767E-09
         0.10176E-08
         0.73514E-09
         0.29670E-09
         0.56801E-09
         0.62610E-09
         0.49842E-09
         0.64648E-09
         0.12100E-08
         0.94806E-09
         0.12062E-08
         0.70349E-09
         0.80479E-09
         0.75791E-09
         0.84086E-09
         0.64406E-09
         0.39997E-09
         0.75600E-09
         0.63234E-09
         0.64503E-09
         0.66610E-09
         0.58407E-09
         0.71395E-09
         0.91127E-09
         0.64136E-09
         0.10264E-08
         0.89808E-09
         0.40069E-09
         0.61622E-09
         0.70012E-09
         0.74060E-09
         0.71641E-09
         0.56283E-09
         0.35352E-09
         0.58283E-09
         0.77273E-09
         0.62281E-09
         0.54684E-09
         0.35815E-09
         0.61255E-09
         0.83288E-09
         0.87569E-09
         0.70741E-09
         0.43389E-09
         0.75195E-09
         0.27482E-09
         0.35132E-09
         0.32584E-09
         0.38793E-09
         0.37980E-09
         0.36872E-09
         0.39470E-09
         0.41893E-09
         0.39360E-09
         0.30545E-09
         0.24837E-09
         0.32016E-09
         0.42727E-09
         0.47026E-09
         0.45042E-09
         0.40524E-09
         0.36776E-09
         0.29861E-09
         0.25097E-09
         0.32838E-09
         0.43510E-09
         0.44961E-09
         0.36229E-09
         0.29406E-09
         0.36218E-09
         0.42748E-09
         0.91256E-09
         0.72083E-09
         0.77718E-09
         0.13457E-08
         0.71789E-09
         0.91829E-09
         0.50608E-09
         0.60732E-09
         0.10180E-08
         0.73467E-09
         0.29642E-09
         0.56792E-09
         0.62607E-09
         0.49772E-09
         0.64636E-09
         0.12103E-08
         0.94850E-09
         0.12068E-08
         0.70352E-09
         0.80490E-09
         0.75789E-09
         0.84091E-09
         0.64401E-09
         0.39993E-09
         0.75569E-09
         0.63230E-09
         0.64405E-09
         0.66544E-09
         0.58382E-09
         0.71379E-09
         0.91137E-09
         0.64129E-09
         0.10270E-08
         0.89890E-09
         0.40069E-09
         0.61611E-09
         0.70004E-09
         0.74056E-09
         0.71646E-09
         0.56287E-09
         0.35353E-09
         0.58276E-09
         0.77271E-09
         0.62273E-09
         0.54672E-09
         0.35806E-09
         0.61251E-09
         0.83291E-09
         0.87583E-09
         0.70756E-09
         0.43391E-09
         0.75234E-09
         0.27474E-09
         0.35132E-09
         0.32569E-09
         0.38794E-09
         0.37990E-09
         0.36881E-09
         0.39488E-09
         0.41923E-09
         0.39383E-09
         0.30553E-09
         0.24840E-09
         0.32017E-09
         0.42734E-09
         0.47037E-09
         0.45048E-09
         0.40524E-09
         0.36774E-09
         0.29859E-09
         0.25093E-09
         0.32836E-09
         0.43510E-09
         0.44962E-09
         0.36222E-09
         0.29400E-09
         0.36223E-09
         0.42747E-09
         0.45631E-09
         0.36039E-09
         0.38862E-09
         0.67302E-09
         0.35899E-09
         0.45923E-09
         0.25298E-09
         0.30358E-09
         0.50909E-09
         0.36723E-09
         0.14815E-09
         0.28394E-09
         0.31303E-09
         0.24869E-09
         0.32316E-09
         0.60528E-09
         0.47437E-09
         0.60357E-09
         0.35178E-09
         0.40249E-09
         0.37895E-09
         0.42048E-09
         0.32200E-09
         0.19996E-09
         0.37777E-09
         0.31615E-09
         0.32179E-09
         0.33257E-09
         0.29186E-09
         0.35687E-09
         0.45572E-09
         0.32064E-09
         0.51365E-09
         0.44967E-09
         0.20035E-09
         0.30804E-09
         0.35001E-09
         0.37028E-09
         0.35826E-09
         0.28145E-09
         0.17677E-09
         0.29137E-09
         0.38636E-09
         0.31135E-09
         0.27333E-09
         0.17901E-09
         0.30625E-09
         0.41647E-09
         0.43797E-09
         0.35383E-09
         0.21697E-09
         0.37628E-09
         0.13735E-09
         0.17566E-09
         0.16281E-09
         0.19398E-09
         0.18998E-09
         0.18443E-09
         0.19749E-09
         0.20970E-09
         0.19698E-09
         0.15279E-09
         0.12421E-09
         0.16009E-09
         0.21369E-09
         0.23522E-09
         0.22526E-09
         0.20262E-09
         0.18387E-09
         0.14930E-09
         0.12546E-09
         0.16418E-09
         0.21756E-09
         0.22482E-09
         0.18110E-09
         0.14699E-09
         0.18113E-09
         0.21374E-09
  
SCALARS               pre_disp_force_x  double 1
LOOKUP_TABLE default
         0.00000E+00
         0.00000E+00
         0.00000E+00
         0.00000E+00
         0.00000E+00
         0.00000E+00
         0.00000E+00
         0.00000E+00
         0.00000E+00
         0.00000E+00
         0.00000E+00
         0.00000E+00
         0.00000E+00
         0.00000E+00
         0.00000E+00
         0.00000E+00
         0.00000E+00
         0.00000E+00
         0.00000E+00
         0.00000E+00
         0.00000E+00
         0.00000E+00
         0.00000E+00
         0.00000E+00
         0.00000E+00
         0.00000E+00
         0.00000E+00
         0.00000E+00
         0.00000E+00
         0.00000E+00
         0.00000E+00
         0.00000E+00
         0.00000E+00
         0.00000E+00
         0.00000E+00
         0.00000E+00
         0.00000E+00
         0.00000E+00
         0.00000E+00
         0.00000E+00
         0.00000E+00
         0.00000E+00
         0.00000E+00
         0.00000E+00
         0.00000E+00
         0.00000E+00
         0.00000E+00
         0.00000E+00
         0.00000E+00
         0.00000E+00
         0.00000E+00
         0.00000E+00
         0.00000E+00
         0.00000E+00
         0.00000E+00
         0.00000E+00
         0.00000E+00
         0.00000E+00
         0.00000E+00
         0.00000E+00
         0.00000E+00
         0.00000E+00
         0.00000E+00
         0.00000E+00
         0.00000E+00
         0.00000E+00
         0.00000E+00
         0.00000E+00
         0.00000E+00
         0.00000E+00
         0.00000E+00
         0.00000E+00
         0.00000E+00
         0.00000E+00
         0.00000E+00
         0.00000E+00
         0.00000E+00
         0.00000E+00
         0.00000E+00
         0.00000E+00
         0.00000E+00
         0.00000E+00
         0.00000E+00
         0.00000E+00
         0.00000E+00
         0.00000E+00
         0.00000E+00
         0.00000E+00
         0.00000E+00
         0.00000E+00
         0.00000E+00
         0.00000E+00
         0.00000E+00
         0.00000E+00
         0.00000E+00
         0.00000E+00
         0.00000E+00
         0.00000E+00
         0.00000E+00
         0.00000E+00
         0.00000E+00
         0.00000E+00
         0.00000E+00
         0.00000E+00
         0.00000E+00
         0.00000E+00
         0.00000E+00
         0.00000E+00
         0.00000E+00
         0.00000E+00
         0.00000E+00
         0.00000E+00
         0.00000E+00
         0.00000E+00
         0.00000E+00
         0.00000E+00
         0.00000E+00
         0.00000E+00
         0.00000E+00
         0.00000E+00
         0.00000E+00
         0.00000E+00
         0.00000E+00
         0.00000E+00
         0.00000E+00
         0.00000E+00
         0.00000E+00
         0.00000E+00
         0.00000E+00
         0.00000E+00
         0.00000E+00
         0.00000E+00
         0.00000E+00
         0.00000E+00
         0.00000E+00
         0.00000E+00
         0.00000E+00
         0.00000E+00
         0.00000E+00
         0.00000E+00
         0.00000E+00
         0.00000E+00
         0.00000E+00
         0.00000E+00
         0.00000E+00
         0.00000E+00
         0.00000E+00
         0.00000E+00
         0.00000E+00
         0.00000E+00
         0.00000E+00
         0.00000E+00
         0.00000E+00
         0.00000E+00
         0.00000E+00
         0.00000E+00
         0.00000E+00
         0.00000E+00
         0.00000E+00
         0.00000E+00
         0.00000E+00
         0.00000E+00
         0.00000E+00
         0.00000E+00
         0.00000E+00
         0.00000E+00
         0.00000E+00
         0.00000E+00
         0.00000E+00
         0.00000E+00
         0.00000E+00
         0.00000E+00
         0.00000E+00
         0.00000E+00
         0.00000E+00
         0.00000E+00
         0.00000E+00
         0.00000E+00
         0.00000E+00
         0.00000E+00
         0.00000E+00
         0.00000E+00
         0.00000E+00
         0.00000E+00
         0.00000E+00
         0.00000E+00
         0.00000E+00
         0.00000E+00
         0.00000E+00
         0.00000E+00
         0.00000E+00
         0.00000E+00
         0.00000E+00
         0.00000E+00
         0.00000E+00
         0.00000E+00
         0.00000E+00
         0.00000E+00
         0.00000E+00
         0.00000E+00
         0.00000E+00
         0.00000E+00
         0.00000E+00
         0.00000E+00
         0.00000E+00
         0.00000E+00
         0.00000E+00
         0.00000E+00
         0.00000E+00
         0.00000E+00
         0.00000E+00
         0.00000E+00
         0.00000E+00
         0.00000E+00
         0.00000E+00
         0.00000E+00
         0.00000E+00
         0.00000E+00
         0.00000E+00
         0.00000E+00
         0.00000E+00
         0.00000E+00
         0.00000E+00
         0.00000E+00
         0.00000E+00
         0.00000E+00
         0.00000E+00
         0.00000E+00
         0.00000E+00
         0.00000E+00
         0.00000E+00
         0.00000E+00
         0.00000E+00
         0.00000E+00
         0.00000E+00
         0.00000E+00
         0.00000E+00
         0.00000E+00
         0.00000E+00
         0.00000E+00
         0.00000E+00
         0.00000E+00
         0.00000E+00
         0.00000E+00
         0.00000E+00
         0.00000E+00
         0.00000E+00
         0.00000E+00
         0.00000E+00
         0.00000E+00
         0.00000E+00
         0.00000E+00
         0.00000E+00
         0.00000E+00
         0.00000E+00
         0.00000E+00
         0.00000E+00
         0.00000E+00
         0.00000E+00
         0.00000E+00
         0.00000E+00
         0.00000E+00
         0.00000E+00
         0.00000E+00
         0.00000E+00
         0.00000E+00
         0.00000E+00
         0.00000E+00
         0.00000E+00
         0.00000E+00
         0.00000E+00
         0.00000E+00
         0.00000E+00
         0.00000E+00
         0.00000E+00
         0.00000E+00
         0.00000E+00
         0.00000E+00
         0.00000E+00
         0.00000E+00
         0.00000E+00
         0.00000E+00
         0.00000E+00
         0.00000E+00
         0.00000E+00
         0.00000E+00
         0.00000E+00
         0.00000E+00
         0.00000E+00
         0.00000E+00
         0.00000E+00
         0.00000E+00
         0.00000E+00
         0.00000E+00
         0.00000E+00
         0.00000E+00
         0.00000E+00
         0.00000E+00
         0.00000E+00
         0.00000E+00
         0.00000E+00
         0.00000E+00
         0.00000E+00
         0.00000E+00
         0.00000E+00
         0.00000E+00
         0.00000E+00
         0.00000E+00
         0.00000E+00
         0.00000E+00
         0.00000E+00
         0.00000E+00
         0.00000E+00
         0.00000E+00
         0.00000E+00
         0.00000E+00
         0.00000E+00
         0.00000E+00
         0.00000E+00
         0.00000E+00
         0.00000E+00
         0.00000E+00
         0.00000E+00
         0.00000E+00
         0.00000E+00
         0.00000E+00
         0.00000E+00
         0.00000E+00
         0.00000E+00
         0.00000E+00
         0.00000E+00
         0.00000E+00
         0.00000E+00
         0.00000E+00
         0.00000E+00
         0.00000E+00
         0.00000E+00
         0.00000E+00
         0.00000E+00
         0.00000E+00
         0.00000E+00
         0.00000E+00
         0.00000E+00
         0.00000E+00
         0.00000E+00
         0.00000E+00
         0.00000E+00
         0.00000E+00
         0.00000E+00
         0.00000E+00
         0.00000E+00
         0.00000E+00
         0.00000E+00
         0.00000E+00
         0.00000E+00
         0.00000E+00
         0.00000E+00
         0.00000E+00
         0.00000E+00
         0.00000E+00
         0.00000E+00
         0.00000E+00
         0.00000E+00
         0.00000E+00
         0.00000E+00
         0.00000E+00
         0.00000E+00
         0.00000E+00
         0.00000E+00
         0.00000E+00
         0.00000E+00
         0.00000E+00
         0.00000E+00
         0.00000E+00
         0.00000E+00
         0.00000E+00
         0.00000E+00
         0.00000E+00
         0.00000E+00
         0.00000E+00
         0.00000E+00
         0.00000E+00
         0.00000E+00
         0.00000E+00
         0.00000E+00
         0.00000E+00
         0.00000E+00
         0.00000E+00
         0.00000E+00
         0.00000E+00
         0.00000E+00
         0.00000E+00
         0.00000E+00
         0.00000E+00
         0.00000E+00
         0.00000E+00
         0.00000E+00
         0.00000E+00
         0.00000E+00
         0.00000E+00
         0.00000E+00
         0.00000E+00
         0.00000E+00
         0.00000E+00
         0.00000E+00
         0.00000E+00
         0.00000E+00
         0.00000E+00
         0.00000E+00
         0.00000E+00
         0.00000E+00
         0.00000E+00
         0.00000E+00
         0.00000E+00
         0.00000E+00
         0.00000E+00
         0.00000E+00
         0.00000E+00
         0.00000E+00
         0.00000E+00
         0.00000E+00
         0.00000E+00
         0.00000E+00
         0.00000E+00
         0.00000E+00
         0.00000E+00
         0.00000E+00
         0.00000E+00
         0.00000E+00
         0.00000E+00
         0.00000E+00
         0.00000E+00
         0.00000E+00
         0.00000E+00
         0.00000E+00
         0.00000E+00
         0.00000E+00
         0.00000E+00
         0.00000E+00
         0.00000E+00
         0.00000E+00
         0.00000E+00
         0.00000E+00
         0.00000E+00
         0.00000E+00
         0.00000E+00
         0.00000E+00
         0.00000E+00
         0.00000E+00
         0.00000E+00
         0.00000E+00
         0.00000E+00
         0.00000E+00
         0.00000E+00
         0.00000E+00
         0.00000E+00
         0.00000E+00
         0.00000E+00
         0.00000E+00
         0.00000E+00
         0.00000E+00
         0.00000E+00
         0.00000E+00
         0.00000E+00
         0.00000E+00
         0.00000E+00
         0.00000E+00
         0.00000E+00
         0.00000E+00
         0.00000E+00
         0.00000E+00
         0.00000E+00
         0.00000E+00
         0.00000E+00
         0.00000E+00
         0.00000E+00
         0.00000E+00
         0.00000E+00
         0.00000E+00
         0.00000E+00
         0.00000E+00
         0.00000E+00
         0.00000E+00
         0.00000E+00
         0.00000E+00
         0.00000E+00
         0.00000E+00
         0.00000E+00
         0.00000E+00
         0.00000E+00
         0.00000E+00
         0.00000E+00
         0.00000E+00
         0.00000E+00
         0.00000E+00
         0.00000E+00
         0.00000E+00
         0.00000E+00
         0.00000E+00
         0.00000E+00
         0.00000E+00
         0.00000E+00
         0.00000E+00
         0.00000E+00
         0.00000E+00
         0.00000E+00
         0.00000E+00
         0.00000E+00
         0.00000E+00
         0.00000E+00
         0.00000E+00
         0.00000E+00
         0.00000E+00
         0.00000E+00
         0.00000E+00
         0.00000E+00
         0.00000E+00
         0.00000E+00
         0.00000E+00
         0.00000E+00
         0.00000E+00
         0.00000E+00
         0.00000E+00
         0.00000E+00
         0.00000E+00
         0.00000E+00
         0.00000E+00
         0.00000E+00
         0.00000E+00
         0.00000E+00
         0.00000E+00
         0.00000E+00
         0.00000E+00
         0.00000E+00
         0.00000E+00
         0.00000E+00
         0.00000E+00
         0.00000E+00
         0.00000E+00
         0.00000E+00
         0.00000E+00
         0.00000E+00
         0.00000E+00
         0.00000E+00
         0.00000E+00
         0.00000E+00
         0.00000E+00
         0.00000E+00
         0.00000E+00
         0.00000E+00
         0.00000E+00
         0.00000E+00
         0.00000E+00
         0.00000E+00
         0.00000E+00
         0.00000E+00
         0.00000E+00
         0.00000E+00
         0.00000E+00
         0.00000E+00
         0.00000E+00
         0.00000E+00
         0.00000E+00
         0.00000E+00
         0.00000E+00
         0.00000E+00
         0.00000E+00
         0.00000E+00
         0.00000E+00
         0.00000E+00
         0.00000E+00
         0.00000E+00
         0.00000E+00
         0.00000E+00
         0.00000E+00
         0.00000E+00
         0.00000E+00
         0.00000E+00
         0.00000E+00
         0.00000E+00
         0.00000E+00
         0.00000E+00
         0.00000E+00
         0.00000E+00
         0.00000E+00
         0.00000E+00
         0.00000E+00
         0.00000E+00
         0.00000E+00
         0.00000E+00
         0.00000E+00
         0.00000E+00
         0.00000E+00
         0.00000E+00
         0.00000E+00
         0.00000E+00
         0.00000E+00
         0.00000E+00
         0.00000E+00
         0.00000E+00
         0.00000E+00
         0.00000E+00
         0.00000E+00
         0.00000E+00
         0.00000E+00
         0.00000E+00
         0.00000E+00
         0.00000E+00
         0.00000E+00
         0.00000E+00
         0.00000E+00
         0.00000E+00
         0.00000E+00
         0.00000E+00
         0.00000E+00
         0.00000E+00
         0.00000E+00
         0.00000E+00
         0.00000E+00
         0.00000E+00
         0.00000E+00
         0.00000E+00
         0.00000E+00
         0.00000E+00
         0.00000E+00
         0.00000E+00
         0.00000E+00
         0.00000E+00
         0.00000E+00
         0.00000E+00
         0.00000E+00
         0.00000E+00
         0.00000E+00
         0.00000E+00
         0.00000E+00
         0.00000E+00
         0.00000E+00
         0.00000E+00
         0.00000E+00
         0.00000E+00
         0.00000E+00
         0.00000E+00
         0.00000E+00
         0.00000E+00
         0.00000E+00
         0.00000E+00
         0.00000E+00
         0.00000E+00
         0.00000E+00
         0.00000E+00
         0.00000E+00
         0.00000E+00
         0.00000E+00
         0.00000E+00
         0.00000E+00
         0.00000E+00
         0.00000E+00
         0.00000E+00
         0.00000E+00
         0.00000E+00
         0.00000E+00
         0.00000E+00
         0.00000E+00
         0.00000E+00
         0.00000E+00
         0.00000E+00
         0.00000E+00
         0.00000E+00
         0.00000E+00
         0.00000E+00
         0.00000E+00
         0.00000E+00
         0.00000E+00
         0.00000E+00
         0.00000E+00
         0.00000E+00
         0.00000E+00
         0.00000E+00
         0.00000E+00
         0.00000E+00
         0.00000E+00
         0.00000E+00
         0.00000E+00
         0.00000E+00
         0.00000E+00
         0.00000E+00
         0.00000E+00
         0.00000E+00
         0.00000E+00
         0.00000E+00
         0.00000E+00
         0.00000E+00
         0.00000E+00
         0.00000E+00
         0.00000E+00
         0.00000E+00
         0.00000E+00
         0.00000E+00
         0.00000E+00
         0.00000E+00
         0.00000E+00
         0.00000E+00
         0.00000E+00
         0.00000E+00
         0.00000E+00
         0.00000E+00
         0.00000E+00
         0.00000E+00
         0.00000E+00
         0.00000E+00
         0.00000E+00
         0.00000E+00
         0.00000E+00
         0.00000E+00
         0.00000E+00
         0.00000E+00
         0.00000E+00
         0.00000E+00
         0.00000E+00
         0.00000E+00
         0.00000E+00
         0.00000E+00
         0.00000E+00
         0.00000E+00
         0.00000E+00
         0.00000E+00
         0.00000E+00
         0.00000E+00
         0.00000E+00
         0.00000E+00
         0.00000E+00
         0.00000E+00
         0.00000E+00
         0.00000E+00
         0.00000E+00
         0.00000E+00
         0.00000E+00
         0.00000E+00
         0.00000E+00
         0.00000E+00
         0.00000E+00
         0.00000E+00
         0.00000E+00
         0.00000E+00
         0.00000E+00
         0.00000E+00
         0.00000E+00
         0.00000E+00
         0.00000E+00
         0.00000E+00
         0.00000E+00
         0.00000E+00
         0.00000E+00
         0.00000E+00
         0.00000E+00
         0.00000E+00
         0.00000E+00
         0.00000E+00
         0.00000E+00
         0.00000E+00
         0.00000E+00
         0.00000E+00
         0.00000E+00
         0.00000E+00
         0.00000E+00
         0.00000E+00
         0.00000E+00
         0.00000E+00
         0.00000E+00
         0.00000E+00
         0.00000E+00
         0.00000E+00
         0.00000E+00
         0.00000E+00
         0.00000E+00
         0.00000E+00
         0.00000E+00
         0.00000E+00
         0.00000E+00
         0.00000E+00
         0.00000E+00
         0.00000E+00
         0.00000E+00
         0.00000E+00
         0.00000E+00
         0.00000E+00
         0.00000E+00
         0.00000E+00
         0.00000E+00
         0.00000E+00
         0.00000E+00
         0.00000E+00
         0.00000E+00
         0.00000E+00
         0.00000E+00
         0.00000E+00
         0.00000E+00
         0.00000E+00
         0.00000E+00
         0.00000E+00
         0.00000E+00
         0.00000E+00
         0.00000E+00
         0.00000E+00
         0.00000E+00
         0.00000E+00
         0.00000E+00
         0.00000E+00
         0.00000E+00
         0.00000E+00
         0.00000E+00
         0.00000E+00
         0.00000E+00
         0.00000E+00
         0.00000E+00
         0.00000E+00
         0.00000E+00
         0.00000E+00
         0.00000E+00
         0.00000E+00
         0.00000E+00
         0.00000E+00
         0.00000E+00
         0.00000E+00
         0.00000E+00
         0.00000E+00
         0.00000E+00
         0.00000E+00
         0.00000E+00
         0.00000E+00
         0.00000E+00
         0.00000E+00
         0.00000E+00
         0.00000E+00
         0.00000E+00
         0.00000E+00
         0.00000E+00
         0.00000E+00
         0.00000E+00
         0.00000E+00
         0.00000E+00
         0.00000E+00
         0.00000E+00
         0.00000E+00
         0.00000E+00
         0.00000E+00
         0.00000E+00
         0.00000E+00
         0.00000E+00
         0.00000E+00
         0.00000E+00
         0.00000E+00
         0.00000E+00
         0.00000E+00
         0.00000E+00
         0.00000E+00
         0.00000E+00
         0.00000E+00
         0.00000E+00
         0.00000E+00
         0.00000E+00
         0.00000E+00
         0.00000E+00
         0.00000E+00
         0.00000E+00
         0.00000E+00
         0.00000E+00
         0.00000E+00
         0.00000E+00
         0.00000E+00
         0.00000E+00
         0.00000E+00
         0.00000E+00
         0.00000E+00
         0.00000E+00
         0.00000E+00
         0.00000E+00
         0.00000E+00
         0.00000E+00
         0.00000E+00
         0.00000E+00
         0.00000E+00
         0.00000E+00
         0.00000E+00
         0.00000E+00
         0.00000E+00
         0.00000E+00
         0.00000E+00
         0.00000E+00
         0.00000E+00
         0.00000E+00
         0.00000E+00
         0.00000E+00
         0.00000E+00
         0.00000E+00
         0.00000E+00
         0.00000E+00
         0.00000E+00
         0.00000E+00
         0.00000E+00
         0.00000E+00
         0.00000E+00
         0.00000E+00
         0.00000E+00
         0.00000E+00
         0.00000E+00
         0.00000E+00
         0.00000E+00
         0.00000E+00
         0.00000E+00
         0.00000E+00
         0.00000E+00
         0.00000E+00
         0.00000E+00
         0.00000E+00
         0.00000E+00
         0.00000E+00
         0.00000E+00
         0.00000E+00
         0.00000E+00
         0.00000E+00
         0.00000E+00
         0.00000E+00
         0.00000E+00
         0.00000E+00
         0.00000E+00
         0.00000E+00
         0.00000E+00
         0.00000E+00
         0.00000E+00
         0.00000E+00
         0.00000E+00
         0.00000E+00
         0.00000E+00
         0.00000E+00
         0.00000E+00
         0.00000E+00
         0.00000E+00
         0.00000E+00
         0.00000E+00
         0.00000E+00
         0.00000E+00
         0.00000E+00
         0.00000E+00
         0.00000E+00
         0.00000E+00
         0.00000E+00
         0.00000E+00
         0.00000E+00
         0.00000E+00
         0.00000E+00
         0.00000E+00
         0.00000E+00
         0.00000E+00
         0.00000E+00
         0.00000E+00
         0.00000E+00
         0.00000E+00
         0.00000E+00
         0.00000E+00
         0.00000E+00
         0.00000E+00
         0.00000E+00
         0.00000E+00
         0.00000E+00
         0.00000E+00
         0.00000E+00
         0.00000E+00
         0.00000E+00
         0.00000E+00
         0.00000E+00
         0.00000E+00
         0.00000E+00
         0.00000E+00
         0.00000E+00
         0.00000E+00
         0.00000E+00
         0.00000E+00
         0.00000E+00
         0.00000E+00
         0.00000E+00
         0.00000E+00
         0.00000E+00
         0.00000E+00
         0.00000E+00
         0.00000E+00
         0.00000E+00
         0.00000E+00
         0.00000E+00
         0.00000E+00
         0.00000E+00
         0.00000E+00
         0.00000E+00
         0.00000E+00
         0.00000E+00
         0.00000E+00
         0.00000E+00
         0.00000E+00
         0.00000E+00
         0.00000E+00
         0.00000E+00
         0.00000E+00
         0.00000E+00
         0.00000E+00
         0.00000E+00
         0.00000E+00
         0.00000E+00
         0.00000E+00
         0.00000E+00
         0.00000E+00
         0.00000E+00
         0.00000E+00
         0.00000E+00
         0.00000E+00
         0.00000E+00
         0.00000E+00
         0.00000E+00
         0.00000E+00
         0.00000E+00
         0.00000E+00
         0.00000E+00
         0.00000E+00
         0.00000E+00
         0.00000E+00
         0.00000E+00
         0.00000E+00
         0.00000E+00
         0.00000E+00
         0.00000E+00
         0.00000E+00
         0.00000E+00
         0.00000E+00
         0.00000E+00
         0.00000E+00
         0.00000E+00
         0.00000E+00
         0.00000E+00
         0.00000E+00
         0.00000E+00
         0.00000E+00
         0.00000E+00
         0.00000E+00
         0.00000E+00
         0.00000E+00
         0.00000E+00
         0.00000E+00
         0.00000E+00
         0.00000E+00
         0.00000E+00
         0.00000E+00
         0.00000E+00
         0.00000E+00
         0.00000E+00
         0.00000E+00
         0.00000E+00
         0.00000E+00
         0.00000E+00
         0.00000E+00
         0.00000E+00
         0.00000E+00
         0.00000E+00
         0.00000E+00
         0.00000E+00
         0.00000E+00
         0.00000E+00
         0.00000E+00
         0.00000E+00
         0.00000E+00
         0.00000E+00
         0.00000E+00
         0.00000E+00
         0.00000E+00
         0.00000E+00
         0.00000E+00
         0.00000E+00
         0.00000E+00
         0.00000E+00
         0.00000E+00
         0.00000E+00
         0.00000E+00
         0.00000E+00
         0.00000E+00
         0.00000E+00
         0.00000E+00
         0.00000E+00
         0.00000E+00
         0.00000E+00
         0.00000E+00
         0.00000E+00
         0.00000E+00
         0.00000E+00
         0.00000E+00
         0.00000E+00
         0.00000E+00
         0.00000E+00
         0.00000E+00
         0.00000E+00
         0.00000E+00
         0.00000E+00
         0.00000E+00
         0.00000E+00
         0.00000E+00
         0.00000E+00
         0.00000E+00
         0.00000E+00
         0.00000E+00
         0.00000E+00
         0.00000E+00
         0.00000E+00
         0.00000E+00
         0.00000E+00
         0.00000E+00
         0.00000E+00
         0.00000E+00
         0.00000E+00
         0.00000E+00
         0.00000E+00
         0.00000E+00
         0.00000E+00
         0.00000E+00
         0.00000E+00
         0.00000E+00
         0.00000E+00
         0.00000E+00
         0.00000E+00
         0.00000E+00
         0.00000E+00
         0.00000E+00
         0.00000E+00
         0.00000E+00
         0.00000E+00
         0.00000E+00
         0.00000E+00
         0.00000E+00
         0.00000E+00
         0.00000E+00
         0.00000E+00
         0.00000E+00
         0.00000E+00
         0.00000E+00
         0.00000E+00
         0.00000E+00
         0.00000E+00
         0.00000E+00
         0.00000E+00
         0.00000E+00
         0.00000E+00
         0.00000E+00
         0.00000E+00
         0.00000E+00
         0.00000E+00
         0.00000E+00
         0.00000E+00
         0.00000E+00
         0.00000E+00
         0.00000E+00
         0.00000E+00
         0.00000E+00
         0.00000E+00
         0.00000E+00
         0.00000E+00
         0.00000E+00
         0.00000E+00
         0.00000E+00
         0.00000E+00
         0.00000E+00
         0.00000E+00
         0.00000E+00
         0.00000E+00
         0.00000E+00
         0.00000E+00
         0.00000E+00
         0.00000E+00
         0.00000E+00
         0.00000E+00
         0.00000E+00
         0.00000E+00
         0.00000E+00
         0.00000E+00
         0.00000E+00
         0.00000E+00
         0.00000E+00
         0.00000E+00
         0.00000E+00
         0.00000E+00
         0.00000E+00
         0.00000E+00
         0.00000E+00
         0.00000E+00
         0.00000E+00
         0.00000E+00
         0.00000E+00
         0.00000E+00
         0.00000E+00
         0.00000E+00
         0.00000E+00
         0.00000E+00
         0.00000E+00
         0.00000E+00
         0.00000E+00
         0.00000E+00
         0.00000E+00
         0.00000E+00
         0.00000E+00
         0.00000E+00
         0.00000E+00
         0.00000E+00
         0.00000E+00
         0.00000E+00
         0.00000E+00
         0.00000E+00
         0.00000E+00
         0.00000E+00
         0.00000E+00
         0.00000E+00
         0.00000E+00
         0.00000E+00
         0.00000E+00
         0.00000E+00
         0.00000E+00
         0.00000E+00
         0.00000E+00
         0.00000E+00
         0.00000E+00
         0.00000E+00
         0.00000E+00
         0.00000E+00
         0.00000E+00
         0.00000E+00
         0.00000E+00
         0.00000E+00
         0.00000E+00
         0.00000E+00
         0.00000E+00
         0.00000E+00
         0.00000E+00
         0.00000E+00
         0.00000E+00
         0.00000E+00
         0.00000E+00
         0.00000E+00
         0.00000E+00
         0.00000E+00
         0.00000E+00
         0.00000E+00
         0.00000E+00
         0.00000E+00
         0.00000E+00
         0.00000E+00
         0.00000E+00
         0.00000E+00
         0.00000E+00
         0.00000E+00
         0.00000E+00
         0.00000E+00
         0.00000E+00
         0.00000E+00
         0.00000E+00
         0.00000E+00
         0.00000E+00
         0.00000E+00
         0.00000E+00
         0.00000E+00
         0.00000E+00
         0.00000E+00
         0.00000E+00
         0.00000E+00
         0.00000E+00
         0.00000E+00
         0.00000E+00
         0.00000E+00
         0.00000E+00
         0.00000E+00
         0.00000E+00
         0.00000E+00
         0.00000E+00
         0.00000E+00
         0.00000E+00
         0.00000E+00
         0.00000E+00
         0.00000E+00
         0.00000E+00
         0.00000E+00
         0.00000E+00
         0.00000E+00
         0.00000E+00
         0.00000E+00
         0.00000E+00
         0.00000E+00
         0.00000E+00
         0.00000E+00
         0.00000E+00
         0.00000E+00
         0.00000E+00
         0.00000E+00
         0.00000E+00
         0.00000E+00
         0.00000E+00
         0.00000E+00
         0.00000E+00
         0.00000E+00
         0.00000E+00
         0.00000E+00
         0.00000E+00
         0.00000E+00
         0.00000E+00
         0.00000E+00
         0.00000E+00
         0.00000E+00
         0.00000E+00
         0.00000E+00
         0.00000E+00
         0.00000E+00
         0.00000E+00
         0.00000E+00
         0.00000E+00
         0.00000E+00
         0.00000E+00
         0.00000E+00
         0.00000E+00
         0.00000E+00
         0.00000E+00
         0.00000E+00
         0.00000E+00
         0.00000E+00
         0.00000E+00
         0.00000E+00
         0.00000E+00
         0.00000E+00
         0.00000E+00
         0.00000E+00
         0.00000E+00
         0.00000E+00
         0.00000E+00
         0.00000E+00
         0.00000E+00
         0.00000E+00
         0.00000E+00
         0.00000E+00
         0.00000E+00
         0.00000E+00
         0.00000E+00
         0.00000E+00
         0.00000E+00
         0.00000E+00
         0.00000E+00
         0.00000E+00
         0.00000E+00
         0.00000E+00
         0.00000E+00
         0.00000E+00
         0.00000E+00
         0.00000E+00
         0.00000E+00
         0.00000E+00
         0.00000E+00
         0.00000E+00
         0.00000E+00
         0.00000E+00
         0.00000E+00
         0.00000E+00
         0.00000E+00
         0.00000E+00
         0.00000E+00
         0.00000E+00
         0.00000E+00
         0.00000E+00
         0.00000E+00
         0.00000E+00
         0.00000E+00
         0.00000E+00
         0.00000E+00
         0.00000E+00
         0.00000E+00
         0.00000E+00
         0.00000E+00
         0.00000E+00
         0.00000E+00
         0.00000E+00
         0.00000E+00
         0.00000E+00
         0.00000E+00
         0.00000E+00
         0.00000E+00
         0.00000E+00
         0.00000E+00
         0.00000E+00
         0.00000E+00
         0.00000E+00
         0.00000E+00
         0.00000E+00
         0.00000E+00
         0.00000E+00
         0.00000E+00
         0.00000E+00
         0.00000E+00
         0.00000E+00
         0.00000E+00
         0.00000E+00
         0.00000E+00
         0.00000E+00
         0.00000E+00
         0.00000E+00
         0.00000E+00
         0.00000E+00
         0.00000E+00
         0.00000E+00
         0.00000E+00
         0.00000E+00
         0.00000E+00
         0.00000E+00
         0.00000E+00
         0.00000E+00
         0.00000E+00
         0.00000E+00
         0.00000E+00
         0.00000E+00
         0.00000E+00
         0.00000E+00
         0.00000E+00
         0.00000E+00
         0.00000E+00
         0.00000E+00
         0.00000E+00
         0.00000E+00
         0.00000E+00
         0.00000E+00
         0.00000E+00
         0.00000E+00
         0.00000E+00
         0.00000E+00
         0.00000E+00
         0.00000E+00
         0.00000E+00
         0.00000E+00
         0.00000E+00
         0.00000E+00
         0.00000E+00
         0.00000E+00
         0.00000E+00
         0.00000E+00
         0.00000E+00
         0.00000E+00
         0.00000E+00
         0.00000E+00
         0.00000E+00
         0.00000E+00
         0.00000E+00
         0.00000E+00
         0.00000E+00
         0.00000E+00
         0.00000E+00
         0.00000E+00
         0.00000E+00
         0.00000E+00
         0.00000E+00
         0.00000E+00
         0.00000E+00
         0.00000E+00
         0.00000E+00
         0.00000E+00
         0.00000E+00
         0.00000E+00
         0.00000E+00
         0.00000E+00
         0.00000E+00
         0.00000E+00
         0.00000E+00
         0.00000E+00
         0.00000E+00
         0.00000E+00
         0.00000E+00
         0.00000E+00
         0.00000E+00
         0.00000E+00
         0.00000E+00
         0.00000E+00
         0.00000E+00
         0.00000E+00
         0.00000E+00
         0.00000E+00
         0.00000E+00
         0.00000E+00
         0.00000E+00
         0.00000E+00
         0.00000E+00
         0.00000E+00
         0.00000E+00
         0.00000E+00
         0.00000E+00
         0.00000E+00
         0.00000E+00
         0.00000E+00
         0.00000E+00
         0.00000E+00
         0.00000E+00
         0.00000E+00
         0.00000E+00
         0.00000E+00
         0.00000E+00
         0.00000E+00
         0.00000E+00
         0.00000E+00
         0.00000E+00
         0.00000E+00
         0.00000E+00
         0.00000E+00
         0.00000E+00
         0.00000E+00
         0.00000E+00
         0.00000E+00
         0.00000E+00
         0.00000E+00
         0.00000E+00
         0.00000E+00
         0.00000E+00
         0.00000E+00
         0.00000E+00
         0.00000E+00
         0.00000E+00
         0.00000E+00
         0.00000E+00
         0.00000E+00
         0.00000E+00
         0.00000E+00
         0.00000E+00
         0.00000E+00
         0.00000E+00
         0.00000E+00
         0.00000E+00
         0.00000E+00
         0.00000E+00
         0.00000E+00
         0.00000E+00
         0.00000E+00
         0.00000E+00
         0.00000E+00
         0.00000E+00
         0.00000E+00
         0.00000E+00
         0.00000E+00
         0.00000E+00
         0.00000E+00
         0.00000E+00
         0.00000E+00
         0.00000E+00
         0.00000E+00
         0.00000E+00
         0.00000E+00
         0.00000E+00
         0.00000E+00
         0.00000E+00
         0.00000E+00
         0.00000E+00
         0.00000E+00
         0.00000E+00
         0.00000E+00
         0.00000E+00
         0.00000E+00
         0.00000E+00
         0.00000E+00
         0.00000E+00
         0.00000E+00
         0.00000E+00
         0.00000E+00
         0.00000E+00
         0.00000E+00
         0.00000E+00
         0.00000E+00
         0.00000E+00
         0.00000E+00
         0.00000E+00
         0.00000E+00
         0.00000E+00
         0.00000E+00
         0.00000E+00
         0.00000E+00
         0.00000E+00
         0.00000E+00
         0.00000E+00
         0.00000E+00
         0.00000E+00
         0.00000E+00
         0.00000E+00
         0.00000E+00
         0.00000E+00
         0.00000E+00
         0.00000E+00
         0.00000E+00
         0.00000E+00
         0.00000E+00
         0.00000E+00
         0.00000E+00
         0.00000E+00
         0.00000E+00
         0.00000E+00
         0.00000E+00
         0.00000E+00
         0.00000E+00
         0.00000E+00
         0.00000E+00
         0.00000E+00
         0.00000E+00
         0.00000E+00
         0.00000E+00
         0.00000E+00
         0.00000E+00
         0.00000E+00
         0.00000E+00
         0.00000E+00
         0.00000E+00
         0.00000E+00
         0.00000E+00
         0.00000E+00
         0.00000E+00
         0.00000E+00
         0.00000E+00
         0.00000E+00
         0.00000E+00
         0.00000E+00
         0.00000E+00
         0.00000E+00
         0.00000E+00
         0.00000E+00
         0.00000E+00
         0.00000E+00
         0.00000E+00
         0.00000E+00
         0.00000E+00
         0.00000E+00
         0.00000E+00
         0.00000E+00
         0.00000E+00
         0.00000E+00
         0.00000E+00
         0.00000E+00
         0.00000E+00
         0.00000E+00
         0.00000E+00
         0.00000E+00
         0.00000E+00
         0.00000E+00
         0.00000E+00
         0.00000E+00
         0.00000E+00
         0.00000E+00
         0.00000E+00
         0.00000E+00
         0.00000E+00
         0.00000E+00
         0.00000E+00
         0.00000E+00
         0.00000E+00
         0.00000E+00
         0.00000E+00
         0.00000E+00
         0.00000E+00
         0.00000E+00
         0.00000E+00
         0.00000E+00
         0.00000E+00
         0.00000E+00
         0.00000E+00
         0.00000E+00
         0.00000E+00
         0.00000E+00
         0.00000E+00
         0.00000E+00
         0.00000E+00
         0.00000E+00
         0.00000E+00
         0.00000E+00
         0.00000E+00
         0.00000E+00
         0.00000E+00
         0.00000E+00
         0.00000E+00
         0.00000E+00
         0.00000E+00
         0.00000E+00
         0.00000E+00
         0.00000E+00
         0.00000E+00
         0.00000E+00
         0.00000E+00
         0.00000E+00
         0.00000E+00
         0.00000E+00
         0.00000E+00
         0.00000E+00
         0.00000E+00
         0.00000E+00
         0.00000E+00
         0.00000E+00
         0.00000E+00
         0.00000E+00
         0.00000E+00
         0.00000E+00
         0.00000E+00
         0.00000E+00
         0.00000E+00
         0.00000E+00
         0.00000E+00
         0.00000E+00
         0.00000E+00
         0.00000E+00
         0.00000E+00
         0.00000E+00
         0.00000E+00
         0.00000E+00
         0.00000E+00
         0.00000E+00
         0.00000E+00
         0.00000E+00
         0.00000E+00
         0.00000E+00
         0.00000E+00
         0.00000E+00
         0.00000E+00
         0.00000E+00
         0.00000E+00
         0.00000E+00
         0.00000E+00
         0.00000E+00
         0.00000E+00
         0.00000E+00
         0.00000E+00
         0.00000E+00
         0.00000E+00
         0.00000E+00
         0.00000E+00
         0.00000E+00
         0.00000E+00
         0.00000E+00
         0.00000E+00
         0.00000E+00
         0.00000E+00
         0.00000E+00
         0.00000E+00
         0.00000E+00
         0.00000E+00
         0.00000E+00
         0.00000E+00
         0.00000E+00
         0.00000E+00
         0.00000E+00
         0.00000E+00
         0.00000E+00
         0.00000E+00
         0.00000E+00
         0.00000E+00
         0.00000E+00
         0.00000E+00
         0.00000E+00
         0.00000E+00
         0.00000E+00
         0.00000E+00
         0.00000E+00
         0.00000E+00
         0.00000E+00
         0.00000E+00
         0.00000E+00
         0.00000E+00
         0.00000E+00
         0.00000E+00
         0.00000E+00
         0.00000E+00
         0.00000E+00
         0.00000E+00
         0.00000E+00
         0.00000E+00
         0.00000E+00
         0.00000E+00
         0.00000E+00
         0.00000E+00
         0.00000E+00
         0.00000E+00
         0.00000E+00
         0.00000E+00
         0.00000E+00
         0.00000E+00
         0.00000E+00
         0.00000E+00
         0.00000E+00
         0.00000E+00
         0.00000E+00
         0.00000E+00
         0.00000E+00
         0.00000E+00
         0.00000E+00
         0.00000E+00
         0.00000E+00
         0.00000E+00
         0.00000E+00
         0.00000E+00
         0.00000E+00
         0.00000E+00
         0.00000E+00
         0.00000E+00
         0.00000E+00
         0.00000E+00
         0.00000E+00
         0.00000E+00
         0.00000E+00
         0.00000E+00
         0.00000E+00
         0.00000E+00
         0.00000E+00
         0.00000E+00
         0.00000E+00
         0.00000E+00
         0.00000E+00
         0.00000E+00
         0.00000E+00
         0.00000E+00
         0.00000E+00
         0.00000E+00
         0.00000E+00
         0.00000E+00
         0.00000E+00
         0.00000E+00
         0.00000E+00
         0.00000E+00
         0.00000E+00
         0.00000E+00
         0.00000E+00
         0.00000E+00
         0.00000E+00
         0.00000E+00
         0.00000E+00
         0.00000E+00
         0.00000E+00
         0.00000E+00
         0.00000E+00
         0.00000E+00
         0.00000E+00
         0.00000E+00
         0.00000E+00
         0.00000E+00
         0.00000E+00
         0.00000E+00
         0.00000E+00
         0.00000E+00
         0.00000E+00
         0.00000E+00
         0.00000E+00
         0.00000E+00
         0.00000E+00
         0.00000E+00
         0.00000E+00
         0.00000E+00
         0.00000E+00
         0.00000E+00
         0.00000E+00
         0.00000E+00
         0.00000E+00
         0.00000E+00
         0.00000E+00
         0.00000E+00
         0.00000E+00
         0.00000E+00
         0.00000E+00
         0.00000E+00
         0.00000E+00
         0.00000E+00
         0.00000E+00
         0.00000E+00
         0.00000E+00
         0.00000E+00
         0.00000E+00
         0.00000E+00
         0.00000E+00
         0.00000E+00
         0.00000E+00
         0.00000E+00
         0.00000E+00
         0.00000E+00
         0.00000E+00
         0.00000E+00
         0.00000E+00
         0.00000E+00
         0.00000E+00
         0.00000E+00
         0.00000E+00
         0.00000E+00
         0.00000E+00
         0.00000E+00
         0.00000E+00
         0.00000E+00
         0.00000E+00
         0.00000E+00
         0.00000E+00
         0.00000E+00
         0.00000E+00
         0.00000E+00
         0.00000E+00
         0.00000E+00
         0.00000E+00
         0.00000E+00
         0.00000E+00
         0.00000E+00
         0.00000E+00
         0.00000E+00
         0.00000E+00
         0.00000E+00
         0.00000E+00
         0.00000E+00
         0.00000E+00
         0.00000E+00
         0.00000E+00
         0.00000E+00
         0.00000E+00
         0.00000E+00
         0.00000E+00
         0.00000E+00
         0.00000E+00
         0.00000E+00
         0.00000E+00
         0.00000E+00
         0.00000E+00
         0.00000E+00
         0.00000E+00
         0.00000E+00
         0.00000E+00
         0.00000E+00
         0.00000E+00
         0.00000E+00
         0.00000E+00
         0.00000E+00
         0.00000E+00
         0.00000E+00
         0.00000E+00
         0.00000E+00
         0.00000E+00
         0.00000E+00
         0.00000E+00
         0.00000E+00
         0.00000E+00
         0.00000E+00
         0.00000E+00
         0.00000E+00
         0.00000E+00
         0.00000E+00
         0.00000E+00
         0.00000E+00
         0.00000E+00
         0.00000E+00
         0.00000E+00
         0.00000E+00
         0.00000E+00
  
SCALARS               pre_disp_force_y  double 1
LOOKUP_TABLE default
         0.00000E+00
         0.00000E+00
         0.00000E+00
         0.00000E+00
         0.00000E+00
         0.00000E+00
         0.00000E+00
         0.00000E+00
         0.00000E+00
         0.00000E+00
         0.00000E+00
         0.00000E+00
         0.00000E+00
         0.00000E+00
         0.00000E+00
         0.00000E+00
         0.00000E+00
         0.00000E+00
         0.00000E+00
         0.00000E+00
         0.00000E+00
         0.00000E+00
         0.00000E+00
         0.00000E+00
         0.00000E+00
         0.00000E+00
         0.00000E+00
         0.00000E+00
         0.00000E+00
         0.00000E+00
         0.00000E+00
         0.00000E+00
         0.00000E+00
         0.00000E+00
         0.00000E+00
         0.00000E+00
         0.00000E+00
         0.00000E+00
         0.00000E+00
         0.00000E+00
         0.00000E+00
         0.00000E+00
         0.00000E+00
         0.00000E+00
         0.00000E+00
         0.00000E+00
         0.00000E+00
         0.00000E+00
         0.00000E+00
         0.00000E+00
         0.00000E+00
         0.00000E+00
         0.00000E+00
         0.00000E+00
         0.00000E+00
         0.00000E+00
         0.00000E+00
         0.00000E+00
         0.00000E+00
         0.00000E+00
         0.00000E+00
         0.00000E+00
         0.00000E+00
         0.00000E+00
         0.00000E+00
         0.00000E+00
         0.00000E+00
         0.00000E+00
         0.00000E+00
         0.00000E+00
         0.00000E+00
         0.00000E+00
         0.00000E+00
         0.00000E+00
         0.00000E+00
         0.00000E+00
         0.00000E+00
         0.00000E+00
         0.00000E+00
         0.00000E+00
         0.00000E+00
         0.00000E+00
         0.00000E+00
         0.00000E+00
         0.00000E+00
         0.00000E+00
         0.00000E+00
         0.00000E+00
         0.00000E+00
         0.00000E+00
         0.00000E+00
         0.00000E+00
         0.00000E+00
         0.00000E+00
         0.00000E+00
         0.00000E+00
         0.00000E+00
         0.00000E+00
         0.00000E+00
         0.00000E+00
         0.00000E+00
         0.00000E+00
         0.00000E+00
         0.00000E+00
         0.00000E+00
         0.00000E+00
         0.00000E+00
         0.00000E+00
         0.00000E+00
         0.00000E+00
         0.00000E+00
         0.00000E+00
         0.00000E+00
         0.00000E+00
         0.00000E+00
         0.00000E+00
         0.00000E+00
         0.00000E+00
         0.00000E+00
         0.00000E+00
         0.00000E+00
         0.00000E+00
         0.00000E+00
         0.00000E+00
         0.00000E+00
         0.00000E+00
         0.00000E+00
         0.00000E+00
         0.00000E+00
         0.00000E+00
         0.00000E+00
         0.00000E+00
         0.00000E+00
         0.00000E+00
         0.00000E+00
         0.00000E+00
         0.00000E+00
         0.00000E+00
         0.00000E+00
         0.00000E+00
         0.00000E+00
         0.00000E+00
         0.00000E+00
         0.00000E+00
         0.00000E+00
         0.00000E+00
         0.00000E+00
         0.00000E+00
         0.00000E+00
         0.00000E+00
         0.00000E+00
         0.00000E+00
         0.00000E+00
         0.00000E+00
         0.00000E+00
         0.00000E+00
         0.00000E+00
         0.00000E+00
         0.00000E+00
         0.00000E+00
         0.00000E+00
         0.00000E+00
         0.00000E+00
         0.00000E+00
         0.00000E+00
         0.00000E+00
         0.00000E+00
         0.00000E+00
         0.00000E+00
         0.00000E+00
         0.00000E+00
         0.00000E+00
         0.00000E+00
         0.00000E+00
         0.00000E+00
         0.00000E+00
         0.00000E+00
         0.00000E+00
         0.00000E+00
         0.00000E+00
         0.00000E+00
         0.00000E+00
         0.00000E+00
         0.00000E+00
         0.00000E+00
         0.00000E+00
         0.00000E+00
         0.00000E+00
         0.00000E+00
         0.00000E+00
         0.00000E+00
         0.00000E+00
         0.00000E+00
         0.00000E+00
         0.00000E+00
         0.00000E+00
         0.00000E+00
         0.00000E+00
         0.00000E+00
         0.00000E+00
         0.00000E+00
         0.00000E+00
         0.00000E+00
         0.00000E+00
         0.00000E+00
         0.00000E+00
         0.00000E+00
         0.00000E+00
         0.00000E+00
         0.00000E+00
         0.00000E+00
         0.00000E+00
         0.00000E+00
         0.00000E+00
         0.00000E+00
         0.00000E+00
         0.00000E+00
         0.00000E+00
         0.00000E+00
         0.00000E+00
         0.00000E+00
         0.00000E+00
         0.00000E+00
         0.00000E+00
         0.00000E+00
         0.00000E+00
         0.00000E+00
         0.00000E+00
         0.00000E+00
         0.00000E+00
         0.00000E+00
         0.00000E+00
         0.00000E+00
         0.00000E+00
         0.00000E+00
         0.00000E+00
         0.00000E+00
         0.00000E+00
         0.00000E+00
         0.00000E+00
         0.00000E+00
         0.00000E+00
         0.00000E+00
         0.00000E+00
         0.00000E+00
         0.00000E+00
         0.00000E+00
         0.00000E+00
         0.00000E+00
         0.00000E+00
         0.00000E+00
         0.00000E+00
         0.00000E+00
         0.00000E+00
         0.00000E+00
         0.00000E+00
         0.00000E+00
         0.00000E+00
         0.00000E+00
         0.00000E+00
         0.00000E+00
         0.00000E+00
         0.00000E+00
         0.00000E+00
         0.00000E+00
         0.00000E+00
         0.00000E+00
         0.00000E+00
         0.00000E+00
         0.00000E+00
         0.00000E+00
         0.00000E+00
         0.00000E+00
         0.00000E+00
         0.00000E+00
         0.00000E+00
         0.00000E+00
         0.00000E+00
         0.00000E+00
         0.00000E+00
         0.00000E+00
         0.00000E+00
         0.00000E+00
         0.00000E+00
         0.00000E+00
         0.00000E+00
         0.00000E+00
         0.00000E+00
         0.00000E+00
         0.00000E+00
         0.00000E+00
         0.00000E+00
         0.00000E+00
         0.00000E+00
         0.00000E+00
         0.00000E+00
         0.00000E+00
         0.00000E+00
         0.00000E+00
         0.00000E+00
         0.00000E+00
         0.00000E+00
         0.00000E+00
         0.00000E+00
         0.00000E+00
         0.00000E+00
         0.00000E+00
         0.00000E+00
         0.00000E+00
         0.00000E+00
         0.00000E+00
         0.00000E+00
         0.00000E+00
         0.00000E+00
         0.00000E+00
         0.00000E+00
         0.00000E+00
         0.00000E+00
         0.00000E+00
         0.00000E+00
         0.00000E+00
         0.00000E+00
         0.00000E+00
         0.00000E+00
         0.00000E+00
         0.00000E+00
         0.00000E+00
         0.00000E+00
         0.00000E+00
         0.00000E+00
         0.00000E+00
         0.00000E+00
         0.00000E+00
         0.00000E+00
         0.00000E+00
         0.00000E+00
         0.00000E+00
         0.00000E+00
         0.00000E+00
         0.00000E+00
         0.00000E+00
         0.00000E+00
         0.00000E+00
         0.00000E+00
         0.00000E+00
         0.00000E+00
         0.00000E+00
         0.00000E+00
         0.00000E+00
         0.00000E+00
         0.00000E+00
         0.00000E+00
         0.00000E+00
         0.00000E+00
         0.00000E+00
         0.00000E+00
         0.00000E+00
         0.00000E+00
         0.00000E+00
         0.00000E+00
         0.00000E+00
         0.00000E+00
         0.00000E+00
         0.00000E+00
         0.00000E+00
         0.00000E+00
         0.00000E+00
         0.00000E+00
         0.00000E+00
         0.00000E+00
         0.00000E+00
         0.00000E+00
         0.00000E+00
         0.00000E+00
         0.00000E+00
         0.00000E+00
         0.00000E+00
         0.00000E+00
         0.00000E+00
         0.00000E+00
         0.00000E+00
         0.00000E+00
         0.00000E+00
         0.00000E+00
         0.00000E+00
         0.00000E+00
         0.00000E+00
         0.00000E+00
         0.00000E+00
         0.00000E+00
         0.00000E+00
         0.00000E+00
         0.00000E+00
         0.00000E+00
         0.00000E+00
         0.00000E+00
         0.00000E+00
         0.00000E+00
         0.00000E+00
         0.00000E+00
         0.00000E+00
         0.00000E+00
         0.00000E+00
         0.00000E+00
         0.00000E+00
         0.00000E+00
         0.00000E+00
         0.00000E+00
         0.00000E+00
         0.00000E+00
         0.00000E+00
         0.00000E+00
         0.00000E+00
         0.00000E+00
         0.00000E+00
         0.00000E+00
         0.00000E+00
         0.00000E+00
         0.00000E+00
         0.00000E+00
         0.00000E+00
         0.00000E+00
         0.00000E+00
         0.00000E+00
         0.00000E+00
         0.00000E+00
         0.00000E+00
         0.00000E+00
         0.00000E+00
         0.00000E+00
         0.00000E+00
         0.00000E+00
         0.00000E+00
         0.00000E+00
         0.00000E+00
         0.00000E+00
         0.00000E+00
         0.00000E+00
         0.00000E+00
         0.00000E+00
         0.00000E+00
         0.00000E+00
         0.00000E+00
         0.00000E+00
         0.00000E+00
         0.00000E+00
         0.00000E+00
         0.00000E+00
         0.00000E+00
         0.00000E+00
         0.00000E+00
         0.00000E+00
         0.00000E+00
         0.00000E+00
         0.00000E+00
         0.00000E+00
         0.00000E+00
         0.00000E+00
         0.00000E+00
         0.00000E+00
         0.00000E+00
         0.00000E+00
         0.00000E+00
         0.00000E+00
         0.00000E+00
         0.00000E+00
         0.00000E+00
         0.00000E+00
         0.00000E+00
         0.00000E+00
         0.00000E+00
         0.00000E+00
         0.00000E+00
         0.00000E+00
         0.00000E+00
         0.00000E+00
         0.00000E+00
         0.00000E+00
         0.00000E+00
         0.00000E+00
         0.00000E+00
         0.00000E+00
         0.00000E+00
         0.00000E+00
         0.00000E+00
         0.00000E+00
         0.00000E+00
         0.00000E+00
         0.00000E+00
         0.00000E+00
         0.00000E+00
         0.00000E+00
         0.00000E+00
         0.00000E+00
         0.00000E+00
         0.00000E+00
         0.00000E+00
         0.00000E+00
         0.00000E+00
         0.00000E+00
         0.00000E+00
         0.00000E+00
         0.00000E+00
         0.00000E+00
         0.00000E+00
         0.00000E+00
         0.00000E+00
         0.00000E+00
         0.00000E+00
         0.00000E+00
         0.00000E+00
         0.00000E+00
         0.00000E+00
         0.00000E+00
         0.00000E+00
         0.00000E+00
         0.00000E+00
         0.00000E+00
         0.00000E+00
         0.00000E+00
         0.00000E+00
         0.00000E+00
         0.00000E+00
         0.00000E+00
         0.00000E+00
         0.00000E+00
         0.00000E+00
         0.00000E+00
         0.00000E+00
         0.00000E+00
         0.00000E+00
         0.00000E+00
         0.00000E+00
         0.00000E+00
         0.00000E+00
         0.00000E+00
         0.00000E+00
         0.00000E+00
         0.00000E+00
         0.00000E+00
         0.00000E+00
         0.00000E+00
         0.00000E+00
         0.00000E+00
         0.00000E+00
         0.00000E+00
         0.00000E+00
         0.00000E+00
         0.00000E+00
         0.00000E+00
         0.00000E+00
         0.00000E+00
         0.00000E+00
         0.00000E+00
         0.00000E+00
         0.00000E+00
         0.00000E+00
         0.00000E+00
         0.00000E+00
         0.00000E+00
         0.00000E+00
         0.00000E+00
         0.00000E+00
         0.00000E+00
         0.00000E+00
         0.00000E+00
         0.00000E+00
         0.00000E+00
         0.00000E+00
         0.00000E+00
         0.00000E+00
         0.00000E+00
         0.00000E+00
         0.00000E+00
         0.00000E+00
         0.00000E+00
         0.00000E+00
         0.00000E+00
         0.00000E+00
         0.00000E+00
         0.00000E+00
         0.00000E+00
         0.00000E+00
         0.00000E+00
         0.00000E+00
         0.00000E+00
         0.00000E+00
         0.00000E+00
         0.00000E+00
         0.00000E+00
         0.00000E+00
         0.00000E+00
         0.00000E+00
         0.00000E+00
         0.00000E+00
         0.00000E+00
         0.00000E+00
         0.00000E+00
         0.00000E+00
         0.00000E+00
         0.00000E+00
         0.00000E+00
         0.00000E+00
         0.00000E+00
         0.00000E+00
         0.00000E+00
         0.00000E+00
         0.00000E+00
         0.00000E+00
         0.00000E+00
         0.00000E+00
         0.00000E+00
         0.00000E+00
         0.00000E+00
         0.00000E+00
         0.00000E+00
         0.00000E+00
         0.00000E+00
         0.00000E+00
         0.00000E+00
         0.00000E+00
         0.00000E+00
         0.00000E+00
         0.00000E+00
         0.00000E+00
         0.00000E+00
         0.00000E+00
         0.00000E+00
         0.00000E+00
         0.00000E+00
         0.00000E+00
         0.00000E+00
         0.00000E+00
         0.00000E+00
         0.00000E+00
         0.00000E+00
         0.00000E+00
         0.00000E+00
         0.00000E+00
         0.00000E+00
         0.00000E+00
         0.00000E+00
         0.00000E+00
         0.00000E+00
         0.00000E+00
         0.00000E+00
         0.00000E+00
         0.00000E+00
         0.00000E+00
         0.00000E+00
         0.00000E+00
         0.00000E+00
         0.00000E+00
         0.00000E+00
         0.00000E+00
         0.00000E+00
         0.00000E+00
         0.00000E+00
         0.00000E+00
         0.00000E+00
         0.00000E+00
         0.00000E+00
         0.00000E+00
         0.00000E+00
         0.00000E+00
         0.00000E+00
         0.00000E+00
         0.00000E+00
         0.00000E+00
         0.00000E+00
         0.00000E+00
         0.00000E+00
         0.00000E+00
         0.00000E+00
         0.00000E+00
         0.00000E+00
         0.00000E+00
         0.00000E+00
         0.00000E+00
         0.00000E+00
         0.00000E+00
         0.00000E+00
         0.00000E+00
         0.00000E+00
         0.00000E+00
         0.00000E+00
         0.00000E+00
         0.00000E+00
         0.00000E+00
         0.00000E+00
         0.00000E+00
         0.00000E+00
         0.00000E+00
         0.00000E+00
         0.00000E+00
         0.00000E+00
         0.00000E+00
         0.00000E+00
         0.00000E+00
         0.00000E+00
         0.00000E+00
         0.00000E+00
         0.00000E+00
         0.00000E+00
         0.00000E+00
         0.00000E+00
         0.00000E+00
         0.00000E+00
         0.00000E+00
         0.00000E+00
         0.00000E+00
         0.00000E+00
         0.00000E+00
         0.00000E+00
         0.00000E+00
         0.00000E+00
         0.00000E+00
         0.00000E+00
         0.00000E+00
         0.00000E+00
         0.00000E+00
         0.00000E+00
         0.00000E+00
         0.00000E+00
         0.00000E+00
         0.00000E+00
         0.00000E+00
         0.00000E+00
         0.00000E+00
         0.00000E+00
         0.00000E+00
         0.00000E+00
         0.00000E+00
         0.00000E+00
         0.00000E+00
         0.00000E+00
         0.00000E+00
         0.00000E+00
         0.00000E+00
         0.00000E+00
         0.00000E+00
         0.00000E+00
         0.00000E+00
         0.00000E+00
         0.00000E+00
         0.00000E+00
         0.00000E+00
         0.00000E+00
         0.00000E+00
         0.00000E+00
         0.00000E+00
         0.00000E+00
         0.00000E+00
         0.00000E+00
         0.00000E+00
         0.00000E+00
         0.00000E+00
         0.00000E+00
         0.00000E+00
         0.00000E+00
         0.00000E+00
         0.00000E+00
         0.00000E+00
         0.00000E+00
         0.00000E+00
         0.00000E+00
         0.00000E+00
         0.00000E+00
         0.00000E+00
         0.00000E+00
         0.00000E+00
         0.00000E+00
         0.00000E+00
         0.00000E+00
         0.00000E+00
         0.00000E+00
         0.00000E+00
         0.00000E+00
         0.00000E+00
         0.00000E+00
         0.00000E+00
         0.00000E+00
         0.00000E+00
         0.00000E+00
         0.00000E+00
         0.00000E+00
         0.00000E+00
         0.00000E+00
         0.00000E+00
         0.00000E+00
         0.00000E+00
         0.00000E+00
         0.00000E+00
         0.00000E+00
         0.00000E+00
         0.00000E+00
         0.00000E+00
         0.00000E+00
         0.00000E+00
         0.00000E+00
         0.00000E+00
         0.00000E+00
         0.00000E+00
         0.00000E+00
         0.00000E+00
         0.00000E+00
         0.00000E+00
         0.00000E+00
         0.00000E+00
         0.00000E+00
         0.00000E+00
         0.00000E+00
         0.00000E+00
         0.00000E+00
         0.00000E+00
         0.00000E+00
         0.00000E+00
         0.00000E+00
         0.00000E+00
         0.00000E+00
         0.00000E+00
         0.00000E+00
         0.00000E+00
         0.00000E+00
         0.00000E+00
         0.00000E+00
         0.00000E+00
         0.00000E+00
         0.00000E+00
         0.00000E+00
         0.00000E+00
         0.00000E+00
         0.00000E+00
         0.00000E+00
         0.00000E+00
         0.00000E+00
         0.00000E+00
         0.00000E+00
         0.00000E+00
         0.00000E+00
         0.00000E+00
         0.00000E+00
         0.00000E+00
         0.00000E+00
         0.00000E+00
         0.00000E+00
         0.00000E+00
         0.00000E+00
         0.00000E+00
         0.00000E+00
         0.00000E+00
         0.00000E+00
         0.00000E+00
         0.00000E+00
         0.00000E+00
         0.00000E+00
         0.00000E+00
         0.00000E+00
         0.00000E+00
         0.00000E+00
         0.00000E+00
         0.00000E+00
         0.00000E+00
         0.00000E+00
         0.00000E+00
         0.00000E+00
         0.00000E+00
         0.00000E+00
         0.00000E+00
         0.00000E+00
         0.00000E+00
         0.00000E+00
         0.00000E+00
         0.00000E+00
         0.00000E+00
         0.00000E+00
         0.00000E+00
         0.00000E+00
         0.00000E+00
         0.00000E+00
         0.00000E+00
         0.00000E+00
         0.00000E+00
         0.00000E+00
         0.00000E+00
         0.00000E+00
         0.00000E+00
         0.00000E+00
         0.00000E+00
         0.00000E+00
         0.00000E+00
         0.00000E+00
         0.00000E+00
         0.00000E+00
         0.00000E+00
         0.00000E+00
         0.00000E+00
         0.00000E+00
         0.00000E+00
         0.00000E+00
         0.00000E+00
         0.00000E+00
         0.00000E+00
         0.00000E+00
         0.00000E+00
         0.00000E+00
         0.00000E+00
         0.00000E+00
         0.00000E+00
         0.00000E+00
         0.00000E+00
         0.00000E+00
         0.00000E+00
         0.00000E+00
         0.00000E+00
         0.00000E+00
         0.00000E+00
         0.00000E+00
         0.00000E+00
         0.00000E+00
         0.00000E+00
         0.00000E+00
         0.00000E+00
         0.00000E+00
         0.00000E+00
         0.00000E+00
         0.00000E+00
         0.00000E+00
         0.00000E+00
         0.00000E+00
         0.00000E+00
         0.00000E+00
         0.00000E+00
         0.00000E+00
         0.00000E+00
         0.00000E+00
         0.00000E+00
         0.00000E+00
         0.00000E+00
         0.00000E+00
         0.00000E+00
         0.00000E+00
         0.00000E+00
         0.00000E+00
         0.00000E+00
         0.00000E+00
         0.00000E+00
         0.00000E+00
         0.00000E+00
         0.00000E+00
         0.00000E+00
         0.00000E+00
         0.00000E+00
         0.00000E+00
         0.00000E+00
         0.00000E+00
         0.00000E+00
         0.00000E+00
         0.00000E+00
         0.00000E+00
         0.00000E+00
         0.00000E+00
         0.00000E+00
         0.00000E+00
         0.00000E+00
         0.00000E+00
         0.00000E+00
         0.00000E+00
         0.00000E+00
         0.00000E+00
         0.00000E+00
         0.00000E+00
         0.00000E+00
         0.00000E+00
         0.00000E+00
         0.00000E+00
         0.00000E+00
         0.00000E+00
         0.00000E+00
         0.00000E+00
         0.00000E+00
         0.00000E+00
         0.00000E+00
         0.00000E+00
         0.00000E+00
         0.00000E+00
         0.00000E+00
         0.00000E+00
         0.00000E+00
         0.00000E+00
         0.00000E+00
         0.00000E+00
         0.00000E+00
         0.00000E+00
         0.00000E+00
         0.00000E+00
         0.00000E+00
         0.00000E+00
         0.00000E+00
         0.00000E+00
         0.00000E+00
         0.00000E+00
         0.00000E+00
         0.00000E+00
         0.00000E+00
         0.00000E+00
         0.00000E+00
         0.00000E+00
         0.00000E+00
         0.00000E+00
         0.00000E+00
         0.00000E+00
         0.00000E+00
         0.00000E+00
         0.00000E+00
         0.00000E+00
         0.00000E+00
         0.00000E+00
         0.00000E+00
         0.00000E+00
         0.00000E+00
         0.00000E+00
         0.00000E+00
         0.00000E+00
         0.00000E+00
         0.00000E+00
         0.00000E+00
         0.00000E+00
         0.00000E+00
         0.00000E+00
         0.00000E+00
         0.00000E+00
         0.00000E+00
         0.00000E+00
         0.00000E+00
         0.00000E+00
         0.00000E+00
         0.00000E+00
         0.00000E+00
         0.00000E+00
         0.00000E+00
         0.00000E+00
         0.00000E+00
         0.00000E+00
         0.00000E+00
         0.00000E+00
         0.00000E+00
         0.00000E+00
         0.00000E+00
         0.00000E+00
         0.00000E+00
         0.00000E+00
         0.00000E+00
         0.00000E+00
         0.00000E+00
         0.00000E+00
         0.00000E+00
         0.00000E+00
         0.00000E+00
         0.00000E+00
         0.00000E+00
         0.00000E+00
         0.00000E+00
         0.00000E+00
         0.00000E+00
         0.00000E+00
         0.00000E+00
         0.00000E+00
         0.00000E+00
         0.00000E+00
         0.00000E+00
         0.00000E+00
         0.00000E+00
         0.00000E+00
         0.00000E+00
         0.00000E+00
         0.00000E+00
         0.00000E+00
         0.00000E+00
         0.00000E+00
         0.00000E+00
         0.00000E+00
         0.00000E+00
         0.00000E+00
         0.00000E+00
         0.00000E+00
         0.00000E+00
         0.00000E+00
         0.00000E+00
         0.00000E+00
         0.00000E+00
         0.00000E+00
         0.00000E+00
         0.00000E+00
         0.00000E+00
         0.00000E+00
         0.00000E+00
         0.00000E+00
         0.00000E+00
         0.00000E+00
         0.00000E+00
         0.00000E+00
         0.00000E+00
         0.00000E+00
         0.00000E+00
         0.00000E+00
         0.00000E+00
         0.00000E+00
         0.00000E+00
         0.00000E+00
         0.00000E+00
         0.00000E+00
         0.00000E+00
         0.00000E+00
         0.00000E+00
         0.00000E+00
         0.00000E+00
         0.00000E+00
         0.00000E+00
         0.00000E+00
         0.00000E+00
         0.00000E+00
         0.00000E+00
         0.00000E+00
         0.00000E+00
         0.00000E+00
         0.00000E+00
         0.00000E+00
         0.00000E+00
         0.00000E+00
         0.00000E+00
         0.00000E+00
         0.00000E+00
         0.00000E+00
         0.00000E+00
         0.00000E+00
         0.00000E+00
         0.00000E+00
         0.00000E+00
         0.00000E+00
         0.00000E+00
         0.00000E+00
         0.00000E+00
         0.00000E+00
         0.00000E+00
         0.00000E+00
         0.00000E+00
         0.00000E+00
         0.00000E+00
         0.00000E+00
         0.00000E+00
         0.00000E+00
         0.00000E+00
         0.00000E+00
         0.00000E+00
         0.00000E+00
         0.00000E+00
         0.00000E+00
         0.00000E+00
         0.00000E+00
         0.00000E+00
         0.00000E+00
         0.00000E+00
         0.00000E+00
         0.00000E+00
         0.00000E+00
         0.00000E+00
         0.00000E+00
         0.00000E+00
         0.00000E+00
         0.00000E+00
         0.00000E+00
         0.00000E+00
         0.00000E+00
         0.00000E+00
         0.00000E+00
         0.00000E+00
         0.00000E+00
         0.00000E+00
         0.00000E+00
         0.00000E+00
         0.00000E+00
         0.00000E+00
         0.00000E+00
         0.00000E+00
         0.00000E+00
         0.00000E+00
         0.00000E+00
         0.00000E+00
         0.00000E+00
         0.00000E+00
         0.00000E+00
         0.00000E+00
         0.00000E+00
         0.00000E+00
         0.00000E+00
         0.00000E+00
         0.00000E+00
         0.00000E+00
         0.00000E+00
         0.00000E+00
         0.00000E+00
         0.00000E+00
         0.00000E+00
         0.00000E+00
         0.00000E+00
         0.00000E+00
         0.00000E+00
         0.00000E+00
         0.00000E+00
         0.00000E+00
         0.00000E+00
         0.00000E+00
         0.00000E+00
         0.00000E+00
         0.00000E+00
         0.00000E+00
         0.00000E+00
         0.00000E+00
         0.00000E+00
         0.00000E+00
         0.00000E+00
         0.00000E+00
         0.00000E+00
         0.00000E+00
         0.00000E+00
         0.00000E+00
         0.00000E+00
         0.00000E+00
         0.00000E+00
         0.00000E+00
         0.00000E+00
         0.00000E+00
         0.00000E+00
         0.00000E+00
         0.00000E+00
         0.00000E+00
         0.00000E+00
         0.00000E+00
         0.00000E+00
         0.00000E+00
         0.00000E+00
         0.00000E+00
         0.00000E+00
         0.00000E+00
         0.00000E+00
         0.00000E+00
         0.00000E+00
         0.00000E+00
         0.00000E+00
         0.00000E+00
         0.00000E+00
         0.00000E+00
         0.00000E+00
         0.00000E+00
         0.00000E+00
         0.00000E+00
         0.00000E+00
         0.00000E+00
         0.00000E+00
         0.00000E+00
         0.00000E+00
         0.00000E+00
         0.00000E+00
         0.00000E+00
         0.00000E+00
         0.00000E+00
         0.00000E+00
         0.00000E+00
         0.00000E+00
         0.00000E+00
         0.00000E+00
         0.00000E+00
         0.00000E+00
         0.00000E+00
         0.00000E+00
         0.00000E+00
         0.00000E+00
         0.00000E+00
         0.00000E+00
         0.00000E+00
         0.00000E+00
         0.00000E+00
         0.00000E+00
         0.00000E+00
         0.00000E+00
         0.00000E+00
         0.00000E+00
         0.00000E+00
         0.00000E+00
         0.00000E+00
         0.00000E+00
         0.00000E+00
         0.00000E+00
         0.00000E+00
         0.00000E+00
         0.00000E+00
         0.00000E+00
         0.00000E+00
         0.00000E+00
         0.00000E+00
         0.00000E+00
         0.00000E+00
         0.00000E+00
         0.00000E+00
         0.00000E+00
         0.00000E+00
         0.00000E+00
         0.00000E+00
         0.00000E+00
         0.00000E+00
         0.00000E+00
         0.00000E+00
         0.00000E+00
         0.00000E+00
         0.00000E+00
         0.00000E+00
         0.00000E+00
         0.00000E+00
         0.00000E+00
         0.00000E+00
         0.00000E+00
         0.00000E+00
         0.00000E+00
         0.00000E+00
         0.00000E+00
         0.00000E+00
         0.00000E+00
         0.00000E+00
         0.00000E+00
         0.00000E+00
         0.00000E+00
         0.00000E+00
         0.00000E+00
         0.00000E+00
         0.00000E+00
         0.00000E+00
         0.00000E+00
         0.00000E+00
         0.00000E+00
         0.00000E+00
         0.00000E+00
         0.00000E+00
         0.00000E+00
         0.00000E+00
         0.00000E+00
         0.00000E+00
         0.00000E+00
         0.00000E+00
         0.00000E+00
         0.00000E+00
         0.00000E+00
         0.00000E+00
         0.00000E+00
         0.00000E+00
         0.00000E+00
         0.00000E+00
         0.00000E+00
         0.00000E+00
         0.00000E+00
         0.00000E+00
         0.00000E+00
         0.00000E+00
         0.00000E+00
         0.00000E+00
         0.00000E+00
         0.00000E+00
         0.00000E+00
         0.00000E+00
         0.00000E+00
         0.00000E+00
         0.00000E+00
         0.00000E+00
         0.00000E+00
         0.00000E+00
         0.00000E+00
         0.00000E+00
         0.00000E+00
         0.00000E+00
         0.00000E+00
         0.00000E+00
         0.00000E+00
         0.00000E+00
         0.00000E+00
         0.00000E+00
         0.00000E+00
         0.00000E+00
         0.00000E+00
         0.00000E+00
         0.00000E+00
         0.00000E+00
         0.00000E+00
         0.00000E+00
         0.00000E+00
         0.00000E+00
         0.00000E+00
         0.00000E+00
         0.00000E+00
         0.00000E+00
         0.00000E+00
         0.00000E+00
         0.00000E+00
         0.00000E+00
         0.00000E+00
         0.00000E+00
         0.00000E+00
         0.00000E+00
         0.00000E+00
         0.00000E+00
         0.00000E+00
         0.00000E+00
         0.00000E+00
         0.00000E+00
         0.00000E+00
         0.00000E+00
         0.00000E+00
         0.00000E+00
         0.00000E+00
         0.00000E+00
         0.00000E+00
         0.00000E+00
         0.00000E+00
         0.00000E+00
         0.00000E+00
         0.00000E+00
         0.00000E+00
         0.00000E+00
         0.00000E+00
         0.00000E+00
         0.00000E+00
         0.00000E+00
         0.00000E+00
         0.00000E+00
         0.00000E+00
         0.00000E+00
         0.00000E+00
         0.00000E+00
         0.00000E+00
         0.00000E+00
         0.00000E+00
         0.00000E+00
         0.00000E+00
         0.00000E+00
         0.00000E+00
         0.00000E+00
         0.00000E+00
         0.00000E+00
         0.00000E+00
         0.00000E+00
         0.00000E+00
         0.00000E+00
         0.00000E+00
         0.00000E+00
         0.00000E+00
         0.00000E+00
         0.00000E+00
         0.00000E+00
         0.00000E+00
         0.00000E+00
         0.00000E+00
         0.00000E+00
         0.00000E+00
         0.00000E+00
         0.00000E+00
         0.00000E+00
         0.00000E+00
         0.00000E+00
         0.00000E+00
         0.00000E+00
         0.00000E+00
         0.00000E+00
         0.00000E+00
         0.00000E+00
         0.00000E+00
         0.00000E+00
         0.00000E+00
         0.00000E+00
         0.00000E+00
         0.00000E+00
         0.00000E+00
         0.00000E+00
         0.00000E+00
         0.00000E+00
         0.00000E+00
         0.00000E+00
         0.00000E+00
         0.00000E+00
         0.00000E+00
         0.00000E+00
         0.00000E+00
         0.00000E+00
         0.00000E+00
         0.00000E+00
         0.00000E+00
         0.00000E+00
         0.00000E+00
         0.00000E+00
         0.00000E+00
         0.00000E+00
         0.00000E+00
         0.00000E+00
         0.00000E+00
         0.00000E+00
         0.00000E+00
         0.00000E+00
         0.00000E+00
         0.00000E+00
         0.00000E+00
         0.00000E+00
         0.00000E+00
         0.00000E+00
         0.00000E+00
         0.00000E+00
         0.00000E+00
         0.00000E+00
         0.00000E+00
         0.00000E+00
         0.00000E+00
         0.00000E+00
         0.00000E+00
         0.00000E+00
         0.00000E+00
         0.00000E+00
         0.00000E+00
         0.00000E+00
         0.00000E+00
         0.00000E+00
         0.00000E+00
         0.00000E+00
         0.00000E+00
         0.00000E+00
         0.00000E+00
         0.00000E+00
         0.00000E+00
         0.00000E+00
         0.00000E+00
         0.00000E+00
         0.00000E+00
         0.00000E+00
         0.00000E+00
         0.00000E+00
         0.00000E+00
         0.00000E+00
         0.00000E+00
         0.00000E+00
         0.00000E+00
         0.00000E+00
         0.00000E+00
         0.00000E+00
         0.00000E+00
         0.00000E+00
         0.00000E+00
         0.00000E+00
         0.00000E+00
         0.00000E+00
         0.00000E+00
         0.00000E+00
         0.00000E+00
         0.00000E+00
         0.00000E+00
         0.00000E+00
         0.00000E+00
         0.00000E+00
         0.00000E+00
         0.00000E+00
         0.00000E+00
         0.00000E+00
         0.00000E+00
         0.00000E+00
         0.00000E+00
         0.00000E+00
         0.00000E+00
         0.00000E+00
         0.00000E+00
         0.00000E+00
         0.00000E+00
         0.00000E+00
         0.00000E+00
         0.00000E+00
         0.00000E+00
         0.00000E+00
         0.00000E+00
         0.00000E+00
         0.00000E+00
         0.00000E+00
         0.00000E+00
         0.00000E+00
         0.00000E+00
         0.00000E+00
         0.00000E+00
         0.00000E+00
         0.00000E+00
         0.00000E+00
         0.00000E+00
         0.00000E+00
         0.00000E+00
         0.00000E+00
         0.00000E+00
         0.00000E+00
         0.00000E+00
         0.00000E+00
         0.00000E+00
         0.00000E+00
         0.00000E+00
         0.00000E+00
         0.00000E+00
         0.00000E+00
         0.00000E+00
         0.00000E+00
         0.00000E+00
         0.00000E+00
         0.00000E+00
         0.00000E+00
         0.00000E+00
         0.00000E+00
         0.00000E+00
         0.00000E+00
         0.00000E+00
         0.00000E+00
         0.00000E+00
         0.00000E+00
         0.00000E+00
         0.00000E+00
         0.00000E+00
         0.00000E+00
         0.00000E+00
         0.00000E+00
         0.00000E+00
         0.00000E+00
         0.00000E+00
         0.00000E+00
         0.00000E+00
         0.00000E+00
         0.00000E+00
         0.00000E+00
         0.00000E+00
         0.00000E+00
         0.00000E+00
         0.00000E+00
         0.00000E+00
         0.00000E+00
         0.00000E+00
         0.00000E+00
         0.00000E+00
         0.00000E+00
         0.00000E+00
         0.00000E+00
         0.00000E+00
         0.00000E+00
         0.00000E+00
         0.00000E+00
         0.00000E+00
         0.00000E+00
         0.00000E+00
         0.00000E+00
         0.00000E+00
         0.00000E+00
         0.00000E+00
         0.00000E+00
         0.00000E+00
         0.00000E+00
         0.00000E+00
         0.00000E+00
         0.00000E+00
         0.00000E+00
         0.00000E+00
         0.00000E+00
         0.00000E+00
         0.00000E+00
         0.00000E+00
         0.00000E+00
         0.00000E+00
         0.00000E+00
         0.00000E+00
         0.00000E+00
         0.00000E+00
         0.00000E+00
         0.00000E+00
         0.00000E+00
         0.00000E+00
         0.00000E+00
         0.00000E+00
         0.00000E+00
         0.00000E+00
         0.00000E+00
         0.00000E+00
         0.00000E+00
         0.00000E+00
         0.00000E+00
         0.00000E+00
         0.00000E+00
         0.00000E+00
         0.00000E+00
         0.00000E+00
         0.00000E+00
         0.00000E+00
         0.00000E+00
         0.00000E+00
         0.00000E+00
         0.00000E+00
         0.00000E+00
         0.00000E+00
         0.00000E+00
         0.00000E+00
         0.00000E+00
         0.00000E+00
         0.00000E+00
         0.00000E+00
         0.00000E+00
         0.00000E+00
         0.00000E+00
         0.00000E+00
         0.00000E+00
         0.00000E+00
         0.00000E+00
         0.00000E+00
         0.00000E+00
         0.00000E+00
         0.00000E+00
         0.00000E+00
         0.00000E+00
         0.00000E+00
         0.00000E+00
         0.00000E+00
         0.00000E+00
         0.00000E+00
         0.00000E+00
         0.00000E+00
         0.00000E+00
         0.00000E+00
         0.00000E+00
         0.00000E+00
         0.00000E+00
         0.00000E+00
         0.00000E+00
         0.00000E+00
         0.00000E+00
         0.00000E+00
         0.00000E+00
         0.00000E+00
         0.00000E+00
         0.00000E+00
         0.00000E+00
         0.00000E+00
         0.00000E+00
         0.00000E+00
         0.00000E+00
         0.00000E+00
         0.00000E+00
         0.00000E+00
         0.00000E+00
         0.00000E+00
         0.00000E+00
         0.00000E+00
         0.00000E+00
         0.00000E+00
         0.00000E+00
         0.00000E+00
         0.00000E+00
         0.00000E+00
         0.00000E+00
         0.00000E+00
         0.00000E+00
         0.00000E+00
         0.00000E+00
         0.00000E+00
         0.00000E+00
         0.00000E+00
         0.00000E+00
         0.00000E+00
         0.00000E+00
         0.00000E+00
         0.00000E+00
         0.00000E+00
         0.00000E+00
         0.00000E+00
         0.00000E+00
         0.00000E+00
         0.00000E+00
         0.00000E+00
         0.00000E+00
         0.00000E+00
         0.00000E+00
         0.00000E+00
         0.00000E+00
         0.00000E+00
         0.00000E+00
         0.00000E+00
         0.00000E+00
         0.00000E+00
         0.00000E+00
         0.00000E+00
         0.00000E+00
         0.00000E+00
         0.00000E+00
         0.00000E+00
         0.00000E+00
         0.00000E+00
         0.00000E+00
         0.00000E+00
         0.00000E+00
         0.00000E+00
         0.00000E+00
         0.00000E+00
         0.00000E+00
         0.00000E+00
         0.00000E+00
         0.00000E+00
         0.00000E+00
         0.00000E+00
         0.00000E+00
         0.00000E+00
         0.00000E+00
         0.00000E+00
         0.00000E+00
         0.00000E+00
         0.00000E+00
         0.00000E+00
         0.00000E+00
         0.00000E+00
         0.00000E+00
         0.00000E+00
         0.00000E+00
         0.00000E+00
         0.00000E+00
         0.00000E+00
         0.00000E+00
         0.00000E+00
         0.00000E+00
         0.00000E+00
         0.00000E+00
         0.00000E+00
         0.00000E+00
         0.00000E+00
         0.00000E+00
         0.00000E+00
         0.00000E+00
         0.00000E+00
         0.00000E+00
         0.00000E+00
         0.00000E+00
         0.00000E+00
         0.00000E+00
         0.00000E+00
         0.00000E+00
         0.00000E+00
         0.00000E+00
         0.00000E+00
         0.00000E+00
         0.00000E+00
         0.00000E+00
         0.00000E+00
         0.00000E+00
         0.00000E+00
         0.00000E+00
         0.00000E+00
         0.00000E+00
         0.00000E+00
         0.00000E+00
         0.00000E+00
         0.00000E+00
         0.00000E+00
         0.00000E+00
         0.00000E+00
         0.00000E+00
         0.00000E+00
         0.00000E+00
         0.00000E+00
         0.00000E+00
         0.00000E+00
         0.00000E+00
         0.00000E+00
         0.00000E+00
         0.00000E+00
         0.00000E+00
         0.00000E+00
         0.00000E+00
         0.00000E+00
         0.00000E+00
         0.00000E+00
         0.00000E+00
         0.00000E+00
         0.00000E+00
         0.00000E+00
         0.00000E+00
         0.00000E+00
         0.00000E+00
         0.00000E+00
         0.00000E+00
         0.00000E+00
         0.00000E+00
         0.00000E+00
         0.00000E+00
         0.00000E+00
         0.00000E+00
         0.00000E+00
         0.00000E+00
         0.00000E+00
         0.00000E+00
         0.00000E+00
         0.00000E+00
         0.00000E+00
         0.00000E+00
         0.00000E+00
         0.00000E+00
         0.00000E+00
         0.00000E+00
         0.00000E+00
         0.00000E+00
         0.00000E+00
         0.00000E+00
         0.00000E+00
         0.00000E+00
         0.00000E+00
         0.00000E+00
         0.00000E+00
         0.00000E+00
         0.00000E+00
         0.00000E+00
         0.00000E+00
         0.00000E+00
         0.00000E+00
         0.00000E+00
         0.00000E+00
         0.00000E+00
         0.00000E+00
         0.00000E+00
         0.00000E+00
         0.00000E+00
         0.00000E+00
         0.00000E+00
         0.00000E+00
         0.00000E+00
         0.00000E+00
         0.00000E+00
         0.00000E+00
         0.00000E+00
         0.00000E+00
         0.00000E+00
         0.00000E+00
         0.00000E+00
         0.00000E+00
         0.00000E+00
         0.00000E+00
         0.00000E+00
         0.00000E+00
         0.00000E+00
         0.00000E+00
         0.00000E+00
         0.00000E+00
  
SCALARS               pre_disp_force_z  double 1
LOOKUP_TABLE default
         0.00000E+00
         0.00000E+00
         0.00000E+00
         0.00000E+00
         0.15785E+03
         0.92393E+03
         0.17813E+03
         0.99264E+02
         0.00000E+00
         0.00000E+00
        -0.15962E+03
        -0.25605E+03
         0.00000E+00
         0.00000E+00
         0.79860E+03
         0.26059E+03
         0.00000E+00
         0.00000E+00
        -0.10274E+03
         0.12005E+03
         0.00000E+00
         0.00000E+00
         0.00000E+00
         0.78991E+03
         0.35336E+04
         0.22657E+04
         0.00000E+00
         0.00000E+00
         0.57393E+03
         0.13758E+04
         0.00000E+00
         0.00000E+00
         0.00000E+00
        -0.49870E+02
        -0.23068E+03
        -0.21786E+03
         0.00000E+00
         0.00000E+00
        -0.55515E+02
        -0.13156E+03
         0.00000E+00
         0.00000E+00
        -0.38456E+02
        -0.10357E+03
         0.00000E+00
         0.00000E+00
         0.37932E+02
         0.41527E+02
         0.00000E+00
        -0.15818E+03
         0.00000E+00
         0.30125E+03
         0.00000E+00
         0.58448E+03
         0.00000E+00
         0.83524E+03
         0.00000E+00
         0.00000E+00
         0.75031E+03
        -0.29167E+03
         0.00000E+00
         0.00000E+00
         0.32684E+03
         0.27619E+03
         0.00000E+00
         0.65271E+02
         0.00000E+00
        -0.37184E+02
         0.00000E+00
         0.00000E+00
         0.33357E+01
         0.53245E+03
         0.00000E+00
         0.11088E+04
         0.00000E+00
         0.66089E+04
         0.00000E+00
         0.98737E+04
         0.00000E+00
         0.64359E+04
         0.00000E+00
         0.00000E+00
         0.23584E+04
         0.49386E+03
         0.00000E+00
        -0.34634E+03
         0.00000E+00
         0.37824E+03
         0.00000E+00
        -0.14688E+02
         0.00000E+00
         0.00000E+00
        -0.20354E+03
        -0.68320E+02
         0.00000E+00
         0.27458E+02
         0.00000E+00
        -0.60356E+03
         0.00000E+00
        -0.57428E+03
         0.00000E+00
         0.00000E+00
        -0.19969E+03
        -0.29529E+03
         0.00000E+00
         0.00000E+00
         0.33906E+03
        -0.35990E+02
         0.00000E+00
         0.74524E+03
         0.00000E+00
         0.46669E+03
         0.00000E+00
        -0.16744E+04
         0.00000E+00
        -0.58112E+04
         0.00000E+00
        -0.98891E+04
         0.00000E+00
        -0.17585E+05
         0.00000E+00
        -0.21927E+05
         0.00000E+00
        -0.43558E+04
         0.00000E+00
         0.24383E+04
         0.00000E+00
         0.74688E+03
         0.00000E+00
         0.50398E+03
         0.00000E+00
         0.29713E+03
         0.00000E+00
        -0.19755E+03
         0.00000E+00
        -0.45565E+03
         0.00000E+00
        -0.42729E+03
         0.00000E+00
        -0.50257E+03
         0.00000E+00
        -0.56472E+03
         0.00000E+00
        -0.41195E+03
         0.00000E+00
        -0.28358E+03
         0.00000E+00
         0.90682E+02
         0.00000E+00
         0.51182E+03
         0.00000E+00
        -0.63753E+02
         0.00000E+00
        -0.38062E+03
         0.00000E+00
        -0.16280E+03
         0.00000E+00
         0.00000E+00
         0.00000E+00
         0.00000E+00
         0.00000E+00
         0.00000E+00
         0.00000E+00
         0.00000E+00
         0.00000E+00
         0.00000E+00
         0.00000E+00
         0.00000E+00
         0.00000E+00
         0.00000E+00
         0.00000E+00
         0.00000E+00
         0.00000E+00
         0.00000E+00
         0.00000E+00
         0.00000E+00
         0.00000E+00
         0.00000E+00
         0.00000E+00
         0.00000E+00
         0.00000E+00
         0.00000E+00
         0.00000E+00
         0.00000E+00
         0.00000E+00
         0.00000E+00
         0.00000E+00
         0.00000E+00
         0.00000E+00
         0.00000E+00
         0.00000E+00
         0.00000E+00
         0.00000E+00
         0.00000E+00
         0.00000E+00
         0.00000E+00
         0.00000E+00
         0.00000E+00
         0.00000E+00
         0.00000E+00
         0.00000E+00
         0.00000E+00
         0.00000E+00
         0.00000E+00
         0.00000E+00
         0.00000E+00
         0.00000E+00
         0.00000E+00
         0.00000E+00
         0.00000E+00
         0.00000E+00
         0.00000E+00
         0.00000E+00
         0.00000E+00
         0.00000E+00
         0.00000E+00
         0.00000E+00
         0.00000E+00
         0.00000E+00
         0.00000E+00
         0.00000E+00
         0.00000E+00
         0.00000E+00
         0.00000E+00
         0.00000E+00
         0.00000E+00
         0.00000E+00
         0.00000E+00
         0.00000E+00
         0.00000E+00
         0.00000E+00
         0.00000E+00
         0.00000E+00
         0.00000E+00
         0.00000E+00
         0.00000E+00
         0.00000E+00
         0.00000E+00
         0.00000E+00
         0.00000E+00
         0.00000E+00
         0.00000E+00
         0.00000E+00
         0.00000E+00
         0.00000E+00
         0.00000E+00
         0.00000E+00
         0.00000E+00
         0.00000E+00
         0.00000E+00
         0.00000E+00
         0.00000E+00
         0.00000E+00
         0.00000E+00
         0.00000E+00
         0.00000E+00
         0.00000E+00
         0.00000E+00
         0.00000E+00
         0.00000E+00
         0.00000E+00
         0.00000E+00
         0.00000E+00
         0.00000E+00
         0.00000E+00
         0.00000E+00
         0.00000E+00
         0.00000E+00
         0.00000E+00
         0.00000E+00
         0.00000E+00
         0.00000E+00
         0.00000E+00
         0.00000E+00
         0.00000E+00
         0.00000E+00
         0.00000E+00
         0.00000E+00
         0.00000E+00
         0.00000E+00
         0.00000E+00
         0.00000E+00
         0.00000E+00
         0.00000E+00
         0.00000E+00
         0.00000E+00
         0.00000E+00
         0.00000E+00
         0.00000E+00
         0.00000E+00
         0.00000E+00
         0.00000E+00
         0.00000E+00
         0.00000E+00
         0.00000E+00
         0.00000E+00
         0.00000E+00
         0.00000E+00
         0.00000E+00
         0.00000E+00
         0.00000E+00
         0.00000E+00
         0.00000E+00
         0.00000E+00
         0.00000E+00
         0.00000E+00
         0.00000E+00
         0.00000E+00
         0.00000E+00
         0.00000E+00
         0.00000E+00
         0.00000E+00
         0.00000E+00
         0.00000E+00
         0.00000E+00
         0.00000E+00
         0.00000E+00
         0.00000E+00
         0.00000E+00
         0.00000E+00
         0.00000E+00
         0.00000E+00
         0.00000E+00
         0.00000E+00
         0.00000E+00
         0.00000E+00
         0.00000E+00
         0.00000E+00
         0.00000E+00
         0.00000E+00
         0.00000E+00
         0.00000E+00
         0.00000E+00
         0.00000E+00
         0.00000E+00
         0.00000E+00
         0.00000E+00
         0.00000E+00
         0.00000E+00
         0.00000E+00
         0.00000E+00
         0.00000E+00
         0.00000E+00
         0.00000E+00
         0.00000E+00
         0.00000E+00
         0.00000E+00
         0.00000E+00
         0.00000E+00
         0.00000E+00
         0.00000E+00
         0.00000E+00
         0.00000E+00
         0.00000E+00
         0.00000E+00
         0.00000E+00
         0.00000E+00
         0.00000E+00
         0.00000E+00
         0.00000E+00
         0.00000E+00
         0.00000E+00
         0.00000E+00
         0.00000E+00
         0.00000E+00
         0.00000E+00
         0.00000E+00
         0.00000E+00
         0.00000E+00
         0.00000E+00
         0.00000E+00
         0.00000E+00
         0.00000E+00
         0.00000E+00
         0.00000E+00
         0.00000E+00
         0.00000E+00
         0.00000E+00
         0.00000E+00
         0.00000E+00
         0.00000E+00
         0.00000E+00
         0.00000E+00
         0.00000E+00
         0.00000E+00
         0.00000E+00
         0.00000E+00
         0.00000E+00
         0.00000E+00
         0.00000E+00
         0.00000E+00
         0.00000E+00
         0.00000E+00
         0.00000E+00
         0.00000E+00
         0.00000E+00
         0.00000E+00
         0.00000E+00
         0.00000E+00
         0.00000E+00
         0.00000E+00
         0.00000E+00
         0.00000E+00
         0.00000E+00
         0.00000E+00
         0.00000E+00
         0.00000E+00
         0.00000E+00
         0.00000E+00
         0.00000E+00
         0.00000E+00
         0.00000E+00
         0.00000E+00
         0.00000E+00
         0.00000E+00
         0.00000E+00
         0.00000E+00
         0.00000E+00
         0.00000E+00
         0.00000E+00
         0.00000E+00
         0.00000E+00
         0.00000E+00
         0.00000E+00
         0.00000E+00
         0.00000E+00
         0.00000E+00
         0.00000E+00
         0.00000E+00
         0.00000E+00
         0.00000E+00
         0.00000E+00
         0.00000E+00
         0.00000E+00
         0.00000E+00
         0.00000E+00
         0.00000E+00
         0.00000E+00
         0.00000E+00
         0.00000E+00
         0.00000E+00
         0.00000E+00
         0.00000E+00
         0.00000E+00
         0.00000E+00
         0.00000E+00
         0.00000E+00
         0.00000E+00
         0.00000E+00
         0.00000E+00
         0.00000E+00
         0.00000E+00
         0.00000E+00
         0.00000E+00
         0.00000E+00
         0.00000E+00
         0.00000E+00
         0.00000E+00
         0.00000E+00
         0.00000E+00
         0.00000E+00
         0.00000E+00
         0.00000E+00
         0.00000E+00
         0.00000E+00
         0.00000E+00
         0.00000E+00
         0.00000E+00
         0.00000E+00
         0.00000E+00
         0.00000E+00
         0.00000E+00
         0.00000E+00
         0.00000E+00
         0.00000E+00
         0.00000E+00
         0.00000E+00
         0.00000E+00
         0.00000E+00
         0.00000E+00
         0.00000E+00
         0.00000E+00
         0.00000E+00
         0.00000E+00
         0.00000E+00
         0.00000E+00
         0.00000E+00
         0.00000E+00
         0.00000E+00
         0.00000E+00
         0.00000E+00
         0.00000E+00
         0.00000E+00
         0.00000E+00
         0.00000E+00
         0.00000E+00
         0.00000E+00
         0.00000E+00
         0.00000E+00
         0.00000E+00
         0.00000E+00
         0.00000E+00
         0.00000E+00
         0.00000E+00
         0.00000E+00
         0.00000E+00
         0.00000E+00
         0.00000E+00
         0.00000E+00
         0.00000E+00
         0.00000E+00
         0.00000E+00
         0.00000E+00
         0.00000E+00
         0.00000E+00
         0.00000E+00
         0.00000E+00
         0.00000E+00
         0.00000E+00
         0.00000E+00
         0.00000E+00
         0.00000E+00
         0.00000E+00
         0.00000E+00
         0.00000E+00
         0.00000E+00
         0.00000E+00
         0.00000E+00
         0.00000E+00
         0.00000E+00
         0.00000E+00
         0.00000E+00
         0.00000E+00
         0.00000E+00
         0.00000E+00
         0.00000E+00
         0.00000E+00
         0.00000E+00
         0.00000E+00
         0.00000E+00
         0.00000E+00
         0.00000E+00
         0.00000E+00
         0.00000E+00
         0.00000E+00
         0.00000E+00
         0.00000E+00
         0.00000E+00
         0.00000E+00
         0.00000E+00
         0.00000E+00
         0.00000E+00
         0.00000E+00
         0.00000E+00
         0.00000E+00
         0.00000E+00
         0.00000E+00
         0.00000E+00
         0.00000E+00
         0.00000E+00
         0.00000E+00
         0.00000E+00
         0.00000E+00
         0.00000E+00
         0.00000E+00
         0.00000E+00
         0.00000E+00
         0.00000E+00
         0.00000E+00
         0.00000E+00
         0.00000E+00
         0.00000E+00
         0.00000E+00
         0.00000E+00
         0.00000E+00
         0.00000E+00
         0.00000E+00
         0.00000E+00
         0.00000E+00
         0.00000E+00
         0.00000E+00
         0.00000E+00
         0.00000E+00
         0.00000E+00
         0.00000E+00
         0.00000E+00
         0.00000E+00
         0.00000E+00
         0.00000E+00
         0.00000E+00
         0.00000E+00
         0.00000E+00
         0.00000E+00
         0.00000E+00
         0.00000E+00
         0.00000E+00
         0.00000E+00
         0.00000E+00
         0.00000E+00
         0.00000E+00
         0.00000E+00
         0.00000E+00
         0.00000E+00
         0.00000E+00
         0.00000E+00
         0.00000E+00
         0.00000E+00
         0.00000E+00
         0.00000E+00
         0.00000E+00
         0.00000E+00
         0.00000E+00
         0.00000E+00
         0.00000E+00
         0.00000E+00
         0.00000E+00
         0.00000E+00
         0.00000E+00
         0.00000E+00
         0.00000E+00
         0.00000E+00
         0.00000E+00
         0.00000E+00
         0.00000E+00
         0.00000E+00
         0.00000E+00
         0.00000E+00
         0.00000E+00
         0.00000E+00
         0.00000E+00
         0.00000E+00
         0.00000E+00
         0.00000E+00
         0.00000E+00
         0.00000E+00
         0.00000E+00
         0.00000E+00
         0.00000E+00
         0.00000E+00
         0.00000E+00
         0.00000E+00
         0.00000E+00
         0.00000E+00
         0.00000E+00
         0.00000E+00
         0.00000E+00
         0.00000E+00
         0.00000E+00
         0.00000E+00
         0.00000E+00
         0.00000E+00
         0.00000E+00
         0.00000E+00
         0.00000E+00
         0.00000E+00
         0.00000E+00
         0.00000E+00
         0.00000E+00
         0.00000E+00
         0.00000E+00
         0.00000E+00
         0.00000E+00
         0.00000E+00
         0.00000E+00
         0.00000E+00
         0.00000E+00
         0.00000E+00
         0.00000E+00
         0.00000E+00
         0.00000E+00
         0.00000E+00
         0.00000E+00
         0.00000E+00
         0.00000E+00
         0.00000E+00
         0.00000E+00
         0.00000E+00
         0.00000E+00
         0.00000E+00
         0.00000E+00
         0.00000E+00
         0.00000E+00
         0.00000E+00
         0.00000E+00
         0.00000E+00
         0.00000E+00
         0.00000E+00
         0.00000E+00
         0.00000E+00
         0.00000E+00
         0.00000E+00
         0.00000E+00
         0.00000E+00
         0.00000E+00
         0.00000E+00
         0.00000E+00
         0.00000E+00
         0.00000E+00
         0.00000E+00
         0.00000E+00
         0.00000E+00
         0.00000E+00
         0.00000E+00
         0.00000E+00
         0.00000E+00
         0.00000E+00
         0.00000E+00
         0.00000E+00
         0.00000E+00
         0.00000E+00
         0.00000E+00
         0.00000E+00
         0.00000E+00
         0.00000E+00
         0.00000E+00
         0.00000E+00
         0.00000E+00
         0.00000E+00
         0.00000E+00
         0.00000E+00
         0.00000E+00
         0.00000E+00
         0.00000E+00
         0.00000E+00
         0.00000E+00
         0.00000E+00
         0.00000E+00
         0.00000E+00
         0.00000E+00
         0.00000E+00
         0.00000E+00
         0.00000E+00
         0.00000E+00
         0.00000E+00
         0.00000E+00
         0.00000E+00
         0.00000E+00
         0.00000E+00
         0.00000E+00
         0.00000E+00
         0.00000E+00
         0.00000E+00
         0.00000E+00
         0.00000E+00
         0.00000E+00
         0.00000E+00
         0.00000E+00
         0.00000E+00
         0.00000E+00
         0.00000E+00
         0.00000E+00
         0.00000E+00
         0.00000E+00
         0.00000E+00
         0.00000E+00
         0.00000E+00
         0.00000E+00
         0.00000E+00
         0.00000E+00
         0.00000E+00
         0.00000E+00
         0.00000E+00
         0.00000E+00
         0.00000E+00
         0.00000E+00
         0.00000E+00
         0.00000E+00
         0.00000E+00
         0.00000E+00
         0.00000E+00
         0.00000E+00
         0.00000E+00
         0.00000E+00
         0.00000E+00
         0.00000E+00
         0.00000E+00
         0.00000E+00
         0.00000E+00
         0.00000E+00
         0.00000E+00
         0.00000E+00
         0.00000E+00
         0.00000E+00
         0.00000E+00
         0.00000E+00
         0.00000E+00
         0.00000E+00
         0.00000E+00
         0.00000E+00
         0.00000E+00
         0.00000E+00
         0.00000E+00
         0.00000E+00
         0.00000E+00
         0.00000E+00
         0.00000E+00
         0.00000E+00
         0.00000E+00
         0.00000E+00
         0.00000E+00
         0.00000E+00
         0.00000E+00
         0.00000E+00
         0.00000E+00
         0.00000E+00
         0.00000E+00
         0.00000E+00
         0.00000E+00
         0.00000E+00
         0.00000E+00
         0.00000E+00
         0.00000E+00
         0.00000E+00
         0.00000E+00
         0.00000E+00
         0.00000E+00
         0.00000E+00
         0.00000E+00
         0.00000E+00
         0.00000E+00
         0.00000E+00
         0.00000E+00
         0.00000E+00
         0.00000E+00
         0.00000E+00
         0.00000E+00
         0.00000E+00
         0.00000E+00
         0.00000E+00
         0.00000E+00
         0.00000E+00
         0.00000E+00
         0.00000E+00
         0.00000E+00
         0.00000E+00
         0.00000E+00
         0.00000E+00
         0.00000E+00
         0.00000E+00
         0.00000E+00
         0.00000E+00
         0.00000E+00
         0.00000E+00
         0.00000E+00
         0.00000E+00
         0.00000E+00
         0.00000E+00
         0.00000E+00
         0.00000E+00
         0.00000E+00
         0.00000E+00
         0.00000E+00
         0.00000E+00
         0.00000E+00
         0.00000E+00
         0.00000E+00
         0.00000E+00
         0.00000E+00
         0.00000E+00
         0.00000E+00
         0.00000E+00
         0.00000E+00
         0.00000E+00
         0.00000E+00
         0.00000E+00
         0.00000E+00
         0.00000E+00
         0.00000E+00
         0.00000E+00
         0.00000E+00
         0.00000E+00
         0.00000E+00
         0.00000E+00
         0.00000E+00
         0.00000E+00
         0.00000E+00
         0.00000E+00
         0.00000E+00
         0.00000E+00
         0.00000E+00
         0.00000E+00
         0.00000E+00
         0.00000E+00
         0.00000E+00
         0.00000E+00
         0.00000E+00
         0.00000E+00
         0.00000E+00
         0.00000E+00
         0.00000E+00
         0.00000E+00
         0.00000E+00
         0.00000E+00
         0.00000E+00
         0.00000E+00
         0.00000E+00
         0.00000E+00
         0.00000E+00
         0.00000E+00
         0.00000E+00
         0.00000E+00
         0.00000E+00
         0.00000E+00
         0.00000E+00
         0.00000E+00
         0.00000E+00
         0.00000E+00
         0.00000E+00
         0.00000E+00
         0.00000E+00
         0.00000E+00
         0.00000E+00
         0.00000E+00
         0.00000E+00
         0.00000E+00
         0.00000E+00
         0.00000E+00
         0.00000E+00
         0.00000E+00
         0.00000E+00
         0.00000E+00
         0.00000E+00
         0.00000E+00
         0.00000E+00
         0.00000E+00
         0.00000E+00
         0.00000E+00
         0.00000E+00
         0.00000E+00
         0.00000E+00
         0.00000E+00
         0.00000E+00
         0.00000E+00
         0.00000E+00
         0.00000E+00
         0.00000E+00
         0.00000E+00
         0.00000E+00
         0.00000E+00
         0.00000E+00
         0.00000E+00
         0.00000E+00
         0.00000E+00
         0.00000E+00
         0.00000E+00
         0.00000E+00
         0.00000E+00
         0.00000E+00
         0.00000E+00
         0.00000E+00
         0.00000E+00
         0.00000E+00
         0.00000E+00
         0.00000E+00
         0.00000E+00
         0.00000E+00
         0.00000E+00
         0.00000E+00
         0.00000E+00
         0.00000E+00
         0.00000E+00
         0.00000E+00
         0.00000E+00
         0.00000E+00
         0.00000E+00
         0.00000E+00
         0.00000E+00
         0.00000E+00
         0.00000E+00
         0.00000E+00
         0.00000E+00
         0.00000E+00
         0.00000E+00
         0.00000E+00
         0.00000E+00
         0.00000E+00
         0.00000E+00
         0.00000E+00
         0.00000E+00
         0.00000E+00
         0.00000E+00
         0.00000E+00
         0.00000E+00
         0.00000E+00
         0.00000E+00
         0.00000E+00
         0.00000E+00
         0.00000E+00
         0.00000E+00
         0.00000E+00
         0.00000E+00
         0.00000E+00
         0.00000E+00
         0.00000E+00
         0.00000E+00
         0.00000E+00
         0.00000E+00
         0.00000E+00
         0.00000E+00
         0.00000E+00
         0.00000E+00
         0.00000E+00
         0.00000E+00
         0.00000E+00
         0.00000E+00
         0.00000E+00
         0.00000E+00
         0.00000E+00
         0.00000E+00
         0.00000E+00
         0.00000E+00
         0.00000E+00
         0.00000E+00
         0.00000E+00
         0.00000E+00
         0.00000E+00
         0.00000E+00
         0.00000E+00
         0.00000E+00
         0.00000E+00
         0.00000E+00
         0.00000E+00
         0.00000E+00
         0.00000E+00
         0.00000E+00
         0.00000E+00
         0.00000E+00
         0.00000E+00
         0.00000E+00
         0.00000E+00
         0.00000E+00
         0.00000E+00
         0.00000E+00
         0.00000E+00
         0.00000E+00
         0.00000E+00
         0.00000E+00
         0.00000E+00
         0.00000E+00
         0.00000E+00
         0.00000E+00
         0.00000E+00
         0.00000E+00
         0.00000E+00
         0.00000E+00
         0.00000E+00
         0.00000E+00
         0.00000E+00
         0.00000E+00
         0.00000E+00
         0.00000E+00
         0.00000E+00
         0.00000E+00
         0.00000E+00
         0.00000E+00
         0.00000E+00
         0.00000E+00
         0.00000E+00
         0.00000E+00
         0.00000E+00
         0.00000E+00
         0.00000E+00
         0.00000E+00
         0.00000E+00
         0.00000E+00
         0.00000E+00
         0.00000E+00
         0.00000E+00
         0.00000E+00
         0.00000E+00
         0.00000E+00
         0.00000E+00
         0.00000E+00
         0.00000E+00
         0.00000E+00
         0.00000E+00
         0.00000E+00
         0.00000E+00
         0.00000E+00
         0.00000E+00
         0.00000E+00
         0.00000E+00
         0.00000E+00
         0.00000E+00
         0.00000E+00
         0.00000E+00
         0.00000E+00
         0.00000E+00
         0.00000E+00
         0.00000E+00
         0.00000E+00
         0.00000E+00
         0.00000E+00
         0.00000E+00
         0.00000E+00
         0.00000E+00
         0.00000E+00
         0.00000E+00
         0.00000E+00
         0.00000E+00
         0.00000E+00
         0.00000E+00
         0.00000E+00
         0.00000E+00
         0.00000E+00
         0.00000E+00
         0.00000E+00
         0.00000E+00
         0.00000E+00
         0.00000E+00
         0.00000E+00
         0.00000E+00
         0.00000E+00
         0.00000E+00
         0.00000E+00
         0.00000E+00
         0.00000E+00
         0.00000E+00
         0.00000E+00
         0.00000E+00
         0.00000E+00
         0.00000E+00
         0.00000E+00
         0.00000E+00
         0.00000E+00
         0.00000E+00
         0.00000E+00
         0.00000E+00
         0.00000E+00
         0.00000E+00
         0.00000E+00
         0.00000E+00
         0.00000E+00
         0.00000E+00
         0.00000E+00
         0.00000E+00
         0.00000E+00
         0.00000E+00
         0.00000E+00
         0.00000E+00
         0.00000E+00
         0.00000E+00
         0.00000E+00
         0.00000E+00
         0.00000E+00
         0.00000E+00
         0.00000E+00
         0.00000E+00
         0.00000E+00
         0.00000E+00
         0.00000E+00
         0.00000E+00
         0.00000E+00
         0.00000E+00
         0.00000E+00
         0.00000E+00
         0.00000E+00
         0.00000E+00
         0.00000E+00
         0.00000E+00
         0.00000E+00
         0.00000E+00
         0.00000E+00
         0.00000E+00
         0.00000E+00
         0.00000E+00
         0.00000E+00
         0.00000E+00
         0.00000E+00
         0.00000E+00
         0.00000E+00
         0.00000E+00
         0.00000E+00
         0.00000E+00
         0.00000E+00
         0.00000E+00
         0.00000E+00
         0.00000E+00
         0.00000E+00
         0.00000E+00
         0.00000E+00
         0.00000E+00
         0.00000E+00
         0.00000E+00
         0.00000E+00
         0.00000E+00
         0.00000E+00
         0.00000E+00
         0.00000E+00
         0.00000E+00
         0.00000E+00
         0.00000E+00
         0.00000E+00
         0.00000E+00
         0.00000E+00
         0.00000E+00
         0.00000E+00
         0.00000E+00
         0.00000E+00
         0.00000E+00
         0.00000E+00
         0.00000E+00
         0.00000E+00
         0.00000E+00
         0.00000E+00
         0.00000E+00
         0.00000E+00
         0.00000E+00
         0.00000E+00
         0.00000E+00
         0.00000E+00
         0.00000E+00
         0.00000E+00
         0.00000E+00
         0.00000E+00
         0.00000E+00
         0.00000E+00
         0.00000E+00
         0.00000E+00
         0.00000E+00
         0.00000E+00
         0.00000E+00
         0.00000E+00
         0.00000E+00
         0.00000E+00
         0.00000E+00
         0.00000E+00
         0.00000E+00
         0.00000E+00
         0.00000E+00
         0.00000E+00
         0.00000E+00
         0.00000E+00
         0.00000E+00
         0.00000E+00
         0.00000E+00
         0.00000E+00
         0.00000E+00
         0.00000E+00
         0.00000E+00
         0.00000E+00
         0.00000E+00
         0.00000E+00
         0.00000E+00
         0.00000E+00
         0.00000E+00
         0.00000E+00
         0.00000E+00
         0.00000E+00
         0.00000E+00
         0.00000E+00
         0.00000E+00
         0.00000E+00
         0.00000E+00
         0.00000E+00
         0.00000E+00
         0.00000E+00
         0.00000E+00
         0.00000E+00
         0.00000E+00
         0.00000E+00
         0.00000E+00
         0.00000E+00
         0.00000E+00
         0.00000E+00
         0.00000E+00
         0.00000E+00
         0.00000E+00
         0.00000E+00
         0.00000E+00
         0.00000E+00
         0.00000E+00
         0.00000E+00
         0.00000E+00
         0.00000E+00
         0.00000E+00
         0.00000E+00
         0.00000E+00
         0.00000E+00
         0.00000E+00
         0.00000E+00
         0.00000E+00
         0.00000E+00
         0.00000E+00
         0.00000E+00
         0.00000E+00
         0.00000E+00
         0.00000E+00
         0.00000E+00
         0.00000E+00
         0.00000E+00
         0.00000E+00
         0.00000E+00
         0.00000E+00
         0.00000E+00
         0.00000E+00
         0.00000E+00
         0.00000E+00
         0.00000E+00
         0.00000E+00
         0.00000E+00
         0.00000E+00
         0.00000E+00
         0.00000E+00
         0.00000E+00
         0.00000E+00
         0.00000E+00
         0.00000E+00
         0.00000E+00
         0.00000E+00
         0.00000E+00
         0.00000E+00
         0.00000E+00
         0.00000E+00
         0.00000E+00
         0.00000E+00
         0.00000E+00
         0.00000E+00
         0.00000E+00
         0.00000E+00
         0.00000E+00
         0.00000E+00
         0.00000E+00
         0.00000E+00
         0.00000E+00
         0.00000E+00
         0.00000E+00
         0.00000E+00
         0.00000E+00
         0.00000E+00
         0.00000E+00
         0.00000E+00
         0.00000E+00
         0.00000E+00
         0.00000E+00
         0.00000E+00
         0.00000E+00
         0.00000E+00
         0.00000E+00
         0.00000E+00
         0.00000E+00
         0.00000E+00
         0.00000E+00
         0.00000E+00
         0.00000E+00
         0.00000E+00
         0.00000E+00
         0.00000E+00
         0.00000E+00
         0.00000E+00
         0.00000E+00
         0.00000E+00
         0.00000E+00
         0.00000E+00
         0.00000E+00
         0.00000E+00
         0.00000E+00
         0.00000E+00
         0.00000E+00
         0.00000E+00
         0.00000E+00
         0.00000E+00
         0.00000E+00
         0.00000E+00
         0.00000E+00
         0.00000E+00
         0.00000E+00
         0.00000E+00
         0.00000E+00
         0.00000E+00
         0.00000E+00
         0.00000E+00
         0.00000E+00
         0.00000E+00
         0.00000E+00
         0.00000E+00
         0.00000E+00
         0.00000E+00
         0.00000E+00
         0.00000E+00
         0.00000E+00
         0.00000E+00
         0.00000E+00
         0.00000E+00
         0.00000E+00
         0.00000E+00
         0.00000E+00
         0.00000E+00
         0.00000E+00
         0.00000E+00
         0.00000E+00
         0.00000E+00
         0.00000E+00
         0.00000E+00
         0.00000E+00
         0.00000E+00
         0.00000E+00
         0.00000E+00
         0.00000E+00
         0.00000E+00
         0.00000E+00
         0.00000E+00
         0.00000E+00
         0.00000E+00
         0.00000E+00
         0.00000E+00
         0.00000E+00
         0.00000E+00
         0.00000E+00
         0.00000E+00
         0.00000E+00
         0.00000E+00
         0.00000E+00
         0.00000E+00
         0.00000E+00
         0.00000E+00
         0.00000E+00
         0.00000E+00
         0.00000E+00
         0.00000E+00
         0.00000E+00
         0.00000E+00
         0.00000E+00
         0.00000E+00
         0.00000E+00
         0.00000E+00
         0.00000E+00
         0.00000E+00
         0.00000E+00
         0.00000E+00
         0.00000E+00
         0.00000E+00
         0.00000E+00
         0.00000E+00
         0.00000E+00
         0.00000E+00
         0.00000E+00
         0.00000E+00
         0.00000E+00
         0.00000E+00
         0.00000E+00
         0.00000E+00
         0.00000E+00
         0.00000E+00
         0.00000E+00
         0.00000E+00
         0.00000E+00
         0.00000E+00
         0.00000E+00
         0.00000E+00
         0.00000E+00
         0.00000E+00
         0.00000E+00
         0.00000E+00
         0.00000E+00
         0.00000E+00
         0.00000E+00
         0.00000E+00
         0.00000E+00
         0.00000E+00
         0.00000E+00
         0.00000E+00
         0.00000E+00
         0.00000E+00
         0.00000E+00
         0.00000E+00
         0.00000E+00
         0.00000E+00
         0.00000E+00
         0.00000E+00
         0.00000E+00
         0.00000E+00
         0.00000E+00
         0.00000E+00
         0.00000E+00
         0.00000E+00
         0.00000E+00
         0.00000E+00
         0.00000E+00
         0.00000E+00
         0.00000E+00
         0.00000E+00
         0.00000E+00
         0.00000E+00
         0.00000E+00
         0.00000E+00
         0.00000E+00
         0.00000E+00
         0.00000E+00
         0.00000E+00
         0.00000E+00
         0.00000E+00
         0.00000E+00
         0.00000E+00
         0.00000E+00
         0.00000E+00
         0.00000E+00
         0.00000E+00
         0.00000E+00
         0.00000E+00
         0.00000E+00
         0.00000E+00
         0.00000E+00
         0.00000E+00
         0.00000E+00
         0.00000E+00
         0.00000E+00
         0.00000E+00
         0.00000E+00
         0.00000E+00
         0.00000E+00
         0.00000E+00
         0.00000E+00
         0.00000E+00
         0.00000E+00
         0.00000E+00
         0.00000E+00
         0.00000E+00
         0.00000E+00
         0.00000E+00
         0.00000E+00
         0.00000E+00
         0.00000E+00
         0.00000E+00
         0.00000E+00
         0.00000E+00
         0.00000E+00
         0.00000E+00
         0.00000E+00
         0.00000E+00
         0.00000E+00
         0.00000E+00
         0.00000E+00
         0.00000E+00
         0.00000E+00
         0.00000E+00
         0.00000E+00
         0.00000E+00
         0.00000E+00
         0.00000E+00
         0.00000E+00
         0.00000E+00
         0.00000E+00
         0.00000E+00
         0.00000E+00
         0.00000E+00
         0.00000E+00
         0.00000E+00
         0.00000E+00
         0.00000E+00
         0.00000E+00
         0.00000E+00
         0.00000E+00
         0.00000E+00
         0.00000E+00
         0.00000E+00
         0.00000E+00
         0.00000E+00
         0.00000E+00
         0.00000E+00
         0.00000E+00
         0.00000E+00
         0.00000E+00
         0.00000E+00
         0.00000E+00
         0.00000E+00
         0.00000E+00
         0.00000E+00
         0.00000E+00
         0.00000E+00
         0.00000E+00
         0.00000E+00
         0.00000E+00
         0.00000E+00
         0.00000E+00
         0.00000E+00
         0.00000E+00
         0.00000E+00
         0.00000E+00
         0.00000E+00
         0.00000E+00
         0.00000E+00
         0.00000E+00
         0.00000E+00
         0.00000E+00
         0.00000E+00
         0.00000E+00
         0.00000E+00
         0.00000E+00
         0.00000E+00
         0.00000E+00
         0.00000E+00
         0.00000E+00
         0.00000E+00
         0.00000E+00
         0.00000E+00
         0.00000E+00
         0.00000E+00
         0.00000E+00
         0.00000E+00
         0.00000E+00
         0.00000E+00
         0.00000E+00
         0.00000E+00
         0.00000E+00
         0.00000E+00
         0.00000E+00
         0.00000E+00
         0.00000E+00
         0.00000E+00
         0.00000E+00
         0.00000E+00
         0.00000E+00
         0.00000E+00
         0.00000E+00
         0.00000E+00
         0.00000E+00
         0.00000E+00
         0.00000E+00
         0.00000E+00
         0.00000E+00
         0.00000E+00
         0.00000E+00
         0.00000E+00
         0.00000E+00
         0.00000E+00
         0.00000E+00
         0.00000E+00
         0.00000E+00
         0.00000E+00
         0.00000E+00
         0.00000E+00
         0.00000E+00
         0.00000E+00
         0.00000E+00
         0.00000E+00
         0.00000E+00
         0.00000E+00
         0.00000E+00
         0.00000E+00
         0.00000E+00
         0.00000E+00
         0.00000E+00
         0.00000E+00
         0.00000E+00
         0.00000E+00
         0.00000E+00
         0.00000E+00
         0.00000E+00
         0.00000E+00
         0.00000E+00
         0.00000E+00
         0.00000E+00
         0.00000E+00
         0.00000E+00
         0.00000E+00
         0.00000E+00
         0.00000E+00
         0.00000E+00
         0.00000E+00
         0.00000E+00
         0.00000E+00
         0.00000E+00
         0.00000E+00
         0.00000E+00
         0.00000E+00
         0.00000E+00
         0.00000E+00
         0.00000E+00
         0.00000E+00
         0.00000E+00
         0.00000E+00
         0.00000E+00
         0.00000E+00
         0.00000E+00
         0.00000E+00
         0.00000E+00
         0.00000E+00
         0.00000E+00
         0.00000E+00
         0.00000E+00
         0.00000E+00
         0.00000E+00
         0.00000E+00
         0.00000E+00
         0.00000E+00
         0.00000E+00
         0.00000E+00
         0.00000E+00
         0.00000E+00
         0.00000E+00
         0.00000E+00
         0.00000E+00
         0.00000E+00
         0.00000E+00
         0.00000E+00
         0.00000E+00
         0.00000E+00
         0.00000E+00
         0.00000E+00
         0.00000E+00
         0.00000E+00
         0.00000E+00
         0.00000E+00
         0.00000E+00
         0.00000E+00
         0.00000E+00
         0.00000E+00
         0.00000E+00
         0.00000E+00
         0.00000E+00
         0.00000E+00
         0.00000E+00
         0.00000E+00
         0.00000E+00
         0.00000E+00
         0.00000E+00
         0.00000E+00
         0.00000E+00
         0.00000E+00
         0.00000E+00
         0.00000E+00
         0.00000E+00
         0.00000E+00
         0.00000E+00
         0.00000E+00
         0.00000E+00
         0.00000E+00
         0.00000E+00
         0.00000E+00
         0.00000E+00
         0.00000E+00
         0.00000E+00
         0.00000E+00
         0.00000E+00
         0.00000E+00
         0.00000E+00
         0.00000E+00
         0.00000E+00
         0.00000E+00
         0.00000E+00
         0.00000E+00
         0.00000E+00
         0.00000E+00
         0.00000E+00
         0.00000E+00
         0.00000E+00
         0.00000E+00
         0.00000E+00
         0.00000E+00
         0.00000E+00
         0.00000E+00
         0.00000E+00
         0.00000E+00
         0.00000E+00
         0.00000E+00
         0.00000E+00
         0.00000E+00
         0.00000E+00
         0.00000E+00
         0.00000E+00
         0.00000E+00
         0.00000E+00
         0.00000E+00
         0.00000E+00
         0.00000E+00
         0.00000E+00
         0.00000E+00
         0.00000E+00
         0.00000E+00
         0.00000E+00
         0.00000E+00
         0.00000E+00
         0.00000E+00
         0.00000E+00
         0.00000E+00
         0.00000E+00
         0.00000E+00
         0.00000E+00
         0.00000E+00
         0.00000E+00
         0.00000E+00
         0.00000E+00
         0.00000E+00
         0.00000E+00
         0.00000E+00
         0.00000E+00
         0.00000E+00
         0.00000E+00
         0.00000E+00
         0.00000E+00
         0.00000E+00
         0.00000E+00
         0.00000E+00
         0.00000E+00
         0.00000E+00
         0.00000E+00
         0.00000E+00
         0.00000E+00
         0.00000E+00
         0.00000E+00
         0.00000E+00
         0.00000E+00
         0.00000E+00
         0.00000E+00
         0.00000E+00
         0.00000E+00
         0.00000E+00
         0.00000E+00
         0.00000E+00
         0.00000E+00
         0.00000E+00
         0.00000E+00
         0.00000E+00
         0.00000E+00
         0.00000E+00
         0.00000E+00
         0.00000E+00
         0.00000E+00
         0.00000E+00
         0.00000E+00
         0.00000E+00
         0.00000E+00
         0.00000E+00
         0.00000E+00
         0.00000E+00
         0.00000E+00
         0.00000E+00
         0.00000E+00
         0.00000E+00
         0.00000E+00
         0.00000E+00
         0.00000E+00
         0.00000E+00
         0.00000E+00
         0.00000E+00
         0.00000E+00
         0.00000E+00
         0.00000E+00
         0.00000E+00
         0.00000E+00
         0.00000E+00
         0.00000E+00
         0.00000E+00
         0.00000E+00
         0.00000E+00
         0.00000E+00
         0.00000E+00
         0.00000E+00
         0.00000E+00
         0.00000E+00
         0.00000E+00
         0.00000E+00
         0.00000E+00
         0.00000E+00
         0.00000E+00
         0.00000E+00
         0.00000E+00
         0.00000E+00
         0.00000E+00
         0.00000E+00
         0.00000E+00
         0.00000E+00
         0.00000E+00
         0.00000E+00
         0.00000E+00
         0.00000E+00
         0.00000E+00
         0.00000E+00
         0.00000E+00
         0.00000E+00
         0.00000E+00
         0.00000E+00
         0.00000E+00
         0.00000E+00
         0.00000E+00
         0.00000E+00
         0.00000E+00
         0.00000E+00
         0.00000E+00
         0.00000E+00
         0.00000E+00
         0.00000E+00
         0.00000E+00
         0.00000E+00
         0.00000E+00
         0.00000E+00
         0.00000E+00
         0.00000E+00
         0.00000E+00
         0.00000E+00
         0.00000E+00
         0.00000E+00
         0.00000E+00
         0.00000E+00
         0.00000E+00
         0.00000E+00
         0.00000E+00
         0.00000E+00
         0.00000E+00
         0.00000E+00
         0.00000E+00
         0.00000E+00
         0.00000E+00
         0.00000E+00
         0.00000E+00
         0.00000E+00
         0.00000E+00
         0.00000E+00
         0.00000E+00
         0.00000E+00
         0.00000E+00
         0.00000E+00
         0.00000E+00
         0.00000E+00
         0.00000E+00
         0.00000E+00
         0.00000E+00
         0.00000E+00
         0.00000E+00
         0.00000E+00
         0.00000E+00
         0.00000E+00
         0.00000E+00
         0.00000E+00
         0.00000E+00
         0.00000E+00
         0.00000E+00
         0.00000E+00
         0.00000E+00
         0.00000E+00
         0.00000E+00
         0.00000E+00
         0.00000E+00
         0.00000E+00
         0.00000E+00
         0.00000E+00
         0.00000E+00
         0.00000E+00
         0.00000E+00
         0.00000E+00
         0.00000E+00
         0.00000E+00
         0.00000E+00
         0.00000E+00
         0.00000E+00
         0.00000E+00
         0.00000E+00
         0.00000E+00
         0.00000E+00
  
SCALARS                      stress_xx  double 1
LOOKUP_TABLE default
        -0.15300E+11
        -0.11602E+11
        -0.13805E+11
        -0.17015E+11
        -0.29759E+02
        -0.11247E+02
        -0.31010E+01
        -0.30701E+02
        -0.16628E+11
        -0.17567E+11
         0.10785E+02
        -0.32620E+02
        -0.99773E+10
        -0.14652E+11
        -0.10539E+02
        -0.44879E+01
        -0.16010E+11
        -0.15439E+11
        -0.22065E+02
        -0.82218E+01
        -0.92471E+10
         0.53580E+09
         0.23184E+09
        -0.12195E+02
         0.15596E+02
         0.12975E+02
        -0.12844E+11
        -0.44697E+10
        -0.27621E+02
         0.55169E+01
        -0.15489E+11
        -0.15159E+11
        -0.16081E+11
        -0.12948E+02
        -0.97667E+01
        -0.20674E+02
        -0.13452E+11
        -0.14200E+11
        -0.94957E+01
        -0.74791E+01
        -0.11274E+11
        -0.14158E+11
        -0.23148E+01
        -0.67898E+01
        -0.10502E+11
        -0.12681E+11
        -0.74739E+01
        -0.10427E+02
        -0.14200E+11
        -0.55595E+01
        -0.14459E+11
        -0.16384E+02
        -0.12522E+11
        -0.20509E+02
        -0.11717E+11
        -0.13731E+01
        -0.11297E+11
        -0.14343E+11
         0.52968E+01
         0.95732E+01
        -0.15882E+11
        -0.16051E+11
        -0.32936E+01
        -0.22902E+02
        -0.17052E+11
        -0.13216E+02
        -0.18592E+11
        -0.29791E+02
        -0.13070E+11
        -0.98926E+10
         0.22696E+02
        -0.32325E+01
        -0.51333E+10
         0.26348E+02
        -0.34163E+10
        -0.17622E+02
        -0.17211E+10
         0.12984E+01
        -0.48131E+10
         0.48814E+01
        -0.96104E+10
        -0.12591E+11
        -0.27348E+01
        -0.44689E+01
        -0.16009E+11
        -0.19195E+02
        -0.12581E+11
        -0.15105E+02
        -0.16074E+11
        -0.28472E+02
        -0.17708E+11
        -0.16514E+11
        -0.34339E+02
        -0.26751E+02
        -0.16711E+11
         0.11016E+02
        -0.18540E+11
        -0.42415E+01
        -0.19252E+11
        -0.13265E+02
        -0.18724E+11
        -0.18171E+11
        -0.11275E+02
        -0.48061E+02
        -0.14151E+11
        -0.16154E+11
         0.37720E+02
        -0.10785E+03
        -0.98469E+10
         0.27814E+02
        -0.78423E+09
         0.24999E+02
         0.12512E+11
         0.30459E+02
         0.22772E+11
         0.17334E+02
         0.25445E+11
         0.88179E+00
         0.28705E+11
        -0.44363E+01
         0.44720E+11
         0.52093E+01
         0.16262E+11
        -0.50054E+01
        -0.19412E+11
        -0.13404E+02
        -0.28063E+11
        -0.22042E+02
        -0.27295E+11
        -0.22000E+02
        -0.19848E+11
        -0.10574E+02
        -0.14591E+11
        -0.12575E+02
        -0.11940E+11
        -0.16304E+02
        -0.13669E+11
        -0.12986E+02
        -0.19970E+11
        -0.14751E+02
        -0.20957E+11
        -0.18568E+02
        -0.18747E+11
         0.18761E+01
        -0.17844E+11
         0.94715E+01
        -0.18971E+11
        -0.19637E+01
        -0.18939E+11
         0.15279E+01
        -0.17754E+11
         0.98103E+01
        -0.16803E+11
         0.13858E+02
        -0.15243E+11
         0.17152E+02
        -0.34764E+10
        -0.16703E+10
        -0.15679E+09
        -0.16709E+10
         0.26329E+10
         0.43316E+10
        -0.29466E+10
        -0.40730E+10
        -0.44271E+10
        -0.39422E+10
        -0.28934E+10
        -0.14614E+10
        -0.13897E+10
        -0.34550E+10
        -0.14669E+10
        -0.50247E+10
        -0.33593E+10
        -0.44357E+10
        -0.12515E+10
        -0.21612E+10
        -0.24040E+09
        -0.44509E+10
         0.79749E+09
        -0.10696E+10
        -0.42861E+10
        -0.29521E+10
        -0.47278E+10
        -0.71704E+10
        -0.95830E+10
        -0.61764E+10
        -0.44353E+10
        -0.29505E+10
        -0.18288E+10
         0.31361E+10
         0.31868E+10
         0.15903E+10
         0.93954E+07
        -0.37929E+10
        -0.64462E+10
        -0.79139E+10
        -0.91361E+10
        -0.12846E+11
        -0.10613E+11
         0.87600E+09
         0.14724E+10
         0.22839E+10
         0.63872E+08
         0.13068E+10
         0.73534E+10
         0.15692E+11
         0.21589E+11
         0.11335E+11
         0.54204E+10
         0.87815E+10
         0.16537E+10
         0.55509E+09
         0.10133E+10
         0.16757E+10
         0.40237E+10
         0.47746E+10
         0.79860E+10
         0.18507E+11
         0.71545E+10
        -0.18369E+11
        -0.19957E+11
        -0.13009E+11
        -0.66969E+10
        -0.56911E+09
         0.46463E+10
         0.86562E+10
         0.75346E+10
         0.71927E+10
         0.15982E+11
         0.32027E+11
         0.47493E+11
         0.46688E+11
         0.28653E+11
         0.14575E+11
        -0.74972E+08
         0.19425E+09
         0.30876E+10
         0.20964E+10
         0.74048E+10
         0.99230E+10
        -0.83526E+09
         0.83886E+09
         0.41389E+09
         0.12807E+10
        -0.43702E+09
        -0.25087E+10
        -0.18695E+10
         0.23398E+09
        -0.37090E+10
        -0.84708E+09
         0.15534E+10
        -0.43229E+09
         0.12678E+10
         0.98204E+09
        -0.80852E+09
        -0.45366E+10
         0.17546E+09
         0.46906E+09
        -0.60876E+08
        -0.32041E+09
        -0.25449E+10
        -0.69668E+10
        -0.12199E+11
        -0.39877E+10
        -0.78200E+08
         0.63465E+08
         0.31667E+10
         0.84117E+10
         0.67089E+10
         0.42759E+10
         0.87429E+09
        -0.90602E+10
        -0.14967E+11
        -0.20669E+11
        -0.25002E+11
        -0.20123E+11
        -0.12255E+11
         0.11008E+10
         0.22432E+10
         0.26540E+10
         0.16391E+10
         0.37417E+10
         0.10289E+11
         0.18249E+11
         0.22902E+11
         0.16154E+11
         0.79241E+10
         0.12623E+11
         0.46032E+10
         0.12792E+10
        -0.16575E+10
        -0.53184E+10
        -0.92546E+10
        -0.15528E+11
        -0.22583E+11
        -0.27581E+11
        -0.28461E+11
        -0.28769E+11
        -0.24848E+11
        -0.15685E+11
        -0.79370E+10
        -0.21009E+10
         0.28007E+10
         0.68513E+10
         0.56140E+10
         0.38941E+10
         0.74845E+10
         0.18819E+11
         0.30482E+11
         0.33862E+11
         0.28352E+11
         0.19779E+11
         0.13019E+09
        -0.42504E+09
        -0.25947E+09
         0.17624E+08
         0.75430E+09
         0.13549E+10
         0.14550E+09
         0.11430E+10
         0.94427E+09
         0.13172E+10
         0.68500E+09
        -0.52691E+09
        -0.58981E+09
         0.90359E+09
        -0.16902E+10
         0.68741E+09
         0.15811E+10
         0.29909E+09
         0.90044E+09
         0.62629E+09
        -0.13548E+10
        -0.33444E+10
        -0.88877E+09
         0.24576E+09
         0.30215E+09
         0.16193E+09
        -0.10753E+10
        -0.42781E+10
        -0.82831E+10
        -0.24022E+10
         0.51379E+08
        -0.36927E+09
         0.13638E+09
         0.20019E+09
        -0.18435E+09
        -0.64780E+09
        -0.73633E+09
        -0.60089E+10
        -0.11329E+11
        -0.16565E+11
        -0.20409E+11
        -0.14507E+11
        -0.81366E+10
        -0.82949E+09
        -0.12124E+10
        -0.23720E+10
        -0.24093E+10
        -0.26068E+10
        -0.24492E+10
        -0.14860E+10
        -0.12558E+09
         0.10897E+10
        -0.35599E+09
         0.24165E+10
        -0.11466E+10
        -0.10024E+10
        -0.12242E+10
        -0.32531E+10
        -0.67516E+10
        -0.12908E+11
        -0.21421E+11
        -0.27097E+11
        -0.28302E+11
        -0.25817E+11
        -0.18688E+11
        -0.11487E+11
        -0.59874E+10
        -0.31575E+10
        -0.25821E+10
        -0.29730E+10
        -0.44755E+10
        -0.68034E+10
        -0.92006E+10
        -0.94081E+10
        -0.62122E+10
        -0.36177E+09
         0.41682E+10
         0.47340E+10
         0.27876E+09
         0.64892E+07
        -0.51123E+09
        -0.35391E+09
        -0.98007E+09
        -0.15377E+10
         0.56160E+09
         0.79428E+09
         0.53209E+09
         0.69991E+09
         0.85856E+09
         0.43267E+09
         0.27558E+09
         0.77556E+09
        -0.41211E+09
         0.54983E+09
         0.82129E+09
         0.20740E+09
         0.44870E+09
         0.34620E+09
        -0.90232E+09
        -0.18750E+10
        -0.53813E+09
         0.10982E+09
         0.10129E+09
         0.12199E+09
        -0.44851E+09
        -0.23887E+10
        -0.47816E+10
        -0.12596E+10
        -0.11598E+09
        -0.24909E+09
        -0.81363E+09
        -0.19843E+10
        -0.11374E+10
        -0.86275E+09
        -0.28978E+09
        -0.33079E+10
        -0.70631E+10
        -0.10727E+11
        -0.13350E+11
        -0.86644E+10
        -0.45316E+10
        -0.59333E+09
        -0.94152E+09
        -0.15598E+10
        -0.15617E+10
        -0.23889E+10
        -0.39153E+10
        -0.51559E+10
        -0.55251E+10
        -0.33301E+10
        -0.14491E+10
        -0.11910E+10
        -0.13000E+10
        -0.59930E+09
        -0.29878E+09
        -0.12782E+10
        -0.37166E+10
        -0.84342E+10
        -0.15623E+11
        -0.21143E+11
        -0.22165E+11
        -0.17991E+11
        -0.11762E+11
        -0.67244E+10
        -0.31328E+10
        -0.14835E+10
        -0.16586E+10
        -0.24418E+10
        -0.30089E+10
        -0.43237E+10
        -0.71393E+10
        -0.10104E+11
        -0.10793E+11
        -0.84169E+10
        -0.46245E+10
        -0.19886E+10
         0.31373E+09
         0.25447E+09
        -0.10720E+08
        -0.67253E+08
        -0.48056E+09
        -0.91362E+09
         0.48424E+09
         0.56934E+09
         0.33477E+09
         0.47704E+09
         0.58506E+09
         0.40036E+09
         0.27853E+09
         0.51866E+09
        -0.71592E+08
         0.17387E+09
         0.42581E+09
         0.66088E+08
         0.16642E+09
         0.25413E+09
        -0.43269E+09
        -0.80467E+09
        -0.21505E+09
        -0.15946E+08
         0.17699E+09
        -0.50002E+08
        -0.15016E+09
        -0.12179E+10
        -0.26181E+10
        -0.50060E+09
        -0.16571E+09
        -0.95489E+08
        -0.40829E+09
        -0.85527E+09
        -0.30269E+09
        -0.94931E+08
         0.69737E+08
        -0.18625E+10
        -0.42894E+10
        -0.66891E+10
        -0.84341E+10
        -0.50529E+10
        -0.22816E+10
        -0.15880E+09
        -0.11954E+09
        -0.56835E+08
        -0.13855E+09
        -0.54140E+09
        -0.12149E+10
        -0.18973E+10
        -0.23572E+10
        -0.16519E+10
        -0.43412E+09
        -0.98732E+09
        -0.26610E+09
        -0.21210E+09
        -0.99177E+08
        -0.41826E+09
        -0.18981E+10
        -0.54098E+10
        -0.10806E+11
        -0.14882E+11
        -0.15442E+11
        -0.11713E+11
        -0.66198E+10
        -0.31589E+10
        -0.11880E+10
        -0.25572E+09
        -0.15573E+09
        -0.22030E+09
        -0.29630E+08
        -0.20957E+09
        -0.12200E+10
        -0.26194E+10
        -0.35962E+10
        -0.36674E+10
        -0.28310E+10
        -0.18035E+10
         0.15555E+09
         0.11401E+09
         0.76583E+08
         0.53616E+08
        -0.15575E+09
        -0.28348E+09
         0.17366E+09
         0.24891E+09
         0.12569E+09
         0.20273E+09
         0.24993E+09
         0.20622E+09
         0.45558E+08
         0.24149E+09
         0.25890E+08
         0.50141E+07
         0.12073E+09
         0.27998E+08
         0.11325E+08
         0.83052E+08
        -0.14406E+09
        -0.24703E+09
         0.20790E+08
        -0.88131E+07
         0.92037E+08
        -0.30812E+08
        -0.43271E+08
        -0.49821E+09
        -0.11331E+10
        -0.16951E+09
        -0.57246E+08
        -0.43443E+07
        -0.41984E+08
        -0.68318E+08
         0.70364E+07
         0.70133E+08
        -0.19354E+08
        -0.84820E+09
        -0.20781E+10
        -0.32906E+10
        -0.41383E+10
        -0.22398E+10
        -0.82771E+09
         0.88758E+08
         0.15996E+09
         0.26388E+09
         0.16918E+09
         0.52486E+08
        -0.23981E+08
        -0.12849E+09
        -0.29442E+09
        -0.32928E+09
        -0.16004E+08
        -0.47770E+09
         0.47105E+08
        -0.17737E+09
        -0.13975E+09
        -0.31138E+08
        -0.67265E+09
        -0.28253E+10
        -0.61411E+10
        -0.84313E+10
        -0.82328E+10
        -0.54089E+10
        -0.24020E+10
        -0.91055E+09
        -0.20600E+09
         0.17242E+09
         0.25351E+09
         0.32683E+09
         0.51485E+09
         0.56913E+09
         0.44649E+09
         0.31740E+09
         0.69449E+08
        -0.39261E+09
        -0.68266E+09
        -0.70800E+09
         0.64507E+08
        -0.12713E+07
        -0.30667E+08
         0.33721E+07
        -0.21716E+09
        -0.24963E+09
         0.36670E+07
         0.59845E+08
         0.35440E+08
         0.97250E+07
         0.30743E+08
         0.67044E+07
        -0.13821E+09
         0.46721E+08
         0.15030E+08
        -0.70576E+07
        -0.16912E+08
         0.16654E+08
         0.15940E+08
        -0.41247E+08
         0.85240E+08
        -0.11303E+07
         0.15945E+09
         0.60488E+08
        -0.35678E+08
         0.16271E+08
        -0.39485E+08
        -0.17850E+09
        -0.39678E+09
        -0.95134E+08
        -0.39045E+08
         0.11007E+08
        -0.29679E+08
        -0.58028E+08
        -0.11903E+09
        -0.63565E+08
        -0.15171E+09
        -0.27462E+09
        -0.68163E+09
        -0.10364E+10
        -0.12181E+10
        -0.65606E+09
        -0.20633E+09
         0.15952E+09
         0.16999E+09
         0.17955E+09
         0.73979E+08
        -0.12071E+08
        -0.50534E+08
        -0.90555E+08
        -0.17142E+09
        -0.21960E+09
        -0.15071E+09
        -0.47308E+09
        -0.11013E+09
        -0.27257E+09
        -0.24022E+09
        -0.43395E+08
        -0.16186E+09
        -0.10075E+10
        -0.22475E+10
        -0.29125E+10
        -0.24555E+10
        -0.11702E+10
        -0.12420E+09
         0.21182E+09
         0.30909E+09
         0.33344E+09
         0.28255E+09
         0.27556E+09
         0.29291E+09
         0.26312E+09
         0.16110E+09
         0.91953E+08
         0.18859E+08
        -0.18738E+09
        -0.39137E+09
        -0.52674E+09
         0.32891E+08
        -0.34519E+08
        -0.80547E+08
        -0.24210E+08
        -0.29270E+09
        -0.32271E+09
        -0.51322E+08
        -0.58098E+07
         0.53022E+07
        -0.22856E+08
        -0.41326E+08
        -0.69909E+08
        -0.17313E+09
        -0.47226E+07
         0.21822E+08
        -0.67591E+07
        -0.38673E+08
         0.15083E+08
         0.23503E+08
        -0.24479E+08
         0.16908E+09
         0.15502E+09
         0.18484E+09
         0.76413E+08
        -0.55030E+08
         0.33281E+08
        -0.87449E+07
        -0.30085E+08
        -0.72177E+07
        -0.50744E+08
        -0.37577E+08
         0.10044E+08
        -0.58225E+08
        -0.13332E+09
        -0.21594E+09
        -0.13398E+09
        -0.18023E+09
         0.20287E+08
        -0.19468E+08
         0.48332E+07
         0.13634E+09
         0.17143E+09
         0.19093E+09
         0.17242E+09
         0.15580E+09
         0.11776E+09
        -0.11227E+08
        -0.11123E+09
        -0.18913E+09
        -0.27733E+09
        -0.37671E+09
        -0.34218E+09
        -0.26972E+09
        -0.57215E+09
        -0.17982E+09
        -0.29792E+09
        -0.27649E+09
        -0.77521E+08
         0.57824E+08
        -0.92526E+08
        -0.31451E+09
        -0.18907E+09
         0.36833E+09
         0.82371E+09
         0.89026E+09
         0.66722E+09
         0.46746E+09
         0.33603E+09
         0.25303E+09
         0.21052E+09
         0.14259E+09
         0.35140E+08
        -0.14755E+09
        -0.31366E+09
        -0.42879E+09
        -0.53379E+09
        -0.57324E+09
        -0.63315E+09
         0.27965E+08
        -0.33235E+08
        -0.74341E+08
        -0.14568E+08
        -0.30216E+09
        -0.35758E+09
        -0.68672E+08
        -0.29118E+08
        -0.35963E+07
        -0.32308E+08
        -0.66027E+08
        -0.85499E+08
        -0.17868E+09
        -0.18670E+08
         0.39332E+08
         0.14225E+07
        -0.43413E+08
         0.31384E+08
         0.40623E+08
         0.48886E+06
         0.19962E+09
         0.22534E+09
         0.20003E+09
         0.10265E+09
        -0.33965E+08
         0.57936E+08
         0.23059E+08
         0.60616E+08
         0.18234E+09
         0.26037E+08
        -0.15126E+08
         0.41582E+08
        -0.44282E+08
        -0.14912E+09
        -0.21180E+09
        -0.12365E+09
        -0.16902E+09
         0.13108E+09
         0.23394E+09
         0.43529E+09
         0.71372E+09
         0.52862E+09
         0.36103E+09
         0.18896E+09
         0.18944E+09
         0.15357E+09
         0.16433E+08
        -0.11442E+09
        -0.23393E+09
        -0.36987E+09
        -0.51238E+09
        -0.42380E+09
        -0.26471E+09
        -0.61090E+09
        -0.15713E+09
        -0.26731E+09
        -0.25416E+09
        -0.64080E+08
         0.14572E+09
         0.17492E+09
         0.29111E+09
         0.79902E+09
         0.14909E+10
         0.16569E+10
         0.12871E+10
         0.81007E+09
         0.51120E+09
         0.36023E+09
         0.27705E+09
         0.25076E+09
         0.19147E+09
         0.52383E+08
        -0.21038E+09
        -0.48005E+09
        -0.67558E+09
        -0.80101E+09
        -0.77880E+09
        -0.74755E+09
         0.24920E+08
        -0.41790E+08
        -0.70338E+08
        -0.23849E+07
        -0.30437E+09
        -0.35811E+09
        -0.94079E+08
        -0.47976E+08
        -0.59277E+07
        -0.39684E+08
        -0.97854E+08
        -0.12619E+09
        -0.21327E+09
        -0.37976E+08
         0.32477E+08
         0.11295E+08
        -0.42765E+08
         0.43663E+08
         0.54525E+08
         0.13032E+08
         0.20122E+09
         0.24575E+09
         0.20511E+09
         0.13343E+09
        -0.23463E+08
         0.88569E+08
         0.30676E+08
         0.99295E+08
         0.23617E+09
         0.52534E+08
         0.17496E+07
         0.79286E+08
        -0.30108E+08
        -0.13307E+09
        -0.20398E+09
        -0.12188E+09
        -0.18739E+09
         0.17085E+09
         0.32857E+09
         0.55916E+09
         0.81888E+09
         0.56986E+09
         0.38976E+09
         0.20765E+09
         0.21810E+09
         0.18690E+09
         0.61032E+08
        -0.10213E+09
        -0.23732E+09
        -0.36145E+09
        -0.49278E+09
        -0.41152E+09
        -0.25910E+09
        -0.64150E+09
        -0.14181E+09
        -0.27084E+09
        -0.26709E+09
        -0.97492E+08
         0.13413E+09
         0.26436E+09
         0.54678E+09
         0.11061E+10
         0.16548E+10
         0.16547E+10
         0.13384E+10
         0.89787E+09
         0.53194E+09
         0.38423E+09
         0.31460E+09
         0.30403E+09
         0.25482E+09
         0.10669E+09
        -0.18175E+09
        -0.47406E+09
        -0.64545E+09
        -0.76279E+09
        -0.78309E+09
        -0.78320E+09
         0.17698E+08
        -0.57859E+08
        -0.76168E+08
        -0.22932E+07
        -0.30859E+09
        -0.34698E+09
        -0.11934E+09
        -0.64753E+08
        -0.11873E+08
        -0.50645E+08
        -0.12424E+09
        -0.16115E+09
        -0.25811E+09
        -0.55956E+08
         0.24686E+08
         0.11963E+08
        -0.51331E+08
         0.40491E+08
         0.46421E+08
        -0.93448E+07
         0.18001E+09
         0.21471E+09
         0.20221E+09
         0.13629E+09
        -0.32612E+08
         0.95126E+08
         0.26460E+08
         0.11366E+09
         0.25323E+09
         0.30150E+08
        -0.16722E+07
         0.79488E+08
        -0.31766E+08
        -0.12203E+09
        -0.20550E+09
        -0.13184E+09
        -0.22058E+09
         0.19041E+09
         0.38711E+09
         0.62482E+09
         0.86603E+09
         0.58669E+09
         0.37862E+09
         0.21053E+09
         0.20930E+09
         0.15983E+09
         0.35507E+08
        -0.11183E+09
        -0.22387E+09
        -0.31997E+09
        -0.42503E+09
        -0.37038E+09
        -0.25935E+09
        -0.66030E+09
        -0.14142E+09
        -0.32886E+09
        -0.35752E+09
        -0.15502E+09
         0.13844E+09
         0.34712E+09
         0.75825E+09
         0.13117E+10
         0.17354E+10
         0.17419E+10
         0.13903E+10
         0.89510E+09
         0.51073E+09
         0.38250E+09
         0.31687E+09
         0.27955E+09
         0.20738E+09
         0.79097E+08
        -0.14667E+09
        -0.37395E+09
        -0.51014E+09
        -0.62089E+09
        -0.68250E+09
        -0.75652E+09
         0.22267E+08
        -0.56546E+08
        -0.77540E+08
        -0.33587E+07
        -0.31558E+09
        -0.35501E+09
        -0.11381E+09
        -0.59286E+08
        -0.97632E+07
        -0.48561E+08
        -0.11519E+09
        -0.14700E+09
        -0.25919E+09
        -0.47881E+08
         0.31947E+08
         0.10577E+08
        -0.56352E+08
         0.40447E+08
         0.39899E+08
        -0.23647E+08
         0.18090E+09
         0.20523E+09
         0.20839E+09
         0.12985E+09
        -0.35736E+08
         0.87208E+08
         0.44219E+08
         0.15198E+09
         0.33384E+09
         0.32687E+08
        -0.10487E+08
         0.62578E+08
        -0.31582E+08
        -0.12022E+09
        -0.20842E+09
        -0.13751E+09
        -0.23158E+09
         0.24491E+09
         0.53606E+09
         0.87010E+09
         0.12101E+10
         0.77599E+09
         0.42741E+09
         0.20757E+09
         0.18998E+09
         0.12641E+09
         0.52698E+07
        -0.12412E+09
        -0.20792E+09
        -0.29475E+09
        -0.40861E+09
        -0.37127E+09
        -0.26535E+09
        -0.67345E+09
        -0.16338E+09
        -0.37696E+09
        -0.38680E+09
        -0.13982E+09
         0.12074E+09
         0.40702E+09
         0.11213E+10
         0.19391E+10
         0.25023E+10
         0.22812E+10
         0.15389E+10
         0.91145E+09
         0.53550E+09
         0.40260E+09
         0.31338E+09
         0.24526E+09
         0.15811E+09
         0.39383E+08
        -0.14646E+09
        -0.30311E+09
        -0.43139E+09
        -0.58899E+09
        -0.68437E+09
        -0.76760E+09
         0.27557E+08
        -0.47581E+08
        -0.74017E+08
        -0.29428E+07
        -0.31548E+09
        -0.34926E+09
        -0.94705E+08
        -0.48585E+08
        -0.42414E+07
        -0.41808E+08
        -0.89121E+08
        -0.10408E+09
        -0.22205E+09
        -0.27465E+08
         0.74659E+08
         0.11537E+08
        -0.52724E+08
         0.43033E+08
         0.43405E+08
        -0.44880E+07
         0.21008E+09
         0.27086E+09
         0.21380E+09
         0.12486E+09
        -0.26680E+08
         0.80033E+08
         0.67159E+08
         0.17940E+09
         0.39466E+09
         0.75831E+08
        -0.15719E+08
         0.51862E+08
        -0.32374E+08
        -0.11422E+09
        -0.21374E+09
        -0.13477E+09
        -0.21411E+09
         0.33112E+09
         0.66485E+09
         0.10521E+10
         0.14649E+10
         0.92744E+09
         0.52558E+09
         0.19947E+09
         0.17836E+09
         0.11629E+09
        -0.55262E+07
        -0.13421E+09
        -0.20062E+09
        -0.26525E+09
        -0.36827E+09
        -0.35105E+09
        -0.28948E+09
        -0.66554E+09
        -0.19602E+09
        -0.37012E+09
        -0.33388E+09
        -0.76823E+08
         0.18737E+09
         0.64294E+09
         0.15286E+10
         0.24671E+10
         0.31030E+10
         0.26791E+10
         0.18120E+10
         0.10730E+10
         0.60539E+09
         0.41341E+09
         0.28845E+09
         0.21775E+09
         0.14752E+09
         0.20966E+08
        -0.17879E+09
        -0.29115E+09
        -0.35976E+09
        -0.51281E+09
        -0.63586E+09
        -0.73790E+09
         0.26554E+08
        -0.37479E+08
        -0.56468E+08
         0.24601E+07
        -0.28634E+09
        -0.31551E+09
        -0.82785E+08
        -0.46360E+08
        -0.43944E+07
        -0.42449E+08
        -0.68141E+08
        -0.60783E+08
        -0.18348E+09
        -0.11720E+08
         0.13176E+09
         0.14008E+08
        -0.52342E+08
         0.45266E+08
         0.45101E+08
         0.92180E+07
         0.22606E+09
         0.31176E+09
         0.21634E+09
         0.12164E+09
        -0.20550E+08
         0.75672E+08
         0.76752E+08
         0.18694E+09
         0.41301E+09
         0.10501E+09
        -0.20083E+08
         0.37959E+08
        -0.37360E+08
        -0.11211E+09
        -0.18805E+09
        -0.10159E+09
        -0.17478E+09
         0.38096E+09
         0.68091E+09
         0.10567E+10
         0.14679E+10
         0.94823E+09
         0.56672E+09
         0.19338E+09
         0.15836E+09
         0.84903E+08
        -0.32625E+08
        -0.15482E+09
        -0.22305E+09
        -0.27828E+09
        -0.35412E+09
        -0.31963E+09
        -0.27368E+09
        -0.61866E+09
        -0.15696E+09
        -0.30031E+09
        -0.25873E+09
         0.64611E+07
         0.35631E+09
         0.87518E+09
         0.16286E+10
         0.24691E+10
         0.30634E+10
         0.26460E+10
         0.18938E+10
         0.11658E+10
         0.62262E+09
         0.40128E+09
         0.26822E+09
         0.18281E+09
         0.10584E+09
        -0.21408E+08
        -0.22609E+09
        -0.36432E+09
        -0.41637E+09
        -0.48734E+09
        -0.54194E+09
        -0.64828E+09
         0.17540E+08
        -0.44905E+08
        -0.58323E+08
        -0.68498E+07
        -0.26642E+09
        -0.30307E+09
        -0.92871E+08
        -0.52159E+08
        -0.74956E+07
        -0.44133E+08
        -0.74460E+08
        -0.67956E+08
        -0.19455E+09
        -0.12435E+08
         0.13687E+09
         0.12845E+08
        -0.52244E+08
         0.39288E+08
         0.45369E+08
        -0.28214E+07
         0.21321E+09
         0.26524E+09
         0.20970E+09
         0.11972E+09
        -0.27605E+08
         0.69824E+08
         0.72200E+08
         0.15878E+09
         0.33278E+09
         0.66296E+08
        -0.27896E+08
         0.27452E+08
        -0.47190E+08
        -0.12678E+09
        -0.17026E+09
        -0.92482E+08
        -0.17113E+09
         0.35280E+09
         0.58780E+09
         0.87386E+09
         0.11844E+10
         0.75783E+09
         0.46014E+09
         0.18435E+09
         0.14486E+09
         0.71525E+08
        -0.43290E+08
        -0.16110E+09
        -0.23803E+09
        -0.30622E+09
        -0.38264E+09
        -0.32706E+09
        -0.23838E+09
        -0.55819E+09
        -0.11806E+09
        -0.26886E+09
        -0.26593E+09
         0.11130E+07
         0.38612E+09
         0.81840E+09
         0.13663E+10
         0.19934E+10
         0.24445E+10
         0.21482E+10
         0.16270E+10
         0.10467E+10
         0.57114E+09
         0.37225E+09
         0.25417E+09
         0.17515E+09
         0.10007E+09
        -0.13349E+08
        -0.20971E+09
        -0.37998E+09
        -0.47075E+09
        -0.53233E+09
        -0.52577E+09
        -0.58601E+09
         0.72608E+07
        -0.64514E+08
        -0.76938E+08
        -0.19875E+08
        -0.26809E+09
        -0.30748E+09
        -0.11256E+09
        -0.59105E+08
        -0.89075E+07
        -0.37594E+08
        -0.97470E+08
        -0.10752E+09
        -0.23035E+09
        -0.27436E+08
         0.86320E+08
         0.54647E+07
        -0.43877E+08
         0.27680E+08
         0.48581E+08
        -0.18664E+06
         0.19991E+09
         0.23058E+09
         0.20616E+09
         0.12169E+09
        -0.17457E+08
         0.67303E+08
         0.64908E+08
         0.14544E+09
         0.28956E+09
         0.54197E+08
        -0.33420E+08
         0.29678E+08
        -0.51645E+08
        -0.12867E+09
        -0.17684E+09
        -0.11643E+09
        -0.20198E+09
         0.27197E+09
         0.48197E+09
         0.73485E+09
         0.99952E+09
         0.64743E+09
         0.39771E+09
         0.18862E+09
         0.16063E+09
         0.95615E+08
        -0.25852E+08
        -0.13988E+09
        -0.21146E+09
        -0.28283E+09
        -0.36883E+09
        -0.32874E+09
        -0.21925E+09
        -0.52384E+09
        -0.14333E+09
        -0.31905E+09
        -0.33424E+09
        -0.72747E+08
         0.27087E+09
         0.56375E+09
         0.10158E+10
         0.15843E+10
         0.20389E+10
         0.18814E+10
         0.14521E+10
         0.93020E+09
         0.54948E+09
         0.39174E+09
         0.29437E+09
         0.23138E+09
         0.14443E+09
         0.31953E+08
        -0.13914E+09
        -0.29397E+09
        -0.40032E+09
        -0.50533E+09
        -0.53097E+09
        -0.58073E+09
         0.16664E+08
        -0.54816E+08
        -0.71701E+08
        -0.10677E+08
        -0.26215E+09
        -0.29814E+09
        -0.93211E+08
        -0.42724E+08
        -0.42976E+07
        -0.26137E+08
        -0.82462E+08
        -0.98729E+08
        -0.21085E+09
        -0.20963E+08
         0.65730E+08
         0.35078E+07
        -0.41994E+08
         0.29519E+08
         0.58302E+08
         0.14544E+08
         0.22705E+09
         0.26755E+09
         0.23364E+09
         0.14154E+09
        -0.52106E+07
         0.85041E+08
         0.73867E+08
         0.17652E+09
         0.35659E+09
         0.82938E+08
        -0.20904E+08
         0.49608E+08
        -0.33030E+08
        -0.97237E+08
        -0.17184E+09
        -0.11683E+09
        -0.19891E+09
         0.27927E+09
         0.56597E+09
         0.89634E+09
         0.12098E+10
         0.77321E+09
         0.46257E+09
         0.22157E+09
         0.19536E+09
         0.12583E+09
         0.27392E+07
        -0.10226E+09
        -0.15449E+09
        -0.20973E+09
        -0.29489E+09
        -0.29282E+09
        -0.21096E+09
        -0.51411E+09
        -0.17572E+09
        -0.35956E+09
        -0.33713E+09
        -0.90205E+08
         0.20956E+09
         0.56913E+09
         0.12627E+10
         0.20288E+10
         0.24752E+10
         0.21945E+10
         0.16064E+10
         0.10169E+10
         0.62543E+09
         0.46214E+09
         0.36468E+09
         0.28806E+09
         0.17024E+09
         0.55978E+08
        -0.79568E+08
        -0.18906E+09
        -0.26680E+09
        -0.39070E+09
        -0.48569E+09
        -0.58009E+09
         0.22633E+08
        -0.32786E+08
        -0.49996E+08
         0.73359E+06
        -0.23548E+09
        -0.27068E+09
        -0.61378E+08
        -0.26665E+08
        -0.79571E+07
        -0.23708E+08
        -0.51045E+08
        -0.59205E+08
        -0.15597E+09
        -0.28114E+07
         0.72683E+08
         0.42171E+07
        -0.52037E+08
         0.30312E+08
         0.59331E+08
         0.11285E+08
         0.24367E+09
         0.27984E+09
         0.25274E+09
         0.15232E+09
        -0.13136E+08
         0.10252E+09
         0.83796E+08
         0.17947E+09
         0.35650E+09
         0.85265E+08
        -0.33807E+07
         0.73646E+08
        -0.12308E+08
        -0.63844E+08
        -0.14232E+09
        -0.84500E+08
        -0.15779E+09
         0.30304E+09
         0.60357E+09
         0.93416E+09
         0.12518E+10
         0.79432E+09
         0.47537E+09
         0.24424E+09
         0.22241E+09
         0.16218E+09
         0.41792E+08
        -0.60138E+08
        -0.97024E+08
        -0.13374E+09
        -0.20913E+09
        -0.24110E+09
        -0.18972E+09
        -0.48134E+09
        -0.15477E+09
        -0.32669E+09
        -0.27495E+09
        -0.57213E+08
         0.19356E+09
         0.60298E+09
         0.13925E+10
         0.21957E+10
         0.25965E+10
         0.23054E+10
         0.16735E+10
         0.10287E+10
         0.63860E+09
         0.46598E+09
         0.36548E+09
         0.30111E+09
         0.20351E+09
         0.10453E+09
        -0.19587E+08
        -0.10988E+09
        -0.14420E+09
        -0.25524E+09
        -0.39085E+09
        -0.52383E+09
         0.29618E+08
        -0.14657E+08
        -0.20568E+07
         0.31757E+08
        -0.15359E+09
        -0.18515E+09
        -0.49313E+08
        -0.14671E+08
        -0.64510E+07
        -0.96439E+07
        -0.30015E+08
        -0.29024E+08
        -0.13617E+09
         0.24527E+08
         0.11845E+09
         0.13753E+07
        -0.47032E+08
         0.35335E+08
         0.52607E+08
         0.18115E+08
         0.23238E+09
         0.28421E+09
         0.23894E+09
         0.13524E+09
         0.82972E+07
         0.95073E+08
         0.12085E+09
         0.22149E+09
         0.39309E+09
         0.11269E+09
         0.15005E+08
         0.85878E+08
         0.28588E+08
         0.14574E+08
        -0.44035E+08
        -0.77048E+07
        -0.12023E+09
         0.36444E+09
         0.65538E+09
         0.96921E+09
         0.12707E+10
         0.82703E+09
         0.50820E+09
         0.23669E+09
         0.23794E+09
         0.21734E+09
         0.10160E+09
         0.16627E+08
         0.13872E+08
         0.18876E+08
        -0.44200E+08
        -0.12126E+09
        -0.72666E+08
        -0.39383E+09
        -0.16712E+08
        -0.25883E+09
        -0.23954E+09
        -0.28207E+07
         0.26380E+09
         0.70974E+09
         0.14845E+10
         0.22321E+10
         0.25779E+10
         0.23078E+10
         0.16953E+10
         0.96486E+09
         0.56673E+09
         0.40754E+09
         0.32892E+09
         0.32123E+09
         0.29985E+09
         0.24261E+09
         0.14257E+09
         0.94619E+08
         0.94510E+08
        -0.11787E+08
        -0.19272E+09
        -0.39550E+09
         0.54507E+08
         0.32621E+08
         0.12987E+09
         0.12514E+09
         0.70175E+08
         0.44688E+08
        -0.25385E+08
         0.13930E+08
         0.11016E+08
         0.23348E+08
         0.21965E+08
         0.58200E+08
        -0.87611E+08
         0.91129E+08
         0.26244E+09
        -0.23773E+07
        -0.31430E+08
         0.69799E+08
         0.31358E+08
         0.24170E+08
         0.18858E+09
         0.27102E+09
         0.17446E+09
         0.79722E+08
         0.55717E+08
         0.49746E+08
         0.20215E+09
         0.32089E+09
         0.51325E+09
         0.17048E+09
         0.55029E+08
         0.79053E+08
         0.14839E+09
         0.22549E+09
         0.20674E+09
         0.20978E+09
        -0.13373E+08
         0.52185E+09
         0.84242E+09
         0.11962E+10
         0.15023E+10
         0.95109E+09
         0.54957E+09
         0.16199E+09
         0.19367E+09
         0.24411E+09
         0.17920E+09
         0.18362E+09
         0.28830E+09
         0.38403E+09
         0.38525E+09
         0.19956E+09
         0.22746E+09
        -0.14187E+09
         0.32340E+09
        -0.37642E+08
        -0.99969E+08
         0.20357E+09
         0.54514E+09
         0.10689E+10
         0.19721E+10
         0.28188E+10
         0.29916E+10
         0.24145E+10
         0.16622E+10
         0.91635E+09
         0.50789E+09
         0.34053E+09
         0.24744E+09
         0.31604E+09
         0.43741E+09
         0.53031E+09
         0.57146E+09
         0.65772E+09
         0.72071E+09
         0.59837E+09
         0.32039E+09
        -0.44941E+08
         0.51331E+08
         0.67830E+08
         0.28491E+09
         0.20463E+09
         0.36616E+09
         0.34940E+09
        -0.26004E+08
         0.34620E+08
         0.90037E+07
         0.38994E+08
         0.52683E+08
         0.10596E+09
        -0.50807E+08
         0.15137E+09
         0.32075E+09
        -0.71397E+08
        -0.54444E+08
         0.67648E+08
        -0.80915E+08
        -0.69098E+08
        -0.32519E+07
         0.71778E+08
        -0.44208E+08
        -0.89780E+08
         0.24192E+08
        -0.11399E+09
         0.22304E+09
         0.24360E+09
         0.27174E+09
         0.60532E+08
         0.20484E+08
        -0.31987E+08
         0.22377E+09
         0.40821E+09
         0.49824E+09
         0.42915E+09
         0.13863E+09
         0.49813E+09
         0.63402E+09
         0.69420E+09
         0.69620E+09
         0.38146E+09
         0.21657E+09
        -0.61735E+08
         0.40988E+08
         0.23572E+09
         0.22977E+09
         0.32291E+09
         0.52101E+09
         0.71594E+09
         0.80792E+09
         0.55525E+09
         0.61364E+09
         0.31692E+09
         0.68638E+09
         0.26972E+09
         0.57596E+08
         0.26965E+09
         0.56769E+09
         0.95102E+09
         0.14710E+10
         0.16720E+10
         0.13875E+10
         0.10685E+10
         0.88113E+09
         0.57874E+09
         0.34284E+09
         0.21019E+09
         0.12349E+09
         0.31630E+09
         0.64961E+09
         0.94301E+09
         0.10706E+10
         0.11615E+10
         0.12656E+10
         0.12087E+10
         0.93115E+09
         0.50568E+09
        -0.82276E+08
        -0.10530E+09
        -0.91723E+08
        -0.94436E+08
         0.17984E+09
         0.29879E+09
        -0.61722E+08
        -0.33336E+08
         0.19071E+08
         0.75461E+08
        -0.27294E+08
         0.12065E+08
        -0.10896E+08
         0.21267E+08
         0.46347E+08
        -0.70884E+08
         0.98886E+08
        -0.10319E+09
         0.17426E+09
         0.34251E+09
         0.71605E+09
         0.92677E+09
         0.38051E+09
         0.62678E+08
         0.19131E+09
        -0.15075E+09
         0.13120E+09
         0.15363E+09
         0.65300E+07
         0.36042E+09
        -0.11953E+09
        -0.94681E+08
        -0.52983E+08
         0.11431E+09
         0.91789E+08
        -0.48223E+08
        -0.47826E+08
         0.69190E+08
        -0.12768E+09
        -0.53282E+09
        -0.87329E+09
        -0.21208E+09
         0.62557E+09
         0.79273E+08
         0.14366E+09
         0.52008E+09
         0.44687E+09
         0.41640E+09
         0.43113E+09
         0.55259E+09
         0.72715E+09
         0.48230E+09
         0.27807E+09
         0.67002E+09
         0.11198E+09
         0.58831E+08
        -0.51965E+08
        -0.55791E+08
        -0.30288E+08
        -0.14432E+09
        -0.66846E+09
        -0.15789E+10
        -0.18327E+10
        -0.22033E+09
         0.17873E+10
         0.24750E+10
         0.21070E+10
         0.14010E+10
         0.80879E+09
         0.83265E+09
         0.14162E+10
         0.18979E+10
         0.17540E+10
         0.13938E+10
         0.13120E+10
         0.13244E+10
         0.11797E+10
         0.95900E+09
        -0.16058E+09
        -0.31696E+09
        -0.81414E+09
        -0.61056E+09
        -0.35052E+09
        -0.54985E+08
         0.40338E+08
        -0.58360E+08
         0.21490E+09
         0.31956E+09
        -0.81495E+08
         0.62541E+07
         0.17684E+09
        -0.20157E+09
        -0.34098E+09
         0.26755E+09
         0.62479E+09
        -0.25050E+09
         0.10718E+10
         0.16232E+10
         0.31219E+10
         0.41663E+10
         0.19309E+10
         0.93995E+09
         0.10296E+10
         0.33462E+09
         0.21693E+09
         0.88778E+09
         0.12017E+10
         0.19894E+10
        -0.94369E+08
         0.21548E+09
        -0.55784E+09
        -0.60029E+09
        -0.86614E+09
        -0.11452E+10
        -0.47324E+09
        -0.21004E+09
        -0.10524E+09
        -0.22011E+09
        -0.88647E+08
         0.16295E+10
         0.37295E+10
         0.93347E+09
         0.65749E+09
         0.10642E+10
         0.86933E+09
         0.43239E+09
        -0.97718E+08
        -0.14372E+09
         0.16665E+09
         0.82839E+07
        -0.53588E+09
         0.99400E+09
        -0.13291E+10
        -0.61907E+09
        -0.92839E+08
        -0.12461E+09
        -0.44573E+09
        -0.89282E+09
        -0.17406E+10
        -0.22556E+10
        -0.10670E+10
         0.33116E+10
         0.80916E+10
         0.92111E+10
         0.70981E+10
         0.42773E+10
         0.22715E+10
         0.15390E+10
         0.22558E+10
         0.29035E+10
         0.20659E+10
         0.98409E+09
         0.79792E+09
         0.10365E+10
         0.11983E+10
         0.13654E+10
  
SCALARS                      stress_yy  double 1
LOOKUP_TABLE default
        -0.15210E+11
        -0.11560E+11
        -0.13822E+11
        -0.17037E+11
        -0.84827E+01
         0.64474E+01
         0.33220E+01
        -0.20467E+02
        -0.16665E+11
        -0.17690E+11
         0.51441E+00
        -0.36373E+02
        -0.99084E+10
        -0.14540E+11
         0.92414E+01
         0.52600E+01
        -0.15927E+11
        -0.15388E+11
        -0.11837E+02
        -0.43529E+01
        -0.91605E+10
         0.54545E+09
         0.17554E+09
         0.90954E+01
         0.20890E+02
         0.23039E+02
        -0.12723E+11
        -0.43316E+10
        -0.82116E+01
         0.58086E+01
        -0.15449E+11
        -0.15141E+11
        -0.16073E+11
        -0.11403E+02
        -0.85340E+01
        -0.13342E+02
        -0.13427E+11
        -0.14250E+11
        -0.67721E+01
        -0.72528E+01
        -0.11306E+11
        -0.14335E+11
         0.38841E+01
        -0.36999E+01
        -0.10431E+11
        -0.12616E+11
         0.43529E+01
        -0.33105E+01
        -0.14294E+11
        -0.67943E+01
        -0.14387E+11
        -0.81262E+01
        -0.12543E+11
        -0.11851E+02
        -0.11966E+11
        -0.99124E+01
        -0.11679E+11
        -0.14565E+11
        -0.18275E+02
        -0.47331E+01
        -0.15982E+11
        -0.16033E+11
        -0.86575E+01
        -0.14493E+02
        -0.17198E+11
        -0.14880E+02
        -0.18771E+11
        -0.33901E+02
        -0.13111E+11
        -0.99638E+10
         0.88258E+01
         0.28930E+01
        -0.51962E+10
         0.23950E+02
        -0.33471E+10
        -0.96682E+01
        -0.19704E+10
        -0.87696E+01
        -0.51317E+10
        -0.15808E+02
        -0.99475E+10
        -0.12949E+11
        -0.27546E+02
        -0.34314E+02
        -0.16358E+11
        -0.27315E+02
        -0.12448E+11
         0.38717E+01
        -0.15939E+11
        -0.65874E+01
        -0.17603E+11
        -0.16568E+11
        -0.22532E+02
        -0.19261E+02
        -0.16984E+11
        -0.13512E+01
        -0.18886E+11
        -0.17030E+02
        -0.19512E+11
        -0.28446E+02
        -0.18897E+11
        -0.18349E+11
        -0.36758E+02
        -0.51446E+02
        -0.14172E+11
        -0.16121E+11
         0.20118E+02
        -0.67711E+02
        -0.10008E+11
         0.17822E+02
        -0.10124E+10
         0.21952E+02
         0.12289E+11
         0.35174E+02
         0.22674E+11
         0.24085E+02
         0.25656E+11
         0.89669E+01
         0.28978E+11
        -0.12892E+01
         0.44874E+11
         0.22892E+01
         0.16010E+11
        -0.29767E+02
        -0.19757E+11
        -0.53512E+02
        -0.28409E+11
        -0.34653E+02
        -0.27617E+11
        -0.29327E+02
        -0.20111E+11
        -0.16215E+02
        -0.14691E+11
        -0.85530E+01
        -0.11927E+11
         0.12780E+01
        -0.13608E+11
         0.17103E+02
        -0.19926E+11
         0.38491E+02
        -0.20933E+11
         0.15313E+02
        -0.18859E+11
         0.30338E+01
        -0.18097E+11
         0.17097E+01
        -0.19164E+11
        -0.28337E+02
        -0.19046E+11
        -0.35825E+02
        -0.17807E+11
        -0.51330E+02
        -0.16839E+11
        -0.35974E+02
        -0.15278E+11
        -0.27300E+02
        -0.34655E+10
        -0.16961E+10
        -0.32189E+09
        -0.18735E+10
         0.24825E+10
         0.42799E+10
        -0.28848E+10
        -0.40106E+10
        -0.43611E+10
        -0.39191E+10
        -0.28329E+10
        -0.13921E+10
        -0.13360E+10
        -0.34459E+10
        -0.15030E+10
        -0.49302E+10
        -0.32874E+10
        -0.45513E+10
        -0.11728E+10
        -0.22117E+10
        -0.26188E+09
        -0.46186E+10
         0.82669E+09
        -0.99870E+09
        -0.43727E+10
        -0.28996E+10
        -0.48185E+10
        -0.73695E+10
        -0.98734E+10
        -0.64329E+10
        -0.45827E+10
        -0.29917E+10
        -0.20924E+10
         0.29554E+10
         0.30062E+10
         0.14066E+10
        -0.69453E+08
        -0.39381E+10
        -0.66661E+10
        -0.81899E+10
        -0.94397E+10
        -0.13164E+11
        -0.10911E+11
         0.89811E+09
         0.14562E+10
         0.22501E+10
        -0.18522E+08
         0.11507E+10
         0.71884E+10
         0.15587E+11
         0.21560E+11
         0.11326E+11
         0.52671E+10
         0.87766E+10
         0.14439E+10
         0.39580E+09
         0.98572E+09
         0.17309E+10
         0.40274E+10
         0.46987E+10
         0.78504E+10
         0.18292E+11
         0.68534E+10
        -0.18708E+11
        -0.20290E+11
        -0.13242E+11
        -0.67727E+10
        -0.56780E+09
         0.46447E+10
         0.86252E+10
         0.75187E+10
         0.71313E+10
         0.15828E+11
         0.31850E+11
         0.47383E+11
         0.46692E+11
         0.28760E+11
         0.14716E+11
        -0.11435E+09
         0.19282E+09
         0.30134E+10
         0.20484E+10
         0.74585E+10
         0.10060E+11
        -0.69618E+09
         0.85566E+09
         0.43015E+09
         0.12977E+10
        -0.35084E+09
        -0.23842E+10
        -0.16835E+10
         0.20572E+09
        -0.37318E+10
        -0.77265E+09
         0.16830E+10
        -0.51056E+09
         0.15350E+10
         0.10700E+10
        -0.74753E+09
        -0.46020E+10
         0.22252E+09
         0.62600E+09
        -0.12422E+09
        -0.26700E+09
        -0.26144E+10
        -0.70907E+10
        -0.12375E+11
        -0.41416E+10
        -0.12696E+09
         0.42548E+08
         0.31233E+10
         0.84869E+10
         0.66923E+10
         0.42173E+10
         0.89330E+09
        -0.91478E+10
        -0.15103E+11
        -0.20850E+11
        -0.25208E+11
        -0.20323E+11
        -0.12421E+11
         0.10566E+10
         0.21845E+10
         0.25879E+10
         0.15655E+10
         0.36661E+10
         0.10270E+11
         0.18313E+11
         0.23020E+11
         0.16301E+11
         0.79297E+10
         0.12749E+11
         0.45658E+10
         0.12752E+10
        -0.15426E+10
        -0.51990E+10
        -0.92737E+10
        -0.15645E+11
        -0.22753E+11
        -0.27784E+11
        -0.28662E+11
        -0.29001E+11
        -0.25058E+11
        -0.15831E+11
        -0.80154E+10
        -0.21814E+10
         0.26655E+10
         0.67474E+10
         0.55335E+10
         0.37888E+10
         0.73611E+10
         0.18745E+11
         0.30507E+11
         0.33978E+11
         0.28531E+11
         0.19978E+11
         0.15174E+09
        -0.31327E+09
        -0.10865E+09
         0.16567E+09
         0.10125E+10
         0.16992E+10
         0.30363E+09
         0.12121E+10
         0.98627E+09
         0.14370E+10
         0.83506E+09
        -0.34219E+09
        -0.32045E+09
         0.96402E+09
        -0.16633E+10
         0.75274E+09
         0.17208E+10
         0.32039E+09
         0.11302E+10
         0.78085E+09
        -0.12530E+10
        -0.33562E+10
        -0.83351E+09
         0.39114E+09
         0.39455E+09
         0.21774E+09
        -0.10607E+10
        -0.43527E+10
        -0.84354E+10
        -0.24911E+10
         0.87526E+08
        -0.37393E+09
         0.29059E+09
         0.52343E+09
         0.33628E+08
        -0.44842E+09
        -0.51372E+09
        -0.60531E+10
        -0.11431E+11
        -0.16726E+11
        -0.20603E+11
        -0.14693E+11
        -0.82729E+10
        -0.86293E+09
        -0.12698E+10
        -0.24423E+10
        -0.24540E+10
        -0.25788E+10
        -0.22702E+10
        -0.11532E+10
         0.26211E+09
         0.14835E+10
        -0.12716E+09
         0.27042E+10
        -0.89958E+09
        -0.72826E+09
        -0.91784E+09
        -0.30523E+10
        -0.67256E+10
        -0.12970E+11
        -0.21543E+11
        -0.27272E+11
        -0.28512E+11
        -0.26039E+11
        -0.18874E+11
        -0.11605E+11
        -0.60510E+10
        -0.32561E+10
        -0.27335E+10
        -0.30747E+10
        -0.45604E+10
        -0.68696E+10
        -0.92062E+10
        -0.92893E+10
        -0.59305E+10
         0.15682E+08
         0.45695E+10
         0.51043E+10
         0.39526E+09
         0.21403E+09
        -0.26484E+09
        -0.16134E+09
        -0.72448E+09
        -0.12853E+10
         0.82304E+09
         0.99862E+09
         0.70814E+09
         0.93996E+09
         0.11622E+10
         0.68170E+09
         0.61633E+09
         0.10282E+10
        -0.32476E+09
         0.69532E+09
         0.10311E+10
         0.32204E+09
         0.68482E+09
         0.52142E+09
        -0.74853E+09
        -0.18473E+10
        -0.39941E+09
         0.31818E+09
         0.31523E+09
         0.26455E+09
        -0.28300E+09
        -0.23727E+10
        -0.48882E+10
        -0.12586E+10
        -0.16129E+08
        -0.20089E+09
        -0.63178E+09
        -0.17307E+10
        -0.88064E+09
        -0.58305E+09
         0.25089E+08
        -0.32997E+10
        -0.71250E+10
        -0.10862E+11
        -0.13534E+11
        -0.88428E+10
        -0.46559E+10
        -0.52971E+09
        -0.94778E+09
        -0.16000E+10
        -0.15697E+10
        -0.23133E+10
        -0.37316E+10
        -0.49126E+10
        -0.52807E+10
        -0.30816E+10
        -0.12073E+10
        -0.97123E+09
        -0.10145E+10
        -0.26535E+09
         0.68323E+08
        -0.10592E+10
        -0.36548E+10
        -0.84490E+10
        -0.15708E+11
        -0.21299E+11
        -0.22379E+11
        -0.18229E+11
        -0.11959E+11
        -0.68090E+10
        -0.31278E+10
        -0.14857E+10
        -0.17135E+10
        -0.24958E+10
        -0.30667E+10
        -0.43523E+10
        -0.70937E+10
        -0.99729E+10
        -0.10600E+11
        -0.82009E+10
        -0.44158E+10
        -0.17832E+10
         0.40933E+09
         0.36581E+09
         0.77551E+08
        -0.52514E+07
        -0.40703E+09
        -0.87357E+09
         0.66322E+09
         0.72044E+09
         0.49766E+09
         0.67302E+09
         0.87417E+09
         0.70614E+09
         0.58367E+09
         0.79652E+09
         0.97245E+08
         0.32827E+09
         0.61449E+09
         0.20551E+09
         0.35736E+09
         0.41392E+09
        -0.27094E+09
        -0.75645E+09
        -0.95520E+08
         0.14607E+09
         0.36883E+09
         0.67414E+08
         0.81654E+08
        -0.11291E+10
        -0.26649E+10
        -0.44640E+09
        -0.48697E+08
        -0.81182E+08
        -0.30308E+09
        -0.80213E+09
        -0.19397E+09
         0.58081E+08
         0.29717E+09
        -0.17925E+10
        -0.43037E+10
        -0.67784E+10
        -0.85733E+10
        -0.51902E+10
        -0.23780E+10
        -0.15982E+09
        -0.19879E+09
        -0.15284E+09
        -0.19746E+09
        -0.53910E+09
        -0.11875E+10
        -0.18751E+10
        -0.23435E+10
        -0.16296E+10
        -0.33039E+09
        -0.92630E+09
        -0.96122E+08
         0.77910E+08
         0.23960E+09
        -0.19981E+09
        -0.17981E+10
        -0.53775E+10
        -0.10849E+11
        -0.14998E+11
        -0.15616E+11
        -0.11918E+11
        -0.68014E+10
        -0.32211E+10
        -0.11530E+10
        -0.24217E+09
        -0.24460E+09
        -0.35036E+09
        -0.14505E+09
        -0.28270E+09
        -0.12159E+10
        -0.25964E+10
        -0.35818E+10
        -0.36650E+10
        -0.28296E+10
        -0.17806E+10
         0.22564E+09
         0.22360E+09
         0.83208E+08
         0.68134E+07
        -0.20099E+09
        -0.39840E+09
         0.35026E+09
         0.35985E+09
         0.26300E+09
         0.35543E+09
         0.49544E+09
         0.51410E+09
         0.34966E+09
         0.47248E+09
         0.29422E+09
         0.15785E+09
         0.28935E+09
         0.12511E+09
         0.15141E+09
         0.22460E+09
        -0.73020E+08
        -0.18140E+09
        -0.80238E+08
         0.16574E+08
         0.25230E+09
        -0.35702E+08
         0.18164E+09
        -0.35805E+09
        -0.11073E+10
        -0.76493E+08
        -0.32012E+08
        -0.93515E+08
        -0.94701E+08
        -0.28015E+09
         0.35831E+07
         0.18102E+09
         0.24390E+09
        -0.68410E+09
        -0.20313E+10
        -0.33218E+10
        -0.42150E+10
        -0.23104E+10
        -0.86198E+09
        -0.15458E+09
        -0.15255E+09
        -0.31171E+08
        -0.44750E+08
        -0.71350E+08
        -0.16929E+09
        -0.32100E+09
        -0.50678E+09
        -0.52128E+09
        -0.35102E+08
        -0.51539E+09
         0.21122E+09
         0.13411E+09
         0.20060E+09
         0.23086E+09
        -0.50703E+09
        -0.27366E+10
        -0.61395E+10
        -0.84943E+10
        -0.83419E+10
        -0.55450E+10
        -0.25254E+10
        -0.94312E+09
        -0.21017E+09
         0.28599E+08
        -0.14414E+08
         0.18233E+08
         0.22036E+09
         0.36262E+09
         0.33935E+09
         0.18934E+09
        -0.11114E+09
        -0.61802E+09
        -0.90303E+09
        -0.82265E+09
         0.80503E+08
         0.86246E+08
        -0.64306E+06
        -0.27640E+08
        -0.22595E+09
        -0.29566E+09
         0.12836E+09
         0.10595E+09
         0.90574E+08
         0.10360E+09
         0.22055E+09
         0.30443E+09
         0.17937E+09
         0.21885E+09
         0.28946E+09
         0.54545E+08
         0.76459E+08
         0.53649E+08
         0.20729E+08
         0.56008E+08
         0.27232E+06
         0.71698E+08
        -0.63481E+08
        -0.40644E+08
         0.95072E+08
        -0.60842E+08
         0.15805E+09
         0.31252E+08
        -0.16026E+09
         0.50741E+08
        -0.40645E+08
        -0.93394E+08
        -0.70639E+08
        -0.17279E+09
        -0.79499E+08
         0.83348E+08
         0.12603E+09
         0.12767E+08
        -0.40582E+09
        -0.80835E+09
        -0.10543E+10
        -0.38608E+09
        -0.89341E+07
        -0.12984E+09
        -0.14518E+09
        -0.12152E+09
        -0.12554E+09
        -0.12174E+09
        -0.14881E+09
        -0.20520E+09
        -0.28721E+09
        -0.31496E+09
        -0.12777E+09
        -0.47382E+09
         0.14263E+09
         0.31161E+08
         0.76028E+08
         0.25283E+09
         0.72133E+08
        -0.82040E+09
        -0.21298E+10
        -0.28442E+10
        -0.24102E+10
        -0.11244E+10
        -0.25322E+08
         0.30060E+09
         0.23690E+09
         0.95558E+08
        -0.15742E+08
        -0.31697E+08
        -0.50600E+07
         0.26220E+08
         0.44044E+08
         0.47139E+07
        -0.83903E+08
        -0.30949E+09
        -0.49751E+09
        -0.55270E+09
         0.27500E+08
         0.34684E+08
        -0.46398E+08
        -0.52377E+08
        -0.29567E+09
        -0.34832E+09
         0.29148E+08
        -0.69945E+07
         0.12549E+08
        -0.24390E+08
         0.68979E+08
         0.15741E+09
         0.73052E+08
         0.69779E+08
         0.23046E+09
         0.14721E+08
        -0.38308E+08
         0.29594E+08
        -0.51119E+08
        -0.42231E+08
         0.24864E+08
         0.18444E+09
        -0.64854E+08
        -0.67848E+08
        -0.44527E+07
        -0.62171E+08
         0.10644E+09
         0.17159E+09
         0.22687E+09
         0.10545E+09
        -0.45729E+08
        -0.84765E+08
        -0.91042E+08
        -0.21831E+09
        -0.15478E+09
         0.23431E+08
         0.66181E+08
         0.22442E+09
         0.21047E+09
         0.26119E+09
         0.39798E+09
         0.41062E+09
         0.36533E+09
        -0.12607E+09
        -0.14412E+09
        -0.16786E+09
        -0.16435E+09
        -0.19277E+09
        -0.26617E+09
        -0.36095E+09
        -0.45291E+09
        -0.39709E+09
        -0.22522E+09
        -0.57717E+09
         0.39324E+08
        -0.20162E+08
         0.25109E+07
         0.17433E+09
         0.25658E+09
         0.11626E+09
        -0.78947E+08
         0.64747E+08
         0.63079E+09
         0.10738E+10
         0.11079E+10
         0.81184E+09
         0.39807E+09
         0.94643E+08
        -0.43140E+08
        -0.85242E+08
        -0.13152E+09
        -0.17457E+09
        -0.24610E+09
        -0.37370E+09
        -0.50217E+09
        -0.61557E+09
        -0.62974E+09
        -0.65052E+09
         0.19950E+08
         0.32874E+08
        -0.43275E+08
        -0.46253E+08
        -0.32019E+09
        -0.40156E+09
         0.22919E+07
        -0.42148E+08
        -0.76517E+07
        -0.64923E+08
         0.20455E+08
         0.10349E+09
         0.48123E+08
         0.23320E+08
         0.20395E+09
         0.12616E+08
        -0.69167E+08
         0.42387E+08
        -0.70397E+08
        -0.63707E+08
         0.45437E+08
         0.21828E+09
        -0.42754E+08
        -0.81110E+08
        -0.29187E+08
        -0.64126E+08
         0.95331E+08
         0.23159E+09
         0.37256E+09
         0.13881E+09
        -0.31786E+08
        -0.71306E+08
        -0.87177E+08
        -0.24755E+09
        -0.15914E+09
         0.33714E+08
         0.69619E+08
         0.28608E+09
         0.41407E+09
         0.63972E+09
         0.92160E+09
         0.71378E+09
         0.49012E+09
        -0.10120E+09
        -0.11641E+09
        -0.13396E+09
        -0.15340E+09
        -0.21065E+09
        -0.32297E+09
        -0.46707E+09
        -0.60434E+09
        -0.49619E+09
        -0.22655E+09
        -0.63896E+09
         0.53866E+08
         0.51771E+07
         0.77536E+07
         0.16180E+09
         0.29841E+09
         0.33298E+09
         0.48129E+09
         0.10139E+10
         0.17128E+10
         0.18629E+10
         0.14649E+10
         0.91626E+09
         0.44361E+09
         0.15489E+09
         0.37258E+07
        -0.29912E+08
        -0.77262E+08
        -0.16055E+09
        -0.31034E+09
        -0.54635E+09
        -0.76164E+09
        -0.89907E+09
        -0.85944E+09
        -0.79890E+09
         0.21644E+08
         0.37514E+08
        -0.29378E+08
        -0.29261E+08
        -0.32510E+09
        -0.41469E+09
        -0.12705E+08
        -0.64331E+08
        -0.90733E+07
        -0.83603E+08
        -0.50920E+07
         0.79397E+08
         0.41209E+08
        -0.17641E+07
         0.17870E+09
         0.19939E+08
        -0.72535E+08
         0.62425E+08
        -0.84924E+08
        -0.68718E+08
         0.40345E+08
         0.22491E+09
        -0.44116E+08
        -0.10706E+09
        -0.27888E+08
        -0.80273E+08
         0.94338E+08
         0.26016E+09
         0.41768E+09
         0.15886E+09
        -0.28289E+08
        -0.83468E+08
        -0.84378E+08
        -0.24458E+09
        -0.14932E+09
         0.58201E+08
         0.83975E+08
         0.30520E+09
         0.49161E+09
         0.75039E+09
         0.10162E+10
         0.74121E+09
         0.49717E+09
        -0.90300E+08
        -0.96267E+08
        -0.10932E+09
        -0.17099E+09
        -0.22937E+09
        -0.34525E+09
        -0.48215E+09
        -0.61234E+09
        -0.50692E+09
        -0.22040E+09
        -0.68029E+09
         0.79965E+08
         0.76207E+07
        -0.34111E+07
         0.12640E+09
         0.26808E+09
         0.39676E+09
         0.71389E+09
         0.13044E+10
         0.18673E+10
         0.18448E+10
         0.14878E+10
         0.98150E+09
         0.44938E+09
         0.16875E+09
         0.29833E+08
         0.48795E+07
        -0.32481E+08
        -0.12200E+09
        -0.30268E+09
        -0.56723E+09
        -0.76266E+09
        -0.89417E+09
        -0.89723E+09
        -0.85989E+09
         0.11911E+08
         0.24198E+08
        -0.27947E+08
        -0.26823E+08
        -0.32433E+09
        -0.40322E+09
        -0.41407E+08
        -0.91068E+08
        -0.19305E+08
        -0.10542E+09
        -0.37283E+08
         0.44504E+08
         0.34406E+07
        -0.31052E+08
         0.14965E+09
         0.20217E+08
        -0.88668E+08
         0.61620E+08
        -0.97719E+08
        -0.91155E+08
         0.20453E+08
         0.20738E+09
        -0.51208E+08
        -0.11315E+09
        -0.39112E+08
        -0.84243E+08
         0.83076E+08
         0.26633E+09
         0.43669E+09
         0.16836E+09
        -0.39012E+08
        -0.10245E+09
        -0.94961E+08
        -0.24005E+09
        -0.14546E+09
         0.61393E+08
         0.64428E+08
         0.30664E+09
         0.53611E+09
         0.80892E+09
         0.10661E+10
         0.77247E+09
         0.50959E+09
        -0.96329E+08
        -0.11838E+09
        -0.14834E+09
        -0.20048E+09
        -0.24498E+09
        -0.34301E+09
        -0.45405E+09
        -0.55674E+09
        -0.47265E+09
        -0.21682E+09
        -0.69514E+09
         0.87248E+08
        -0.42615E+08
        -0.85784E+08
         0.54438E+08
         0.25032E+09
         0.45754E+09
         0.90586E+09
         0.14982E+10
         0.19515E+10
         0.19528E+10
         0.15610E+10
         0.98969E+09
         0.43115E+09
         0.15969E+09
         0.18260E+08
        -0.40141E+08
        -0.98854E+08
        -0.16192E+09
        -0.28089E+09
        -0.48709E+09
        -0.64776E+09
        -0.76731E+09
        -0.80437E+09
        -0.83315E+09
         0.77016E+07
         0.14312E+08
        -0.39790E+08
        -0.36915E+08
        -0.33655E+09
        -0.41165E+09
        -0.52701E+08
        -0.98550E+08
        -0.24908E+08
        -0.11576E+09
        -0.50130E+08
         0.25568E+08
        -0.18586E+08
        -0.38613E+08
         0.14005E+09
         0.20178E+08
        -0.10376E+09
         0.56844E+08
        -0.99204E+08
        -0.11007E+09
         0.29836E+08
         0.21080E+09
        -0.41214E+08
        -0.10493E+09
        -0.57049E+08
        -0.82008E+08
         0.91714E+08
         0.29605E+09
         0.50738E+09
         0.17091E+09
        -0.49485E+08
        -0.11473E+09
        -0.10277E+09
        -0.24311E+09
        -0.16466E+09
         0.37374E+08
         0.37806E+08
         0.35611E+09
         0.67837E+09
         0.10427E+10
         0.13987E+10
         0.95796E+09
         0.56795E+09
        -0.10084E+09
        -0.13904E+09
        -0.17990E+09
        -0.22644E+09
        -0.25766E+09
        -0.33139E+09
        -0.43228E+09
        -0.54060E+09
        -0.47299E+09
        -0.23948E+09
        -0.70684E+09
         0.54406E+08
        -0.93440E+08
        -0.12131E+09
         0.44096E+08
         0.21248E+09
         0.51405E+09
         0.12658E+10
         0.21137E+10
         0.27061E+10
         0.24928E+10
         0.17262E+10
         0.10229E+10
         0.47451E+09
         0.19142E+09
         0.15508E+08
        -0.75750E+08
        -0.14910E+09
        -0.20530E+09
        -0.28383E+09
        -0.42148E+09
        -0.57276E+09
        -0.73357E+09
        -0.80009E+09
        -0.83620E+09
         0.77911E+07
         0.61923E+07
        -0.56503E+08
        -0.40785E+08
        -0.35167E+09
        -0.40641E+09
        -0.53389E+08
        -0.97116E+08
        -0.22727E+08
        -0.11625E+09
        -0.45077E+08
         0.32700E+08
        -0.19815E+08
        -0.27195E+08
         0.17476E+09
         0.21961E+08
        -0.10284E+09
         0.58009E+08
        -0.91850E+08
        -0.98161E+08
         0.61868E+08
         0.27465E+09
        -0.37163E+08
        -0.98292E+08
        -0.63896E+08
        -0.79756E+08
         0.10673E+09
         0.31387E+09
         0.54370E+09
         0.17450E+09
        -0.53109E+08
        -0.11656E+09
        -0.10049E+09
        -0.23051E+09
        -0.20651E+09
        -0.88416E+07
         0.14328E+08
         0.44368E+09
         0.80208E+09
         0.12065E+10
         0.16252E+10
         0.10779E+10
         0.64097E+09
        -0.10936E+09
        -0.15127E+09
        -0.19050E+09
        -0.23610E+09
        -0.26662E+09
        -0.32001E+09
        -0.39350E+09
        -0.48773E+09
        -0.44355E+09
        -0.30113E+09
        -0.71028E+09
        -0.23613E+08
        -0.10918E+09
        -0.92152E+08
         0.73000E+08
         0.26832E+09
         0.75441E+09
         0.16721E+10
         0.26236E+10
         0.32756E+10
         0.28582E+10
         0.19794E+10
         0.11863E+10
         0.55535E+09
         0.20537E+09
        -0.81359E+07
        -0.10358E+09
        -0.16181E+09
        -0.22587E+09
        -0.31517E+09
        -0.40246E+09
        -0.48778E+09
        -0.64108E+09
        -0.73948E+09
        -0.80504E+09
         0.85093E+07
         0.87243E+07
        -0.46248E+08
        -0.27869E+08
        -0.32546E+09
        -0.36530E+09
        -0.47962E+08
        -0.95620E+08
        -0.20603E+08
        -0.11427E+09
        -0.29299E+08
         0.64815E+08
        -0.22683E+07
        -0.13512E+08
         0.22722E+09
         0.26498E+08
        -0.97909E+08
         0.62700E+08
        -0.82122E+08
        -0.82955E+08
         0.78438E+08
         0.31316E+09
        -0.36484E+08
        -0.85244E+08
        -0.58510E+08
        -0.72055E+08
         0.10854E+09
         0.30882E+09
         0.54303E+09
         0.17701E+09
        -0.55832E+08
        -0.12195E+09
        -0.96629E+08
        -0.21835E+09
        -0.19877E+09
        -0.73798E+07
         0.23861E+08
         0.48542E+09
         0.80747E+09
         0.11984E+10
         0.16109E+10
         0.10747E+10
         0.66059E+09
        -0.11513E+09
        -0.17093E+09
        -0.22005E+09
        -0.25863E+09
        -0.28534E+09
        -0.33706E+09
        -0.39633E+09
        -0.46106E+09
        -0.40028E+09
        -0.30421E+09
        -0.66523E+09
        -0.25568E+08
        -0.61845E+08
        -0.37981E+08
         0.14322E+09
         0.43138E+09
         0.97666E+09
         0.17587E+10
         0.26147E+10
         0.32193E+10
         0.28003E+10
         0.20422E+10
         0.12782E+10
         0.57271E+09
         0.18790E+09
        -0.29361E+08
        -0.13813E+09
        -0.20119E+09
        -0.26287E+09
        -0.36302E+09
        -0.47034E+09
        -0.53289E+09
        -0.60252E+09
        -0.63436E+09
        -0.70899E+09
         0.36133E+07
         0.10740E+08
        -0.35478E+08
        -0.31274E+08
        -0.28752E+09
        -0.34325E+09
        -0.43195E+08
        -0.93564E+08
        -0.19370E+08
        -0.10868E+09
        -0.18905E+08
         0.83151E+08
         0.10476E+08
        -0.75994E+07
         0.23736E+09
         0.30330E+08
        -0.91040E+08
         0.57007E+08
        -0.70181E+08
        -0.88734E+08
         0.69510E+08
         0.26615E+09
        -0.40530E+08
        -0.76614E+08
        -0.56803E+08
        -0.73061E+08
         0.10327E+09
         0.28859E+09
         0.47668E+09
         0.14494E+09
        -0.65234E+08
        -0.13356E+09
        -0.10636E+09
        -0.23055E+09
        -0.15583E+09
         0.21787E+08
         0.42822E+08
         0.45439E+09
         0.71653E+09
         0.10271E+10
         0.13431E+10
         0.89726E+09
         0.55957E+09
        -0.12299E+09
        -0.18190E+09
        -0.23145E+09
        -0.26866E+09
        -0.29240E+09
        -0.35183E+09
        -0.42454E+09
        -0.49149E+09
        -0.40621E+09
        -0.24454E+09
        -0.58705E+09
         0.27135E+08
        -0.28289E+08
        -0.34007E+08
         0.15759E+09
         0.46624E+09
         0.91317E+09
         0.14943E+10
         0.21501E+10
         0.26179E+10
         0.23158E+10
         0.17821E+10
         0.11605E+10
         0.51590E+09
         0.15373E+09
        -0.44374E+08
        -0.14334E+09
        -0.20465E+09
        -0.25232E+09
        -0.34700E+09
        -0.48685E+09
        -0.59017E+09
        -0.65371E+09
        -0.62173E+09
        -0.63713E+09
        -0.10883E+08
        -0.95664E+07
        -0.50280E+08
        -0.49021E+08
        -0.27532E+09
        -0.34211E+09
        -0.60291E+08
        -0.99005E+08
        -0.21615E+08
        -0.10100E+09
        -0.39153E+08
         0.48944E+08
        -0.18491E+08
        -0.25284E+08
         0.18180E+09
         0.18480E+08
        -0.79765E+08
         0.39275E+08
        -0.69509E+08
        -0.79723E+08
         0.61848E+08
         0.23383E+09
        -0.34839E+08
        -0.88209E+08
        -0.42415E+08
        -0.87764E+08
         0.89073E+08
         0.27620E+09
         0.44574E+09
         0.15092E+09
        -0.73385E+08
        -0.13826E+09
        -0.11102E+09
        -0.23253E+09
        -0.13887E+09
         0.14133E+08
         0.19051E+08
         0.36650E+09
         0.60947E+09
         0.89581E+09
         0.11743E+10
         0.80594E+09
         0.51086E+09
        -0.11285E+09
        -0.16358E+09
        -0.20682E+09
        -0.24993E+09
        -0.26770E+09
        -0.32184E+09
        -0.39977E+09
        -0.47683E+09
        -0.40602E+09
        -0.19896E+09
        -0.53532E+09
         0.32494E+08
        -0.64133E+08
        -0.94158E+08
         0.85788E+08
         0.34749E+09
         0.64961E+09
         0.11407E+10
         0.17476E+10
         0.22311E+10
         0.20727E+10
         0.16200E+10
         0.10424E+10
         0.49189E+09
         0.18328E+09
         0.40145E+07
        -0.85032E+08
        -0.15959E+09
        -0.20297E+09
        -0.26992E+09
        -0.39685E+09
        -0.51907E+09
        -0.62672E+09
        -0.62501E+09
        -0.62197E+09
        -0.11704E+08
        -0.18245E+08
        -0.59737E+08
        -0.45550E+08
        -0.27080E+09
        -0.32318E+09
        -0.60724E+08
        -0.90753E+08
        -0.26236E+08
        -0.95755E+08
        -0.45724E+08
         0.22964E+08
        -0.35025E+08
        -0.31667E+08
         0.15184E+09
        -0.18349E+07
        -0.88081E+08
         0.31221E+08
        -0.84142E+08
        -0.78127E+08
         0.78779E+08
         0.26125E+09
        -0.11545E+08
        -0.99047E+08
        -0.39403E+08
        -0.91242E+08
         0.86336E+08
         0.29424E+09
         0.50293E+09
         0.16881E+09
        -0.63358E+08
        -0.12340E+09
        -0.86834E+08
        -0.19705E+09
        -0.14815E+09
        -0.14892E+08
        -0.10248E+08
         0.36714E+09
         0.68494E+09
         0.10485E+10
         0.13794E+10
         0.92951E+09
         0.57260E+09
        -0.78077E+08
        -0.12818E+09
        -0.17968E+09
        -0.22794E+09
        -0.23184E+09
        -0.25981E+09
        -0.31746E+09
        -0.38914E+09
        -0.35548E+09
        -0.20112E+09
        -0.51685E+09
        -0.19222E+08
        -0.11666E+09
        -0.11751E+09
         0.51172E+08
         0.27746E+09
         0.64880E+09
         0.13794E+10
         0.21829E+10
         0.26637E+10
         0.23893E+10
         0.17729E+10
         0.11158E+10
         0.55904E+09
         0.25283E+09
         0.78100E+08
        -0.26335E+08
        -0.13215E+09
        -0.17760E+09
        -0.20925E+09
        -0.28260E+09
        -0.37190E+09
        -0.49443E+09
        -0.55759E+09
        -0.60194E+09
        -0.12933E+08
        -0.16449E+08
        -0.56556E+08
        -0.34056E+08
        -0.25359E+09
        -0.27820E+09
        -0.48351E+08
        -0.80732E+08
        -0.38156E+08
        -0.99136E+08
        -0.31489E+08
         0.31642E+08
        -0.21692E+08
        -0.19913E+08
         0.16198E+09
        -0.14251E+08
        -0.10876E+09
         0.24468E+08
        -0.93588E+08
        -0.96289E+08
         0.72521E+08
         0.25776E+09
        -0.10520E+08
        -0.94617E+08
        -0.62881E+08
        -0.80777E+08
         0.85477E+08
         0.28534E+09
         0.48715E+09
         0.13743E+09
        -0.49527E+08
        -0.10135E+09
        -0.60209E+08
        -0.14133E+09
        -0.15697E+09
        -0.28678E+08
        -0.12543E+08
         0.39154E+09
         0.71738E+09
         0.10752E+10
         0.14069E+10
         0.93734E+09
         0.57406E+09
        -0.61668E+08
        -0.10299E+09
        -0.15077E+09
        -0.19220E+09
        -0.18554E+09
        -0.20795E+09
        -0.23318E+09
        -0.28099E+09
        -0.27831E+09
        -0.21497E+09
        -0.48472E+09
        -0.42680E+08
        -0.98321E+08
        -0.69229E+08
         0.77031E+08
         0.26751E+09
         0.68467E+09
         0.15050E+10
         0.23388E+10
         0.27688E+10
         0.24890E+10
         0.18333E+10
         0.11136E+10
         0.55122E+09
         0.23519E+09
         0.71861E+08
        -0.12206E+08
        -0.97402E+08
        -0.13372E+09
        -0.15776E+09
        -0.19214E+09
        -0.22746E+09
        -0.32901E+09
        -0.42161E+09
        -0.51543E+09
        -0.19696E+08
        -0.10830E+08
        -0.27275E+08
        -0.10351E+08
        -0.19425E+09
        -0.18015E+09
        -0.41358E+08
        -0.79639E+08
        -0.49113E+08
        -0.10086E+09
        -0.75930E+07
         0.73241E+08
        -0.20409E+07
         0.69284E+07
         0.22233E+09
        -0.16589E+08
        -0.10951E+09
         0.18939E+08
        -0.81866E+08
        -0.80477E+08
         0.56611E+08
         0.27990E+09
        -0.32680E+08
        -0.84526E+08
        -0.58962E+08
        -0.71787E+08
         0.10857E+09
         0.30467E+09
         0.51124E+09
         0.16201E+09
        -0.29437E+08
        -0.77200E+08
        -0.17257E+08
        -0.48807E+08
        -0.94211E+08
         0.23308E+08
         0.14468E+08
         0.45576E+09
         0.76480E+09
         0.11022E+10
         0.14185E+10
         0.97030E+09
         0.62254E+09
        -0.70849E+08
        -0.84044E+08
        -0.88917E+08
        -0.11030E+09
        -0.85305E+08
        -0.73007E+08
        -0.79563E+08
        -0.97546E+08
        -0.12855E+09
        -0.13240E+09
        -0.40965E+09
         0.63643E+08
        -0.28214E+08
        -0.17784E+08
         0.14128E+09
         0.36054E+09
         0.80182E+09
         0.15974E+10
         0.23688E+10
         0.27417E+10
         0.24985E+10
         0.18811E+10
         0.10718E+10
         0.46886E+09
         0.16160E+09
         0.31435E+08
         0.11463E+08
         0.15106E+08
         0.40951E+08
         0.36576E+08
         0.31714E+08
         0.34520E+08
        -0.42768E+08
        -0.16220E+09
        -0.35339E+09
        -0.23888E+08
         0.58990E+07
         0.48394E+08
         0.60373E+08
        -0.24230E+08
         0.58885E+08
        -0.23153E+08
        -0.72454E+08
        -0.53367E+08
        -0.91390E+08
         0.55224E+08
         0.19370E+09
         0.54231E+08
         0.71879E+08
         0.35699E+09
        -0.78813E+07
        -0.96191E+08
         0.35260E+08
        -0.64475E+08
        -0.57213E+08
         0.62733E+08
         0.29233E+09
        -0.52047E+08
        -0.78872E+08
        -0.30988E+08
        -0.77216E+08
         0.16866E+09
         0.35673E+09
         0.59390E+09
         0.20247E+09
         0.21205E+08
        -0.60666E+08
         0.10264E+09
         0.17448E+09
         0.85404E+08
         0.15016E+09
         0.79562E+08
         0.59747E+09
         0.92502E+09
         0.12941E+10
         0.16120E+10
         0.10634E+10
         0.65468E+09
        -0.11136E+09
        -0.77703E+08
         0.20750E+08
         0.44081E+08
         0.13197E+09
         0.25001E+09
         0.35387E+09
         0.40031E+09
         0.23991E+09
         0.11436E+09
        -0.18471E+09
         0.29568E+09
         0.10732E+09
         0.98307E+08
         0.32841E+09
         0.64260E+09
         0.11582E+10
         0.20632E+10
         0.29216E+10
         0.31143E+10
         0.25720E+10
         0.18389E+10
         0.10426E+10
         0.47269E+09
         0.14612E+09
        -0.27671E+08
         0.37550E+08
         0.22706E+09
         0.42404E+09
         0.53405E+09
         0.63779E+09
         0.70927E+09
         0.62680E+09
         0.38951E+09
         0.11349E+08
        -0.58685E+08
        -0.57841E+07
         0.11779E+09
         0.10957E+09
         0.22805E+09
         0.34914E+09
        -0.29525E+08
        -0.73121E+08
        -0.71150E+08
        -0.79276E+08
         0.98075E+08
         0.23921E+09
         0.83999E+08
         0.13099E+09
         0.40570E+09
        -0.52064E+08
        -0.91631E+08
         0.18670E+08
        -0.11469E+09
        -0.75307E+08
        -0.13212E+08
         0.14297E+09
        -0.15003E+09
        -0.20386E+09
        -0.22407E+08
        -0.23379E+09
         0.20489E+09
         0.28724E+09
         0.33955E+09
         0.12460E+09
        -0.49334E+07
        -0.20155E+09
         0.19067E+09
         0.38640E+09
         0.32135E+09
         0.28888E+09
         0.13373E+09
         0.56619E+09
         0.70108E+09
         0.76408E+09
         0.76612E+09
         0.46017E+09
         0.31385E+09
        -0.26610E+09
        -0.18334E+09
         0.55535E+08
         0.12469E+09
         0.30742E+09
         0.53573E+09
         0.74401E+09
         0.87114E+09
         0.61538E+09
         0.44811E+09
         0.25065E+09
         0.57525E+09
         0.25912E+09
         0.16110E+09
         0.37274E+09
         0.65568E+09
         0.10291E+10
         0.15376E+10
         0.17380E+10
         0.14599E+10
         0.11735E+10
         0.10278E+10
         0.72151E+09
         0.41535E+09
         0.17527E+09
        -0.40233E+08
         0.98506E+08
         0.48236E+09
         0.87104E+09
         0.10673E+10
         0.11873E+10
         0.13061E+10
         0.12864E+10
         0.10228E+10
         0.55847E+09
        -0.14540E+09
        -0.15893E+09
        -0.10885E+09
        -0.10308E+09
         0.20539E+09
         0.35064E+09
        -0.10804E+09
        -0.95404E+08
        -0.51733E+08
        -0.50245E+07
        -0.17905E+08
         0.97078E+08
        -0.41025E+08
         0.36162E+08
         0.19727E+09
        -0.13897E+09
         0.27201E+08
        -0.13151E+09
         0.55320E+08
         0.24771E+09
         0.61854E+09
         0.88302E+09
         0.25078E+09
        -0.73661E+08
         0.14735E+09
        -0.29420E+09
         0.16471E+09
         0.22711E+09
         0.72814E+08
         0.37612E+09
        -0.17072E+09
        -0.23797E+09
        -0.15232E+08
         0.18256E+09
         0.97361E+08
        -0.70826E+08
        -0.10182E+09
         0.18314E+09
        -0.42211E+08
        -0.46186E+09
        -0.81640E+09
        -0.16287E+09
         0.65144E+09
        -0.85473E+08
        -0.37688E+08
         0.35579E+09
         0.33906E+09
         0.41562E+09
         0.51657E+09
         0.66654E+09
         0.84011E+09
         0.57121E+09
         0.29177E+09
         0.71692E+09
         0.78532E+08
        -0.18771E+08
        -0.63175E+08
         0.13881E+08
         0.73707E+08
        -0.32509E+08
        -0.57310E+09
        -0.15040E+10
        -0.17719E+10
        -0.15155E+09
         0.18599E+10
         0.24930E+10
         0.20679E+10
         0.13154E+10
         0.66892E+09
         0.65360E+09
         0.12582E+10
         0.18235E+10
         0.17745E+10
         0.14805E+10
         0.14225E+10
         0.14364E+10
         0.12734E+10
         0.10350E+10
        -0.20936E+09
        -0.37019E+09
        -0.74674E+09
        -0.57613E+09
        -0.21221E+09
         0.53748E+08
        -0.59191E+08
        -0.10759E+09
         0.12902E+09
         0.22433E+09
        -0.12974E+09
        -0.62513E+08
         0.23889E+08
        -0.18494E+09
        -0.22328E+09
         0.11536E+09
         0.47565E+09
        -0.28524E+09
         0.84876E+09
         0.14050E+10
         0.29077E+10
         0.39913E+10
         0.17076E+10
         0.71254E+09
         0.88924E+09
         0.11412E+09
         0.20366E+09
         0.84047E+09
         0.11775E+10
         0.18565E+10
        -0.19528E+09
         0.11015E+08
        -0.49737E+09
        -0.49603E+09
        -0.73640E+09
        -0.10769E+10
        -0.53404E+09
        -0.92551E+08
        -0.54474E+08
        -0.19123E+09
        -0.77369E+08
         0.16010E+10
         0.36291E+10
         0.69611E+09
         0.41986E+09
         0.85449E+09
         0.72157E+09
         0.42511E+09
         0.23407E+08
         0.70888E+07
         0.30210E+09
         0.11476E+09
        -0.39464E+09
         0.11429E+10
        -0.12654E+10
        -0.67860E+09
        -0.21990E+09
        -0.14948E+09
        -0.31020E+09
        -0.73724E+09
        -0.16259E+10
        -0.21884E+10
        -0.10314E+10
         0.33224E+10
         0.80681E+10
         0.91243E+10
         0.69587E+10
         0.41045E+10
         0.20619E+10
         0.13077E+10
         0.20563E+10
         0.28024E+10
         0.20998E+10
         0.11159E+10
         0.95488E+09
         0.11674E+10
         0.12851E+10
         0.14758E+10
  
SCALARS                      stress_zz  double 1
LOOKUP_TABLE default
        -0.15409E+11
        -0.11718E+11
        -0.13960E+11
        -0.17208E+11
        -0.22494E+02
        -0.12561E+02
        -0.11069E+02
        -0.26752E+02
        -0.16759E+11
        -0.17834E+11
        -0.75297E+01
        -0.33133E+02
        -0.10076E+11
        -0.14729E+11
        -0.11545E+02
        -0.11385E+02
        -0.16194E+11
        -0.15607E+11
        -0.20495E+02
        -0.14775E+02
        -0.93016E+10
         0.47337E+09
         0.63915E+08
        -0.11151E+02
         0.35490E+01
         0.22444E+01
        -0.12875E+11
        -0.43871E+10
        -0.20995E+02
        -0.27756E+01
        -0.15766E+11
        -0.15436E+11
        -0.16353E+11
        -0.18308E+02
        -0.16323E+02
        -0.20378E+02
        -0.13765E+11
        -0.14535E+11
        -0.17010E+02
        -0.16012E+02
        -0.11634E+11
        -0.14532E+11
        -0.10714E+02
        -0.13133E+02
        -0.10819E+11
        -0.12969E+11
        -0.13238E+02
        -0.17001E+02
        -0.14502E+11
        -0.14866E+02
        -0.14723E+11
        -0.20656E+02
        -0.12684E+11
        -0.19131E+02
        -0.11959E+11
        -0.12090E+02
        -0.11466E+11
        -0.14666E+11
        -0.11372E+02
        -0.95780E+01
        -0.16239E+11
        -0.16332E+11
        -0.15548E+02
        -0.25868E+02
        -0.17436E+11
        -0.20362E+02
        -0.18975E+11
        -0.33150E+02
        -0.13175E+11
        -0.10043E+11
        -0.14575E+00
        -0.95986E+01
        -0.53078E+10
         0.60614E+01
        -0.32787E+10
        -0.12672E+02
        -0.17128E+10
        -0.52366E+01
        -0.48312E+10
        -0.48485E+01
        -0.96513E+10
        -0.12667E+11
        -0.97740E+01
        -0.16205E+02
        -0.16222E+11
        -0.22302E+02
        -0.12846E+11
        -0.17046E+02
        -0.16321E+11
        -0.26120E+02
        -0.17979E+11
        -0.16850E+11
        -0.33649E+02
        -0.29849E+02
        -0.17122E+11
        -0.11080E+02
        -0.18937E+11
        -0.20486E+02
        -0.19576E+11
        -0.28332E+02
        -0.18992E+11
        -0.18496E+11
        -0.30437E+02
        -0.44731E+02
        -0.14170E+11
        -0.16187E+11
         0.10560E+02
        -0.60517E+02
        -0.99463E+10
         0.81634E+01
        -0.98027E+09
         0.92888E+01
         0.12272E+11
         0.15464E+02
         0.22699E+11
         0.94567E+01
         0.25724E+11
         0.16261E+01
         0.29098E+11
        -0.16359E+01
         0.45029E+11
         0.39308E+01
         0.16268E+11
        -0.73879E+01
        -0.19501E+11
        -0.17643E+02
        -0.28171E+11
        -0.17863E+02
        -0.27389E+11
        -0.19702E+02
        -0.20105E+11
        -0.14294E+02
        -0.14975E+11
        -0.13869E+02
        -0.12294E+11
        -0.13235E+02
        -0.13949E+11
        -0.86657E+01
        -0.20192E+11
        -0.48628E+01
        -0.21168E+11
        -0.15013E+02
        -0.18950E+11
        -0.11628E+02
        -0.17952E+11
        -0.82268E+01
        -0.19033E+11
        -0.20827E+02
        -0.19034E+11
        -0.23075E+02
        -0.17897E+11
        -0.25685E+02
        -0.16984E+11
        -0.18030E+02
        -0.15442E+11
        -0.12140E+02
        -0.35905E+10
        -0.18572E+10
        -0.43367E+09
        -0.19436E+10
         0.23323E+10
         0.41134E+10
        -0.30812E+10
        -0.41880E+10
        -0.44865E+10
        -0.40868E+10
        -0.30451E+10
        -0.16265E+10
        -0.15771E+10
        -0.36400E+10
        -0.16661E+10
        -0.51021E+10
        -0.34550E+10
        -0.46154E+10
        -0.13840E+10
        -0.23499E+10
        -0.38664E+09
        -0.45985E+10
         0.69722E+09
        -0.11794E+10
        -0.44757E+10
        -0.30255E+10
        -0.49326E+10
        -0.73532E+10
        -0.97246E+10
        -0.63679E+10
        -0.45483E+10
        -0.29204E+10
        -0.20532E+10
         0.29294E+10
         0.28825E+10
         0.12671E+10
        -0.27654E+09
        -0.39500E+10
        -0.65654E+10
        -0.80139E+10
        -0.92270E+10
        -0.12942E+11
        -0.10720E+11
         0.85393E+09
         0.15940E+10
         0.25099E+10
         0.23839E+09
         0.13948E+10
         0.73481E+10
         0.15624E+11
         0.21513E+11
         0.11228E+11
         0.51438E+10
         0.85924E+10
         0.12900E+10
         0.16490E+09
         0.71516E+09
         0.15554E+10
         0.40245E+10
         0.48179E+10
         0.80100E+10
         0.18477E+11
         0.70749E+10
        -0.18456E+11
        -0.20025E+11
        -0.13115E+11
        -0.68158E+10
        -0.63125E+09
         0.46966E+10
         0.88713E+10
         0.78388E+10
         0.74489E+10
         0.16150E+11
         0.32086E+11
         0.47466E+11
         0.46627E+11
         0.28610E+11
         0.14512E+11
        -0.11899E+09
         0.66277E+08
         0.29702E+10
         0.21156E+10
         0.73657E+10
         0.99728E+10
        -0.95661E+09
         0.65008E+09
         0.46870E+09
         0.11407E+10
        -0.63663E+09
        -0.26743E+10
        -0.19786E+10
        -0.84380E+07
        -0.39229E+10
        -0.73834E+09
         0.16487E+10
        -0.35926E+09
         0.14121E+10
         0.11137E+10
        -0.65157E+09
        -0.44828E+10
         0.44010E+09
         0.63500E+09
        -0.94991E+08
        -0.16485E+09
        -0.27137E+10
        -0.70685E+10
        -0.12285E+11
        -0.40170E+10
         0.92873E+08
         0.26477E+09
         0.32628E+10
         0.84798E+10
         0.66035E+10
         0.41232E+10
         0.71118E+09
        -0.92362E+10
        -0.15110E+11
        -0.20797E+11
        -0.25124E+11
        -0.20211E+11
        -0.12285E+11
         0.13368E+10
         0.24456E+10
         0.28464E+10
         0.18071E+10
         0.38274E+10
         0.10319E+11
         0.18277E+11
         0.22942E+11
         0.16218E+11
         0.78290E+10
         0.12610E+11
         0.44512E+10
         0.10835E+10
        -0.18433E+10
        -0.54985E+10
        -0.94723E+10
        -0.15740E+11
        -0.22773E+11
        -0.27754E+11
        -0.28591E+11
        -0.28887E+11
        -0.24906E+11
        -0.15657E+11
        -0.77951E+10
        -0.18359E+10
         0.30802E+10
         0.70495E+10
         0.57957E+10
         0.40202E+10
         0.75118E+10
         0.18805E+11
         0.30475E+11
         0.33880E+11
         0.28399E+11
         0.19832E+11
         0.22870E+09
        -0.29830E+09
        -0.72032E+08
         0.27848E+09
         0.98530E+09
         0.16210E+10
         0.23049E+09
         0.11912E+10
         0.10575E+10
         0.14347E+10
         0.68173E+09
        -0.56005E+09
        -0.48373E+09
         0.85923E+09
        -0.17998E+10
         0.87426E+09
         0.17387E+10
         0.50337E+09
         0.11681E+10
         0.86817E+09
        -0.10693E+10
        -0.32054E+10
        -0.56156E+09
         0.52778E+09
         0.50888E+09
         0.37464E+09
        -0.10662E+10
        -0.42626E+10
        -0.83063E+10
        -0.23239E+10
         0.26041E+09
        -0.23033E+09
         0.39064E+09
         0.48235E+09
         0.25472E+08
        -0.45158E+09
        -0.56588E+09
        -0.60974E+10
        -0.11401E+11
        -0.16644E+11
        -0.20498E+11
        -0.14564E+11
        -0.81246E+10
        -0.64618E+09
        -0.11738E+10
        -0.24307E+10
        -0.24418E+10
        -0.26232E+10
        -0.24210E+10
        -0.13712E+10
         0.26510E+08
         0.13195E+10
        -0.14014E+09
         0.26337E+10
        -0.91663E+09
        -0.80221E+09
        -0.11427E+10
        -0.33336E+10
        -0.69177E+10
        -0.13069E+11
        -0.21562E+11
        -0.27234E+11
        -0.28431E+11
        -0.25921E+11
        -0.18727E+11
        -0.11402E+11
        -0.57688E+10
        -0.29150E+10
        -0.25026E+10
        -0.30607E+10
        -0.46442E+10
        -0.70092E+10
        -0.94156E+10
        -0.95873E+10
        -0.62671E+10
        -0.29214E+09
         0.43104E+10
         0.49312E+10
         0.51901E+09
         0.30929E+09
        -0.15927E+09
        -0.12948E+08
        -0.68911E+09
        -0.12999E+10
         0.83269E+09
         0.10600E+10
         0.76777E+09
         0.98168E+09
         0.10725E+10
         0.48759E+09
         0.49832E+09
         0.10173E+10
        -0.43755E+09
         0.81919E+09
         0.10481E+10
         0.50017E+09
         0.74126E+09
         0.60414E+09
        -0.58637E+09
        -0.16777E+10
        -0.20700E+09
         0.44645E+09
         0.42256E+09
         0.42908E+09
        -0.19996E+09
        -0.22308E+10
        -0.47297E+10
        -0.10696E+10
         0.12111E+09
        -0.10848E+09
        -0.54965E+09
        -0.17413E+10
        -0.83118E+09
        -0.52657E+09
         0.35314E+08
        -0.33209E+10
        -0.70780E+10
        -0.10766E+11
        -0.13411E+11
        -0.86864E+10
        -0.44751E+10
        -0.36946E+09
        -0.93643E+09
        -0.16994E+10
        -0.16610E+10
        -0.24279E+10
        -0.38877E+10
        -0.50730E+10
        -0.54336E+10
        -0.31699E+10
        -0.11639E+10
        -0.96576E+09
        -0.96804E+09
        -0.26657E+09
        -0.11589E+09
        -0.13200E+10
        -0.38485E+10
        -0.85548E+10
        -0.15728E+11
        -0.21261E+11
        -0.22278E+11
        -0.18075E+11
        -0.11778E+11
        -0.65923E+10
        -0.28711E+10
        -0.12223E+10
        -0.15678E+10
        -0.25769E+10
        -0.32552E+10
        -0.45734E+10
        -0.73566E+10
        -0.10262E+11
        -0.10863E+11
        -0.84071E+10
        -0.45577E+10
        -0.18517E+10
         0.45591E+09
         0.40242E+09
         0.12987E+09
         0.79159E+08
        -0.35239E+09
        -0.81834E+09
         0.68200E+09
         0.77545E+09
         0.52001E+09
         0.72974E+09
         0.83137E+09
         0.49045E+09
         0.47221E+09
         0.82128E+09
        -0.64341E+08
         0.34300E+09
         0.63740E+09
         0.24610E+09
         0.40751E+09
         0.49911E+09
        -0.10725E+09
        -0.57746E+09
         0.10791E+09
         0.24559E+09
         0.47365E+09
         0.18529E+09
         0.18078E+09
        -0.98381E+09
        -0.25202E+10
        -0.27269E+09
         0.31526E+08
         0.23539E+08
        -0.23562E+09
        -0.75411E+09
        -0.15429E+09
         0.80996E+08
         0.27302E+09
        -0.18582E+10
        -0.42942E+10
        -0.67173E+10
        -0.84878E+10
        -0.50586E+10
        -0.21992E+10
         0.67080E+08
        -0.78238E+08
        -0.11055E+09
        -0.17984E+09
        -0.54683E+09
        -0.12059E+10
        -0.18848E+10
        -0.23447E+10
        -0.16010E+10
        -0.29355E+09
        -0.88370E+09
        -0.73721E+08
         0.34677E+08
         0.38497E+08
        -0.46658E+09
        -0.20280E+10
        -0.55414E+10
        -0.10929E+11
        -0.15010E+11
        -0.15561E+11
        -0.11796E+11
        -0.66254E+10
        -0.30026E+10
        -0.91473E+09
         0.19339E+08
        -0.54820E+06
        -0.23243E+09
        -0.12117E+09
        -0.30457E+09
        -0.12991E+10
        -0.26999E+10
        -0.36583E+10
        -0.36940E+10
        -0.28192E+10
        -0.17464E+10
         0.20599E+09
         0.18891E+09
         0.63468E+08
        -0.15141E+08
        -0.14289E+09
        -0.27308E+09
         0.34197E+09
         0.41182E+09
         0.25173E+09
         0.43102E+09
         0.44673E+09
         0.32906E+09
         0.24627E+09
         0.47907E+09
         0.69496E+08
         0.49866E+08
         0.31466E+09
         0.10294E+08
         0.19734E+09
         0.31947E+09
         0.14009E+09
         0.19099E+08
         0.13325E+09
         0.91148E+08
         0.36536E+09
        -0.17312E+08
         0.25750E+09
        -0.23452E+09
        -0.98604E+09
         0.80181E+08
        -0.89832E+08
        -0.34327E+08
        -0.10705E+09
        -0.14369E+09
         0.18827E+08
         0.13101E+09
         0.16059E+09
        -0.84551E+09
        -0.20959E+10
        -0.33194E+10
        -0.41852E+10
        -0.22186E+10
        -0.69635E+09
         0.59497E+08
         0.83690E+08
         0.21672E+09
         0.16500E+09
         0.84357E+08
        -0.96439E+07
        -0.14101E+09
        -0.30651E+09
        -0.33840E+09
        -0.61739E+07
        -0.43977E+09
         0.17500E+09
         0.62164E+08
         0.62186E+08
        -0.16887E+08
        -0.79244E+09
        -0.29844E+10
        -0.63056E+10
        -0.85839E+10
        -0.83560E+10
        -0.54828E+10
        -0.23826E+10
        -0.71932E+09
         0.52224E+08
         0.31208E+09
         0.24825E+09
         0.29256E+09
         0.51462E+09
         0.65034E+09
         0.57962E+09
         0.41227E+09
         0.11000E+09
        -0.38354E+09
        -0.66519E+09
        -0.65602E+09
         0.48986E+08
         0.36211E+08
        -0.24124E+08
        -0.54047E+08
        -0.16770E+09
        -0.21679E+09
         0.97043E+08
         0.13959E+09
         0.68850E+08
         0.19718E+09
         0.16447E+09
         0.14464E+09
         0.66237E+08
         0.20844E+09
         0.82800E+08
        -0.22290E+08
         0.10958E+09
        -0.32747E+08
         0.65139E+08
         0.19108E+09
         0.16282E+09
         0.25074E+09
         0.74467E+08
         0.11828E+08
         0.21326E+09
        -0.52093E+08
         0.19202E+09
         0.75286E+08
        -0.14098E+09
         0.17095E+09
        -0.88259E+08
        -0.67158E+08
        -0.89129E+08
        -0.10276E+09
        -0.58273E+08
         0.20219E+08
         0.21821E+08
        -0.24376E+09
        -0.67215E+09
        -0.10336E+10
        -0.12472E+10
        -0.50917E+09
         0.10076E+09
         0.37961E+07
         0.24169E+07
         0.47268E+08
         0.64709E+07
        -0.21430E+08
        -0.45035E+08
        -0.85447E+08
        -0.15789E+09
        -0.20625E+09
        -0.86288E+08
        -0.39864E+09
         0.60394E+08
        -0.50517E+08
        -0.23368E+08
         0.50240E+08
        -0.23388E+09
        -0.11675E+10
        -0.24415E+10
        -0.30958E+10
        -0.25999E+10
        -0.12514E+10
        -0.45689E+08
         0.42346E+09
         0.42227E+09
         0.27146E+09
         0.14236E+09
         0.13625E+09
         0.18801E+09
         0.23100E+09
         0.21849E+09
         0.15855E+09
         0.67784E+08
        -0.15292E+09
        -0.35098E+09
        -0.44858E+09
         0.15359E+08
        -0.57712E+07
        -0.46924E+08
        -0.39767E+08
        -0.21070E+09
        -0.26185E+09
        -0.24018E+06
         0.18841E+08
         0.14849E+08
         0.40827E+08
         0.25250E+08
         0.26688E+08
        -0.31234E+08
         0.53953E+08
         0.59955E+08
        -0.86090E+07
         0.13550E+08
        -0.41886E+07
         0.17042E+08
         0.58116E+08
         0.11102E+09
         0.19742E+09
         0.50914E+08
         0.54168E+07
         0.79289E+08
        -0.26207E+08
         0.88530E+08
         0.11069E+09
         0.12706E+09
         0.13471E+09
        -0.56198E+08
        -0.55713E+08
        -0.75618E+08
        -0.13859E+09
        -0.11703E+09
        -0.37240E+08
        -0.41167E+08
         0.42570E+08
         0.18929E+08
         0.66575E+08
         0.19725E+09
         0.26187E+09
         0.28125E+09
        -0.11514E+07
        -0.32026E+08
        -0.60171E+08
        -0.97768E+08
        -0.13894E+09
        -0.19652E+09
        -0.27827E+09
        -0.36677E+09
        -0.31310E+09
        -0.17828E+09
        -0.48113E+09
        -0.45599E+08
        -0.12416E+09
        -0.10747E+09
         0.76062E+07
         0.32427E+08
        -0.14811E+09
        -0.36845E+09
        -0.21772E+09
         0.36634E+09
         0.83969E+09
         0.93058E+09
         0.70410E+09
         0.41103E+09
         0.19794E+09
         0.80237E+08
         0.27484E+08
        -0.29566E+08
        -0.95067E+08
        -0.19923E+09
        -0.32586E+09
        -0.43467E+09
        -0.52798E+09
        -0.54217E+09
        -0.55781E+09
         0.19005E+08
         0.31174E+07
        -0.30140E+08
        -0.10322E+08
        -0.21770E+09
        -0.29721E+09
        -0.12237E+08
        -0.87933E+07
         0.83945E+07
        -0.91029E+06
        -0.63134E+06
         0.17992E+08
        -0.25602E+08
         0.19847E+08
         0.70348E+08
         0.15007E+08
        -0.85413E+07
         0.32978E+08
         0.12231E+08
         0.19684E+08
         0.10256E+09
         0.18730E+09
         0.70074E+08
         0.21031E+08
         0.28444E+08
         0.70023E+07
         0.64556E+08
         0.13122E+09
         0.25579E+09
         0.10806E+09
        -0.10313E+08
        -0.73409E+07
        -0.38261E+08
        -0.14241E+09
        -0.10926E+09
        -0.17508E+08
        -0.20593E+08
         0.14471E+09
         0.26590E+09
         0.49033E+09
         0.77496E+09
         0.58763E+09
         0.38749E+09
         0.41914E+08
         0.27924E+08
        -0.45954E+06
        -0.57785E+08
        -0.13272E+09
        -0.24541E+09
        -0.38854E+09
        -0.52871E+09
        -0.40763E+09
        -0.17346E+09
        -0.52583E+09
        -0.18157E+08
        -0.81668E+08
        -0.68701E+08
         0.45444E+08
         0.14131E+09
         0.16412E+09
         0.29937E+09
         0.83231E+09
         0.15400E+10
         0.16947E+10
         0.12961E+10
         0.77605E+09
         0.41365E+09
         0.23192E+09
         0.13622E+09
         0.99619E+08
         0.35697E+08
        -0.79963E+08
        -0.28436E+09
        -0.53459E+09
        -0.73458E+09
        -0.84484E+09
        -0.78298E+09
        -0.69163E+09
         0.21000E+08
         0.71228E+07
        -0.21588E+08
         0.25588E+07
        -0.22516E+09
        -0.30047E+09
        -0.18737E+08
        -0.19915E+08
         0.67383E+07
        -0.14626E+08
        -0.14636E+08
         0.16970E+07
        -0.29734E+08
         0.44136E+07
         0.62424E+08
         0.19565E+08
        -0.16031E+08
         0.46066E+08
        -0.80631E+06
         0.61531E+07
         0.98000E+08
         0.20032E+09
         0.66418E+08
         0.12318E+08
         0.17184E+08
         0.10800E+08
         0.54677E+08
         0.13552E+09
         0.27546E+09
         0.96112E+08
         0.38738E+07
         0.11912E+08
        -0.23909E+08
        -0.12513E+09
        -0.11002E+09
        -0.68483E+07
        -0.14201E+08
         0.17766E+09
         0.34413E+09
         0.58626E+09
         0.84962E+09
         0.59967E+09
         0.39553E+09
         0.52907E+08
         0.58856E+08
         0.42856E+08
        -0.28462E+08
        -0.12203E+09
        -0.24414E+09
        -0.37436E+09
        -0.50389E+09
        -0.39480E+09
        -0.17744E+09
        -0.56190E+09
        -0.59055E+07
        -0.80283E+08
        -0.74473E+08
         0.21734E+08
         0.13707E+09
         0.26135E+09
         0.55287E+09
         0.11184E+10
         0.16774E+10
         0.16748E+10
         0.13414E+10
         0.86844E+09
         0.43593E+09
         0.24657E+09
         0.16308E+09
         0.15029E+09
         0.10613E+09
        -0.16883E+08
        -0.24508E+09
        -0.51373E+09
        -0.68686E+09
        -0.79313E+09
        -0.78197E+09
        -0.72928E+09
         0.11083E+08
        -0.10158E+08
        -0.32537E+08
        -0.65703E+07
        -0.23795E+09
        -0.29207E+09
        -0.46370E+08
        -0.41636E+08
        -0.63355E+07
        -0.37381E+08
        -0.46988E+08
        -0.43266E+08
        -0.83875E+08
        -0.25042E+08
         0.45673E+08
         0.10928E+08
        -0.35229E+08
         0.32764E+08
        -0.14675E+08
        -0.17463E+08
         0.84989E+08
         0.18232E+09
         0.63123E+08
         0.75567E+07
        -0.92059E+06
         0.64725E+07
         0.32031E+08
         0.13978E+09
         0.28902E+09
         0.78918E+08
        -0.74068E+07
        -0.38438E+05
        -0.37104E+08
        -0.12276E+09
        -0.12737E+09
        -0.26920E+08
        -0.53436E+08
         0.19394E+09
         0.40088E+09
         0.64834E+09
         0.88941E+09
         0.61227E+09
         0.39174E+09
         0.46499E+08
         0.37162E+08
         0.79257E+07
        -0.49895E+08
        -0.12208E+09
        -0.22296E+09
        -0.32623E+09
        -0.42664E+09
        -0.35039E+09
        -0.19485E+09
        -0.58803E+09
        -0.25162E+08
        -0.15283E+09
        -0.18444E+09
        -0.58405E+08
         0.14593E+09
         0.34962E+09
         0.76852E+09
         0.13254E+10
         0.17482E+10
         0.17523E+10
         0.13972E+10
         0.87923E+09
         0.43013E+09
         0.24594E+09
         0.15124E+09
         0.10534E+09
         0.45698E+08
        -0.33471E+08
        -0.17811E+09
        -0.38107E+09
        -0.52379E+09
        -0.62854E+09
        -0.66279E+09
        -0.69565E+09
         0.12195E+08
        -0.10635E+08
        -0.39347E+08
        -0.14195E+08
        -0.25490E+09
        -0.31035E+09
        -0.44964E+08
        -0.41849E+08
        -0.90386E+07
        -0.43191E+08
        -0.46108E+08
        -0.40504E+08
        -0.82421E+08
        -0.22570E+08
         0.48471E+08
         0.13197E+08
        -0.46044E+08
         0.31415E+08
        -0.11132E+08
        -0.30666E+08
         0.95927E+08
         0.17981E+09
         0.79129E+08
         0.18172E+08
        -0.16089E+08
         0.10584E+08
         0.50902E+08
         0.18206E+09
         0.37444E+09
         0.76319E+08
        -0.10499E+08
        -0.10419E+08
        -0.35595E+08
        -0.12698E+09
        -0.14030E+09
        -0.36776E+08
        -0.60769E+08
         0.25799E+09
         0.56675E+09
         0.90978E+09
         0.12459E+10
         0.80797E+09
         0.44534E+09
         0.49134E+08
         0.18215E+08
        -0.27355E+08
        -0.74263E+08
        -0.12140E+09
        -0.19933E+09
        -0.30205E+09
        -0.41575E+09
        -0.35981E+09
        -0.21054E+09
        -0.61170E+09
        -0.46604E+08
        -0.18801E+09
        -0.19600E+09
        -0.50400E+08
         0.11838E+09
         0.41641E+09
         0.11540E+10
         0.19801E+10
         0.25322E+10
         0.22968E+10
         0.15474E+10
         0.89750E+09
         0.46708E+09
         0.28068E+09
         0.15495E+09
         0.68883E+08
        -0.11188E+08
        -0.69672E+08
        -0.15497E+09
        -0.29298E+09
        -0.44124E+09
        -0.60240E+09
        -0.67563E+09
        -0.71914E+09
         0.10260E+08
        -0.12091E+08
        -0.46812E+08
        -0.18776E+08
        -0.25926E+09
        -0.30207E+09
        -0.39209E+08
        -0.39222E+08
        -0.79460E+07
        -0.45397E+08
        -0.35373E+08
        -0.23322E+08
        -0.65492E+08
        -0.89754E+07
         0.87982E+08
         0.14388E+08
        -0.48234E+08
         0.31743E+08
        -0.81692E+07
        -0.32405E+08
         0.11896E+09
         0.23124E+09
         0.77985E+08
         0.16359E+08
        -0.34302E+08
         0.61516E+07
         0.65040E+08
         0.18713E+09
         0.40859E+09
         0.61198E+08
        -0.14800E+08
        -0.18263E+08
        -0.31006E+08
        -0.10929E+09
        -0.15455E+09
        -0.48804E+08
        -0.57155E+08
         0.34783E+09
         0.69177E+09
         0.10810E+10
         0.14879E+10
         0.93744E+09
         0.51750E+09
         0.37100E+08
         0.47478E+07
        -0.39279E+08
        -0.86167E+08
        -0.12844E+09
        -0.18093E+09
        -0.25520E+09
        -0.35643E+09
        -0.32679E+09
        -0.24017E+09
        -0.60165E+09
        -0.80779E+08
        -0.17778E+09
        -0.14847E+09
        -0.15686E+08
         0.18189E+09
         0.66334E+09
         0.15671E+10
         0.25070E+10
         0.31286E+10
         0.26811E+10
         0.18050E+10
         0.10563E+10
         0.53367E+09
         0.28287E+09
         0.12500E+09
         0.39393E+08
        -0.25299E+08
        -0.95777E+08
        -0.18682E+09
        -0.26572E+09
        -0.34556E+09
        -0.50253E+09
        -0.61208E+09
        -0.68293E+09
         0.49594E+07
        -0.12197E+08
        -0.38852E+08
        -0.11883E+08
        -0.23155E+09
        -0.25487E+09
        -0.40013E+08
        -0.47310E+08
        -0.14124E+08
        -0.58909E+08
        -0.27257E+08
         0.10300E+08
        -0.51126E+08
        -0.72856E+07
         0.14794E+09
         0.92835E+07
        -0.55552E+08
         0.28537E+08
        -0.16548E+08
        -0.36567E+08
         0.11388E+09
         0.25589E+09
         0.61826E+08
         0.66850E+07
        -0.44285E+08
        -0.37503E+07
         0.50290E+08
         0.17056E+09
         0.41366E+09
         0.68242E+08
        -0.26959E+08
        -0.34101E+08
        -0.38698E+08
        -0.94987E+08
        -0.14296E+09
        -0.39581E+08
        -0.43567E+08
         0.39068E+09
         0.69176E+09
         0.10712E+10
         0.14840E+10
         0.95415E+09
         0.55082E+09
         0.19098E+08
        -0.16990E+08
        -0.60314E+08
        -0.10449E+09
        -0.15168E+09
        -0.20444E+09
        -0.25906E+09
        -0.32458E+09
        -0.27486E+09
        -0.23870E+09
        -0.55308E+09
        -0.65311E+08
        -0.12588E+09
        -0.96353E+08
         0.69975E+08
         0.37505E+09
         0.90607E+09
         0.16559E+10
         0.24927E+10
         0.30848E+10
         0.26548E+10
         0.18879E+10
         0.11383E+10
         0.52380E+09
         0.24287E+09
         0.89001E+08
         0.57337E+07
        -0.48620E+08
        -0.11966E+09
        -0.23979E+09
        -0.34906E+09
        -0.40007E+09
        -0.45788E+09
        -0.48974E+09
        -0.57295E+09
        -0.25324E+07
        -0.18046E+08
        -0.42203E+08
        -0.26366E+08
        -0.21325E+09
        -0.24366E+09
        -0.48997E+08
        -0.54877E+08
        -0.16269E+08
        -0.60899E+08
        -0.35417E+08
         0.58807E+07
        -0.59794E+08
        -0.14932E+08
         0.15028E+09
         0.70948E+07
        -0.52115E+08
         0.16985E+08
        -0.14962E+08
        -0.41606E+08
         0.95402E+08
         0.20662E+09
         0.54205E+08
         0.65110E+07
        -0.42397E+08
        -0.81733E+07
         0.39684E+08
         0.14627E+09
         0.34407E+09
         0.51588E+08
        -0.40011E+08
        -0.40946E+08
        -0.60471E+08
        -0.12065E+09
        -0.13032E+09
        -0.35991E+08
        -0.43498E+08
         0.36038E+09
         0.59925E+09
         0.89308E+09
         0.12085E+10
         0.77552E+09
         0.45271E+09
         0.13592E+08
        -0.18949E+08
        -0.54307E+08
        -0.97890E+08
        -0.15358E+09
        -0.22389E+09
        -0.29277E+09
        -0.35754E+09
        -0.28541E+09
        -0.20994E+09
        -0.49169E+09
        -0.46993E+08
        -0.11179E+09
        -0.10894E+09
         0.72299E+08
         0.41634E+09
         0.85915E+09
         0.13980E+10
         0.20185E+10
         0.24715E+10
         0.21688E+10
         0.16281E+10
         0.10103E+10
         0.45764E+09
         0.20971E+09
         0.79450E+08
         0.13823E+08
        -0.26776E+08
        -0.77018E+08
        -0.20479E+09
        -0.36456E+09
        -0.45918E+09
        -0.50779E+09
        -0.47493E+09
        -0.50638E+09
        -0.12911E+08
        -0.38981E+08
        -0.56688E+08
        -0.41521E+08
        -0.20480E+09
        -0.24546E+09
        -0.74723E+08
        -0.64811E+08
        -0.15380E+08
        -0.53835E+08
        -0.70321E+08
        -0.53300E+08
        -0.10750E+09
        -0.42825E+08
         0.73896E+08
         0.59479E+06
        -0.38362E+08
         0.31878E+07
        -0.53045E+07
        -0.27634E+08
         0.99873E+08
         0.18237E+09
         0.66918E+08
         0.98831E+07
        -0.26866E+08
        -0.97578E+07
         0.20782E+08
         0.12769E+09
         0.29874E+09
         0.47776E+08
        -0.43240E+08
        -0.31476E+08
        -0.65923E+08
        -0.12669E+09
        -0.12344E+09
        -0.53509E+08
        -0.79094E+08
         0.26125E+09
         0.48374E+09
         0.74898E+09
         0.10199E+10
         0.66331E+09
         0.39232E+09
         0.30425E+08
         0.10749E+08
        -0.14215E+08
        -0.63779E+08
        -0.11714E+09
        -0.18414E+09
        -0.26167E+09
        -0.34056E+09
        -0.28821E+09
        -0.17597E+09
        -0.44411E+09
        -0.63783E+08
        -0.16616E+09
        -0.19044E+09
        -0.22323E+08
         0.27837E+09
         0.58409E+09
         0.10346E+10
         0.16016E+10
         0.20604E+10
         0.18973E+10
         0.14501E+10
         0.89971E+09
         0.45529E+09
         0.25056E+09
         0.13501E+09
         0.84022E+08
         0.35582E+08
        -0.98106E+07
        -0.10512E+09
        -0.24596E+09
        -0.36512E+09
        -0.47375E+09
        -0.48174E+09
        -0.49460E+09
        -0.49403E+07
        -0.34105E+08
        -0.49381E+08
        -0.26389E+08
        -0.18571E+09
        -0.21514E+09
        -0.62922E+08
        -0.50153E+08
        -0.13162E+08
        -0.41727E+08
        -0.62303E+08
        -0.56672E+08
        -0.10436E+09
        -0.36724E+08
         0.47594E+08
        -0.10380E+08
        -0.42410E+08
         0.52186E+07
        -0.14088E+08
        -0.23147E+08
         0.11976E+09
         0.21990E+09
         0.83788E+08
         0.43466E+07
        -0.14717E+08
        -0.10656E+08
         0.36859E+08
         0.16819E+09
         0.37230E+09
         0.75319E+08
        -0.31460E+08
        -0.21362E+08
        -0.38348E+08
        -0.77482E+08
        -0.11011E+09
        -0.56798E+08
        -0.87992E+08
         0.27168E+09
         0.57915E+09
         0.92259E+09
         0.12404E+10
         0.79650E+09
         0.46286E+09
         0.52853E+08
         0.33870E+08
         0.57378E+07
        -0.41088E+08
        -0.68612E+08
        -0.10400E+09
        -0.16375E+09
        -0.23969E+09
        -0.22638E+09
        -0.15907E+09
        -0.42121E+09
        -0.89737E+08
        -0.20793E+09
        -0.20265E+09
        -0.46128E+08
         0.20685E+09
         0.58892E+09
         0.12955E+10
         0.20654E+10
         0.25097E+10
         0.22201E+10
         0.16130E+10
         0.99242E+09
         0.53065E+09
         0.31306E+09
         0.19646E+09
         0.13085E+09
         0.55748E+08
         0.12105E+08
        -0.28338E+08
        -0.10274E+09
        -0.19511E+09
        -0.32569E+09
        -0.40258E+09
        -0.46881E+09
        -0.77877E+07
        -0.25541E+08
        -0.44106E+08
        -0.27539E+08
        -0.16076E+09
        -0.17153E+09
        -0.39881E+08
        -0.35624E+08
        -0.27167E+08
        -0.42158E+08
        -0.29796E+08
        -0.20250E+08
        -0.70036E+08
        -0.51580E+07
         0.77541E+08
        -0.25713E+08
        -0.68515E+08
        -0.65064E+07
        -0.33519E+08
        -0.52125E+08
         0.11251E+09
         0.21306E+09
         0.80223E+08
        -0.47073E+07
        -0.37174E+08
        -0.14681E+08
         0.60800E+08
         0.16355E+09
         0.35572E+09
         0.41180E+08
        -0.34515E+08
        -0.21841E+08
        -0.35241E+08
        -0.52828E+08
        -0.92866E+08
        -0.45953E+08
        -0.68021E+08
         0.30477E+09
         0.61667E+09
         0.95266E+09
         0.12694E+10
         0.80118E+09
         0.45875E+09
         0.55077E+08
         0.37290E+08
         0.14194E+08
        -0.31553E+08
        -0.50391E+08
        -0.47681E+08
        -0.71564E+08
        -0.12105E+09
        -0.14465E+09
        -0.14443E+09
        -0.38112E+09
        -0.74406E+08
        -0.17406E+09
        -0.14930E+09
        -0.21041E+08
         0.19143E+09
         0.62050E+09
         0.14242E+10
         0.22285E+10
         0.26186E+10
         0.23185E+10
         0.16752E+10
         0.99825E+09
         0.52732E+09
         0.29724E+09
         0.18089E+09
         0.12696E+09
         0.70816E+08
         0.42355E+08
         0.22959E+08
        -0.51264E+07
        -0.39008E+08
        -0.14471E+09
        -0.25858E+09
        -0.38351E+09
        -0.12266E+08
        -0.19691E+08
        -0.27195E+08
        -0.26925E+08
        -0.10501E+09
        -0.98451E+08
        -0.28804E+08
        -0.26945E+08
        -0.32583E+08
        -0.32055E+08
        -0.51998E+07
         0.15690E+08
        -0.49267E+08
         0.23151E+08
         0.12766E+09
        -0.35432E+08
        -0.61911E+08
        -0.23685E+08
        -0.20272E+08
        -0.27146E+08
         0.11254E+09
         0.22765E+09
         0.75925E+08
         0.21684E+07
        -0.18406E+08
        -0.19300E+08
         0.87305E+08
         0.18223E+09
         0.37737E+09
         0.71421E+08
        -0.44297E+08
        -0.22470E+08
        -0.33832E+08
        -0.18426E+08
        -0.43600E+08
        -0.71351E+07
        -0.44929E+08
         0.35378E+09
         0.64632E+09
         0.96535E+09
         0.12702E+10
         0.82328E+09
         0.49161E+09
         0.50380E+08
         0.48968E+08
         0.71684E+08
         0.32187E+08
         0.16821E+08
         0.34146E+08
         0.65716E+08
         0.70985E+08
        -0.17049E+08
        -0.62929E+08
        -0.29181E+09
         0.74883E+07
        -0.11879E+09
        -0.10894E+09
         0.27722E+08
         0.25498E+09
         0.71386E+09
         0.14935E+10
         0.22361E+10
         0.25793E+10
         0.23089E+10
         0.16902E+10
         0.93538E+09
         0.46343E+09
         0.25392E+09
         0.15672E+09
         0.15622E+09
         0.19167E+09
         0.23529E+09
         0.23153E+09
         0.21723E+09
         0.21464E+09
         0.12888E+09
        -0.23698E+08
        -0.23022E+09
         0.72581E+07
         0.11263E+08
         0.38817E+08
         0.18755E+08
         0.23132E+08
         0.65329E+08
         0.14736E+07
        -0.36850E+07
        -0.81790E+07
        -0.90607E+07
         0.44546E+08
         0.10941E+09
         0.11792E+08
         0.61743E+08
         0.24353E+09
        -0.26046E+08
        -0.18554E+08
        -0.13675E+08
         0.25753E+08
         0.33147E+08
         0.15295E+09
         0.25765E+09
         0.99966E+08
         0.27432E+08
         0.20960E+08
        -0.19118E+08
         0.11174E+09
         0.23782E+09
         0.46930E+09
         0.13996E+09
        -0.24341E+08
         0.27318E+07
         0.31726E+08
         0.12583E+09
         0.99273E+08
         0.98385E+08
         0.18516E+08
         0.47685E+09
         0.79953E+09
         0.11650E+10
         0.14815E+10
         0.93015E+09
         0.53481E+09
         0.53385E+08
         0.96138E+08
         0.21792E+09
         0.20094E+09
         0.22611E+09
         0.30511E+09
         0.39677E+09
         0.43931E+09
         0.24184E+09
         0.14027E+09
        -0.93385E+08
         0.22999E+09
         0.12564E+08
         0.25757E+08
         0.23493E+09
         0.53281E+09
         0.10699E+10
         0.19717E+10
         0.28128E+10
         0.29830E+10
         0.24014E+10
         0.16497E+10
         0.91228E+09
         0.49772E+09
         0.29948E+09
         0.17600E+09
         0.25979E+09
         0.46637E+09
         0.64993E+09
         0.72986E+09
         0.79638E+09
         0.83088E+09
         0.70471E+09
         0.43137E+09
         0.70039E+08
        -0.12553E+08
        -0.17340E+08
         0.52720E+08
         0.34540E+08
         0.16786E+09
         0.27481E+09
        -0.32210E+08
        -0.54607E+07
         0.20517E+07
         0.14041E+08
         0.24712E+08
         0.87990E+08
        -0.26054E+08
         0.62020E+08
         0.25001E+09
        -0.68639E+08
         0.15915E+08
        -0.33620E+08
         0.16685E+08
         0.45880E+08
         0.76795E+08
         0.11091E+09
         0.18918E+08
        -0.30700E+08
         0.32815E+08
        -0.10563E+09
         0.96155E+08
         0.15063E+09
         0.19432E+09
         0.51913E+08
        -0.38873E+08
        -0.11190E+08
         0.82871E+08
         0.28014E+09
         0.24403E+09
         0.18779E+09
         0.12225E+08
         0.41315E+09
         0.54919E+09
         0.61100E+09
         0.61542E+09
         0.31212E+09
         0.18738E+09
        -0.33484E+08
         0.81830E+08
         0.33252E+09
         0.34808E+09
         0.43093E+09
         0.57902E+09
         0.74407E+09
         0.85483E+09
         0.55653E+09
         0.36543E+09
         0.23802E+09
         0.45924E+09
         0.14048E+09
         0.47062E+08
         0.24164E+09
         0.52630E+09
         0.92152E+09
         0.14320E+10
         0.16110E+10
         0.13096E+10
         0.99358E+09
         0.83789E+09
         0.61194E+09
         0.45092E+09
         0.33198E+09
         0.21943E+09
         0.40548E+09
         0.79083E+09
         0.11300E+10
         0.12652E+10
         0.13339E+10
         0.13969E+10
         0.13091E+10
         0.10020E+10
         0.54084E+09
        -0.14424E+09
        -0.20831E+09
        -0.21124E+09
        -0.17228E+09
         0.48376E+08
         0.22546E+09
        -0.14599E+09
        -0.70919E+08
        -0.45950E+07
         0.71547E+08
        -0.11219E+09
        -0.18571E+09
        -0.18850E+09
        -0.40753E+08
        -0.10625E+09
        -0.12514E+09
         0.11797E+09
        -0.16540E+09
         0.14508E+09
         0.33472E+09
         0.68965E+09
         0.87037E+09
         0.35514E+09
         0.19561E+08
         0.20439E+09
        -0.20230E+09
         0.45771E+08
         0.22549E+08
        -0.15294E+09
         0.26916E+09
        -0.14552E+09
        -0.11261E+09
        -0.58122E+08
         0.12059E+09
        -0.60723E+08
        -0.20079E+09
        -0.21279E+09
        -0.29386E+08
        -0.24322E+09
        -0.68284E+09
        -0.10439E+10
        -0.38499E+09
         0.49222E+09
         0.53120E+08
         0.14264E+09
         0.56950E+09
         0.52033E+09
         0.51749E+09
         0.54151E+09
         0.64832E+09
         0.80247E+09
         0.49868E+09
         0.11230E+09
         0.53147E+09
        -0.75950E+08
        -0.15822E+09
        -0.24788E+09
        -0.20521E+09
        -0.10327E+09
        -0.17041E+09
        -0.72165E+09
        -0.16987E+10
        -0.20036E+10
        -0.40062E+09
         0.16454E+10
         0.24179E+10
         0.21015E+10
         0.14096E+10
         0.82372E+09
         0.87338E+09
         0.15094E+10
         0.20434E+10
         0.19259E+10
         0.15711E+10
         0.14602E+10
         0.14188E+10
         0.12046E+10
         0.90512E+09
        -0.22874E+09
        -0.40834E+09
        -0.84130E+09
        -0.63139E+09
        -0.38911E+09
        -0.81065E+08
        -0.78478E+08
        -0.10077E+09
         0.14528E+09
         0.27272E+09
        -0.15103E+09
        -0.12334E+09
        -0.99941E+07
        -0.18771E+09
        -0.32882E+09
         0.14854E+09
         0.54214E+09
        -0.30559E+09
         0.93377E+09
         0.14761E+10
         0.29705E+10
         0.39926E+10
         0.17997E+10
         0.80270E+09
         0.92313E+09
         0.20861E+09
         0.19550E+09
         0.69884E+09
         0.95562E+09
         0.17850E+10
        -0.15772E+09
         0.12992E+09
        -0.52443E+09
        -0.53704E+09
        -0.88845E+09
        -0.11644E+10
        -0.57342E+09
        -0.22389E+09
        -0.22804E+09
        -0.42225E+09
        -0.32029E+09
         0.13805E+10
         0.35095E+10
         0.82011E+09
         0.57908E+09
         0.10370E+10
         0.87379E+09
         0.50037E+09
         0.25551E+08
        -0.20567E+08
         0.26306E+09
         0.52892E+08
        -0.57041E+09
         0.90692E+09
        -0.13436E+10
        -0.70625E+09
        -0.27447E+09
        -0.31156E+09
        -0.47079E+09
        -0.85486E+09
        -0.17699E+10
        -0.23898E+10
        -0.12755E+10
         0.30785E+10
         0.78850E+10
         0.90584E+10
         0.69770E+10
         0.41781E+10
         0.21926E+10
         0.14965E+10
         0.22667E+10
         0.29759E+10
         0.22047E+10
         0.11591E+10
         0.95184E+09
         0.11303E+10
         0.12039E+10
         0.12836E+10
  
SCALARS                      stress_yz  double 1
LOOKUP_TABLE default
         0.34336E+08
         0.23454E+08
        -0.41617E+07
         0.41227E+08
         0.15198E+01
         0.18395E+01
         0.24982E+01
         0.18754E+01
        -0.11848E+09
        -0.13168E+09
         0.17525E+01
         0.92750E+00
         0.18414E+08
         0.18770E+08
         0.14358E+01
        -0.27642E+00
         0.15585E+08
         0.35823E+08
        -0.44194E+00
         0.39883E+00
         0.15186E+08
         0.18590E+08
         0.23418E+08
         0.49543E+00
         0.13920E+01
         0.14433E+01
         0.37457E+08
         0.26395E+08
         0.17715E+01
         0.21687E+01
        -0.35079E+07
         0.66185E+07
         0.45702E+08
         0.18756E+00
         0.75657E+00
        -0.39571E+00
        -0.22469E+08
        -0.40986E+07
         0.49115E+00
         0.83906E+00
        -0.62580E+07
        -0.12920E+08
        -0.92375E+00
        -0.16813E+01
         0.41111E+08
         0.14154E+07
        -0.68141E+00
         0.73954E-01
         0.58065E+08
         0.81628E+00
         0.21259E+08
        -0.50680E+00
         0.11439E+09
         0.17561E+01
         0.15046E+09
         0.15634E+01
         0.10141E+09
         0.40536E+08
        -0.11841E+00
        -0.21968E+00
         0.55449E+08
         0.45212E+08
         0.22157E+00
        -0.17591E+01
         0.68978E+08
         0.21553E+01
        -0.22672E+08
         0.12999E+01
        -0.12642E+09
        -0.66394E+08
        -0.19186E+00
         0.12802E+01
        -0.11801E+07
         0.16734E+01
         0.17277E+09
         0.20601E+01
         0.15882E+09
         0.18203E+01
         0.92749E+08
        -0.30627E+00
         0.63761E+08
         0.46243E+08
        -0.39753E+00
        -0.11837E+01
         0.32282E+08
        -0.20757E+01
         0.91267E+08
        -0.40661E-02
         0.11353E+09
        -0.82424E+00
         0.12744E+09
         0.91880E+08
        -0.31710E+01
        -0.19508E+01
         0.80678E+08
         0.10896E+01
        -0.17046E+08
         0.12903E+01
        -0.12854E+09
         0.76863E+00
        -0.16852E+09
        -0.16668E+09
        -0.11643E+01
         0.10185E+01
        -0.17595E+09
        -0.20310E+09
        -0.62731E+01
        -0.55885E+01
        -0.12657E+09
        -0.97307E+00
        -0.30484E+08
         0.31788E+00
         0.68262E+08
        -0.12336E+00
         0.50563E+08
         0.76253E-01
        -0.63096E+08
         0.93992E-01
        -0.10629E+09
         0.68607E+00
        -0.64899E+08
         0.70409E+00
         0.70078E+08
         0.43300E+01
         0.72067E+08
         0.98122E+01
         0.79088E+08
         0.80883E+01
         0.10418E+09
         0.43789E+01
         0.10130E+09
         0.26010E+01
         0.91082E+08
         0.22438E+01
         0.12035E+09
         0.20992E+01
         0.16682E+09
         0.26254E+01
         0.19002E+09
         0.43781E+01
         0.18040E+09
         0.25777E+00
         0.16831E+09
        -0.18193E+01
         0.48160E+08
        -0.17003E+01
        -0.11873E+09
        -0.43169E+01
        -0.17381E+09
        -0.57149E+01
        -0.17896E+09
        -0.87927E+01
        -0.18776E+09
        -0.77786E+01
        -0.21312E+09
        -0.58940E+01
         0.46131E+08
         0.32441E+08
         0.88806E+07
         0.74421E+08
        -0.11318E+09
        -0.13146E+09
         0.37204E+08
         0.40801E+08
         0.32743E+08
         0.66666E+08
         0.70661E+08
         0.11150E+09
         0.55831E+08
         0.11011E+09
         0.18725E+09
         0.51709E+08
         0.27276E+05
         0.10034E+09
        -0.10668E+08
         0.20707E+07
         0.12298E+08
         0.21408E+08
         0.60860E+08
         0.46652E+08
         0.99032E+08
         0.89337E+08
         0.16844E+09
         0.19093E+09
         0.16421E+09
         0.11797E+09
         0.47460E+08
         0.66347E+08
        -0.11872E+08
        -0.88228E+08
        -0.10925E+09
        -0.46644E+08
         0.13779E+08
         0.21178E+09
         0.19305E+09
         0.15223E+09
         0.11777E+09
         0.11356E+09
         0.85401E+08
         0.11211E+09
         0.92304E+08
         0.13323E+08
        -0.43143E+08
        -0.11080E+09
        -0.16381E+09
        -0.17792E+09
        -0.17676E+09
        -0.14940E+09
        -0.16912E+09
        -0.20537E+09
        -0.10526E+09
        -0.12961E+08
         0.91456E+08
         0.16194E+09
         0.15028E+09
         0.12229E+09
         0.10462E+09
         0.90167E+08
         0.83382E+08
         0.81297E+08
         0.65045E+08
         0.25637E+08
         0.24628E+08
         0.74122E+08
         0.13321E+09
         0.10530E+09
        -0.25142E+07
        -0.75795E+08
        -0.13569E+09
        -0.18645E+09
        -0.21040E+09
        -0.19724E+09
        -0.17170E+09
        -0.18555E+09
         0.32852E+08
        -0.19317E+07
        -0.17038E+08
         0.12662E+08
        -0.59452E+08
        -0.75088E+08
         0.27210E+08
         0.31588E+08
         0.40390E+08
         0.69859E+08
         0.96464E+08
         0.12242E+09
         0.42380E+08
         0.13161E+09
         0.17387E+09
         0.80769E+08
        -0.27582E+08
         0.68868E+08
         0.41033E+08
         0.21219E+07
         0.93050E+08
         0.82179E+08
         0.13839E+09
         0.12346E+09
         0.11608E+09
         0.78704E+08
         0.17332E+09
         0.18002E+09
         0.15802E+09
         0.11180E+09
        -0.61533E+08
        -0.40687E+08
        -0.12892E+09
        -0.11393E+09
        -0.62430E+08
        -0.42236E+08
        -0.13644E+08
         0.19437E+09
         0.19012E+09
         0.17383E+09
         0.16254E+09
         0.14792E+09
         0.11864E+09
         0.53070E+08
        -0.53539E+08
        -0.12389E+09
        -0.16574E+09
        -0.20666E+09
        -0.20832E+09
        -0.17377E+09
        -0.14409E+09
        -0.10833E+09
        -0.81224E+08
        -0.89128E+08
        -0.55657E+08
        -0.17397E+08
         0.48131E+08
         0.12931E+09
         0.18321E+09
         0.18995E+09
         0.17069E+09
         0.15748E+09
         0.15573E+09
         0.15384E+09
         0.13420E+09
         0.11567E+09
         0.10117E+09
         0.84814E+08
         0.96594E+07
        -0.81227E+08
        -0.14400E+09
        -0.20361E+09
        -0.22166E+09
        -0.21566E+09
        -0.19000E+09
        -0.15164E+09
        -0.11093E+09
        -0.86393E+08
        -0.31168E+08
        -0.30297E+08
        -0.68067E+07
        -0.25511E+08
         0.19496E+08
         0.22588E+07
        -0.16010E+08
        -0.37482E+08
        -0.40354E+08
        -0.44677E+08
         0.66508E+08
         0.11602E+09
         0.20427E+08
         0.10545E+09
         0.17258E+09
         0.73820E+07
        -0.85632E+08
        -0.18607E+08
        -0.30389E+08
        -0.68016E+08
         0.37146E+08
         0.62241E+08
        -0.84373E+07
         0.79227E+07
        -0.14337E+08
        -0.12023E+08
         0.14910E+09
         0.15391E+09
         0.13829E+09
         0.61899E+08
        -0.10218E+09
        -0.99386E+08
        -0.12845E+09
        -0.84145E+08
         0.10200E+08
        -0.37579E+07
        -0.12540E+08
         0.18627E+09
         0.18061E+09
         0.16856E+09
         0.16017E+09
         0.13749E+09
         0.10381E+09
        -0.84086E+08
        -0.13565E+09
        -0.16929E+09
        -0.18417E+09
        -0.20235E+09
        -0.19185E+09
        -0.12659E+09
        -0.67189E+08
        -0.29540E+08
         0.16764E+08
         0.43523E+08
         0.69621E+07
         0.53253E+07
         0.33735E+08
         0.11893E+09
         0.17377E+09
         0.18420E+09
         0.17415E+09
         0.17024E+09
         0.16996E+09
         0.15842E+09
         0.14100E+09
         0.12319E+09
         0.72167E+08
        -0.28479E+08
        -0.15134E+09
        -0.17888E+09
        -0.17935E+09
        -0.18882E+09
        -0.17979E+09
        -0.15659E+09
        -0.11099E+09
        -0.51607E+08
         0.93078E+07
         0.49734E+08
        -0.11553E+09
        -0.80933E+08
        -0.16500E+07
        -0.56485E+08
         0.74164E+08
         0.60008E+08
        -0.72088E+08
        -0.11186E+09
        -0.12074E+09
        -0.10360E+09
         0.39480E+08
         0.10226E+09
         0.14224E+07
         0.77708E+08
         0.15921E+09
        -0.90244E+08
        -0.13402E+09
        -0.93911E+08
        -0.10169E+09
        -0.10783E+09
        -0.69416E+07
         0.29423E+08
        -0.40968E+08
        -0.69711E+08
        -0.84675E+08
        -0.79605E+08
         0.11194E+09
         0.12345E+09
         0.11710E+09
         0.37849E+07
        -0.10842E+09
        -0.10317E+09
        -0.95857E+08
        -0.24947E+08
         0.61579E+08
         0.26896E+08
        -0.12921E+08
         0.17255E+09
         0.17069E+09
         0.16122E+09
         0.15232E+09
         0.12385E+09
         0.84180E+08
        -0.92370E+08
        -0.10598E+09
        -0.94041E+08
        -0.10176E+09
        -0.10676E+09
        -0.69681E+08
        -0.66734E+07
         0.38558E+08
         0.48335E+08
         0.79094E+08
         0.12038E+09
         0.45893E+08
         0.16440E+08
         0.17191E+08
         0.87068E+08
         0.13802E+09
         0.16294E+09
         0.16948E+09
         0.17163E+09
         0.16726E+09
         0.15134E+09
         0.14085E+09
         0.12364E+09
         0.66008E+08
        -0.17387E+08
        -0.10788E+09
        -0.11551E+09
        -0.82489E+08
        -0.79611E+08
        -0.67855E+08
        -0.26854E+08
         0.24682E+08
         0.66557E+08
         0.98090E+08
         0.12029E+09
        -0.12705E+09
        -0.10948E+09
        -0.60579E+08
        -0.89175E+08
         0.24657E+08
         0.30829E+08
        -0.11172E+09
        -0.12205E+09
        -0.12509E+09
        -0.11485E+09
        -0.72481E+08
         0.22809E+08
        -0.58611E+08
        -0.50156E+08
         0.10734E+09
        -0.12555E+09
        -0.13603E+09
        -0.12198E+09
        -0.12485E+09
        -0.11718E+09
        -0.31374E+08
         0.75589E+07
        -0.58861E+08
        -0.10917E+09
        -0.10296E+09
        -0.12272E+09
         0.14069E+08
         0.66025E+08
         0.93561E+08
        -0.30742E+08
        -0.90491E+08
        -0.63658E+08
        -0.65195E+08
        -0.66542E+07
         0.18528E+08
        -0.18661E+08
        -0.57107E+08
         0.14247E+09
         0.15325E+09
         0.15281E+09
         0.15123E+09
         0.12315E+09
         0.77964E+08
        -0.84067E+08
        -0.22098E+08
         0.37277E+08
         0.42082E+08
         0.34189E+08
         0.31602E+08
         0.39046E+08
         0.47877E+08
         0.39658E+08
         0.40068E+08
         0.68419E+08
         0.11583E+08
        -0.19352E+08
        -0.25440E+08
         0.33219E+08
         0.90882E+08
         0.13273E+09
         0.15878E+09
         0.17068E+09
         0.17154E+09
         0.16097E+09
         0.14705E+09
         0.12256E+09
         0.70252E+08
         0.16085E+08
        -0.29015E+08
         0.25315E+07
         0.58022E+08
         0.73751E+08
         0.58017E+08
         0.47396E+08
         0.53731E+08
         0.61467E+08
         0.66850E+08
         0.72091E+08
        -0.13609E+09
        -0.11721E+09
        -0.91181E+08
        -0.53646E+08
        -0.40446E+08
        -0.15611E+08
        -0.12619E+09
        -0.13738E+09
        -0.13198E+09
        -0.12480E+09
        -0.10550E+09
        -0.45215E+08
        -0.69886E+08
        -0.10284E+09
         0.14473E+08
        -0.10758E+09
        -0.13428E+09
        -0.71087E+08
        -0.13325E+09
        -0.11457E+09
        -0.62204E+08
        -0.12783E+08
        -0.83889E+08
        -0.11975E+09
        -0.10570E+09
        -0.82105E+08
        -0.56774E+08
         0.89734E+07
         0.68069E+08
        -0.51044E+08
         0.18606E+08
         0.63286E+06
         0.31354E+08
         0.22045E+08
        -0.53071E+08
        -0.86461E+08
        -0.78427E+08
         0.91310E+08
         0.13073E+09
         0.14376E+09
         0.14963E+09
         0.12248E+09
         0.70697E+08
        -0.75651E+08
        -0.24005E+08
         0.32262E+08
         0.81993E+08
         0.10338E+09
         0.73729E+08
         0.40439E+08
         0.19570E+08
         0.59535E+07
        -0.35295E+08
        -0.20070E+08
        -0.41262E+08
        -0.25162E+08
        -0.18950E+08
        -0.64873E+07
         0.34715E+08
         0.95187E+08
         0.14044E+09
         0.16436E+09
         0.17207E+09
         0.16677E+09
         0.15289E+09
         0.11590E+09
         0.46886E+08
        -0.15687E+08
        -0.35402E+08
        -0.12637E+08
         0.32188E+08
         0.70369E+08
         0.71736E+08
         0.42891E+08
         0.19710E+08
         0.75460E+07
        -0.80425E+07
        -0.18760E+08
        -0.55800E+08
        -0.45140E+08
        -0.27450E+08
         0.36054E+07
         0.35779E+07
         0.36607E+08
        -0.55817E+08
        -0.83922E+08
        -0.59041E+08
        -0.11034E+09
        -0.69212E+08
        -0.46538E+08
        -0.23945E+08
        -0.99087E+08
        -0.65649E+08
        -0.13841E+08
        -0.69697E+08
        -0.54562E+07
        -0.40048E+08
        -0.91363E+08
        -0.49711E+08
        -0.52516E+08
        -0.48993E+08
        -0.36384E+08
        -0.10088E+09
        -0.15277E+08
        -0.10607E+09
        -0.79291E+08
        -0.40146E+08
        -0.85543E+08
         0.44709E+08
         0.18940E+08
         0.60900E+08
         0.67766E+08
        -0.10357E+08
        -0.21541E+08
        -0.19425E+08
        -0.44552E+08
         0.18118E+08
         0.81203E+08
         0.12429E+09
         0.73719E+08
        -0.20702E+08
        -0.44695E+08
        -0.25994E+08
        -0.77913E+07
         0.47741E+08
         0.89856E+08
         0.74509E+08
         0.56591E+08
         0.47415E+08
         0.49672E+08
         0.36320E+07
         0.12171E+08
         0.27585E+08
         0.27747E+08
         0.31525E+08
        -0.36726E+06
        -0.31140E+08
         0.15689E+08
         0.84175E+08
         0.12989E+09
         0.15561E+09
         0.17084E+09
         0.15847E+09
         0.38483E+08
        -0.30831E+08
        -0.52318E+08
        -0.56174E+08
        -0.54519E+08
        -0.43769E+08
        -0.15793E+08
         0.23579E+08
         0.29013E+08
         0.26646E+08
         0.31359E+08
         0.37535E+08
         0.31229E+08
        -0.29765E+08
        -0.20917E+08
        -0.79466E+07
         0.11675E+08
         0.29211E+08
         0.57934E+08
        -0.17570E+08
        -0.33698E+08
        -0.17640E+08
        -0.39280E+08
        -0.28141E+08
        -0.21142E+08
         0.10675E+08
        -0.59427E+08
        -0.89581E+08
         0.59806E+07
        -0.22194E+07
         0.34575E+07
         0.72666E+07
        -0.11627E+08
        -0.10428E+08
        -0.35521E+08
        -0.21984E+08
        -0.85637E+07
        -0.56627E+08
        -0.43721E+07
        -0.10823E+09
        -0.13197E+09
        -0.11139E+09
        -0.99209E+08
         0.34340E+08
         0.12376E+08
         0.51893E+08
         0.82946E+08
         0.22109E+08
         0.62930E+07
         0.80997E+07
        -0.11516E+09
        -0.11161E+09
        -0.96250E+08
        -0.77548E+08
        -0.77297E+08
        -0.71540E+08
        -0.32899E+08
        -0.26482E+08
        -0.21124E+08
         0.23939E+08
         0.68939E+08
         0.81731E+08
         0.78682E+08
         0.78903E+08
         0.76207E+08
         0.36507E+08
         0.40329E+08
         0.53089E+08
         0.51514E+08
         0.61937E+08
         0.28466E+08
        -0.57083E+08
        -0.86859E+08
        -0.75136E+08
        -0.59066E+08
        -0.50844E+08
        -0.40870E+08
        -0.33577E+08
        -0.31260E+08
        -0.21497E+08
        -0.28678E+08
        -0.49492E+08
        -0.63184E+08
        -0.69133E+08
        -0.52293E+08
         0.34682E+07
         0.39848E+08
         0.59554E+08
         0.75845E+08
         0.81075E+08
         0.65786E+08
        -0.26952E+08
        -0.14221E+08
         0.33607E+06
         0.66432E+07
         0.47520E+08
         0.67542E+08
        -0.61063E+07
        -0.20945E+08
        -0.91964E+07
        -0.17127E+08
        -0.15735E+08
        -0.55265E+07
         0.30151E+08
        -0.50073E+08
        -0.94701E+08
         0.13713E+07
         0.17315E+08
        -0.56648E+07
         0.25258E+08
         0.21079E+08
         0.25486E+08
        -0.37016E+07
         0.14556E+08
         0.74917E+07
        -0.25119E+08
        -0.19498E+07
        -0.10362E+09
        -0.13582E+09
        -0.11178E+09
        -0.75515E+08
         0.22713E+08
         0.11615E+08
         0.42197E+08
         0.81843E+08
         0.51816E+08
         0.29694E+08
         0.27208E+08
        -0.12256E+09
        -0.12379E+09
        -0.11665E+09
        -0.10708E+09
        -0.92071E+08
        -0.62245E+08
        -0.79944E+06
         0.23234E+05
         0.34015E+07
         0.32236E+08
         0.73205E+08
         0.86702E+08
         0.89741E+08
         0.94907E+08
         0.87107E+08
         0.69071E+08
         0.65651E+08
         0.87276E+08
         0.79438E+08
         0.89067E+08
         0.54046E+08
        -0.57803E+08
        -0.10382E+09
        -0.10822E+09
        -0.10714E+09
        -0.10647E+09
        -0.91025E+08
        -0.56477E+08
        -0.16512E+08
         0.28019E+08
         0.31682E+08
         0.69651E+07
        -0.12768E+08
        -0.29172E+08
        -0.26351E+08
         0.24098E+08
         0.63471E+08
         0.87403E+08
         0.10414E+09
         0.10540E+09
         0.87666E+08
        -0.28769E+08
        -0.13632E+08
         0.56930E+06
         0.30680E+07
         0.47895E+08
         0.65506E+08
        -0.43166E+07
        -0.18855E+08
        -0.70239E+07
        -0.99009E+07
        -0.16267E+08
        -0.55091E+07
         0.37677E+08
        -0.54565E+08
        -0.98680E+08
         0.67275E+07
         0.29561E+08
        -0.93177E+07
         0.41697E+08
         0.41580E+08
         0.22797E+08
        -0.23179E+06
         0.13060E+08
         0.17965E+08
        -0.12445E+08
         0.39807E+07
        -0.11305E+09
        -0.13291E+09
        -0.10552E+09
        -0.59519E+08
         0.27326E+08
         0.15741E+08
         0.48636E+08
         0.78716E+08
         0.54242E+08
         0.37333E+08
         0.35740E+08
        -0.12683E+09
        -0.12675E+09
        -0.11746E+09
        -0.10606E+09
        -0.86030E+08
        -0.52309E+08
        -0.15342E+06
         0.10826E+07
         0.91675E+07
         0.44096E+08
         0.84921E+08
         0.91096E+08
         0.89877E+08
         0.91064E+08
         0.82474E+08
         0.71457E+08
         0.68856E+08
         0.90771E+08
         0.81537E+08
         0.90761E+08
         0.50145E+08
        -0.66821E+08
        -0.11207E+09
        -0.11634E+09
        -0.11364E+09
        -0.10851E+09
        -0.90252E+08
        -0.57511E+08
        -0.27939E+08
         0.70068E+07
         0.16267E+08
         0.69391E+06
        -0.91034E+07
        -0.86006E+07
         0.69827E+07
         0.48621E+08
         0.76460E+08
         0.90225E+08
         0.99097E+08
         0.99817E+08
         0.87717E+08
        -0.29132E+08
        -0.18557E+08
        -0.57425E+07
         0.50018E+07
         0.40310E+08
         0.60827E+08
        -0.70425E+07
        -0.16036E+08
        -0.18650E+07
        -0.46069E+07
        -0.20470E+08
        -0.18760E+08
         0.25370E+08
        -0.58274E+08
        -0.10536E+09
         0.15278E+08
         0.41067E+08
        -0.28831E+07
         0.45977E+08
         0.50367E+08
         0.10440E+08
        -0.79439E+07
        -0.51003E+07
         0.11378E+08
        -0.10033E+08
         0.23143E+07
        -0.12595E+09
        -0.13463E+09
        -0.10669E+09
        -0.66554E+08
         0.40123E+08
         0.18381E+08
         0.64370E+08
         0.83163E+08
         0.42463E+08
         0.25730E+08
         0.22944E+08
        -0.13119E+09
        -0.13098E+09
        -0.12046E+09
        -0.10734E+09
        -0.87061E+08
        -0.56841E+08
        -0.17749E+08
        -0.11652E+08
         0.30261E+07
         0.44622E+08
         0.86889E+08
         0.93152E+08
         0.88751E+08
         0.85368E+08
         0.77604E+08
         0.60572E+08
         0.60571E+08
         0.73919E+08
         0.63343E+08
         0.71939E+08
         0.26353E+08
        -0.77928E+08
        -0.11685E+09
        -0.12099E+09
        -0.11801E+09
        -0.10928E+09
        -0.89053E+08
        -0.62162E+08
        -0.41631E+08
        -0.18652E+08
        -0.18652E+08
        -0.33378E+08
        -0.32989E+08
        -0.16856E+08
         0.12975E+08
         0.54422E+08
         0.74818E+08
         0.82933E+08
         0.87123E+08
         0.85731E+08
         0.76111E+08
        -0.25548E+08
        -0.19295E+08
        -0.81434E+07
         0.87078E+07
         0.40368E+08
         0.63648E+08
        -0.31751E+07
        -0.93416E+07
         0.24711E+07
         0.19301E+07
        -0.16534E+08
        -0.19519E+08
         0.20229E+08
        -0.55903E+08
        -0.10779E+09
         0.14208E+08
         0.46080E+08
        -0.32795E+06
         0.40650E+08
         0.53278E+08
         0.33851E+07
        -0.10452E+08
        -0.13902E+08
         0.29774E+07
        -0.43787E+07
        -0.12516E+07
        -0.12989E+09
        -0.14026E+09
        -0.11417E+09
        -0.71935E+08
         0.41296E+08
         0.19386E+08
         0.66222E+08
         0.84345E+08
         0.36578E+08
         0.12848E+08
         0.94276E+07
        -0.13554E+09
        -0.13840E+09
        -0.12996E+09
        -0.11823E+09
        -0.96713E+08
        -0.62330E+08
        -0.23316E+08
        -0.11549E+08
         0.42621E+07
         0.43735E+08
         0.81894E+08
         0.87675E+08
         0.86201E+08
         0.85956E+08
         0.80484E+08
         0.55192E+08
         0.61783E+08
         0.55178E+08
         0.42733E+08
         0.60557E+08
         0.24130E+08
        -0.78828E+08
        -0.11720E+09
        -0.12821E+09
        -0.12921E+09
        -0.12251E+09
        -0.99473E+08
        -0.65063E+08
        -0.42908E+08
        -0.26455E+08
        -0.29695E+08
        -0.40723E+08
        -0.33646E+08
        -0.17361E+08
         0.67060E+07
         0.45125E+08
         0.64806E+08
         0.76651E+08
         0.87382E+08
         0.89691E+08
         0.79698E+08
        -0.17219E+08
        -0.78521E+07
        -0.84966E+06
         0.13555E+08
         0.36927E+08
         0.57961E+08
         0.72538E+07
        -0.12776E+07
         0.50789E+07
         0.99847E+07
        -0.10415E+08
        -0.16046E+08
         0.31607E+08
        -0.51595E+08
        -0.11286E+09
         0.10909E+08
         0.47394E+08
        -0.55904E+06
         0.39624E+08
         0.56865E+08
         0.45889E+05
        -0.12006E+08
        -0.17934E+08
         0.77796E+05
         0.77849E+07
        -0.35016E+07
        -0.11898E+09
        -0.13831E+09
        -0.11140E+09
        -0.61216E+08
         0.37000E+08
         0.19454E+08
         0.58924E+08
         0.76827E+08
         0.31829E+08
         0.14368E+08
         0.18626E+08
        -0.14051E+09
        -0.14190E+09
        -0.13207E+09
        -0.12061E+09
        -0.97470E+08
        -0.61344E+08
        -0.25906E+08
        -0.92649E+07
         0.94220E+07
         0.47858E+08
         0.79686E+08
         0.80004E+08
         0.75961E+08
         0.74951E+08
         0.71544E+08
         0.43501E+08
         0.52480E+08
         0.48145E+08
         0.45692E+08
         0.72824E+08
         0.29648E+08
        -0.86527E+08
        -0.12789E+09
        -0.13837E+09
        -0.13609E+09
        -0.12844E+09
        -0.10532E+09
        -0.69718E+08
        -0.47357E+08
        -0.35581E+08
        -0.36460E+08
        -0.43936E+08
        -0.31893E+08
        -0.13682E+08
         0.61987E+07
         0.38192E+08
         0.52741E+08
         0.61620E+08
         0.73470E+08
         0.77927E+08
         0.69661E+08
        -0.16950E+08
        -0.10449E+07
         0.47269E+07
         0.98624E+07
         0.34379E+08
         0.48808E+08
         0.12349E+08
         0.42026E+06
         0.31359E+07
         0.10671E+08
        -0.59332E+07
        -0.91419E+07
         0.45761E+08
        -0.46523E+08
        -0.11126E+09
         0.89008E+07
         0.44338E+08
        -0.34111E+07
         0.42418E+08
         0.53810E+08
         0.71681E+07
        -0.13375E+08
        -0.10806E+08
         0.46395E+07
         0.72571E+07
        -0.16171E+07
        -0.10826E+09
        -0.13230E+09
        -0.10641E+09
        -0.62102E+08
         0.35768E+08
         0.22892E+08
         0.53719E+08
         0.72887E+08
         0.40724E+08
         0.34647E+08
         0.40174E+08
        -0.13964E+09
        -0.13955E+09
        -0.12821E+09
        -0.11660E+09
        -0.94911E+08
        -0.62425E+08
        -0.19645E+08
        -0.14078E+07
         0.19323E+08
         0.57409E+08
         0.85050E+08
         0.82663E+08
         0.74912E+08
         0.69684E+08
         0.62876E+08
         0.50737E+08
         0.44489E+08
         0.88589E+08
         0.85120E+08
         0.10195E+09
         0.43195E+08
        -0.89422E+08
        -0.13352E+09
        -0.14082E+09
        -0.13392E+09
        -0.12472E+09
        -0.10567E+09
        -0.76013E+08
        -0.50966E+08
        -0.29831E+08
        -0.25760E+08
        -0.32721E+08
        -0.21765E+08
        -0.46059E+07
         0.16787E+08
         0.47868E+08
         0.59837E+08
         0.63840E+08
         0.67851E+08
         0.63676E+08
         0.53533E+08
        -0.18248E+08
        -0.42666E+06
         0.10838E+08
         0.13704E+08
         0.39510E+08
         0.52429E+08
         0.10175E+08
        -0.25028E+07
        -0.12489E+06
         0.63018E+07
        -0.49048E+07
        -0.48777E+07
         0.45734E+08
        -0.41850E+08
        -0.10112E+09
         0.67103E+07
         0.37795E+08
        -0.13310E+07
         0.39132E+08
         0.48622E+08
         0.16433E+08
        -0.10484E+08
         0.22606E+07
         0.87906E+07
         0.28795E+07
         0.26817E+07
        -0.10029E+09
        -0.12761E+09
        -0.10244E+09
        -0.57609E+08
         0.39487E+08
         0.27469E+08
         0.59964E+08
         0.81734E+08
         0.53148E+08
         0.49755E+08
         0.47098E+08
        -0.13248E+09
        -0.13388E+09
        -0.12329E+09
        -0.11078E+09
        -0.89792E+08
        -0.60050E+08
        -0.59554E+07
         0.81021E+07
         0.21907E+08
         0.55800E+08
         0.84934E+08
         0.87725E+08
         0.82466E+08
         0.76796E+08
         0.68574E+08
         0.64884E+08
         0.46020E+08
         0.11395E+09
         0.99108E+08
         0.10225E+09
         0.45058E+08
        -0.81711E+08
        -0.12715E+09
        -0.13482E+09
        -0.12825E+09
        -0.11686E+09
        -0.99398E+08
        -0.74786E+08
        -0.46504E+08
        -0.96256E+07
        -0.15677E+07
        -0.10207E+08
        -0.74224E+07
        -0.16148E+07
         0.13098E+08
         0.46433E+08
         0.66139E+08
         0.73612E+08
         0.75503E+08
         0.66745E+08
         0.52560E+08
        -0.16513E+08
        -0.60761E+07
         0.39612E+07
         0.16016E+08
         0.32122E+08
         0.50818E+08
         0.36717E+07
        -0.48260E+07
         0.21623E+07
         0.25872E+07
        -0.89172E+07
        -0.12668E+08
         0.28109E+08
        -0.41197E+08
        -0.96931E+08
         0.15867E+08
         0.36474E+08
         0.72104E+07
         0.40927E+08
         0.47115E+08
         0.19445E+08
        -0.41978E+07
         0.93609E+07
         0.17785E+08
        -0.10944E+07
         0.13279E+08
        -0.10076E+09
        -0.12777E+09
        -0.99591E+08
        -0.52415E+08
         0.44833E+08
         0.31237E+08
         0.60669E+08
         0.79007E+08
         0.38788E+08
         0.30886E+08
         0.27805E+08
        -0.12744E+09
        -0.13086E+09
        -0.12087E+09
        -0.10646E+09
        -0.83509E+08
        -0.52310E+08
         0.47356E+06
         0.70568E+07
         0.12482E+08
         0.43474E+08
         0.73355E+08
         0.77673E+08
         0.74002E+08
         0.70179E+08
         0.66390E+08
         0.52840E+08
         0.39489E+08
         0.88980E+08
         0.72985E+08
         0.75843E+08
         0.27798E+08
        -0.76749E+08
        -0.11809E+09
        -0.12833E+09
        -0.12483E+09
        -0.11130E+09
        -0.91434E+08
        -0.64931E+08
        -0.34327E+08
         0.18734E+07
         0.64082E+07
        -0.83206E+07
        -0.13893E+08
        -0.14068E+08
        -0.52047E+07
         0.26799E+08
         0.49019E+08
         0.58204E+08
         0.65131E+08
         0.63982E+08
         0.50692E+08
        -0.13186E+08
        -0.87112E+07
        -0.37766E+07
         0.12117E+08
         0.21153E+08
         0.39858E+08
         0.14220E+07
        -0.53707E+07
         0.82158E+07
         0.18029E+07
        -0.10284E+08
        -0.12594E+08
         0.19490E+08
        -0.42590E+08
        -0.10452E+09
         0.30406E+08
         0.45720E+08
         0.12796E+08
         0.54008E+08
         0.54794E+08
         0.13871E+08
        -0.99680E+07
         0.47191E+07
         0.27835E+08
        -0.89565E+06
         0.21777E+08
        -0.10588E+09
        -0.13664E+09
        -0.10570E+09
        -0.56005E+08
         0.41427E+08
         0.27371E+08
         0.47293E+08
         0.63292E+08
         0.20885E+08
         0.10012E+08
         0.12284E+08
        -0.13193E+09
        -0.13590E+09
        -0.12678E+09
        -0.11319E+09
        -0.90311E+08
        -0.58977E+08
        -0.43080E+07
        -0.29277E+07
        -0.33123E+07
         0.26178E+08
         0.55241E+08
         0.56229E+08
         0.52352E+08
         0.50409E+08
         0.51858E+08
         0.33940E+08
         0.29057E+08
         0.54539E+08
         0.49364E+08
         0.65566E+08
         0.34785E+08
        -0.69189E+08
        -0.11531E+09
        -0.13048E+09
        -0.13126E+09
        -0.11996E+09
        -0.10091E+09
        -0.77302E+08
        -0.50360E+08
        -0.20481E+08
        -0.15241E+08
        -0.25250E+08
        -0.29785E+08
        -0.33066E+08
        -0.30656E+08
        -0.54932E+07
         0.14759E+08
         0.25739E+08
         0.39482E+08
         0.45227E+08
         0.37536E+08
        -0.73073E+07
        -0.17851E+07
         0.13622E+07
         0.15429E+08
         0.14763E+08
         0.30584E+08
         0.30030E+07
        -0.50962E+07
         0.14012E+08
         0.58411E+07
        -0.11312E+08
        -0.90366E+07
         0.25544E+08
        -0.42871E+08
        -0.11560E+09
         0.33430E+08
         0.53633E+08
         0.17269E+08
         0.57117E+08
         0.62275E+08
         0.71887E+07
        -0.16651E+08
        -0.31181E+07
         0.24974E+08
         0.11462E+08
         0.16863E+08
        -0.97295E+08
        -0.13674E+09
        -0.98850E+08
        -0.39576E+08
         0.33486E+08
         0.15503E+08
         0.38283E+08
         0.46366E+08
         0.14254E+08
         0.12705E+08
         0.21750E+08
        -0.13707E+09
        -0.13621E+09
        -0.12247E+09
        -0.10822E+09
        -0.86876E+08
        -0.60383E+08
        -0.13575E+08
        -0.16677E+08
        -0.23448E+08
         0.33292E+07
         0.32336E+08
         0.40162E+08
         0.31622E+08
         0.26555E+08
         0.36725E+08
         0.18352E+08
         0.11764E+08
         0.57895E+08
         0.70231E+08
         0.92902E+08
         0.65206E+08
        -0.60014E+08
        -0.11744E+09
        -0.13165E+09
        -0.12739E+09
        -0.11632E+09
        -0.10143E+09
        -0.86907E+08
        -0.70225E+08
        -0.44091E+08
        -0.32130E+08
        -0.37610E+08
        -0.44654E+08
        -0.56250E+08
        -0.62627E+08
        -0.45214E+08
        -0.28606E+08
        -0.17395E+08
         0.99420E+06
         0.13454E+08
         0.14066E+08
        -0.10036E+08
        -0.75585E+07
        -0.10524E+08
         0.73030E+07
        -0.21977E+08
        -0.11684E+08
        -0.60989E+07
        -0.11886E+08
         0.11693E+08
         0.21854E+07
        -0.20967E+08
        -0.16371E+08
         0.15700E+08
        -0.48550E+08
        -0.10770E+09
         0.23895E+08
         0.44795E+08
         0.15812E+08
         0.38150E+08
         0.43372E+08
        -0.13168E+07
        -0.25497E+08
        -0.16473E+08
         0.52305E+07
         0.68080E+07
        -0.28137E+07
        -0.94525E+08
        -0.13008E+09
        -0.90743E+08
        -0.50194E+08
         0.12970E+08
        -0.12265E+08
         0.16324E+08
         0.78522E+07
        -0.23175E+08
        -0.53976E+07
         0.13452E+08
        -0.13438E+09
        -0.13094E+09
        -0.11351E+09
        -0.99031E+08
        -0.80614E+08
        -0.61360E+08
        -0.32579E+08
        -0.44632E+08
        -0.63291E+08
        -0.48152E+08
        -0.24986E+08
        -0.26311E+08
        -0.43042E+08
        -0.59680E+08
        -0.24625E+08
        -0.24784E+08
        -0.34631E+08
         0.26913E+08
         0.68017E+08
         0.96197E+08
         0.68878E+08
        -0.53090E+08
        -0.11778E+09
        -0.12811E+09
        -0.11798E+09
        -0.10658E+09
        -0.92850E+08
        -0.79822E+08
        -0.65480E+08
        -0.41196E+08
        -0.37528E+08
        -0.52609E+08
        -0.68693E+08
        -0.91551E+08
        -0.10637E+09
        -0.10579E+09
        -0.10601E+09
        -0.10765E+09
        -0.95708E+08
        -0.73006E+08
        -0.49705E+08
        -0.36040E+08
        -0.41108E+08
        -0.56779E+08
        -0.26907E+08
        -0.11200E+09
        -0.12064E+09
        -0.38979E+08
        -0.43350E+08
        -0.13218E+08
        -0.28287E+08
        -0.51143E+08
        -0.42347E+08
        -0.19098E+08
        -0.74905E+08
        -0.89429E+08
        -0.19849E+07
         0.12804E+08
        -0.39846E+07
         0.14505E+07
        -0.77241E+06
        -0.13508E+08
        -0.36830E+08
        -0.35927E+08
        -0.29320E+08
        -0.29365E+08
        -0.38846E+08
        -0.11489E+09
        -0.12246E+09
        -0.95674E+08
        -0.80600E+08
        -0.37520E+08
        -0.68651E+08
        -0.41433E+08
        -0.77880E+08
        -0.88676E+08
        -0.69826E+08
        -0.33132E+08
        -0.12170E+09
        -0.12539E+09
        -0.11541E+09
        -0.10592E+09
        -0.88942E+08
        -0.70287E+08
        -0.60810E+08
        -0.82250E+08
        -0.10580E+09
        -0.12027E+09
        -0.12911E+09
        -0.13807E+09
        -0.14226E+09
        -0.14584E+09
        -0.13505E+09
        -0.86683E+08
        -0.11790E+09
        -0.44696E+08
         0.87805E+07
         0.56825E+08
         0.30654E+08
        -0.56872E+08
        -0.11422E+09
        -0.12819E+09
        -0.12520E+09
        -0.11738E+09
        -0.10104E+09
        -0.76757E+08
        -0.40835E+08
        -0.97500E+07
        -0.28845E+08
        -0.63080E+08
        -0.84777E+08
        -0.10941E+09
        -0.12285E+09
        -0.13197E+09
        -0.14309E+09
        -0.15326E+09
        -0.15643E+09
        -0.15173E+09
        -0.14280E+09
        -0.23255E+08
        -0.23961E+08
        -0.28254E+08
        -0.16121E+06
        -0.77412E+08
        -0.94429E+08
        -0.32282E+08
        -0.46995E+08
        -0.98740E+07
        -0.49950E+08
        -0.50870E+08
        -0.31209E+08
        -0.59280E+07
        -0.85070E+08
        -0.72489E+08
         0.10874E+08
        -0.73649E+07
         0.20931E+08
         0.37883E+07
        -0.38019E+08
         0.30494E+08
        -0.80245E+07
         0.29810E+08
         0.47119E+07
        -0.79078E+08
        -0.15622E+08
        -0.13083E+09
        -0.11244E+09
        -0.87598E+08
        -0.92051E+08
        -0.49071E+08
        -0.78985E+08
        -0.44179E+08
        -0.65906E+08
        -0.43030E+08
        -0.19350E+08
        -0.75618E+07
        -0.10173E+09
        -0.10675E+09
        -0.97578E+08
        -0.85306E+08
        -0.70809E+08
        -0.50989E+08
         0.26196E+07
        -0.40875E+08
        -0.82497E+08
        -0.12316E+09
        -0.15151E+09
        -0.15620E+09
        -0.14473E+09
        -0.13745E+09
        -0.11011E+09
        -0.47866E+08
        -0.12463E+09
        -0.54389E+07
         0.23794E+08
         0.47809E+08
         0.10057E+08
        -0.53059E+08
        -0.95017E+08
        -0.11059E+09
        -0.10649E+09
        -0.91044E+08
        -0.68481E+08
        -0.30725E+08
         0.31312E+08
         0.75342E+08
         0.77556E+08
         0.43445E+08
        -0.14934E+08
        -0.74500E+08
        -0.11451E+09
        -0.13411E+09
        -0.14589E+09
        -0.15452E+09
        -0.15382E+09
        -0.14663E+09
        -0.13993E+09
         0.10319E+09
         0.10794E+09
         0.11375E+09
         0.11489E+09
         0.86385E+08
         0.59223E+08
         0.83970E+08
         0.65698E+08
         0.88000E+08
         0.27384E+08
         0.55351E+08
         0.50839E+08
         0.10560E+09
         0.78676E+07
        -0.60733E+08
         0.72120E+08
         0.37903E+08
         0.10956E+09
         0.37905E+08
        -0.76930E+07
         0.42478E+08
         0.17125E+08
         0.44807E+08
         0.40034E+08
        -0.55240E+08
         0.36869E+08
        -0.10415E+09
        -0.13730E+09
        -0.95607E+08
        -0.99373E+08
         0.22345E+08
         0.45788E+07
         0.42804E+08
         0.50209E+08
         0.98908E+08
         0.11460E+09
         0.12030E+09
        -0.10201E+09
        -0.94626E+08
        -0.74491E+08
        -0.54128E+08
        -0.49592E+08
        -0.27796E+08
         0.33913E+08
         0.71979E+07
        -0.30335E+08
        -0.61441E+08
        -0.83289E+08
        -0.68107E+08
        -0.40493E+08
        -0.31027E+08
         0.13173E+08
         0.93092E+08
         0.41360E+08
         0.12532E+09
         0.13810E+09
         0.10865E+09
         0.28743E+08
        -0.40639E+08
        -0.70737E+08
        -0.73898E+08
        -0.58860E+08
        -0.40109E+08
        -0.19774E+08
         0.17283E+08
         0.56306E+08
         0.69631E+08
         0.67010E+08
         0.53510E+08
         0.19552E+08
        -0.33970E+08
        -0.81587E+08
        -0.99882E+08
        -0.92835E+08
        -0.79893E+08
        -0.66972E+08
        -0.53373E+08
        -0.28221E+08
         0.12181E+09
         0.12607E+09
         0.12851E+09
         0.11768E+09
         0.10878E+09
         0.87503E+08
         0.10254E+09
         0.91177E+08
         0.99440E+08
         0.49079E+08
         0.76858E+08
         0.61602E+08
         0.99032E+08
         0.45196E+08
        -0.18579E+08
         0.65441E+08
         0.45712E+08
         0.10518E+09
         0.35587E+08
        -0.71185E+07
         0.25374E+08
        -0.64920E+07
         0.30928E+08
         0.33993E+08
        -0.40955E+08
         0.30712E+08
        -0.40594E+08
        -0.13827E+09
        -0.12127E+09
        -0.99001E+08
         0.18491E+08
         0.93118E+05
         0.38610E+08
         0.51361E+08
         0.11795E+09
         0.12823E+09
         0.12644E+09
        -0.87995E+08
        -0.90017E+08
        -0.79235E+08
        -0.67923E+08
        -0.75358E+08
        -0.53998E+08
         0.22110E+08
        -0.26628E+07
        -0.38780E+08
        -0.63319E+08
        -0.78306E+08
        -0.52804E+08
        -0.20464E+08
        -0.45722E+07
         0.38703E+08
         0.11294E+09
         0.77197E+08
         0.13146E+09
         0.13643E+09
         0.11497E+09
         0.56430E+08
        -0.27439E+08
        -0.49382E+08
        -0.50532E+08
        -0.46729E+08
        -0.49969E+08
        -0.51058E+08
        -0.29577E+08
         0.71743E+07
         0.33157E+08
         0.40204E+08
         0.31556E+08
         0.79621E+06
        -0.50566E+08
        -0.94019E+08
        -0.10372E+09
        -0.84523E+08
        -0.60194E+08
        -0.34646E+08
        -0.18272E+07
         0.46779E+08
  
SCALARS                      stress_xz  double 1
LOOKUP_TABLE default
         0.20592E+09
         0.22151E+09
         0.21244E+09
         0.20022E+09
        -0.98383E+00
         0.92605E+01
         0.49941E+01
         0.39896E+01
         0.15636E+09
         0.13090E+09
        -0.11975E+01
         0.55238E+01
         0.22022E+09
         0.21177E+09
        -0.17266E+01
         0.39229E+01
         0.18139E+09
         0.19579E+09
        -0.10256E+01
         0.26426E+01
         0.22323E+09
         0.23327E+09
         0.22319E+09
        -0.17640E+01
         0.59476E+01
         0.51064E+01
         0.21377E+09
         0.22096E+09
        -0.22271E+01
         0.54663E+01
         0.14470E+09
         0.15340E+09
         0.15456E+09
        -0.62162E+00
        -0.19867E+00
         0.66799E+00
         0.12840E+09
         0.13957E+09
        -0.10879E+01
        -0.11085E+01
         0.88306E+08
         0.70778E+08
        -0.18715E+01
        -0.22743E+01
         0.80287E+08
         0.12110E+09
        -0.24883E+01
        -0.11669E+01
         0.15650E+09
        -0.15672E+01
         0.13293E+09
        -0.90057E+00
         0.17653E+09
        -0.16606E+01
         0.10029E+09
        -0.15284E+01
         0.28048E+08
         0.15678E+09
        -0.38323E+01
         0.47845E+01
         0.12274E+09
         0.15052E+09
        -0.61230E+00
         0.22375E+01
         0.92150E+08
        -0.13642E+01
         0.11757E+09
        -0.19303E+01
         0.13051E+09
         0.17816E+09
        -0.71990E+00
         0.55740E+01
         0.21432E+09
        -0.57334E+00
         0.13122E+09
        -0.20443E+01
        -0.46241E+08
        -0.25015E+01
        -0.68347E+08
        -0.26351E+01
        -0.73546E+08
        -0.43774E+08
        -0.21128E+01
         0.15975E+01
         0.14973E+08
        -0.23631E+01
         0.56808E+08
        -0.31197E+01
         0.52747E+08
        -0.38700E+01
         0.45537E+08
         0.11592E+09
        -0.33565E+01
         0.49798E+01
         0.39569E+08
        -0.17691E+01
        -0.55078E+08
        -0.29580E+01
        -0.69765E+08
        -0.39668E+01
        -0.80690E+08
         0.15398E+08
        -0.36596E+01
         0.51793E+01
         0.85883E+08
         0.12116E+09
        -0.14403E+01
         0.89732E+01
         0.83492E+08
        -0.63455E+00
         0.14915E+09
        -0.29673E+00
         0.18128E+09
        -0.60443E+00
         0.21664E+09
        -0.29756E+00
         0.16528E+09
         0.17429E+00
        -0.54051E+08
        -0.96929E+00
        -0.19214E+09
        -0.15567E+01
        -0.12462E+09
        -0.13991E+01
        -0.82560E+08
        -0.30372E+00
        -0.69454E+08
        -0.14531E+01
        -0.48646E+08
        -0.29307E+01
        -0.32198E+07
        -0.30498E+01
         0.23609E+08
        -0.39810E+01
         0.32934E+07
        -0.51170E+01
        -0.28084E+08
        -0.58249E+01
        -0.58505E+08
        -0.74406E+01
        -0.86985E+08
        -0.76096E+01
        -0.13357E+09
        -0.53230E+01
        -0.19002E+09
        -0.48385E+01
        -0.17755E+09
        -0.61556E+01
        -0.15001E+09
        -0.66547E+01
        -0.14318E+09
        -0.57626E+01
        -0.11952E+09
        -0.22674E+01
        -0.50273E+08
        -0.85101E+00
         0.19718E+09
         0.19638E+09
         0.17407E+09
         0.14152E+09
         0.13545E+09
         0.64014E+08
         0.20196E+09
         0.19966E+09
         0.19712E+09
         0.18696E+09
         0.18795E+09
         0.14679E+09
         0.17908E+09
         0.16376E+09
         0.59527E+08
         0.18239E+09
         0.19119E+09
         0.15560E+09
         0.18658E+09
         0.18828E+09
         0.18798E+09
         0.12099E+09
         0.20439E+09
         0.19145E+09
         0.16638E+09
         0.18696E+09
         0.10349E+09
         0.49699E+08
        -0.16959E+08
         0.98930E+08
         0.19031E+09
         0.20647E+09
         0.14696E+09
         0.84990E+08
         0.13949E+09
         0.15831E+09
         0.17616E+09
        -0.37235E+08
        -0.84221E+08
        -0.11717E+09
        -0.13322E+09
        -0.79838E+08
         0.60662E+06
         0.19909E+09
         0.19682E+09
         0.18642E+09
         0.18233E+09
         0.15035E+09
         0.96716E+08
         0.47409E+08
         0.11170E+08
         0.15966E+08
         0.10676E+09
         0.76711E+08
         0.11714E+09
         0.12129E+09
         0.77169E+08
        -0.54898E+08
        -0.16998E+09
        -0.20049E+09
        -0.21271E+09
        -0.21395E+09
        -0.18843E+09
        -0.14067E+09
        -0.71446E+08
         0.80194E+08
         0.19575E+09
         0.22218E+09
         0.19827E+09
         0.16622E+09
         0.16453E+09
         0.15776E+09
         0.12276E+09
         0.69080E+08
         0.16528E+08
        -0.24178E+08
        -0.44728E+08
        -0.16775E+08
        -0.16075E+09
        -0.18649E+09
        -0.20322E+09
        -0.19961E+09
        -0.20465E+09
        -0.17657E+09
        -0.15103E+09
        -0.14696E+09
        -0.17409E+09
        -0.16053E+09
        -0.11852E+09
        -0.10158E+09
        -0.14253E+09
        -0.10195E+09
        -0.80786E+08
        -0.17648E+09
        -0.16707E+09
        -0.16187E+09
        -0.13741E+09
        -0.13465E+09
         0.59249E+08
        -0.89019E+07
         0.50595E+07
        -0.13016E+09
        -0.15155E+09
        -0.17508E+09
        -0.93279E+08
        -0.91051E+08
        -0.89581E+08
        -0.87448E+08
        -0.15165E+09
        -0.16743E+09
        -0.14715E+09
        -0.14965E+09
        -0.20926E+09
        -0.20147E+09
        -0.18630E+09
        -0.86815E+08
        -0.10151E+09
        -0.10968E+09
        -0.11025E+09
        -0.91559E+08
        -0.63106E+08
        -0.14011E+09
        -0.16529E+09
        -0.13712E+09
        -0.84946E+08
        -0.31867E+08
        -0.54727E+08
        -0.10526E+09
        -0.13705E+09
        -0.15399E+09
        -0.21335E+09
        -0.20121E+09
        -0.20870E+09
        -0.18801E+09
        -0.13872E+09
        -0.94759E+08
        -0.77387E+08
        -0.10327E+09
        -0.13873E+09
        -0.14680E+09
        -0.11412E+09
        -0.10180E+09
        -0.70516E+08
         0.20660E+06
         0.78569E+08
         0.66499E+08
        -0.73150E+08
        -0.14478E+09
        -0.13136E+09
        -0.37227E+08
         0.88676E+07
        -0.36658E+08
        -0.10507E+09
        -0.15092E+09
        -0.17521E+09
        -0.18603E+09
        -0.18968E+09
        -0.18794E+09
        -0.17362E+09
        -0.15255E+09
        -0.14136E+09
        -0.10442E+09
        -0.18433E+09
        -0.19270E+09
        -0.18383E+09
        -0.17476E+09
        -0.17061E+09
        -0.12622E+09
        -0.15268E+09
        -0.16560E+09
        -0.10296E+09
        -0.17503E+09
        -0.14530E+09
        -0.15829E+09
        -0.12964E+09
        -0.93189E+08
        -0.74878E+06
        -0.23489E+08
        -0.51949E+08
        -0.13980E+09
        -0.15937E+09
        -0.16479E+09
        -0.13822E+09
        -0.10534E+09
        -0.86184E+08
        -0.87754E+08
        -0.10365E+09
        -0.13189E+09
        -0.82019E+08
        -0.76073E+08
        -0.15157E+09
        -0.16274E+09
        -0.16779E+09
        -0.99212E+08
        -0.10008E+09
        -0.96482E+08
        -0.93031E+08
        -0.80968E+08
        -0.58949E+08
        -0.13351E+09
        -0.13746E+09
        -0.10048E+09
        -0.52421E+08
         0.27948E+07
         0.43753E+07
        -0.32787E+08
        -0.59789E+08
        -0.73678E+08
        -0.14608E+09
        -0.13342E+09
        -0.15506E+09
        -0.15500E+09
        -0.13395E+09
        -0.10561E+09
        -0.91627E+08
        -0.10708E+09
        -0.12563E+09
        -0.11936E+09
        -0.10131E+09
        -0.82707E+08
        -0.56807E+08
        -0.97267E+07
         0.27449E+08
         0.11959E+08
        -0.62074E+08
        -0.10748E+09
        -0.86103E+08
        -0.53220E+07
         0.50585E+08
         0.42174E+08
        -0.24931E+08
        -0.76660E+08
        -0.97171E+08
        -0.11074E+09
        -0.65579E+08
        -0.42122E+08
         0.10978E+08
         0.12084E+08
         0.79367E+08
         0.11519E+09
        -0.37911E+08
        -0.25563E+08
        -0.38447E+08
         0.35392E+07
        -0.67796E+08
        -0.76012E+08
        -0.29668E+08
        -0.80691E+08
        -0.93296E+08
        -0.68332E+08
        -0.49581E+07
        -0.52619E+08
        -0.64991E+07
         0.18793E+06
         0.19595E+08
        -0.99419E+07
         0.22613E+08
        -0.14474E+08
        -0.80481E+07
        -0.39912E+08
        -0.70548E+08
        -0.68236E+08
        -0.65398E+08
        -0.40179E+08
         0.16475E+08
         0.24735E+08
         0.60054E+08
         0.11764E+09
         0.71115E+08
         0.47617E+08
         0.87093E+07
        -0.94760E+08
        -0.90147E+08
        -0.82994E+08
        -0.77649E+08
        -0.63273E+08
        -0.41637E+08
         0.21669E+08
         0.57707E+08
         0.86278E+08
         0.94870E+08
         0.11595E+09
         0.14222E+09
         0.15608E+09
         0.15941E+09
         0.14635E+09
         0.91838E+08
         0.10169E+09
         0.76654E+08
         0.28912E+08
        -0.48781E+08
        -0.10995E+09
        -0.12045E+09
        -0.12205E+09
        -0.12045E+09
        -0.10663E+09
        -0.86647E+08
        -0.62103E+08
        -0.38371E+08
        -0.10226E+08
         0.12896E+08
         0.30537E+08
         0.55711E+08
         0.83387E+08
         0.97311E+08
         0.11190E+09
         0.13126E+09
         0.15102E+09
         0.16452E+09
         0.16505E+09
         0.15307E+09
         0.12794E+09
         0.91488E+08
         0.10394E+09
         0.13737E+09
         0.12471E+09
         0.14907E+09
         0.15243E+09
         0.72859E+08
         0.71758E+08
         0.61334E+08
         0.49628E+08
         0.15897E+08
        -0.74433E+08
         0.21157E+08
        -0.23029E+07
        -0.11137E+09
         0.12636E+08
         0.28201E+08
         0.51853E+08
         0.54944E+07
        -0.60932E+07
        -0.15997E+08
        -0.31501E+08
        -0.21121E+08
        -0.76190E+07
         0.88697E+06
         0.63070E+07
        -0.38805E+08
        -0.71403E+08
        -0.76359E+08
        -0.51628E+08
         0.87515E+08
         0.10767E+09
         0.11708E+09
         0.15281E+09
         0.15495E+09
         0.13943E+09
         0.88433E+08
        -0.10630E+09
        -0.94530E+08
        -0.83133E+08
        -0.73828E+08
        -0.64375E+08
        -0.50160E+08
         0.16681E+08
         0.11489E+09
         0.14370E+09
         0.14075E+09
         0.13538E+09
         0.14470E+09
         0.16124E+09
         0.17056E+09
         0.16549E+09
         0.16526E+09
         0.15462E+09
         0.14895E+09
         0.73789E+08
        -0.42336E+08
        -0.12008E+09
        -0.13548E+09
        -0.12857E+09
        -0.11368E+09
        -0.94521E+08
        -0.73085E+08
        -0.47511E+08
        -0.30947E+08
        -0.31058E+08
        -0.35407E+08
        -0.33760E+08
         0.18278E+08
         0.12077E+09
         0.15536E+09
         0.15266E+09
         0.14682E+09
         0.15397E+09
         0.17190E+09
         0.18024E+09
         0.17777E+09
         0.16385E+09
         0.85247E+08
         0.71386E+08
         0.54293E+08
         0.33183E+08
         0.23726E+08
         0.48197E+07
         0.50431E+08
         0.54702E+08
         0.62108E+08
         0.35988E+08
         0.85794E+07
        -0.47084E+08
         0.95078E+07
        -0.32020E+07
        -0.98647E+08
         0.20409E+08
         0.24321E+08
         0.36302E+08
        -0.84615E+07
        -0.16006E+08
        -0.60683E+08
        -0.50863E+08
        -0.79102E+08
        -0.41389E+08
        -0.76651E+07
        -0.29550E+08
        -0.33594E+08
        -0.69276E+08
        -0.82557E+08
        -0.53369E+08
        -0.10741E+08
        -0.70377E+07
        -0.33902E+08
        -0.43165E+08
         0.45827E+08
         0.65196E+08
         0.45192E+08
        -0.10774E+09
        -0.91570E+08
        -0.78270E+08
        -0.68586E+08
        -0.66087E+08
        -0.58100E+08
        -0.67342E+08
        -0.20236E+08
         0.54508E+07
         0.28145E+07
        -0.29293E+08
        -0.54479E+08
        -0.52878E+08
        -0.38039E+08
        -0.18036E+08
         0.64837E+08
         0.32886E+08
         0.11834E+09
         0.40162E+08
        -0.21982E+08
        -0.90629E+08
        -0.11723E+09
        -0.10983E+09
        -0.91695E+08
        -0.74676E+08
        -0.59973E+08
        -0.39856E+08
        -0.25595E+08
        -0.45311E+08
        -0.82118E+08
        -0.10514E+09
        -0.76465E+08
        -0.33224E+08
        -0.42497E+07
        -0.12014E+08
        -0.40517E+08
        -0.65090E+08
        -0.63024E+08
        -0.33569E+08
         0.13552E+08
         0.39270E+08
         0.15258E+08
         0.18528E+08
        -0.84038E+07
        -0.26576E+08
        -0.42147E+08
        -0.81868E+08
         0.15665E+08
         0.69176E+07
         0.16647E+08
        -0.14723E+07
         0.15340E+07
        -0.17844E+07
         0.29245E+08
        -0.16213E+08
        -0.36527E+08
         0.11659E+08
         0.37503E+07
         0.29638E+07
        -0.22128E+08
        -0.32069E+08
        -0.69651E+08
        -0.53040E+08
        -0.70197E+08
        -0.41075E+08
        -0.18812E+08
        -0.25392E+08
        -0.29787E+08
        -0.33921E+08
        -0.49403E+08
        -0.37700E+08
        -0.17895E+08
        -0.22454E+08
        -0.62033E+08
        -0.11471E+09
        -0.14924E+08
         0.12328E+08
         0.35195E+08
        -0.53637E+08
        -0.52599E+08
        -0.45197E+08
        -0.38343E+08
        -0.60325E+08
        -0.58974E+08
        -0.62086E+08
        -0.50127E+08
        -0.42067E+08
        -0.40507E+08
        -0.68397E+08
        -0.10027E+09
        -0.11306E+09
        -0.11440E+09
        -0.10712E+09
         0.15911E+08
        -0.25029E+08
         0.95741E+08
         0.63167E+08
         0.40046E+08
        -0.21692E+07
        -0.48155E+08
        -0.60792E+08
        -0.46349E+08
        -0.29152E+08
        -0.22299E+08
        -0.14688E+08
        -0.25184E+08
        -0.77487E+08
        -0.11003E+09
        -0.94989E+08
        -0.70681E+08
        -0.60198E+08
        -0.52567E+08
        -0.52983E+08
        -0.78629E+08
        -0.10922E+09
        -0.12024E+09
        -0.11487E+09
        -0.96878E+08
        -0.61428E+08
        -0.42031E+07
         0.12171E+08
        -0.20597E+07
        -0.23595E+08
        -0.23592E+08
        -0.57104E+08
         0.47049E+07
        -0.20073E+08
        -0.93496E+07
        -0.33029E+08
        -0.29328E+07
         0.24465E+08
         0.37780E+08
        -0.22010E+08
         0.15283E+08
         0.10072E+08
        -0.16038E+08
        -0.86789E+06
        -0.30622E+08
        -0.30851E+08
        -0.63758E+08
        -0.19904E+08
        -0.65265E+08
        -0.38198E+08
        -0.24614E+08
        -0.13598E+08
        -0.18206E+08
         0.21146E+08
         0.43292E+08
         0.28861E+07
         0.21361E+07
        -0.22327E+07
        -0.35459E+08
        -0.83796E+08
         0.16328E+08
         0.35234E+08
         0.45424E+08
         0.31010E+08
         0.51490E+08
         0.65719E+08
         0.74039E+08
         0.59267E+08
         0.28143E+08
        -0.53184E+08
        -0.37376E+08
        -0.27807E+08
        -0.94337E+07
        -0.28961E+08
        -0.70772E+08
        -0.82612E+08
        -0.81449E+08
        -0.75070E+08
         0.54482E+08
        -0.30567E+07
         0.11304E+09
         0.83858E+08
         0.69374E+08
         0.62236E+08
         0.48084E+08
         0.48999E+08
         0.70272E+08
         0.88944E+08
         0.87619E+08
         0.67392E+08
         0.27047E+08
        -0.32632E+08
        -0.88686E+08
        -0.84174E+08
        -0.65742E+08
        -0.59238E+08
        -0.43883E+08
        -0.23570E+08
        -0.43703E+08
        -0.77997E+08
        -0.85642E+08
        -0.76551E+08
        -0.59328E+08
        -0.34850E+08
        -0.97197E+07
         0.64101E+07
        -0.25432E+07
        -0.22469E+08
        -0.19501E+08
        -0.48256E+08
        -0.39935E+07
        -0.30195E+08
        -0.17905E+08
        -0.44101E+08
        -0.97067E+07
         0.21347E+08
         0.23322E+08
        -0.24633E+08
         0.37602E+08
         0.88475E+07
        -0.24423E+08
         0.20582E+06
        -0.36636E+08
        -0.28969E+08
        -0.50660E+08
         0.23698E+06
        -0.68154E+08
        -0.47091E+08
        -0.23565E+08
        -0.19641E+08
        -0.81404E+07
         0.47029E+08
         0.63583E+08
         0.28839E+08
         0.46792E+07
        -0.11388E+08
        -0.30883E+08
        -0.73743E+08
         0.19631E+08
         0.31527E+08
         0.31663E+08
         0.58906E+08
         0.72626E+08
         0.76992E+08
         0.78531E+08
         0.68757E+08
         0.45575E+08
        -0.69243E+08
        -0.69332E+08
        -0.68358E+08
        -0.35463E+08
        -0.40671E+08
        -0.67859E+08
        -0.72047E+08
        -0.65981E+08
        -0.61271E+08
         0.54059E+08
        -0.11112E+07
         0.94250E+08
         0.60530E+08
         0.49123E+08
         0.66957E+08
         0.85270E+08
         0.91894E+08
         0.99499E+08
         0.97875E+08
         0.85751E+08
         0.66902E+08
         0.40479E+08
        -0.20338E+07
        -0.57058E+08
        -0.84636E+08
        -0.92918E+08
        -0.10079E+09
        -0.91937E+08
        -0.69902E+08
        -0.69321E+08
        -0.78628E+08
        -0.72796E+08
        -0.56304E+08
        -0.39616E+08
        -0.25387E+08
        -0.99440E+07
         0.81596E+07
        -0.25522E+07
        -0.24498E+08
        -0.20494E+08
        -0.50305E+08
        -0.30042E+07
        -0.34155E+08
        -0.21529E+08
        -0.50891E+08
        -0.76427E+07
         0.32292E+08
         0.28026E+08
        -0.24239E+08
         0.50735E+08
         0.81343E+07
        -0.29508E+08
         0.12857E+07
        -0.36675E+08
        -0.24761E+08
        -0.31448E+08
         0.17184E+08
        -0.51980E+08
        -0.47592E+08
        -0.24687E+08
        -0.22537E+08
        -0.35763E+07
         0.53160E+08
         0.70760E+08
         0.44231E+08
        -0.88911E+06
        -0.20877E+08
        -0.39039E+08
        -0.78449E+08
         0.18020E+08
         0.32989E+08
         0.34496E+08
         0.66377E+08
         0.76528E+08
         0.79961E+08
         0.82950E+08
         0.77910E+08
         0.58130E+08
        -0.57985E+08
        -0.64226E+08
        -0.70233E+08
        -0.61499E+08
        -0.64093E+08
        -0.76408E+08
        -0.77051E+08
        -0.70979E+08
        -0.65367E+08
         0.49190E+08
        -0.48059E+07
         0.86111E+08
         0.52805E+08
         0.46848E+08
         0.79000E+08
         0.10305E+09
         0.10272E+09
         0.10420E+09
         0.98533E+08
         0.88579E+08
         0.75995E+08
         0.54322E+08
         0.19863E+08
        -0.28638E+08
        -0.62578E+08
        -0.78195E+08
        -0.90510E+08
        -0.90425E+08
        -0.90201E+08
        -0.95420E+08
        -0.92374E+08
        -0.80621E+08
        -0.63299E+08
        -0.44697E+08
        -0.28004E+08
        -0.87599E+07
         0.12996E+08
         0.97776E+06
        -0.24691E+08
        -0.20132E+08
        -0.53707E+08
         0.10883E+07
        -0.35851E+08
        -0.23777E+08
        -0.56978E+08
        -0.10227E+07
         0.52619E+08
         0.43642E+08
        -0.20419E+08
         0.64884E+08
         0.10386E+08
        -0.32572E+08
         0.12855E+07
        -0.31167E+08
        -0.23517E+08
        -0.22764E+08
         0.21990E+08
        -0.37324E+08
        -0.35511E+08
        -0.28811E+08
        -0.13035E+08
         0.15598E+06
         0.52954E+08
         0.70219E+08
         0.51694E+08
        -0.34803E+07
        -0.14472E+08
        -0.45051E+08
        -0.81175E+08
         0.20555E+08
         0.41685E+08
         0.47512E+08
         0.73890E+08
         0.80351E+08
         0.81454E+08
         0.81876E+08
         0.76419E+08
         0.59672E+08
        -0.40201E+08
        -0.45057E+08
        -0.51103E+08
        -0.50283E+08
        -0.62739E+08
        -0.76888E+08
        -0.79473E+08
        -0.76409E+08
        -0.71079E+08
         0.50769E+08
        -0.58059E+07
         0.95620E+08
         0.68770E+08
         0.72096E+08
         0.10625E+09
         0.11815E+09
         0.11265E+09
         0.11109E+09
         0.10213E+09
         0.86865E+08
         0.72356E+08
         0.55855E+08
         0.24703E+08
        -0.16755E+08
        -0.42012E+08
        -0.53688E+08
        -0.65122E+08
        -0.66459E+08
        -0.76497E+08
        -0.92633E+08
        -0.93762E+08
        -0.84777E+08
        -0.71677E+08
        -0.54758E+08
        -0.33872E+08
        -0.72471E+07
         0.14336E+08
         0.24520E+07
        -0.24451E+08
        -0.20980E+08
        -0.55944E+08
         0.29470E+06
        -0.36957E+08
        -0.23539E+08
        -0.61613E+08
        -0.10953E+07
         0.55938E+08
         0.45570E+08
        -0.20320E+08
         0.71277E+08
         0.10940E+08
        -0.34747E+08
         0.16241E+07
        -0.33607E+08
        -0.29986E+08
        -0.29555E+08
         0.12136E+08
        -0.42104E+08
        -0.36969E+08
        -0.36434E+08
        -0.12178E+08
        -0.43921E+07
         0.47703E+08
         0.63124E+08
         0.42608E+08
        -0.29161E+07
        -0.10398E+08
        -0.47072E+08
        -0.82334E+08
         0.20494E+08
         0.46197E+08
         0.52144E+08
         0.74937E+08
         0.77550E+08
         0.76409E+08
         0.73072E+08
         0.63544E+08
         0.46080E+08
        -0.41483E+08
        -0.41191E+08
        -0.41315E+08
        -0.37569E+08
        -0.54290E+08
        -0.75231E+08
        -0.81328E+08
        -0.79577E+08
        -0.74109E+08
         0.47601E+08
        -0.98104E+07
         0.10910E+09
         0.81809E+08
         0.83404E+08
         0.11939E+09
         0.12542E+09
         0.11687E+09
         0.10984E+09
         0.98390E+08
         0.76870E+08
         0.53195E+08
         0.37431E+08
         0.12354E+08
        -0.26337E+08
        -0.49705E+08
        -0.56838E+08
        -0.62756E+08
        -0.54900E+08
        -0.57212E+08
        -0.78986E+08
        -0.90686E+08
        -0.87342E+08
        -0.76047E+08
        -0.59579E+08
        -0.38871E+08
        -0.10800E+08
         0.91818E+07
        -0.28652E+07
        -0.29486E+08
        -0.23746E+08
        -0.59839E+08
        -0.45127E+07
        -0.40839E+08
        -0.24007E+08
        -0.63731E+08
        -0.64994E+07
         0.52159E+08
         0.41398E+08
        -0.28190E+08
         0.62150E+08
         0.10053E+08
        -0.35116E+08
         0.89863E+06
        -0.39578E+08
        -0.34418E+08
        -0.38529E+08
         0.51109E+07
        -0.51356E+08
        -0.43456E+08
        -0.36716E+08
        -0.14031E+08
        -0.15533E+08
         0.46261E+08
         0.63613E+08
         0.40288E+08
         0.15725E+07
        -0.48536E+07
        -0.44435E+08
        -0.86144E+08
         0.19451E+08
         0.45533E+08
         0.50233E+08
         0.63452E+08
         0.69810E+08
         0.73195E+08
         0.71250E+08
         0.61222E+08
         0.40491E+08
        -0.45517E+08
        -0.37502E+08
        -0.31180E+08
        -0.23599E+08
        -0.43031E+08
        -0.72833E+08
        -0.85159E+08
        -0.86000E+08
        -0.79632E+08
         0.47418E+08
        -0.12986E+08
         0.12924E+09
         0.95019E+08
         0.88298E+08
         0.12661E+09
         0.12029E+09
         0.10380E+09
         0.96829E+08
         0.90981E+08
         0.73756E+08
         0.50494E+08
         0.29554E+08
         0.31605E+07
        -0.37095E+08
        -0.61996E+08
        -0.62417E+08
        -0.60965E+08
        -0.44619E+08
        -0.39430E+08
        -0.63761E+08
        -0.86079E+08
        -0.91798E+08
        -0.84807E+08
        -0.68464E+08
        -0.45178E+08
        -0.12395E+08
         0.38655E+07
        -0.83024E+07
        -0.29617E+08
        -0.26546E+08
        -0.59362E+08
        -0.89396E+07
        -0.40995E+08
        -0.22094E+08
        -0.58963E+08
        -0.11373E+08
         0.41440E+08
         0.28971E+08
        -0.30897E+08
         0.52874E+08
         0.12718E+08
        -0.30119E+08
         0.20898E+07
        -0.38148E+08
        -0.28317E+08
        -0.41405E+08
         0.97549E+07
        -0.54447E+08
        -0.41557E+08
        -0.27098E+08
        -0.10727E+08
        -0.15456E+08
         0.51661E+08
         0.72444E+08
         0.54795E+08
         0.57428E+07
        -0.13252E+07
        -0.37272E+08
        -0.84153E+08
         0.13710E+08
         0.34407E+08
         0.37176E+08
         0.57832E+08
         0.68548E+08
         0.77258E+08
         0.80789E+08
         0.73620E+08
         0.51353E+08
        -0.46649E+08
        -0.37496E+08
        -0.31269E+08
        -0.21301E+08
        -0.37531E+08
        -0.67052E+08
        -0.80596E+08
        -0.82027E+08
        -0.76949E+08
         0.43821E+08
        -0.12889E+08
         0.12120E+09
         0.82550E+08
         0.71419E+08
         0.11785E+09
         0.11299E+09
         0.95582E+08
         0.91382E+08
         0.91813E+08
         0.84738E+08
         0.68177E+08
         0.43949E+08
         0.83470E+07
        -0.39232E+08
        -0.65751E+08
        -0.65758E+08
        -0.64193E+08
        -0.47608E+08
        -0.39725E+08
        -0.58185E+08
        -0.79023E+08
        -0.86000E+08
        -0.79761E+08
        -0.64370E+08
        -0.42638E+08
        -0.11661E+08
         0.29903E+07
        -0.14489E+08
        -0.29979E+08
        -0.33282E+08
        -0.59456E+08
        -0.52200E+07
        -0.34927E+08
        -0.19861E+08
        -0.51627E+08
        -0.58734E+07
         0.43236E+08
         0.29931E+08
        -0.22751E+08
         0.55465E+08
         0.13823E+08
        -0.26356E+08
         0.57445E+06
        -0.32748E+08
        -0.24441E+08
        -0.36281E+08
         0.14113E+08
        -0.50870E+08
        -0.36848E+08
        -0.23382E+08
        -0.98499E+07
        -0.58821E+07
         0.55807E+08
         0.74419E+08
         0.53551E+08
         0.33434E+07
        -0.50224E+07
        -0.37265E+08
        -0.80204E+08
        -0.60614E+06
         0.19482E+08
         0.31094E+08
         0.63871E+08
         0.73575E+08
         0.80006E+08
         0.84376E+08
         0.77836E+08
         0.55730E+08
        -0.47814E+08
        -0.43464E+08
        -0.38911E+08
        -0.27063E+08
        -0.39349E+08
        -0.63782E+08
        -0.73456E+08
        -0.73128E+08
        -0.71199E+08
         0.30897E+08
        -0.15441E+08
         0.92005E+08
         0.67683E+08
         0.64345E+08
         0.10980E+09
         0.11215E+09
         0.10052E+09
         0.97263E+08
         0.95742E+08
         0.90160E+08
         0.74371E+08
         0.49992E+08
         0.16142E+08
        -0.31129E+08
        -0.61277E+08
        -0.68487E+08
        -0.71642E+08
        -0.55955E+08
        -0.45804E+08
        -0.60525E+08
        -0.75518E+08
        -0.76168E+08
        -0.66978E+08
        -0.53344E+08
        -0.38157E+08
        -0.11449E+08
         0.87790E+07
        -0.10633E+08
        -0.29997E+08
        -0.30756E+08
        -0.58940E+08
         0.35012E+07
        -0.31667E+08
        -0.23395E+08
        -0.52402E+08
         0.32953E+07
         0.58052E+08
         0.49171E+08
        -0.16719E+08
         0.66303E+08
         0.58376E+07
        -0.30972E+08
        -0.52813E+07
        -0.38917E+08
        -0.29528E+08
        -0.38009E+08
         0.10175E+08
        -0.54716E+08
        -0.47184E+08
        -0.28419E+08
        -0.20973E+08
        -0.18275E+07
         0.53288E+08
         0.68392E+08
         0.42894E+08
        -0.43683E+07
        -0.14945E+08
        -0.41611E+08
        -0.81217E+08
         0.42133E+07
         0.25954E+08
         0.44583E+08
         0.73020E+08
         0.76999E+08
         0.76941E+08
         0.78573E+08
         0.72023E+08
         0.50686E+08
        -0.54095E+08
        -0.49220E+08
        -0.43052E+08
        -0.33062E+08
        -0.44272E+08
        -0.66042E+08
        -0.74048E+08
        -0.72867E+08
        -0.70859E+08
         0.37309E+08
        -0.11888E+08
         0.10139E+09
         0.85871E+08
         0.92297E+08
         0.12237E+09
         0.12091E+09
         0.11222E+09
         0.10461E+09
         0.94206E+08
         0.83889E+08
         0.68917E+08
         0.45529E+08
         0.11964E+08
        -0.35233E+08
        -0.65671E+08
        -0.73525E+08
        -0.73462E+08
        -0.56160E+08
        -0.48694E+08
        -0.64648E+08
        -0.76093E+08
        -0.74971E+08
        -0.65675E+08
        -0.51651E+08
        -0.36505E+08
        -0.15617E+08
         0.76256E+07
        -0.69308E+07
        -0.28909E+08
        -0.23523E+08
        -0.56016E+08
         0.46250E+06
        -0.37319E+08
        -0.28615E+08
        -0.58472E+08
        -0.13573E+07
         0.55083E+08
         0.53064E+08
        -0.23836E+08
         0.70851E+08
        -0.26854E+07
        -0.35455E+08
        -0.93338E+07
        -0.47881E+08
        -0.33284E+08
        -0.43864E+08
         0.42780E+07
        -0.59820E+08
        -0.59562E+08
        -0.31751E+08
        -0.31967E+08
        -0.96300E+07
         0.49569E+08
         0.65512E+08
         0.41079E+08
        -0.50391E+07
        -0.19447E+08
        -0.36406E+08
        -0.79488E+08
         0.18023E+08
         0.36709E+08
         0.51665E+08
         0.75159E+08
         0.77297E+08
         0.74954E+08
         0.74186E+08
         0.67294E+08
         0.46270E+08
        -0.58329E+08
        -0.51556E+08
        -0.41785E+08
        -0.27918E+08
        -0.35324E+08
        -0.60641E+08
        -0.72029E+08
        -0.71816E+08
        -0.69477E+08
         0.53314E+08
        -0.46925E+07
         0.13116E+09
         0.10764E+09
         0.11101E+09
         0.13148E+09
         0.12942E+09
         0.11842E+09
         0.10744E+09
         0.92667E+08
         0.77617E+08
         0.60898E+08
         0.38120E+08
         0.94949E+06
        -0.44679E+08
        -0.69506E+08
        -0.72992E+08
        -0.70934E+08
        -0.51715E+08
        -0.36265E+08
        -0.47344E+08
        -0.63638E+08
        -0.69459E+08
        -0.64029E+08
        -0.50542E+08
        -0.33615E+08
        -0.16860E+08
         0.33394E+07
        -0.41123E+07
        -0.23379E+08
        -0.12954E+08
        -0.45497E+08
        -0.59418E+07
        -0.38332E+08
        -0.27914E+08
        -0.57993E+08
        -0.10682E+08
         0.31156E+08
         0.33988E+08
        -0.31280E+08
         0.55278E+08
         0.97197E+06
        -0.32004E+08
        -0.75968E+07
        -0.40087E+08
        -0.28868E+08
        -0.39438E+08
         0.65659E+07
        -0.52441E+08
        -0.48258E+08
        -0.30513E+08
        -0.23219E+08
        -0.20408E+08
         0.47914E+08
         0.68899E+08
         0.42377E+08
         0.52092E+07
        -0.89436E+07
        -0.21664E+08
        -0.55899E+08
         0.30916E+08
         0.36492E+08
         0.39611E+08
         0.65366E+08
         0.73750E+08
         0.77514E+08
         0.78605E+08
         0.70404E+08
         0.47974E+08
        -0.49523E+08
        -0.42618E+08
        -0.30663E+08
        -0.64321E+07
        -0.56008E+07
        -0.42454E+08
        -0.59427E+08
        -0.58458E+08
        -0.58549E+08
         0.71443E+08
         0.99461E+07
         0.14547E+09
         0.10152E+09
         0.93805E+08
         0.11112E+09
         0.12051E+09
         0.11172E+09
         0.10262E+09
         0.94667E+08
         0.82313E+08
         0.63119E+08
         0.38940E+08
         0.47253E+07
        -0.36578E+08
        -0.59597E+08
        -0.62505E+08
        -0.62172E+08
        -0.40558E+08
        -0.95917E+07
        -0.69221E+07
        -0.29459E+08
        -0.45131E+08
        -0.43769E+08
        -0.30376E+08
        -0.15475E+08
        -0.96429E+07
         0.10836E+08
         0.16865E+08
        -0.22788E+07
         0.29227E+08
        -0.23089E+05
        -0.44491E+07
        -0.33049E+08
        -0.22106E+08
        -0.52089E+08
        -0.16777E+08
         0.75026E+07
         0.21239E+08
        -0.36736E+08
         0.18698E+08
         0.10051E+08
        -0.25528E+08
         0.12234E+07
        -0.30078E+08
        -0.24410E+08
        -0.40453E+08
         0.45179E+07
        -0.42559E+08
        -0.30405E+08
        -0.26026E+08
        -0.29041E+07
        -0.27022E+08
         0.43446E+08
         0.65569E+08
         0.43518E+08
         0.28867E+08
         0.20920E+08
         0.10165E+08
        -0.16073E+07
         0.74928E+08
         0.59228E+08
         0.40040E+08
         0.46434E+08
         0.64829E+08
         0.74365E+08
         0.76596E+08
         0.66538E+08
         0.44390E+08
        -0.29427E+08
        -0.11978E+08
         0.10836E+08
         0.44808E+08
         0.47661E+08
         0.23778E+08
         0.89195E+07
         0.11294E+08
         0.16463E+07
         0.12719E+09
         0.53195E+08
         0.15295E+09
         0.93912E+08
         0.67692E+08
         0.60992E+08
         0.82898E+08
         0.93111E+08
         0.91698E+08
         0.91422E+08
         0.81762E+08
         0.59620E+08
         0.35098E+08
         0.12073E+07
        -0.41358E+08
        -0.51047E+08
        -0.44075E+08
        -0.35618E+08
        -0.79590E+06
         0.40415E+08
         0.49890E+08
         0.37826E+08
         0.28136E+08
         0.31414E+08
         0.40367E+08
         0.37779E+08
         0.90395E+07
         0.36393E+08
         0.61412E+08
         0.32686E+08
         0.11136E+09
         0.90048E+08
         0.18221E+08
        -0.10569E+08
        -0.64848E+07
        -0.31351E+08
         0.28238E+07
         0.16573E+08
         0.38720E+08
        -0.19257E+08
         0.95430E+07
         0.27480E+08
        -0.74833E+07
         0.18369E+08
        -0.48517E+07
         0.31907E+07
        -0.92057E+07
         0.28639E+08
        -0.94172E+07
         0.19557E+07
        -0.23945E+07
         0.28106E+08
        -0.14287E+08
         0.44979E+08
         0.63478E+08
         0.60614E+08
         0.65260E+08
         0.62329E+08
         0.59025E+08
         0.76918E+08
         0.12812E+09
         0.12103E+09
         0.73965E+08
         0.30854E+08
         0.51884E+08
         0.64622E+08
         0.68610E+08
         0.62750E+08
         0.50914E+08
         0.59371E+07
         0.28574E+08
         0.51855E+08
         0.83000E+08
         0.96360E+08
         0.89327E+08
         0.84162E+08
         0.80924E+08
         0.91379E+08
         0.13966E+09
         0.10775E+09
         0.12752E+09
         0.11528E+09
         0.71839E+08
         0.37322E+08
         0.45087E+08
         0.65415E+08
         0.72161E+08
         0.76133E+08
         0.71030E+08
         0.53708E+08
         0.39691E+08
         0.26589E+08
         0.22334E+07
        -0.95924E+07
        -0.86765E+07
         0.40461E+07
         0.40062E+08
         0.58263E+08
         0.56230E+08
         0.59715E+08
         0.61107E+08
         0.63582E+08
         0.70555E+08
         0.83292E+08
         0.46554E+07
         0.30552E+08
         0.44246E+08
         0.12050E+08
         0.73931E+08
         0.48500E+08
         0.27058E+08
        -0.85785E+06
        -0.52604E+07
        -0.13988E+08
         0.33905E+08
         0.62027E+08
         0.69403E+08
         0.17528E+08
         0.51288E+08
         0.60978E+07
        -0.46598E+07
         0.23165E+07
        -0.36401E+08
         0.13658E+08
        -0.37313E+08
         0.27374E+08
        -0.69231E+08
        -0.66849E+08
         0.34345E+08
        -0.43595E+08
         0.34880E+08
         0.79849E+08
         0.96554E+08
         0.91211E+08
         0.36973E+07
        -0.45335E+08
         0.21772E+07
         0.66064E+07
         0.68971E+08
         0.62923E+08
         0.80446E+08
         0.63717E+08
         0.84496E+08
         0.10056E+09
         0.10690E+09
         0.97229E+08
         0.74161E+08
        -0.79207E+08
        -0.70496E+08
        -0.50315E+08
        -0.28876E+08
        -0.15838E+08
        -0.18078E+08
        -0.12578E+08
        -0.24977E+07
         0.17967E+08
         0.85102E+08
         0.10054E+09
         0.71823E+08
         0.97999E+08
         0.94630E+08
         0.85641E+08
         0.86055E+08
         0.93701E+08
         0.10425E+09
         0.11432E+09
         0.11375E+09
         0.93345E+08
         0.60424E+08
         0.15923E+08
        -0.33921E+08
        -0.73595E+08
        -0.92086E+08
        -0.75745E+08
        -0.46497E+08
        -0.31203E+08
        -0.35879E+08
        -0.33984E+08
        -0.25989E+08
        -0.10920E+08
         0.14079E+08
         0.53603E+08
        -0.13153E+09
        -0.12502E+09
        -0.11849E+09
        -0.12502E+09
        -0.11878E+09
        -0.14141E+09
        -0.14406E+09
        -0.15512E+09
        -0.13866E+09
        -0.15654E+09
        -0.15306E+09
        -0.68718E+08
        -0.94563E+08
        -0.16434E+09
         0.26206E+08
        -0.15174E+09
        -0.15250E+09
        -0.12503E+09
        -0.16541E+09
        -0.16334E+09
        -0.15320E+09
        -0.11459E+09
        -0.16593E+09
        -0.16617E+09
        -0.15367E+09
        -0.16606E+09
        -0.11460E+09
         0.15897E+08
         0.70287E+08
        -0.76276E+08
        -0.17026E+09
        -0.16790E+09
        -0.16413E+09
        -0.16766E+09
        -0.11813E+09
        -0.11004E+09
        -0.93477E+08
         0.98011E+08
         0.12398E+09
         0.13034E+09
         0.12497E+09
         0.79274E+08
        -0.16615E+08
        -0.16656E+09
        -0.16291E+09
        -0.15678E+09
        -0.15563E+09
        -0.15530E+09
        -0.16049E+09
        -0.17113E+09
        -0.17458E+09
        -0.17070E+09
        -0.11543E+09
        -0.10128E+09
        -0.85967E+08
        -0.10215E+07
         0.75281E+08
         0.12611E+09
         0.14679E+09
         0.15806E+09
         0.16949E+09
         0.16882E+09
         0.14504E+09
         0.85336E+08
        -0.24391E+08
        -0.12524E+09
        -0.16204E+09
        -0.17268E+09
        -0.17180E+09
        -0.16267E+09
        -0.15181E+09
        -0.14369E+09
        -0.14482E+09
        -0.15111E+09
        -0.16209E+09
        -0.16917E+09
        -0.16292E+09
        -0.12560E+09
        -0.13066E+09
        -0.12072E+09
        -0.11933E+09
        -0.11831E+09
        -0.12623E+09
        -0.14661E+09
        -0.13562E+09
        -0.15612E+09
        -0.13998E+09
        -0.15745E+09
        -0.14428E+09
        -0.96017E+08
        -0.86074E+08
        -0.14970E+09
        -0.49590E+08
        -0.14469E+09
        -0.15217E+09
        -0.12047E+09
        -0.15849E+09
        -0.15248E+09
        -0.15627E+09
        -0.12459E+09
        -0.16876E+09
        -0.16330E+09
        -0.15157E+09
        -0.16236E+09
        -0.10966E+09
        -0.10607E+08
         0.46943E+08
        -0.97044E+08
        -0.16201E+09
        -0.16747E+09
        -0.14023E+09
        -0.14319E+09
        -0.12774E+09
        -0.11339E+09
        -0.91207E+08
         0.83905E+08
         0.13885E+09
         0.14074E+09
         0.12108E+09
         0.48091E+08
        -0.56588E+08
        -0.16899E+09
        -0.16862E+09
        -0.16881E+09
        -0.16875E+09
        -0.16333E+09
        -0.15064E+09
        -0.15613E+09
        -0.16905E+09
        -0.16713E+09
        -0.13046E+09
        -0.11174E+09
        -0.10100E+09
        -0.41572E+08
         0.10785E+08
         0.66156E+08
         0.13497E+09
         0.16503E+09
         0.18685E+09
         0.18693E+09
         0.14578E+09
         0.50716E+08
        -0.73752E+08
        -0.15144E+09
        -0.17609E+09
        -0.18219E+09
        -0.17985E+09
        -0.17454E+09
        -0.16940E+09
        -0.16728E+09
        -0.16503E+09
        -0.15912E+09
        -0.16429E+09
        -0.17839E+09
        -0.18563E+09
        -0.15649E+09
  
SCALARS                      stress_xy  double 1
LOOKUP_TABLE default
        -0.21769E+08
         0.66103E+07
         0.57480E+08
         0.70767E+07
        -0.58286E+01
         0.26518E+01
         0.72440E+01
        -0.40020E+00
         0.11754E+09
         0.53519E+08
         0.10961E+02
         0.12930E+02
        -0.19613E+08
        -0.15838E+08
         0.21214E+01
        -0.40607E+01
        -0.17420E+08
        -0.21985E+08
        -0.45817E+01
        -0.38078E+01
        -0.26581E+08
        -0.32740E+08
        -0.17225E+08
        -0.14815E+00
        -0.84042E+01
        -0.16371E+01
        -0.15546E+08
        -0.23491E+08
         0.13564E+01
        -0.62457E+01
         0.16008E+08
        -0.39336E+08
        -0.78030E+07
         0.27275E+00
        -0.19286E+01
        -0.38259E+01
         0.18961E+08
        -0.35102E+08
         0.13616E+01
        -0.30717E+01
         0.90957E+08
         0.11995E+09
         0.32697E+01
         0.28432E+01
         0.75728E+08
         0.62198E+08
         0.45092E+01
         0.40735E+01
        -0.41945E+08
        -0.22185E+01
         0.59123E+08
         0.52003E+01
        -0.16400E+08
         0.15797E+01
         0.44276E+07
         0.83203E+00
         0.81968E+08
        -0.18665E+07
         0.54616E+01
        -0.23831E+01
         0.39059E+06
         0.30010E+08
        -0.16580E+01
         0.59448E+01
        -0.16349E+08
        -0.35933E+01
        -0.13472E+08
        -0.62577E+00
         0.15160E+09
         0.12575E+09
         0.18414E+02
         0.11661E+02
         0.60265E+08
         0.13355E+02
        -0.27651E+07
         0.36215E+01
         0.83066E+08
         0.45842E+01
         0.12616E+09
         0.10663E+02
         0.15070E+09
         0.14425E+09
         0.14458E+02
         0.12576E+02
         0.15100E+09
         0.35416E+01
         0.65458E+08
         0.65015E+01
         0.59129E+08
         0.55979E+01
         0.27561E+08
        -0.25268E+08
         0.12244E+01
         0.86866E+01
        -0.37077E+08
        -0.46265E+01
        -0.41541E+08
        -0.14438E+01
        -0.41329E+08
         0.10590E+01
        -0.39477E+08
        -0.12176E+08
         0.24228E+01
         0.58092E+01
         0.15504E+09
         0.73679E+08
         0.38608E+02
         0.33390E+02
         0.17135E+09
         0.17792E+02
         0.13211E+09
         0.11952E+02
        -0.95581E+07
         0.11475E+02
        -0.57651E+08
         0.79953E+01
        -0.56295E+08
         0.45192E+01
        -0.64979E+08
         0.43387E+01
         0.43097E+08
         0.55053E+01
         0.18156E+09
         0.12387E+02
         0.17694E+09
         0.27247E+02
         0.15934E+09
         0.23040E+02
         0.14821E+09
         0.12027E+02
         0.16300E+09
         0.94443E+01
         0.10357E+09
         0.94653E+01
         0.51296E+08
         0.86329E+01
         0.25073E+08
         0.80117E+01
         0.46724E+08
         0.92390E+01
         0.54159E+08
        -0.78163E+01
         0.31053E+08
        -0.11915E+02
         0.37478E+08
        -0.73984E+01
         0.46479E+07
        -0.58340E+01
        -0.29434E+08
        -0.34510E+01
        -0.41509E+08
         0.10176E+02
        -0.31208E+08
         0.19256E+02
         0.15786E+07
         0.16399E+02
         0.43206E+08
         0.31366E+08
         0.33556E+08
        -0.25561E+08
        -0.25215E+07
        -0.12916E+09
         0.59531E+07
         0.20780E+08
         0.36574E+08
        -0.39890E+07
        -0.20327E+08
        -0.68539E+08
        -0.43025E+08
        -0.20172E+08
        -0.58399E+08
         0.16663E+08
        -0.34899E+08
         0.29181E+08
         0.18760E+08
         0.28126E+08
         0.10228E+09
         0.16887E+09
         0.53647E+08
         0.39545E+08
        -0.20506E+08
         0.24801E+08
        -0.29643E+08
         0.34883E+07
         0.74487E+08
         0.81888E+08
         0.17981E+08
         0.12364E+08
        -0.53585E+08
        -0.14186E+09
         0.39900E+08
         0.33219E+08
        -0.20088E+07
        -0.25500E+08
         0.16395E+08
         0.60921E+08
         0.87809E+08
         0.11823E+09
         0.15919E+09
         0.88776E+07
        -0.19327E+08
        -0.57930E+07
         0.11728E+08
        -0.14518E+08
        -0.81480E+08
        -0.13536E+09
        -0.15775E+09
        -0.16527E+09
         0.35558E+08
        -0.69613E+07
         0.95954E+07
        -0.40205E+08
        -0.10833E+09
        -0.12728E+09
        -0.61389E+08
        -0.53439E+07
         0.30370E+08
         0.55964E+08
         0.74069E+08
         0.99392E+08
         0.14809E+09
         0.19501E+09
         0.12540E+09
         0.46100E+08
        -0.23642E+08
        -0.48311E+08
        -0.12614E+07
         0.20993E+08
        -0.21246E+08
        -0.93617E+08
        -0.13802E+09
        -0.15984E+09
        -0.15722E+09
        -0.11556E+09
         0.10657E+09
         0.41547E+08
        -0.24742E+08
        -0.32922E+08
        -0.62064E+08
        -0.10081E+09
         0.44974E+08
         0.69425E+08
         0.66724E+08
         0.53744E+07
        -0.30102E+07
        -0.38115E+08
        -0.34235E+08
        -0.66476E+07
        -0.19107E+08
         0.14109E+08
        -0.71073E+08
         0.57616E+08
        -0.21699E+08
         0.12721E+09
         0.15964E+09
         0.19618E+09
         0.62509E+08
         0.17181E+07
         0.42565E+08
         0.98431E+07
         0.22899E+07
         0.59018E+08
         0.11182E+09
         0.14032E+09
         0.55479E+08
         0.33912E+08
        -0.31344E+08
        -0.11201E+09
        -0.49725E+08
        -0.46914E+08
        -0.38513E+08
         0.12648E+08
         0.51525E+08
         0.86852E+08
         0.10615E+09
         0.13489E+09
         0.16908E+09
        -0.24607E+08
        -0.23973E+08
        -0.42868E+07
         0.22108E+08
        -0.10506E+08
        -0.81104E+08
        -0.12578E+09
        -0.13465E+09
        -0.12567E+09
        -0.51530E+08
        -0.58265E+08
        -0.56915E+08
        -0.61297E+08
        -0.71775E+08
        -0.53329E+08
        -0.22213E+08
         0.99416E+07
         0.42764E+08
         0.63973E+08
         0.94480E+08
         0.11802E+09
         0.15946E+09
         0.18536E+09
         0.15443E+09
         0.76866E+08
        -0.36266E+08
        -0.63637E+08
        -0.22983E+08
         0.23131E+06
        -0.50571E+08
        -0.11812E+09
        -0.14457E+09
        -0.13997E+09
        -0.11680E+09
        -0.85056E+08
         0.16373E+08
        -0.81712E+07
        -0.52020E+08
         0.69363E+07
        -0.74832E+08
        -0.47337E+08
         0.19357E+08
        -0.34049E+07
        -0.71564E+07
        -0.35894E+08
         0.15902E+08
         0.21487E+08
         0.72659E+07
         0.15884E+06
         0.28047E+08
         0.53429E+07
        -0.48461E+08
         0.44319E+08
         0.79651E+06
         0.10398E+09
         0.14206E+09
         0.18632E+09
         0.86761E+08
         0.14655E+08
         0.47275E+08
         0.39381E+08
         0.26498E+08
         0.89873E+08
         0.12828E+09
         0.15789E+09
         0.88470E+08
         0.94588E+08
         0.46430E+08
        -0.20045E+08
        -0.96909E+08
        -0.78484E+08
        -0.35303E+08
         0.53693E+08
         0.84463E+08
         0.10704E+09
         0.11827E+09
         0.14243E+09
         0.17233E+09
         0.61100E+08
         0.72008E+08
         0.81348E+08
         0.92565E+08
         0.61451E+08
        -0.20360E+06
        -0.52457E+08
        -0.65177E+08
        -0.52519E+08
        -0.11407E+09
        -0.88052E+08
        -0.79806E+08
        -0.43381E+08
        -0.14994E+08
         0.20603E+08
         0.41079E+08
         0.58801E+08
         0.83479E+08
         0.94064E+08
         0.10150E+09
         0.12591E+09
         0.15754E+09
         0.16721E+09
         0.14772E+09
         0.12027E+09
         0.72782E+08
         0.41315E+08
         0.55437E+08
         0.55896E+08
         0.14202E+08
        -0.47852E+08
        -0.87431E+08
        -0.75952E+08
        -0.45635E+08
        -0.33139E+08
        -0.17995E+08
         0.11456E+08
        -0.29220E+08
         0.31031E+08
        -0.17913E+08
         0.35663E+08
         0.46794E+08
        -0.18329E+08
        -0.45772E+08
        -0.28266E+08
         0.49737E+08
         0.54952E+08
         0.59958E+08
         0.17885E+08
         0.48597E+08
        -0.43085E+08
        -0.28476E+08
        -0.12546E+06
         0.48356E+07
         0.89312E+08
         0.11526E+09
         0.17173E+09
         0.80182E+08
         0.60024E+07
         0.47362E+08
         0.41466E+08
         0.49898E+08
         0.11221E+09
         0.14262E+09
         0.16140E+09
         0.90416E+08
         0.13481E+09
         0.66366E+08
         0.50197E+08
        -0.52972E+08
        -0.35450E+08
         0.18172E+08
         0.70823E+08
         0.97119E+08
         0.11647E+09
         0.12541E+09
         0.14646E+09
         0.16908E+09
         0.11327E+09
         0.14738E+09
         0.13044E+09
         0.12452E+09
         0.98453E+08
         0.65573E+08
         0.43071E+08
         0.37337E+08
         0.42164E+08
        -0.63449E+08
        -0.21421E+08
        -0.25413E+08
         0.10480E+08
         0.32642E+08
         0.40128E+08
         0.53558E+08
         0.72859E+08
         0.94933E+08
         0.10305E+09
         0.10839E+09
         0.12439E+09
         0.14071E+09
         0.14608E+09
         0.13369E+09
         0.13008E+09
         0.13893E+09
         0.12350E+09
         0.94190E+08
         0.73571E+08
         0.47348E+08
         0.24771E+08
         0.19147E+08
         0.30284E+08
         0.42948E+08
         0.40526E+08
        -0.24972E+08
         0.36006E+08
         0.50674E+08
         0.29802E+08
         0.75033E+08
         0.85406E+08
         0.27899E+08
        -0.15298E+08
        -0.44121E+08
        -0.14981E+08
         0.17977E+08
         0.26699E+08
         0.54627E+08
         0.40324E+07
         0.35837E+08
        -0.74878E+08
        -0.13849E+08
        -0.57857E+08
        -0.94621E+07
         0.72227E+08
         0.78844E+08
         0.14640E+09
         0.34666E+08
        -0.36683E+08
         0.40569E+08
        -0.20938E+08
         0.49323E+08
         0.11283E+09
         0.14199E+09
         0.13720E+09
         0.57211E+08
         0.97397E+08
         0.66417E+08
         0.80303E+08
         0.51666E+08
         0.51650E+08
         0.64285E+08
         0.72436E+08
         0.99377E+08
         0.11661E+09
         0.12342E+09
         0.14048E+09
         0.15547E+09
         0.77584E+08
         0.11749E+09
         0.92094E+08
         0.97822E+08
         0.11141E+09
         0.10591E+09
         0.89355E+08
         0.77781E+08
         0.79649E+08
         0.38618E+08
         0.69348E+08
         0.34812E+08
         0.49912E+08
         0.34578E+08
         0.10208E+08
         0.32356E+08
         0.65737E+08
         0.91245E+08
         0.10132E+09
         0.10728E+09
         0.11489E+09
         0.11828E+09
         0.11684E+09
         0.10250E+09
         0.10069E+09
         0.13281E+09
         0.12034E+09
         0.62152E+08
         0.62775E+08
         0.91733E+08
         0.92535E+08
         0.75115E+08
         0.65754E+08
         0.63371E+08
         0.71570E+08
        -0.31378E+08
         0.30503E+08
         0.99031E+08
         0.16030E+08
         0.16216E+09
         0.15531E+09
        -0.31738E+06
        -0.17728E+08
        -0.41255E+08
        -0.28873E+07
        -0.26037E+08
        -0.35467E+08
         0.38739E+07
        -0.17344E+08
        -0.60999E+07
        -0.86079E+08
         0.13197E+07
        -0.75559E+08
        -0.38660E+08
         0.57146E+08
        -0.92175E+07
         0.96643E+08
        -0.65130E+08
        -0.97192E+08
         0.40554E+08
        -0.66153E+08
         0.39902E+08
         0.99729E+08
         0.13016E+09
         0.10604E+09
        -0.65542E+07
         0.98027E+07
         0.26126E+08
         0.11911E+09
         0.15612E+09
         0.11569E+09
         0.45883E+08
         0.65568E+08
         0.97786E+08
         0.10937E+09
         0.11196E+09
         0.12736E+09
         0.13489E+09
        -0.26392E+08
         0.31449E+08
         0.53452E+08
         0.82049E+08
         0.10218E+09
         0.11596E+09
         0.12112E+09
         0.12370E+09
         0.13425E+09
         0.15811E+09
         0.16987E+09
         0.75497E+08
         0.30152E+08
        -0.70143E+07
        -0.42665E+08
         0.25154E+07
         0.55194E+08
         0.82333E+08
         0.89915E+08
         0.95282E+08
         0.10097E+09
         0.96834E+08
         0.70771E+08
         0.36665E+08
         0.13306E+08
         0.28662E+08
         0.35321E+08
         0.28099E+08
         0.57333E+08
         0.99161E+08
         0.11798E+09
         0.12327E+09
         0.12042E+09
         0.12008E+09
         0.14884E+09
        -0.14752E+08
         0.12394E+08
         0.74247E+08
         0.22475E+08
         0.16139E+09
         0.13913E+09
        -0.90870E+07
        -0.64199E+07
        -0.15802E+08
         0.24674E+08
        -0.35236E+08
        -0.63372E+08
        -0.22178E+08
        -0.23550E+08
        -0.54626E+08
        -0.31905E+08
         0.23841E+08
        -0.34224E+08
        -0.45250E+08
         0.29781E+08
        -0.11979E+09
        -0.77203E+08
        -0.92919E+08
        -0.77330E+08
         0.53158E+08
        -0.36307E+08
         0.27027E+08
         0.59353E+08
         0.72420E+08
         0.53032E+08
         0.11193E+08
         0.17276E+08
         0.28925E+08
         0.84564E+08
         0.16472E+09
         0.72354E+08
         0.94934E+07
         0.24190E+05
         0.53053E+08
         0.74429E+08
         0.66514E+08
         0.41550E+08
        -0.13370E+08
        -0.40814E+08
         0.15723E+08
         0.61992E+08
         0.93453E+08
         0.10823E+09
         0.10068E+09
         0.98300E+08
         0.10244E+09
         0.11152E+09
         0.16769E+09
         0.16815E+09
         0.39116E+08
         0.39898E+06
        -0.28532E+08
        -0.82738E+08
        -0.52249E+08
         0.13208E+08
         0.53244E+08
         0.60512E+08
         0.56738E+08
         0.36590E+08
        -0.55629E+08
        -0.10941E+09
        -0.93216E+08
        -0.60608E+08
        -0.17764E+08
         0.13342E+08
         0.48026E+08
         0.97680E+08
         0.12233E+09
         0.11114E+09
         0.10508E+09
         0.10636E+09
         0.12090E+09
         0.15081E+09
        -0.60560E+07
         0.10633E+08
         0.67750E+08
         0.32595E+08
         0.15809E+09
         0.14318E+09
        -0.43645E+07
         0.75244E+07
         0.23580E+07
         0.40296E+08
        -0.26638E+08
        -0.66448E+08
        -0.21261E+08
        -0.17072E+08
        -0.88476E+08
        -0.93488E+07
         0.36181E+08
        -0.17964E+08
        -0.33725E+08
        -0.81984E+07
        -0.13778E+09
        -0.16316E+09
        -0.90412E+08
        -0.56132E+08
         0.55843E+08
        -0.20805E+08
         0.12192E+08
         0.19912E+07
        -0.43805E+08
        -0.28872E+08
         0.19865E+08
         0.19794E+08
         0.39782E+08
         0.10640E+09
         0.15796E+09
         0.60433E+08
         0.38526E+07
        -0.55613E+08
        -0.34302E+08
        -0.41157E+08
        -0.65381E+08
        -0.91160E+08
        -0.12949E+09
        -0.42948E+08
         0.11105E+08
         0.67885E+08
         0.91822E+08
         0.11518E+09
         0.12303E+09
         0.11990E+09
         0.12397E+09
         0.12858E+09
         0.15151E+09
         0.16197E+09
         0.28746E+08
        -0.33747E+07
        -0.29567E+08
        -0.89778E+08
        -0.99375E+08
        -0.60885E+08
        -0.37809E+08
        -0.47056E+08
        -0.70609E+08
        -0.10522E+09
        -0.13899E+09
        -0.15630E+09
        -0.14426E+09
        -0.88037E+08
        -0.35236E+08
         0.49443E+07
         0.58201E+08
         0.11902E+09
         0.15643E+09
         0.14610E+09
         0.13628E+09
         0.13253E+09
         0.13852E+09
         0.15126E+09
        -0.15771E+07
         0.12757E+08
         0.68922E+08
         0.35584E+08
         0.15259E+09
         0.14063E+09
         0.74932E+06
         0.16929E+08
         0.11138E+08
         0.49773E+08
        -0.21787E+08
        -0.65364E+08
        -0.19004E+08
        -0.13434E+08
        -0.10172E+09
        -0.78638E+06
         0.44509E+08
        -0.15790E+08
        -0.37590E+08
        -0.28354E+08
        -0.14092E+09
        -0.17092E+09
        -0.97204E+08
        -0.62219E+08
         0.51612E+08
        -0.22017E+08
         0.44580E+07
        -0.23564E+08
        -0.70152E+08
        -0.73578E+08
         0.17033E+08
         0.13499E+08
         0.40819E+08
         0.11217E+09
         0.15042E+09
         0.60102E+08
         0.45466E+07
        -0.67276E+08
        -0.51632E+08
        -0.61863E+08
        -0.84009E+08
        -0.10772E+09
        -0.14409E+09
        -0.52832E+08
        -0.40877E+07
         0.53190E+08
         0.85331E+08
         0.11341E+09
         0.12004E+09
         0.11926E+09
         0.12347E+09
         0.12912E+09
         0.14072E+09
         0.15273E+09
         0.28102E+08
        -0.21180E+07
        -0.27255E+08
        -0.93955E+08
        -0.10956E+09
        -0.76220E+08
        -0.63850E+08
        -0.71823E+08
        -0.89478E+08
        -0.11798E+09
        -0.14569E+09
        -0.16647E+09
        -0.15859E+09
        -0.11050E+09
        -0.57541E+08
        -0.13697E+08
         0.45690E+08
         0.10844E+09
         0.14513E+09
         0.13821E+09
         0.13030E+09
         0.12645E+09
         0.13149E+09
         0.14226E+09
         0.11869E+07
         0.17089E+08
         0.76911E+08
         0.37449E+08
         0.15389E+09
         0.14015E+09
         0.54249E+07
         0.23198E+08
         0.15483E+08
         0.55090E+08
        -0.20479E+08
        -0.68684E+08
        -0.16508E+08
        -0.14605E+08
        -0.10225E+09
        -0.67115E+06
         0.48573E+08
        -0.17769E+08
        -0.53321E+08
        -0.44791E+08
        -0.14723E+09
        -0.17184E+09
        -0.10628E+09
        -0.84739E+08
         0.50176E+08
        -0.32133E+08
        -0.53118E+07
        -0.35156E+08
        -0.76020E+08
        -0.93792E+08
         0.16371E+08
         0.12251E+08
         0.41564E+08
         0.10807E+09
         0.15190E+09
         0.67713E+08
         0.86760E+07
        -0.69718E+08
        -0.57680E+08
        -0.66711E+08
        -0.85875E+08
        -0.11121E+09
        -0.14878E+09
        -0.61351E+08
        -0.98888E+07
         0.44987E+08
         0.93506E+08
         0.11124E+09
         0.10830E+09
         0.11135E+09
         0.11827E+09
         0.12641E+09
         0.14380E+09
         0.15200E+09
         0.30094E+08
         0.37428E+07
        -0.22336E+08
        -0.89572E+08
        -0.10171E+09
        -0.77301E+08
        -0.72128E+08
        -0.76691E+08
        -0.88810E+08
        -0.11970E+09
        -0.15224E+09
        -0.17193E+09
        -0.17009E+09
        -0.12583E+09
        -0.70948E+08
        -0.19226E+08
         0.39796E+08
         0.92493E+08
         0.12265E+09
         0.12273E+09
         0.12115E+09
         0.12128E+09
         0.12764E+09
         0.13824E+09
         0.32067E+07
         0.23747E+08
         0.84583E+08
         0.37555E+08
         0.15844E+09
         0.14172E+09
         0.11345E+08
         0.26288E+08
         0.16588E+08
         0.57815E+08
        -0.18088E+08
        -0.66553E+08
        -0.76843E+07
        -0.15848E+08
        -0.96134E+08
        -0.36917E+07
         0.48447E+08
        -0.19633E+08
        -0.59758E+08
        -0.49121E+08
        -0.15102E+09
        -0.17200E+09
        -0.11086E+09
        -0.92634E+08
         0.48590E+08
        -0.35372E+08
        -0.11354E+08
        -0.41207E+08
        -0.77248E+08
        -0.10616E+09
         0.19916E+08
         0.17650E+08
         0.43496E+08
         0.10251E+09
         0.15742E+09
         0.79233E+08
         0.19608E+08
        -0.67518E+08
        -0.60865E+08
        -0.71509E+08
        -0.87289E+08
        -0.10708E+09
        -0.14249E+09
        -0.62382E+08
        -0.41548E+07
         0.53226E+08
         0.98420E+08
         0.10880E+09
         0.10283E+09
         0.10565E+09
         0.11403E+09
         0.12415E+09
         0.15049E+09
         0.15778E+09
         0.38517E+08
         0.13827E+08
        -0.15557E+08
        -0.81222E+08
        -0.88680E+08
        -0.73852E+08
        -0.75952E+08
        -0.82861E+08
        -0.90372E+08
        -0.11311E+09
        -0.14432E+09
        -0.16844E+09
        -0.17258E+09
        -0.13108E+09
        -0.71240E+08
        -0.10966E+08
         0.50076E+08
         0.98205E+08
         0.11951E+09
         0.11743E+09
         0.11576E+09
         0.11787E+09
         0.12812E+09
         0.14206E+09
         0.15125E+07
         0.24611E+08
         0.89980E+08
         0.38457E+08
         0.15976E+09
         0.14173E+09
         0.12154E+08
         0.24964E+08
         0.15065E+08
         0.59918E+08
        -0.16558E+08
        -0.62255E+08
        -0.27131E+07
        -0.15197E+08
        -0.94812E+08
        -0.33557E+07
         0.49650E+08
        -0.20612E+08
        -0.56172E+08
        -0.48161E+08
        -0.15224E+09
        -0.17302E+09
        -0.11005E+09
        -0.86118E+08
         0.51391E+08
        -0.29273E+08
        -0.64116E+07
        -0.40880E+08
        -0.82444E+08
        -0.11643E+09
         0.24443E+08
         0.25080E+08
         0.46672E+08
         0.10019E+09
         0.16084E+09
         0.86738E+08
         0.23171E+08
        -0.63657E+08
        -0.59574E+08
        -0.76279E+08
        -0.95299E+08
        -0.11298E+09
        -0.14409E+09
        -0.56419E+08
         0.59011E+07
         0.63050E+08
         0.10636E+09
         0.11456E+09
         0.10562E+09
         0.10524E+09
         0.11236E+09
         0.12241E+09
         0.15519E+09
         0.15981E+09
         0.46841E+08
         0.17971E+08
        -0.95071E+07
        -0.78286E+08
        -0.84854E+08
        -0.71651E+08
        -0.74505E+08
        -0.88152E+08
        -0.10067E+09
        -0.11979E+09
        -0.14429E+09
        -0.16644E+09
        -0.17243E+09
        -0.13099E+09
        -0.64385E+08
        -0.22306E+05
         0.60052E+08
         0.10849E+09
         0.12834E+09
         0.12106E+09
         0.11604E+09
         0.11652E+09
         0.12740E+09
         0.14362E+09
         0.59677E+06
         0.20883E+08
         0.89158E+08
         0.40302E+08
         0.15939E+09
         0.14248E+09
         0.10152E+08
         0.23849E+08
         0.14610E+08
         0.58790E+08
        -0.16981E+08
        -0.62764E+08
        -0.63926E+07
        -0.16533E+08
        -0.97719E+08
        -0.17159E+07
         0.50144E+08
        -0.19868E+08
        -0.48482E+08
        -0.49680E+08
        -0.15040E+09
        -0.17290E+09
        -0.10362E+09
        -0.74279E+08
         0.49426E+08
        -0.23556E+08
        -0.65101E+07
        -0.46016E+08
        -0.92872E+08
        -0.12867E+09
         0.24551E+08
         0.25511E+08
         0.47649E+08
         0.10325E+09
         0.16252E+09
         0.83185E+08
         0.15835E+08
        -0.64884E+08
        -0.61363E+08
        -0.82897E+08
        -0.10571E+09
        -0.12392E+09
        -0.15067E+09
        -0.49619E+08
         0.10133E+08
         0.66218E+08
         0.10871E+09
         0.11970E+09
         0.11114E+09
         0.10945E+09
         0.11621E+09
         0.12501E+09
         0.15817E+09
         0.16140E+09
         0.45129E+08
         0.97696E+07
        -0.14481E+08
        -0.81827E+08
        -0.88586E+08
        -0.73564E+08
        -0.73950E+08
        -0.93234E+08
        -0.11183E+09
        -0.13090E+09
        -0.15064E+09
        -0.16590E+09
        -0.16877E+09
        -0.12380E+09
        -0.56317E+08
         0.48216E+07
         0.64067E+08
         0.11397E+09
         0.13738E+09
         0.12759E+09
         0.12072E+09
         0.12140E+09
         0.13183E+09
         0.14660E+09
         0.17283E+07
         0.19692E+08
         0.83039E+08
         0.37829E+08
         0.15891E+09
         0.14433E+09
         0.99894E+07
         0.22605E+08
         0.14606E+08
         0.53431E+08
        -0.19658E+08
        -0.67660E+08
        -0.98923E+07
        -0.22679E+08
        -0.10613E+09
        -0.25684E+07
         0.48563E+08
        -0.19494E+08
        -0.42958E+08
        -0.49932E+08
        -0.14766E+09
        -0.17117E+09
        -0.99621E+08
        -0.66924E+08
         0.42953E+08
        -0.23576E+08
        -0.17374E+08
        -0.55062E+08
        -0.97235E+08
        -0.13277E+09
         0.21698E+08
         0.20992E+08
         0.45266E+08
         0.10777E+09
         0.16124E+09
         0.75490E+08
         0.10506E+08
        -0.72917E+08
        -0.67966E+08
        -0.86381E+08
        -0.10777E+09
        -0.12627E+09
        -0.15117E+09
        -0.48814E+08
         0.83099E+07
         0.64842E+08
         0.10586E+09
         0.11870E+09
         0.11411E+09
         0.11413E+09
         0.12149E+09
         0.12932E+09
         0.15660E+09
         0.16264E+09
         0.39271E+08
         0.16024E+06
        -0.23641E+08
        -0.93233E+08
        -0.98250E+08
        -0.78349E+08
        -0.78501E+08
        -0.95018E+08
        -0.11264E+09
        -0.13333E+09
        -0.15131E+09
        -0.16322E+09
        -0.16531E+09
        -0.11829E+09
        -0.54544E+08
         0.38683E+07
         0.64971E+08
         0.11444E+09
         0.13688E+09
         0.13125E+09
         0.12587E+09
         0.12719E+09
         0.13754E+09
         0.15030E+09
         0.39663E+07
         0.23450E+08
         0.82714E+08
         0.36489E+08
         0.15825E+09
         0.14392E+09
         0.10950E+08
         0.20959E+08
         0.14657E+08
         0.49192E+08
        -0.22387E+08
        -0.71501E+08
        -0.94811E+07
        -0.27763E+08
        -0.11252E+09
        -0.32012E+07
         0.46542E+08
        -0.16997E+08
        -0.45760E+08
        -0.47953E+08
        -0.14828E+09
        -0.17025E+09
        -0.10322E+09
        -0.71026E+08
         0.41671E+08
        -0.26530E+08
        -0.24303E+08
        -0.56727E+08
        -0.94621E+08
        -0.12131E+09
         0.23155E+08
         0.19976E+08
         0.46344E+08
         0.10693E+09
         0.15948E+09
         0.78875E+08
         0.15101E+08
        -0.80141E+08
        -0.71285E+08
        -0.84273E+08
        -0.10357E+09
        -0.12303E+09
        -0.14931E+09
        -0.53242E+08
         0.41596E+07
         0.61001E+08
         0.10333E+09
         0.11728E+09
         0.11331E+09
         0.11435E+09
         0.12213E+09
         0.12955E+09
         0.15636E+09
         0.16326E+09
         0.44515E+08
         0.27085E+07
        -0.24822E+08
        -0.94960E+08
        -0.10390E+09
        -0.83010E+08
        -0.81780E+08
        -0.92179E+08
        -0.10723E+09
        -0.12900E+09
        -0.14732E+09
        -0.16106E+09
        -0.16651E+09
        -0.12058E+09
        -0.59338E+08
        -0.16023E+07
         0.60176E+08
         0.11052E+09
         0.13364E+09
         0.13011E+09
         0.12630E+09
         0.12797E+09
         0.13840E+09
         0.15122E+09
         0.83786E+07
         0.28138E+08
         0.83576E+08
         0.38523E+08
         0.15967E+09
         0.14425E+09
         0.13783E+08
         0.22997E+08
         0.18165E+08
         0.50510E+08
        -0.19605E+08
        -0.65833E+08
        -0.45249E+07
        -0.24051E+08
        -0.10755E+09
         0.59618E+06
         0.46237E+08
        -0.10124E+08
        -0.54276E+08
        -0.54027E+08
        -0.15089E+09
        -0.17193E+09
        -0.10847E+09
        -0.81379E+08
         0.40900E+08
        -0.28442E+08
        -0.20676E+08
        -0.55845E+08
        -0.95503E+08
        -0.12323E+09
         0.29173E+08
         0.22874E+08
         0.51302E+08
         0.10849E+09
         0.16208E+09
         0.83307E+08
         0.22713E+08
        -0.79003E+08
        -0.71655E+08
        -0.85305E+08
        -0.10409E+09
        -0.12323E+09
        -0.15060E+09
        -0.58440E+08
         0.66328E+06
         0.59305E+08
         0.10491E+09
         0.12107E+09
         0.11711E+09
         0.11760E+09
         0.12462E+09
         0.13053E+09
         0.15848E+09
         0.16406E+09
         0.51574E+08
         0.10842E+08
        -0.18980E+08
        -0.84039E+08
        -0.96432E+08
        -0.82167E+08
        -0.83255E+08
        -0.94136E+08
        -0.10739E+09
        -0.12623E+09
        -0.14736E+09
        -0.16567E+09
        -0.16965E+09
        -0.12594E+09
        -0.66616E+08
        -0.68857E+07
         0.56848E+08
         0.10847E+09
         0.13324E+09
         0.13127E+09
         0.12911E+09
         0.13120E+09
         0.13979E+09
         0.15132E+09
         0.87932E+07
         0.24353E+08
         0.76583E+08
         0.34684E+08
         0.16013E+09
         0.14537E+09
         0.13535E+08
         0.25676E+08
         0.20716E+08
         0.54990E+08
        -0.11684E+08
        -0.50522E+08
        -0.28384E+07
        -0.10573E+08
        -0.97253E+08
         0.32558E+07
         0.46685E+08
        -0.86480E+07
        -0.55819E+08
        -0.60177E+08
        -0.14789E+09
        -0.17271E+09
        -0.10398E+09
        -0.80975E+08
         0.40550E+08
        -0.27277E+08
        -0.57289E+07
        -0.52687E+08
        -0.98091E+08
        -0.13370E+09
         0.27117E+08
         0.21498E+08
         0.46193E+08
         0.10998E+09
         0.16330E+09
         0.75425E+08
         0.18416E+08
        -0.71592E+08
        -0.69749E+08
        -0.87520E+08
        -0.10645E+09
        -0.12425E+09
        -0.15153E+09
        -0.57088E+08
        -0.17088E+07
         0.58492E+08
         0.10819E+09
         0.12852E+09
         0.12569E+09
         0.12520E+09
         0.13065E+09
         0.13425E+09
         0.15784E+09
         0.16479E+09
         0.45816E+08
         0.83329E+07
        -0.14880E+08
        -0.73201E+08
        -0.89744E+08
        -0.77966E+08
        -0.82417E+08
        -0.97060E+08
        -0.10986E+09
        -0.12501E+09
        -0.14601E+09
        -0.16637E+09
        -0.16646E+09
        -0.12279E+09
        -0.67239E+08
        -0.10061E+08
         0.56114E+08
         0.10966E+09
         0.13743E+09
         0.13605E+09
         0.13518E+09
         0.13750E+09
         0.14361E+09
         0.15234E+09
         0.86269E+07
         0.18707E+08
         0.63411E+08
         0.24718E+08
         0.16043E+09
         0.14857E+09
         0.12425E+08
         0.27395E+08
         0.20544E+08
         0.55634E+08
        -0.71198E+07
        -0.43410E+08
        -0.66145E+07
        -0.14390E+07
        -0.95597E+08
         0.11417E+07
         0.42855E+08
        -0.11727E+08
        -0.48203E+08
        -0.57474E+08
        -0.14105E+09
        -0.16986E+09
        -0.93797E+08
        -0.68724E+08
         0.37101E+08
        -0.25816E+08
         0.49544E+07
        -0.55947E+08
        -0.10504E+09
        -0.13482E+09
         0.15564E+08
         0.12858E+08
         0.29495E+08
         0.83618E+08
         0.16064E+09
         0.54855E+08
         0.61002E+07
        -0.69868E+08
        -0.71989E+08
        -0.93165E+08
        -0.11156E+09
        -0.12671E+09
        -0.15030E+09
        -0.51599E+08
        -0.44595E+07
         0.51875E+08
         0.94166E+08
         0.11024E+09
         0.13410E+09
         0.13330E+09
         0.13810E+09
         0.13957E+09
         0.15056E+09
         0.16453E+09
         0.17245E+08
        -0.83252E+07
        -0.22238E+08
        -0.83688E+08
        -0.10177E+09
        -0.79091E+08
        -0.84205E+08
        -0.10207E+09
        -0.11507E+09
        -0.12589E+09
        -0.14110E+09
        -0.15990E+09
        -0.15894E+09
        -0.11187E+09
        -0.60592E+08
        -0.10488E+08
         0.50219E+08
         0.10065E+09
         0.13483E+09
         0.13947E+09
         0.13960E+09
         0.14295E+09
         0.14824E+09
         0.15452E+09
         0.10560E+08
         0.12402E+08
         0.37636E+08
         0.57558E+07
         0.14074E+09
         0.12446E+09
         0.90404E+07
         0.28288E+08
         0.20321E+08
         0.52079E+08
        -0.16687E+08
        -0.64649E+08
        -0.21925E+08
        -0.98737E+07
        -0.11366E+09
        -0.22113E+07
         0.36888E+08
        -0.16730E+08
        -0.42687E+08
        -0.57225E+08
        -0.13903E+09
        -0.16829E+09
        -0.90826E+08
        -0.60984E+08
         0.25570E+08
        -0.28790E+08
        -0.68854E+07
        -0.75827E+08
        -0.11633E+09
        -0.14699E+09
        -0.20736E+07
        -0.32796E+07
         0.21214E+07
         0.33311E+08
         0.10132E+09
         0.91738E+07
        -0.17752E+08
        -0.83603E+08
        -0.84634E+08
        -0.10503E+09
        -0.12132E+09
        -0.13176E+09
        -0.14726E+09
        -0.54083E+08
        -0.16031E+08
         0.30910E+08
         0.56850E+08
         0.63020E+08
         0.76571E+08
         0.10358E+09
         0.13067E+09
         0.11845E+09
         0.10410E+09
         0.14858E+09
        -0.51695E+08
        -0.42396E+08
        -0.46504E+08
        -0.11875E+09
        -0.13055E+09
        -0.93265E+08
        -0.95786E+08
        -0.11287E+09
        -0.12470E+09
        -0.12939E+09
        -0.13400E+09
        -0.15499E+09
        -0.15620E+09
        -0.10639E+09
        -0.59772E+08
        -0.17869E+08
         0.30768E+08
         0.59881E+08
         0.78339E+08
         0.89783E+08
         0.96624E+08
         0.10758E+09
         0.12105E+09
         0.13612E+09
         0.12985E+08
        -0.26375E+07
        -0.14129E+08
        -0.37865E+08
         0.30489E+08
        -0.95808E+07
        -0.29064E+07
         0.25288E+08
         0.22746E+08
         0.44477E+08
        -0.47345E+08
        -0.12185E+09
        -0.61417E+08
        -0.43145E+08
        -0.13124E+09
        -0.70507E+07
         0.37433E+08
        -0.29019E+08
        -0.46781E+08
        -0.59983E+08
        -0.15654E+09
        -0.16675E+09
        -0.11852E+09
        -0.74627E+08
         0.12815E+08
        -0.45930E+08
        -0.45937E+08
        -0.91278E+08
        -0.12197E+09
        -0.13256E+09
        -0.37608E+08
        -0.40624E+08
        -0.53393E+08
        -0.68278E+08
        -0.68005E+07
        -0.73923E+08
        -0.69727E+08
        -0.10629E+09
        -0.10313E+09
        -0.11752E+09
        -0.13162E+09
        -0.13805E+09
        -0.14637E+09
        -0.77528E+08
        -0.48180E+08
        -0.22214E+08
        -0.14921E+08
        -0.18974E+08
        -0.28430E+08
        -0.36869E+08
        -0.34348E+08
        -0.39299E+08
        -0.32141E+07
         0.54981E+08
        -0.99354E+08
        -0.10180E+09
        -0.10053E+09
        -0.15029E+09
        -0.14876E+09
        -0.11884E+09
        -0.11583E+09
        -0.12607E+09
        -0.13636E+09
        -0.14046E+09
        -0.14002E+09
        -0.16105E+09
        -0.17540E+09
        -0.13740E+09
        -0.76051E+08
        -0.40129E+08
        -0.17530E+08
        -0.14306E+08
        -0.15359E+08
        -0.18280E+08
        -0.23249E+08
        -0.25011E+08
        -0.18248E+08
         0.84168E+07
         0.25287E+08
        -0.85169E+07
        -0.67457E+08
        -0.77308E+08
        -0.83198E+08
        -0.12551E+09
        -0.63943E+07
         0.26619E+08
         0.33518E+08
         0.41170E+08
        -0.72086E+08
        -0.13039E+09
        -0.93732E+08
        -0.74272E+08
        -0.12651E+09
        -0.78572E+06
         0.55027E+08
        -0.27059E+08
        -0.73773E+08
        -0.65903E+08
        -0.16061E+09
        -0.17156E+09
        -0.13124E+09
        -0.12569E+09
         0.18738E+08
        -0.66374E+08
        -0.71867E+08
        -0.78539E+08
        -0.10410E+09
        -0.10605E+09
        -0.50935E+08
        -0.64541E+08
        -0.85758E+08
        -0.13880E+09
        -0.77601E+08
        -0.10076E+09
        -0.11246E+09
        -0.10650E+09
        -0.98203E+08
        -0.10591E+09
        -0.12124E+09
        -0.13113E+09
        -0.14795E+09
        -0.86315E+08
        -0.56388E+08
        -0.44678E+08
        -0.42519E+08
        -0.45313E+08
        -0.63135E+08
        -0.92881E+08
        -0.10360E+09
        -0.12711E+09
        -0.74799E+08
        -0.57401E+08
        -0.11693E+09
        -0.12212E+09
        -0.11949E+09
        -0.13502E+09
        -0.13331E+09
        -0.11905E+09
        -0.11210E+09
        -0.11520E+09
        -0.12902E+09
        -0.14634E+09
        -0.15930E+09
        -0.17126E+09
        -0.15626E+09
        -0.12199E+09
        -0.69713E+08
        -0.44048E+08
        -0.42462E+08
        -0.44249E+08
        -0.42806E+08
        -0.49316E+08
        -0.65266E+08
        -0.80611E+08
        -0.92042E+08
        -0.92319E+08
         0.28866E+08
         0.20614E+08
        -0.60412E+07
         0.88650E+07
        -0.57533E+08
        -0.63565E+08
         0.20874E+08
         0.26874E+08
         0.41412E+08
         0.51335E+08
         0.12119E+08
        -0.14951E+08
         0.12238E+08
         0.15279E+08
        -0.44783E+08
         0.42192E+08
         0.60468E+08
         0.42334E+08
        -0.25485E+08
        -0.47414E+08
        -0.99005E+08
        -0.15020E+09
        -0.61957E+08
        -0.31137E+08
         0.46812E+08
        -0.89015E+05
         0.30172E+08
        -0.26468E+08
        -0.83286E+08
        -0.10965E+09
         0.41266E+08
         0.11503E+08
         0.46386E+08
         0.10317E+08
        -0.33235E+08
        -0.48421E+07
         0.12847E+08
        -0.30968E+08
        -0.33856E+08
        -0.61138E+08
        -0.96001E+08
        -0.13155E+09
        -0.17039E+09
        -0.31870E+08
        -0.12208E+08
        -0.63025E+07
         0.53270E+07
         0.22792E+08
         0.32193E+08
         0.14709E+08
        -0.11914E+08
        -0.37712E+08
        -0.43585E+08
        -0.10363E+09
        -0.74376E+07
        -0.78645E+07
        -0.27062E+08
        -0.45078E+08
        -0.51831E+08
        -0.44345E+08
        -0.39142E+08
        -0.57116E+08
        -0.98456E+08
        -0.14946E+09
        -0.17822E+09
        -0.15191E+09
        -0.10803E+09
        -0.73757E+08
        -0.42334E+08
        -0.19213E+08
        -0.14656E+08
        -0.16769E+08
        -0.50981E+07
         0.78118E+07
         0.42298E+07
        -0.16188E+08
        -0.51639E+08
        -0.10456E+09
         0.29509E+08
         0.44400E+08
         0.48930E+08
         0.78724E+08
        -0.26396E+07
         0.37792E+08
         0.36759E+08
         0.28366E+08
         0.48921E+08
         0.67479E+08
         0.76044E+08
         0.12504E+09
         0.82704E+08
         0.94460E+08
         0.15830E+09
         0.68231E+08
         0.65775E+08
         0.89985E+08
        -0.44696E+07
        -0.40304E+08
        -0.82337E+08
        -0.13341E+09
        -0.46902E+08
        -0.81108E+07
         0.63171E+08
         0.19568E+08
         0.13730E+09
         0.66558E+08
        -0.55370E+08
        -0.79690E+08
         0.85706E+08
         0.34413E+08
         0.11913E+09
         0.10601E+09
         0.22111E+08
         0.72973E+08
         0.90406E+08
         0.11879E+09
         0.55064E+08
        -0.21311E+08
        -0.86505E+08
        -0.13303E+09
        -0.15856E+09
        -0.21575E+08
         0.73435E+06
         0.12950E+08
         0.34846E+08
         0.71075E+08
         0.96887E+08
         0.94246E+08
         0.80027E+08
         0.73438E+08
         0.39811E+06
        -0.66572E+08
         0.94269E+08
         0.11335E+09
         0.10321E+09
         0.11696E+09
         0.87230E+08
         0.54831E+08
         0.30656E+08
        -0.17382E+08
        -0.95420E+08
        -0.16388E+09
        -0.17706E+09
        -0.14601E+09
        -0.10867E+09
        -0.78156E+08
        -0.49723E+08
        -0.17490E+08
         0.87533E+06
         0.43080E+07
         0.27487E+08
         0.56592E+08
         0.68377E+08
         0.63286E+08
         0.44926E+08
        -0.43930E+07
  
SCALARS                      strain_xx  double 1
LOOKUP_TABLE default
        -0.19405E-01
         0.25532E-01
         0.18995E-01
        -0.77020E-02
        -0.26171E-09
        -0.12037E-09
        -0.99359E-11
        -0.21145E-09
        -0.18959E-01
         0.99489E-03
         0.16482E-09
        -0.15049E-09
         0.22048E-01
        -0.21935E-01
        -0.12593E-09
        -0.33891E-10
        -0.22583E-01
        -0.89398E-02
        -0.15813E-09
        -0.31759E-10
         0.13953E-01
         0.94844E-01
         0.11727E+00
        -0.14807E-09
         0.10569E-09
         0.68931E-10
        -0.20875E-01
         0.10003E-01
        -0.24117E-09
         0.58913E-10
        -0.13344E-01
         0.12632E-02
        -0.12983E-01
        -0.51598E-10
        -0.29532E-10
        -0.13501E-09
         0.13014E-01
         0.31166E-01
        -0.30193E-10
        -0.63900E-11
         0.48297E-01
         0.46124E-01
        -0.33988E-11
        -0.22250E-10
         0.21309E-01
         0.85140E-02
        -0.61487E-10
        -0.55413E-10
         0.39576E-01
         0.12002E-10
        -0.66852E-02
        -0.99092E-10
         0.13746E-01
        -0.14341E-09
         0.61883E-01
         0.66850E-10
         0.87107E-01
         0.61071E-01
         0.18147E-09
         0.17732E-09
         0.11858E-01
        -0.14023E-02
         0.50744E-10
        -0.13803E-09
         0.11016E-02
        -0.33798E-10
        -0.99549E-02
        -0.12373E-09
        -0.10569E-01
         0.33515E-01
         0.25693E-09
        -0.15611E-10
         0.71503E-01
         0.22179E-09
         0.26761E-01
        -0.13964E-09
         0.85565E-01
         0.70336E-10
         0.65834E-01
         0.14167E-09
        -0.73382E-01
         0.19358E-01
         0.10820E-09
         0.13666E-09
         0.31568E-01
        -0.55110E-10
        -0.13931E-01
        -0.14262E-09
        -0.35637E-01
        -0.23861E-09
        -0.33063E-01
         0.11750E-01
        -0.22358E-09
        -0.15369E-09
         0.27070E-01
         0.18856E-09
         0.55699E-02
         0.89682E-10
        -0.13955E-02
         0.48197E-10
         0.34795E-02
         0.46648E-02
         0.11361E-09
        -0.24562E-09
        -0.57400E-01
        -0.22428E-01
         0.36467E-09
        -0.88729E-09
        -0.55282E-02
         0.25599E-09
         0.50181E-01
         0.19983E-09
         0.13974E+00
         0.19524E-09
         0.16482E+00
         0.92990E-10
         0.66445E-01
        -0.29362E-10
         0.39546E-01
        -0.45509E-10
        -0.24549E-01
         0.42753E-10
        -0.63635E+00
         0.78531E-10
        -0.72732E+00
         0.10156E-09
        -0.22531E+00
        -0.80406E-10
        -0.61152E-01
        -0.93246E-10
         0.26009E-01
        -0.18182E-10
         0.57916E-01
        -0.74788E-10
         0.42884E-01
        -0.16262E-09
         0.63190E-02
        -0.19844E-09
        -0.42920E-01
        -0.31764E-09
        -0.37649E-01
        -0.23860E-09
         0.83556E-02
         0.56960E-10
         0.21381E-01
         0.14612E-09
         0.11967E-02
         0.16350E-09
        -0.26516E-02
         0.24550E-09
         0.37904E-02
         0.42090E-09
         0.17496E-02
         0.38439E-09
        -0.92368E-02
         0.37064E-09
         0.46543E-02
         0.39347E-01
         0.80955E-01
         0.48546E-01
         0.12316E+00
         0.92869E-01
         0.18530E-01
         0.24494E-02
        -0.16169E-01
         0.43023E-02
         0.25675E-01
         0.33163E-01
         0.31043E-01
         0.30738E-01
         0.55938E-01
        -0.19271E-01
        -0.77532E-02
         0.46827E-02
         0.80953E-02
         0.20699E-01
         0.26025E-01
         0.23797E-01
         0.15059E-01
         0.60391E-02
         0.18456E-01
        -0.55025E-02
         0.36910E-01
         0.40285E-01
         0.38151E-01
         0.31841E-01
         0.25404E-02
        -0.71332E-02
         0.40762E-01
         0.86821E-01
         0.16702E+00
         0.13219E+00
         0.73930E-01
         0.60683E-01
         0.54630E-01
         0.24496E-01
        -0.44335E-01
        -0.81352E-02
         0.11827E-01
         0.56040E-02
        -0.32833E-02
        -0.21859E-01
        -0.17759E-01
         0.16944E-01
         0.84915E-01
         0.15764E+00
         0.18148E+00
         0.11983E+00
         0.24061E+00
         0.18957E+00
         0.20064E+00
         0.11962E+00
         0.57774E-01
         0.41959E-01
         0.65771E-01
         0.63343E-01
        -0.21780E-01
        -0.24985E+00
        -0.36180E+00
        -0.15650E+00
        -0.63745E-01
        -0.24208E-01
        -0.68453E-02
        -0.12025E-02
         0.42447E-02
        -0.91172E-03
        -0.48473E-01
        -0.64226E-01
         0.23422E-01
         0.18259E+00
         0.31521E+00
         0.28418E+00
         0.15316E+00
         0.12251E+00
         0.37305E-02
         0.16870E-01
         0.63775E-01
         0.29128E-01
         0.10583E+00
         0.74325E-01
        -0.32355E-02
         0.14858E-01
        -0.12571E-02
         0.10284E-01
         0.11007E-01
        -0.37674E-02
        -0.10217E-01
         0.30211E-01
         0.19793E-01
        -0.14749E-01
        -0.97243E-03
         0.55552E-03
        -0.90110E-02
        -0.66208E-02
        -0.38183E-01
        -0.51186E-01
        -0.28425E-01
        -0.15481E-01
        -0.14928E-02
        -0.18856E-01
         0.77035E-02
        -0.19493E-01
        -0.38543E-01
        -0.14564E-01
        -0.72395E-02
        -0.22701E-01
         0.28449E-01
         0.61179E-01
         0.14215E+00
         0.10901E+00
         0.42592E-01
        -0.79417E-02
        -0.46783E-01
        -0.79941E-01
        -0.10506E+00
        -0.83618E-01
        -0.64096E-01
        -0.20997E-01
        -0.20829E-01
        -0.25586E-01
        -0.19637E-01
         0.18147E-01
         0.80077E-01
         0.13068E+00
         0.14850E+00
         0.92351E-01
         0.20526E+00
         0.16491E+00
         0.17778E+00
         0.91152E-01
         0.18952E-01
        -0.12907E-01
        -0.10732E-01
        -0.39870E-01
        -0.10851E+00
        -0.13884E+00
        -0.10891E+00
        -0.11275E+00
        -0.13314E+00
        -0.13075E+00
        -0.10730E+00
        -0.69252E-01
        -0.30359E-01
        -0.27923E-02
        -0.17329E-01
        -0.15145E-01
         0.56060E-01
         0.18251E+00
         0.28286E+00
         0.27790E+00
         0.16955E+00
         0.12581E+00
        -0.93465E-03
        -0.73775E-02
        -0.86680E-02
        -0.13121E-01
        -0.17071E-01
        -0.32749E-01
        -0.48750E-02
         0.62550E-02
         0.24429E-02
         0.11644E-02
         0.23424E-02
        -0.65601E-02
        -0.15817E-01
         0.82262E-02
         0.22226E-02
        -0.49681E-02
        -0.65850E-03
        -0.53364E-02
        -0.11683E-01
        -0.14066E-01
        -0.37234E-01
        -0.45868E-01
        -0.22267E-01
        -0.13428E-01
        -0.93408E-02
        -0.10312E-01
        -0.81968E-02
        -0.24534E-01
        -0.34324E-01
        -0.20162E-01
        -0.11668E-01
        -0.99602E-02
        -0.17086E-01
        -0.34119E-01
        -0.15966E-01
        -0.13971E-01
        -0.15041E-01
        -0.19138E-01
        -0.45889E-01
        -0.63327E-01
        -0.73951E-01
        -0.56548E-01
        -0.48151E-01
        -0.10932E-01
        -0.49648E-02
        -0.15371E-02
        -0.65498E-02
        -0.13772E-01
        -0.28573E-01
        -0.52392E-01
        -0.69343E-01
        -0.55863E-01
        -0.21640E-01
        -0.19571E-01
        -0.25924E-01
        -0.22390E-01
        -0.20262E-01
        -0.20915E-01
        -0.14845E-01
        -0.40308E-01
        -0.98457E-01
        -0.11384E+00
        -0.95910E-01
        -0.92767E-01
        -0.95312E-01
        -0.92589E-01
        -0.69861E-01
        -0.32959E-01
        -0.64020E-02
         0.54585E-02
         0.73764E-02
         0.15298E-02
        -0.13750E-01
        -0.39432E-01
        -0.71055E-01
        -0.88257E-01
        -0.67254E-01
        -0.35756E-01
        -0.36162E-02
        -0.73585E-02
        -0.14709E-01
        -0.12952E-01
        -0.27629E-01
        -0.32459E-01
        -0.49936E-02
        -0.35920E-02
        -0.46354E-02
        -0.97068E-02
        -0.37419E-02
        -0.64806E-02
        -0.10965E-01
        -0.45966E-02
        -0.53237E-02
        -0.44792E-02
        -0.75311E-02
        -0.68472E-02
        -0.11245E-01
        -0.15487E-01
        -0.28016E-01
        -0.31943E-01
        -0.16477E-01
        -0.10759E-01
        -0.17217E-01
        -0.68514E-02
        -0.15947E-01
        -0.26282E-01
        -0.29558E-01
        -0.21086E-01
        -0.87526E-02
        -0.45560E-02
        -0.18182E-01
        -0.32890E-01
        -0.32880E-01
        -0.26331E-01
        -0.17239E-01
        -0.19698E-01
        -0.35707E-01
        -0.43019E-01
        -0.43351E-01
        -0.32482E-01
        -0.29588E-01
        -0.74618E-02
        -0.10931E-02
         0.44359E-02
        -0.60182E-03
        -0.12912E-01
        -0.32181E-01
        -0.51440E-01
        -0.59638E-01
        -0.47417E-01
        -0.46901E-01
        -0.37118E-01
        -0.47483E-01
        -0.32656E-01
        -0.20442E-01
        -0.15637E-01
        -0.11073E-01
        -0.27151E-01
        -0.62686E-01
        -0.74423E-01
        -0.61258E-01
        -0.45768E-01
        -0.47386E-01
        -0.56812E-01
        -0.44714E-01
        -0.19528E-01
        -0.28015E-02
         0.51283E-02
         0.12239E-01
         0.71266E-02
        -0.16702E-01
        -0.48990E-01
        -0.70858E-01
        -0.71205E-01
        -0.53138E-01
        -0.38460E-01
        -0.88133E-03
        -0.11753E-02
        -0.23726E-02
        -0.21841E-02
        -0.64883E-02
        -0.82333E-02
        -0.15938E-02
        -0.22468E-02
        -0.32534E-02
        -0.71365E-02
        -0.21806E-02
        -0.34953E-02
        -0.43571E-02
        -0.39239E-02
        -0.51015E-02
        -0.24173E-02
        -0.57081E-02
        -0.24626E-02
        -0.57877E-02
        -0.92869E-02
        -0.13039E-01
        -0.15541E-01
        -0.63417E-02
        -0.46464E-02
        -0.12540E-01
        -0.27462E-02
        -0.11601E-01
        -0.18860E-01
        -0.20813E-01
        -0.14120E-01
        -0.27373E-02
        -0.11489E-02
        -0.45802E-02
        -0.74088E-02
        -0.70609E-02
        -0.56611E-02
        -0.49649E-02
        -0.14725E-01
        -0.24524E-01
        -0.28273E-01
        -0.25058E-01
        -0.17848E-01
        -0.14758E-01
        -0.17715E-02
         0.13838E-02
         0.43693E-02
         0.18251E-02
        -0.24233E-02
        -0.72731E-02
        -0.11599E-01
        -0.14031E-01
        -0.11633E-01
        -0.10506E-01
        -0.10893E-01
        -0.11889E-01
        -0.11748E-01
        -0.95320E-02
        -0.79299E-02
        -0.77885E-02
        -0.18732E-01
        -0.35335E-01
        -0.38735E-01
        -0.28551E-01
        -0.15060E-01
        -0.17055E-01
        -0.25600E-01
        -0.19018E-01
        -0.55510E-02
         0.24360E-02
         0.60400E-02
         0.93541E-02
         0.68444E-02
        -0.21861E-02
        -0.11047E-01
        -0.16112E-01
        -0.17240E-01
        -0.15031E-01
        -0.12671E-01
         0.31948E-03
        -0.12426E-03
         0.41440E-03
         0.71740E-03
        -0.67013E-03
        -0.82956E-03
        -0.75049E-03
        -0.53615E-03
        -0.87835E-03
        -0.29008E-02
        -0.12635E-02
        -0.23515E-02
        -0.28367E-02
        -0.19713E-02
        -0.35023E-02
        -0.73318E-03
        -0.24391E-02
        -0.16115E-03
        -0.17555E-02
        -0.39443E-02
        -0.33281E-02
        -0.55410E-02
         0.21959E-03
        -0.57701E-03
        -0.59018E-02
        -0.19087E-03
        -0.56240E-02
        -0.95725E-02
        -0.11479E-01
        -0.71432E-02
        -0.26445E-03
         0.43672E-03
         0.23592E-03
         0.76629E-03
        -0.12581E-03
        -0.37362E-03
        -0.22116E-02
        -0.83487E-02
        -0.13340E-01
        -0.15984E-01
        -0.14507E-01
        -0.10035E-01
        -0.67654E-02
         0.19538E-02
         0.28087E-02
         0.36271E-02
         0.19266E-02
         0.79234E-03
         0.87717E-03
         0.13387E-02
         0.84574E-03
        -0.94479E-04
        -0.52416E-03
        -0.34475E-02
        -0.15487E-02
        -0.55967E-02
        -0.60993E-02
        -0.46291E-02
        -0.52187E-02
        -0.11529E-01
        -0.18555E-01
        -0.19776E-01
        -0.14751E-01
        -0.67820E-02
        -0.55915E-02
        -0.77673E-02
        -0.33998E-02
         0.30038E-02
         0.59223E-02
         0.64040E-02
         0.63680E-02
         0.45698E-02
         0.20772E-02
         0.17949E-02
         0.22782E-02
         0.89570E-03
        -0.16111E-02
        -0.37980E-02
         0.32808E-03
        -0.48620E-03
        -0.29886E-03
         0.35608E-03
        -0.13696E-02
        -0.12252E-02
        -0.81790E-03
        -0.17662E-03
        -0.15847E-03
        -0.10290E-02
        -0.10840E-02
        -0.20200E-02
        -0.27094E-02
        -0.10419E-02
        -0.21497E-02
        -0.21412E-03
        -0.92988E-03
         0.13278E-03
        -0.12605E-03
        -0.14744E-02
         0.46153E-03
        -0.15002E-02
         0.24806E-02
         0.88266E-03
        -0.24462E-02
         0.64095E-03
        -0.23496E-02
        -0.43012E-02
        -0.59840E-02
        -0.34420E-02
        -0.46431E-05
         0.75776E-03
         0.23306E-03
         0.39662E-03
        -0.10998E-02
        -0.12129E-02
        -0.25075E-02
        -0.40927E-02
        -0.65894E-02
        -0.87584E-02
        -0.89023E-02
        -0.60871E-02
        -0.33357E-02
         0.30384E-02
         0.30478E-02
         0.30371E-02
         0.14080E-02
         0.43473E-03
         0.35409E-03
         0.52499E-03
         0.11056E-03
        -0.50896E-03
        -0.15749E-02
        -0.38573E-02
        -0.22385E-02
        -0.52981E-02
        -0.53245E-02
        -0.35263E-02
        -0.32581E-02
        -0.62738E-02
        -0.99396E-02
        -0.11745E-01
        -0.10190E-01
        -0.53207E-02
        -0.22207E-02
        -0.86707E-03
         0.24691E-02
         0.56376E-02
         0.65214E-02
         0.60036E-02
         0.49251E-02
         0.31424E-02
         0.12973E-02
         0.56239E-03
         0.59996E-03
        -0.31220E-04
        -0.16099E-02
        -0.36569E-02
         0.25617E-03
        -0.55245E-03
        -0.67330E-03
         0.43497E-04
        -0.19510E-02
        -0.19175E-02
        -0.76715E-03
        -0.11982E-03
        -0.37332E-04
        -0.35557E-03
        -0.88957E-03
        -0.15983E-02
        -0.23734E-02
        -0.53502E-03
        -0.10786E-02
        -0.10991E-03
        -0.39979E-03
         0.95410E-04
         0.43080E-03
        -0.37405E-03
         0.18283E-02
         0.39491E-03
         0.28969E-02
         0.12153E-02
        -0.99070E-03
         0.76438E-03
        -0.85960E-03
        -0.19327E-02
        -0.32348E-02
        -0.15720E-02
        -0.89389E-04
         0.66807E-03
        -0.10559E-03
        -0.33909E-03
        -0.17928E-02
        -0.16622E-02
        -0.24006E-02
        -0.18079E-02
        -0.34420E-02
        -0.54085E-02
        -0.59977E-02
        -0.35998E-02
        -0.12596E-02
         0.29182E-02
         0.26695E-02
         0.23854E-02
         0.86560E-03
        -0.14857E-03
        -0.51758E-03
        -0.76960E-03
        -0.13942E-02
        -0.16210E-02
        -0.24423E-02
        -0.42849E-02
        -0.27932E-02
        -0.47708E-02
        -0.44742E-02
        -0.25945E-02
        -0.14007E-02
        -0.29002E-02
        -0.61918E-02
        -0.91079E-02
        -0.85477E-02
        -0.37635E-02
         0.65543E-04
         0.22545E-02
         0.44612E-02
         0.57363E-02
         0.57135E-02
         0.50182E-02
         0.38002E-02
         0.20210E-02
         0.12106E-03
        -0.10327E-02
        -0.14585E-02
        -0.20582E-02
        -0.30273E-02
        -0.43172E-02
         0.20816E-03
        -0.56321E-03
        -0.67037E-03
         0.30264E-04
        -0.19718E-02
        -0.20114E-02
        -0.83999E-03
        -0.17717E-03
        -0.48923E-04
        -0.16130E-03
        -0.91986E-03
        -0.15568E-02
        -0.23703E-02
        -0.40427E-03
        -0.71694E-03
        -0.87780E-04
        -0.25756E-03
         0.11221E-03
         0.74196E-03
         0.17476E-03
         0.27613E-02
         0.16402E-02
         0.34738E-02
         0.15414E-02
        -0.43175E-03
         0.95975E-03
        -0.31843E-03
        -0.96376E-03
        -0.18693E-02
        -0.61720E-03
        -0.31861E-04
         0.83403E-03
        -0.85604E-04
        -0.38164E-03
        -0.18007E-02
        -0.16453E-02
        -0.23494E-02
        -0.99747E-03
        -0.22309E-02
        -0.38249E-02
        -0.42335E-02
        -0.19350E-02
         0.19231E-03
         0.33121E-02
         0.29965E-02
         0.26868E-02
         0.10233E-02
        -0.14558E-03
        -0.60285E-03
        -0.89764E-03
        -0.15802E-02
        -0.17839E-02
        -0.24564E-02
        -0.42444E-02
        -0.27996E-02
        -0.46234E-02
        -0.43023E-02
        -0.23670E-02
        -0.71864E-03
        -0.17797E-02
        -0.50256E-02
        -0.78772E-02
        -0.70840E-02
        -0.19590E-02
         0.21585E-02
         0.44358E-02
         0.59321E-02
         0.64161E-02
         0.60637E-02
         0.53727E-02
         0.42384E-02
         0.23430E-02
         0.75857E-04
        -0.13444E-02
        -0.17659E-02
        -0.23484E-02
        -0.33316E-02
        -0.44522E-02
         0.15506E-03
        -0.70588E-03
        -0.70579E-03
         0.71345E-04
        -0.19950E-02
        -0.19494E-02
        -0.10825E-02
        -0.29067E-03
        -0.66974E-04
        -0.13159E-03
        -0.11749E-02
        -0.19212E-02
        -0.27700E-02
        -0.49563E-03
        -0.82186E-03
        -0.71222E-05
        -0.20777E-03
         0.14215E-03
         0.10249E-02
         0.40595E-03
         0.34663E-02
         0.21805E-02
         0.44283E-02
         0.20666E-02
        -0.25932E-03
         0.13985E-02
        -0.17931E-03
        -0.66203E-03
        -0.14586E-02
        -0.31007E-03
         0.11610E-03
         0.12892E-02
         0.29670E-04
        -0.17036E-03
        -0.18250E-02
        -0.17583E-02
        -0.26640E-02
        -0.82309E-03
        -0.19015E-02
        -0.33935E-02
        -0.37481E-02
        -0.14479E-02
         0.67145E-03
         0.43673E-02
         0.40348E-02
         0.37268E-02
         0.16531E-02
         0.16879E-03
        -0.36071E-03
        -0.51105E-03
        -0.11187E-02
        -0.15071E-02
        -0.24587E-02
        -0.44088E-02
        -0.30008E-02
        -0.51647E-02
        -0.47914E-02
        -0.28595E-02
        -0.91289E-03
        -0.15700E-02
        -0.47831E-02
        -0.76489E-02
        -0.67415E-02
        -0.14800E-02
         0.28018E-02
         0.53879E-02
         0.71983E-02
         0.79816E-02
         0.77138E-02
         0.69654E-02
         0.57550E-02
         0.35770E-02
         0.80394E-03
        -0.93365E-03
        -0.11686E-02
        -0.16826E-02
        -0.30051E-02
        -0.45136E-02
         0.13810E-03
        -0.79410E-03
        -0.74422E-03
         0.98152E-04
        -0.20097E-02
        -0.18824E-02
        -0.11895E-02
        -0.31938E-03
        -0.53614E-04
        -0.10091E-03
        -0.12646E-02
        -0.20615E-02
        -0.29909E-02
        -0.50015E-03
        -0.80492E-03
         0.33496E-04
        -0.18179E-03
         0.15570E-03
         0.10233E-02
         0.29630E-03
         0.33382E-02
         0.17761E-02
         0.45276E-02
         0.21441E-02
        -0.26379E-03
         0.15140E-02
        -0.10314E-03
        -0.70107E-03
        -0.18839E-02
        -0.56771E-03
         0.15680E-03
         0.14107E-02
         0.99621E-04
         0.36282E-05
        -0.18215E-02
        -0.18215E-02
        -0.28632E-02
        -0.69901E-03
        -0.19543E-02
        -0.40580E-02
        -0.50319E-02
        -0.24487E-02
        -0.39640E-04
         0.46091E-02
         0.43102E-02
         0.39801E-02
         0.17840E-02
         0.26277E-03
        -0.15341E-03
        -0.12851E-03
        -0.68571E-03
        -0.12531E-02
        -0.23984E-02
        -0.45242E-02
        -0.30278E-02
        -0.55146E-02
        -0.51745E-02
        -0.31120E-02
        -0.90346E-03
        -0.14127E-02
        -0.49282E-02
        -0.91659E-02
        -0.92122E-02
        -0.33577E-02
         0.14940E-02
         0.47493E-02
         0.69944E-02
         0.81542E-02
         0.81016E-02
         0.73781E-02
         0.60940E-02
         0.38069E-02
         0.10610E-02
        -0.44951E-03
        -0.43922E-03
        -0.10392E-02
        -0.26925E-02
        -0.45134E-02
         0.20841E-03
        -0.73751E-03
        -0.69035E-03
         0.15246E-03
        -0.19661E-02
        -0.18456E-02
        -0.10808E-02
        -0.21993E-03
         0.52353E-05
        -0.12442E-04
        -0.11031E-02
        -0.18189E-02
        -0.29257E-02
        -0.37737E-03
        -0.64975E-03
         0.72253E-05
        -0.14669E-03
         0.17863E-03
         0.93221E-03
         0.23668E-03
         0.31183E-02
         0.15381E-02
         0.42633E-02
         0.19899E-02
        -0.17685E-03
         0.13885E-02
         0.18436E-04
        -0.51889E-03
        -0.16418E-02
        -0.53558E-03
         0.96152E-04
         0.12815E-02
         0.12610E-03
         0.96872E-04
        -0.17374E-02
        -0.17640E-02
        -0.28734E-02
        -0.55289E-03
        -0.16394E-02
        -0.35523E-02
        -0.44272E-02
        -0.22052E-02
        -0.18185E-03
         0.43402E-02
         0.40749E-02
         0.37575E-02
         0.15937E-02
         0.13633E-03
        -0.10104E-03
         0.57088E-04
        -0.52201E-03
        -0.11681E-02
        -0.22823E-02
        -0.45425E-02
        -0.29658E-02
        -0.57489E-02
        -0.53363E-02
        -0.26930E-02
        -0.67900E-03
        -0.15184E-02
        -0.45625E-02
        -0.83968E-02
        -0.81992E-02
        -0.29338E-02
         0.97100E-03
         0.43471E-02
         0.66280E-02
         0.77183E-02
         0.76678E-02
         0.69986E-02
         0.58072E-02
         0.34787E-02
         0.76013E-03
        -0.32385E-03
        -0.55198E-04
        -0.83219E-03
        -0.26469E-02
        -0.45289E-02
         0.28313E-03
        -0.58604E-03
        -0.55238E-03
         0.19016E-03
        -0.18356E-02
        -0.18494E-02
        -0.85592E-03
        -0.98686E-04
         0.63282E-04
         0.84232E-04
        -0.83040E-03
        -0.13640E-02
        -0.25112E-02
        -0.21224E-03
        -0.36505E-03
         0.80839E-05
        -0.95495E-04
         0.20596E-03
         0.93771E-03
         0.44279E-03
         0.31831E-02
         0.20548E-02
         0.41210E-02
         0.19082E-02
         0.35004E-04
         0.13053E-02
         0.20001E-03
        -0.24081E-04
        -0.51468E-03
         0.60484E-04
         0.59649E-04
         0.11815E-02
         0.89684E-04
         0.22690E-04
        -0.15037E-02
        -0.15050E-02
        -0.25735E-02
        -0.19878E-03
        -0.74688E-03
        -0.16472E-02
        -0.16640E-02
        -0.19326E-03
         0.10410E-02
         0.41048E-02
         0.38129E-02
         0.34961E-02
         0.14227E-02
        -0.49437E-05
        -0.23905E-03
        -0.12625E-03
        -0.75680E-03
        -0.13084E-02
        -0.20164E-02
        -0.44333E-02
        -0.26533E-02
        -0.53438E-02
        -0.46728E-02
        -0.18453E-02
        -0.13549E-03
        -0.95618E-03
        -0.28514E-02
        -0.45127E-02
        -0.34333E-02
         0.50570E-03
         0.30136E-02
         0.49501E-02
         0.66849E-02
         0.74973E-02
         0.72592E-02
         0.65075E-02
         0.54189E-02
         0.31674E-02
         0.42385E-03
        -0.58724E-03
        -0.34366E-03
        -0.12069E-02
        -0.28886E-02
        -0.45783E-02
         0.28788E-03
        -0.46615E-03
        -0.39751E-03
         0.18333E-03
        -0.16375E-02
        -0.18289E-02
        -0.72124E-03
        -0.44955E-04
         0.76880E-04
         0.12033E-03
        -0.65375E-03
        -0.10624E-02
        -0.21407E-02
        -0.69784E-04
        -0.44882E-04
         0.41882E-04
        -0.81384E-04
         0.22883E-03
         0.95435E-03
         0.57572E-03
         0.32357E-02
         0.24184E-02
         0.39895E-02
         0.18546E-02
         0.13104E-03
         0.12581E-02
         0.37239E-03
         0.30783E-03
         0.11808E-03
         0.39747E-03
         0.60911E-04
         0.10849E-02
         0.40721E-04
        -0.13857E-03
        -0.11658E-02
        -0.11212E-02
        -0.21593E-02
         0.28859E-03
         0.56581E-04
        -0.40974E-03
        -0.18111E-03
         0.81018E-03
         0.17278E-02
         0.38858E-02
         0.35013E-02
         0.30735E-02
         0.11707E-02
        -0.13537E-03
        -0.43858E-03
        -0.49174E-03
        -0.11628E-02
        -0.15130E-02
        -0.16103E-02
        -0.41542E-02
        -0.20049E-02
        -0.44406E-02
        -0.38150E-02
        -0.12571E-02
         0.47957E-03
         0.14672E-03
        -0.87892E-03
        -0.15560E-02
        -0.88972E-03
         0.17915E-02
         0.40778E-02
         0.54350E-02
         0.67209E-02
         0.72674E-02
         0.68669E-02
         0.59349E-02
         0.46928E-02
         0.26295E-02
         0.16373E-03
        -0.97844E-03
        -0.10090E-02
        -0.18041E-02
        -0.30810E-02
        -0.44578E-02
         0.22012E-03
        -0.54651E-03
        -0.44975E-03
         0.13291E-03
        -0.16290E-02
        -0.17921E-02
        -0.83409E-03
        -0.97933E-04
         0.40732E-04
         0.85110E-04
        -0.74305E-03
        -0.12071E-02
        -0.22979E-02
        -0.72228E-04
         0.22310E-05
         0.20723E-04
        -0.11958E-03
         0.21857E-03
         0.90584E-03
         0.46325E-03
         0.31223E-02
         0.21713E-02
         0.38955E-02
         0.17974E-02
         0.27041E-04
         0.12041E-02
         0.37509E-03
         0.12106E-03
        -0.46814E-03
         0.89954E-04
         0.47093E-04
         0.10213E-02
         0.35804E-04
        -0.19887E-03
        -0.11784E-02
        -0.11308E-02
        -0.21859E-02
         0.35584E-03
        -0.17904E-03
        -0.12946E-02
        -0.16827E-02
        -0.32358E-03
         0.11074E-02
         0.38058E-02
         0.34131E-02
         0.29507E-02
         0.10758E-02
        -0.16663E-03
        -0.48745E-03
        -0.63355E-03
        -0.13004E-02
        -0.15365E-02
        -0.15934E-02
        -0.40166E-02
        -0.18272E-02
        -0.42330E-02
        -0.39741E-02
        -0.14990E-02
         0.58873E-03
         0.37721E-03
        -0.12255E-02
        -0.31658E-02
        -0.34595E-02
        -0.37588E-03
         0.31001E-02
         0.51504E-02
         0.65064E-02
         0.70770E-02
         0.67466E-02
         0.58611E-02
         0.45341E-02
         0.24615E-02
         0.10499E-03
        -0.11250E-02
        -0.13440E-02
        -0.19989E-02
        -0.29159E-02
        -0.41830E-02
         0.18408E-03
        -0.63911E-03
        -0.57550E-03
         0.92497E-04
        -0.17558E-02
        -0.18322E-02
        -0.92161E-03
        -0.12776E-03
         0.27837E-04
         0.11218E-03
        -0.82580E-03
        -0.13550E-02
        -0.24615E-02
        -0.89324E-04
        -0.45733E-04
        -0.32874E-05
        -0.10865E-03
         0.19110E-03
         0.90708E-03
         0.40869E-03
         0.31036E-02
         0.19161E-02
         0.40374E-02
         0.18538E-02
         0.42053E-04
         0.12343E-02
         0.40875E-03
         0.66847E-04
        -0.79995E-03
        -0.73402E-04
         0.20064E-04
         0.10316E-02
         0.17535E-04
        -0.21132E-03
        -0.13841E-02
        -0.13408E-02
        -0.23530E-02
         0.34928E-03
        -0.36435E-03
        -0.19257E-02
        -0.28259E-02
        -0.11857E-02
         0.57058E-03
         0.39897E-02
         0.35740E-02
         0.30668E-02
         0.11005E-02
        -0.16418E-03
        -0.50164E-03
        -0.65182E-03
        -0.12833E-02
        -0.15230E-02
        -0.18194E-02
        -0.40993E-02
        -0.21003E-02
        -0.44977E-02
        -0.43189E-02
        -0.18445E-02
         0.43371E-03
         0.35398E-03
        -0.16878E-02
        -0.47056E-02
        -0.57589E-02
        -0.23143E-02
         0.20482E-02
         0.47144E-02
         0.65531E-02
         0.73872E-02
         0.71524E-02
         0.62682E-02
         0.47571E-02
         0.25338E-02
         0.14511E-03
        -0.11708E-02
        -0.14062E-02
        -0.19331E-02
        -0.28191E-02
        -0.41655E-02
         0.27690E-03
        -0.50037E-03
        -0.49986E-03
         0.13887E-03
        -0.17592E-02
        -0.19430E-02
        -0.71774E-03
        -0.61785E-05
         0.95969E-04
         0.19205E-03
        -0.63971E-03
        -0.11310E-02
        -0.21610E-02
        -0.56863E-05
        -0.33791E-05
         0.91705E-04
        -0.37186E-04
         0.23771E-03
         0.11211E-02
         0.57360E-03
         0.35440E-02
         0.22361E-02
         0.45357E-02
         0.21703E-02
         0.14049E-03
         0.14779E-02
         0.47205E-03
         0.24298E-03
        -0.47873E-03
         0.11921E-03
         0.96475E-04
         0.11905E-02
         0.57217E-04
        -0.19430E-03
        -0.12935E-02
        -0.12211E-02
        -0.21667E-02
         0.46332E-03
        -0.25330E-04
        -0.14001E-02
        -0.23747E-02
        -0.90185E-03
         0.80075E-03
         0.44314E-02
         0.38636E-02
         0.31907E-02
         0.11702E-02
        -0.10295E-03
        -0.46587E-03
        -0.63993E-03
        -0.13425E-02
        -0.16430E-02
        -0.17086E-02
        -0.41838E-02
        -0.20688E-02
        -0.44664E-02
        -0.40332E-02
        -0.16607E-02
         0.37504E-03
         0.60421E-03
        -0.92988E-03
        -0.39830E-02
        -0.55211E-02
        -0.24087E-02
         0.21568E-02
         0.52756E-02
         0.73525E-02
         0.81868E-02
         0.78283E-02
         0.66724E-02
         0.48071E-02
         0.25181E-02
         0.22931E-03
        -0.11378E-02
        -0.13970E-02
        -0.20490E-02
        -0.31939E-02
        -0.45213E-02
         0.36886E-03
        -0.25829E-03
        -0.25417E-03
         0.24530E-03
        -0.15026E-02
        -0.18824E-02
        -0.44650E-03
         0.10498E-03
         0.14863E-03
         0.23774E-03
        -0.41740E-03
        -0.79911E-03
        -0.16421E-02
         0.60123E-04
         0.14276E-05
         0.20724E-03
         0.14006E-04
         0.31874E-03
         0.12452E-02
         0.71279E-03
         0.36699E-02
         0.25235E-02
         0.46196E-02
         0.23263E-02
         0.21543E-03
         0.16767E-02
         0.51038E-03
         0.46341E-03
         0.10621E-03
         0.40047E-03
         0.27924E-03
         0.14149E-02
         0.20842E-03
        -0.74177E-04
        -0.87272E-03
        -0.79531E-03
        -0.17084E-02
         0.57061E-03
         0.51419E-03
        -0.25915E-03
        -0.74741E-03
         0.20207E-03
         0.14135E-02
         0.45675E-02
         0.40347E-02
         0.33699E-02
         0.13970E-02
         0.13783E-03
        -0.24582E-03
        -0.47632E-03
        -0.12976E-02
        -0.16528E-02
        -0.11937E-02
        -0.38978E-02
        -0.15855E-02
        -0.39036E-02
        -0.32085E-02
        -0.11122E-02
         0.27331E-03
         0.77232E-03
         0.45136E-03
        -0.14211E-02
        -0.25177E-02
        -0.23965E-03
         0.31845E-02
         0.55770E-02
         0.73351E-02
         0.80463E-02
         0.77052E-02
         0.66864E-02
         0.49213E-02
         0.27190E-02
         0.54601E-03
        -0.83054E-03
        -0.12162E-02
        -0.21204E-02
        -0.34795E-02
        -0.46199E-02
         0.50130E-03
        -0.70357E-04
         0.18240E-03
         0.54900E-03
        -0.81888E-03
        -0.13031E-02
        -0.36148E-03
         0.22083E-03
         0.23071E-03
         0.38551E-03
        -0.33426E-03
        -0.70944E-03
        -0.15434E-02
         0.19823E-03
         0.13650E-03
         0.21727E-03
         0.55665E-04
         0.47013E-03
         0.10636E-02
         0.64381E-03
         0.31037E-02
         0.21267E-02
         0.40133E-02
         0.20433E-02
         0.40262E-03
         0.15648E-02
         0.79409E-03
         0.91409E-03
         0.63463E-03
         0.53958E-03
         0.47500E-03
         0.14810E-02
         0.56160E-03
         0.44363E-03
        -0.35750E-04
        -0.16008E-03
        -0.14198E-02
         0.10284E-02
         0.14326E-02
         0.98087E-03
         0.43149E-03
         0.64524E-03
         0.13260E-02
         0.41414E-02
         0.38750E-02
         0.34335E-02
         0.16023E-02
         0.47726E-03
         0.32699E-03
         0.29332E-03
        -0.48981E-03
        -0.99625E-03
        -0.99920E-04
        -0.30319E-02
        -0.61544E-03
        -0.34002E-02
        -0.29118E-02
        -0.80798E-03
         0.48820E-03
         0.14850E-02
         0.25254E-02
         0.15727E-02
        -0.39980E-03
         0.30439E-04
         0.27081E-02
         0.45554E-02
         0.61011E-02
         0.68536E-02
         0.67790E-02
         0.63040E-02
         0.50217E-02
         0.29228E-02
         0.87852E-03
         0.14387E-04
        -0.12072E-03
        -0.11834E-02
        -0.27542E-02
        -0.39284E-02
         0.76101E-03
         0.35187E-03
         0.13272E-02
         0.12973E-02
         0.92995E-03
         0.98070E-04
        -0.24091E-03
         0.47007E-03
         0.37692E-03
         0.68315E-03
        -0.10024E-03
        -0.41278E-03
        -0.13709E-02
         0.65356E-03
         0.86838E-03
         0.10051E-03
         0.37937E-04
         0.81022E-03
         0.54924E-03
         0.40125E-03
         0.20007E-02
         0.14510E-02
         0.26113E-02
         0.12155E-02
         0.75091E-03
         0.10064E-02
         0.15101E-02
         0.19320E-02
         0.19342E-02
         0.85899E-03
         0.71715E-03
         0.12349E-02
         0.13833E-02
         0.17336E-02
         0.23406E-02
         0.17587E-02
        -0.54477E-03
         0.23210E-02
         0.34422E-02
         0.36925E-02
         0.33985E-02
         0.20499E-02
         0.13437E-02
         0.29342E-02
         0.31363E-02
         0.30552E-02
         0.15785E-02
         0.98903E-03
         0.15936E-02
         0.20904E-02
         0.13751E-02
         0.56867E-03
         0.30579E-02
        -0.97604E-03
         0.26450E-02
        -0.15516E-02
        -0.21642E-02
         0.20164E-04
         0.18640E-02
         0.37457E-02
         0.66770E-02
         0.74289E-02
         0.47825E-02
         0.18049E-02
         0.19639E-02
         0.31670E-02
         0.40302E-02
         0.45544E-02
         0.48501E-02
         0.53151E-02
         0.46410E-02
         0.27765E-02
         0.13396E-02
         0.16979E-02
         0.21819E-02
         0.86813E-03
        -0.97873E-03
        -0.22797E-02
         0.92999E-03
         0.95689E-03
         0.29890E-02
         0.20639E-02
         0.37502E-02
         0.22321E-02
        -0.94802E-04
         0.74422E-03
         0.38018E-03
         0.74836E-03
         0.20557E-03
        -0.67900E-04
        -0.86691E-03
         0.11971E-02
         0.15895E-02
        -0.44919E-03
        -0.40636E-03
         0.92289E-03
        -0.65989E-03
        -0.77072E-03
        -0.34457E-03
        -0.79624E-03
         0.60638E-03
        -0.25202E-03
         0.26971E-03
        -0.15628E-03
         0.17617E-02
         0.16097E-02
         0.12079E-02
        -0.16171E-03
         0.43054E-03
         0.40680E-03
         0.18124E-02
         0.27800E-02
         0.60032E-02
         0.47895E-02
         0.12166E-02
         0.28974E-02
         0.35093E-02
         0.33365E-02
         0.31773E-02
         0.13021E-02
        -0.29971E-03
         0.14399E-02
         0.21788E-02
         0.24147E-02
         0.10313E-02
         0.84047E-03
         0.20859E-02
         0.31767E-02
         0.28677E-02
         0.23083E-02
         0.79886E-02
         0.30699E-02
         0.80450E-02
         0.24525E-02
        -0.41312E-03
         0.80037E-03
         0.28742E-02
         0.49784E-02
         0.76581E-02
         0.80200E-02
         0.56818E-02
         0.15027E-02
        -0.89799E-03
        -0.90949E-03
         0.10529E-03
         0.19390E-02
         0.34553E-02
         0.49733E-02
         0.43477E-02
         0.21820E-02
         0.80467E-03
         0.16359E-02
         0.29775E-02
         0.25016E-02
         0.16537E-02
         0.11632E-02
         0.64212E-03
         0.91143E-03
         0.11031E-02
         0.36744E-03
         0.24420E-02
         0.17369E-02
         0.77271E-03
         0.64824E-03
         0.86122E-03
         0.10006E-02
         0.38758E-03
         0.65638E-03
         0.13612E-02
         0.39776E-03
         0.34994E-03
         0.11401E-02
         0.97464E-03
         0.29230E-03
         0.42505E-02
         0.33323E-02
         0.11306E-01
         0.97721E-02
         0.11900E-01
         0.62570E-02
         0.11409E-02
         0.42518E-02
         0.95025E-03
         0.12482E-02
         0.18141E-02
         0.26681E-02
         0.30768E-03
         0.34869E-02
        -0.83360E-03
        -0.55323E-03
         0.31121E-02
         0.23025E-02
         0.19032E-02
         0.57427E-03
         0.64098E-03
         0.62720E-03
         0.15138E-02
         0.40951E-02
         0.72622E-02
         0.10660E-01
         0.94328E-02
         0.85335E-02
         0.36043E-02
        -0.74615E-03
        -0.27643E-02
        -0.21490E-02
        -0.70603E-03
         0.59777E-03
         0.50427E-02
         0.49266E-02
         0.49714E-02
         0.39147E-02
         0.17191E-02
         0.11917E-02
         0.13184E-02
         0.52755E-03
        -0.88301E-03
        -0.20054E-02
        -0.10324E-02
         0.43129E-02
         0.12995E-01
         0.19767E-01
         0.22074E-01
         0.21168E-01
         0.18636E-01
         0.16276E-01
         0.13223E-01
         0.67739E-02
        -0.15390E-02
        -0.60795E-02
        -0.40409E-02
        -0.48798E-04
         0.30032E-02
         0.44508E-02
         0.69481E-05
        -0.77898E-04
        -0.76818E-02
        -0.54219E-02
        -0.69596E-02
        -0.37396E-02
         0.35623E-02
         0.19768E-03
         0.31096E-02
         0.29722E-02
         0.82612E-03
         0.27512E-02
         0.69327E-02
        -0.25046E-02
        -0.36578E-02
         0.96914E-02
         0.82770E-02
        -0.59885E-03
         0.23306E-01
         0.21491E-01
         0.51817E-01
         0.51153E-01
         0.47283E-01
         0.29324E-01
         0.93148E-02
         0.21505E-01
         0.77593E-03
         0.85989E-02
         0.15779E-01
         0.19930E-01
         0.39676E-02
         0.16912E-01
        -0.75358E-02
        -0.10197E-01
        -0.10939E-01
        -0.10206E-01
        -0.58794E-04
        -0.29063E-02
         0.35408E-02
         0.94188E-02
         0.13725E-01
         0.24747E-01
         0.40615E-01
         0.38712E-01
         0.31328E-01
         0.27503E-01
         0.15255E-01
        -0.98466E-03
        -0.14071E-01
        -0.15161E-01
        -0.97284E-02
        -0.55478E-02
        -0.97277E-02
         0.14909E-02
        -0.11845E-01
        -0.87712E-03
         0.41412E-02
         0.23043E-02
        -0.26416E-02
        -0.70816E-02
        -0.84519E-02
        -0.44455E-02
         0.20684E-02
         0.24568E-01
         0.62654E-01
         0.89085E-01
         0.89552E-01
         0.73702E-01
         0.57031E-01
         0.43392E-01
         0.36087E-01
         0.22085E-01
        -0.31889E-02
        -0.20754E-01
        -0.18128E-01
        -0.59292E-02
         0.34003E-02
         0.56393E-02
  
SCALARS                      strain_yy  double 1
LOOKUP_TABLE default
         0.19690E-01
         0.46648E-01
         0.11881E-01
        -0.19841E-01
         0.91982E-10
         0.17378E-09
         0.96841E-10
        -0.41319E-10
         0.44085E-02
        -0.27381E-01
        -0.59093E-11
        -0.21288E-09
         0.64541E-01
         0.30690E-01
         0.20290E-09
         0.12816E-09
         0.77533E-02
         0.83320E-02
         0.11906E-10
         0.32557E-10
         0.61031E-01
         0.98918E-01
         0.11300E+00
         0.20587E-09
         0.19369E-09
         0.23623E-09
         0.26912E-01
         0.49367E-01
         0.81500E-10
         0.63763E-10
        -0.11645E-02
         0.48011E-02
        -0.70129E-02
        -0.25910E-10
        -0.90405E-11
        -0.13128E-10
         0.21684E-01
         0.23618E-02
         0.15083E-10
        -0.26277E-11
         0.55276E-01
        -0.13710E-01
         0.99651E-10
         0.29118E-10
         0.10336E+00
         0.44445E-01
         0.13512E-09
         0.62887E-10
        -0.11538E-01
        -0.85271E-11
         0.27092E-01
         0.38180E-10
        -0.98876E-02
         0.52743E-12
        -0.59050E-01
        -0.75108E-10
        -0.11831E+00
        -0.46085E-01
        -0.21039E-09
        -0.60508E-10
        -0.16156E-01
         0.13072E-01
        -0.38426E-10
         0.17616E-11
        -0.30986E-01
        -0.61463E-10
        -0.46323E-01
        -0.19205E-09
         0.52148E-01
         0.48514E-01
         0.26352E-10
         0.86219E-10
         0.80691E-01
         0.18194E-09
        -0.19674E-01
        -0.74177E-11
        -0.11574E+00
        -0.97036E-10
        -0.20941E+00
        -0.20228E-09
        -0.18810E+00
        -0.15925E+00
        -0.30427E-09
        -0.35949E-09
        -0.99252E-01
        -0.19011E-09
         0.11239E+00
         0.17285E-09
         0.87543E-01
         0.12519E-09
         0.70295E-01
         0.17194E-01
        -0.27311E-10
        -0.29165E-10
        -0.31706E-01
        -0.17031E-10
        -0.60278E-01
        -0.12291E-09
        -0.65889E-01
        -0.20418E-09
        -0.47146E-01
        -0.39645E-01
        -0.31003E-09
        -0.30190E-09
         0.11799E+00
         0.12623E+00
         0.72050E-10
        -0.21994E-09
         0.40358E-01
         0.89887E-10
         0.89674E-01
         0.14918E-09
         0.16265E+00
         0.27363E-09
         0.17475E+00
         0.20521E-09
         0.15113E+00
         0.10505E-09
         0.49486E-01
         0.68087E-11
         0.36082E-01
        -0.57913E-11
         0.19867E+00
        -0.33311E-09
         0.10004E+00
        -0.56518E-09
        -0.20374E+00
        -0.29004E-09
        -0.22606E+00
        -0.21504E-09
        -0.79650E-01
        -0.11195E-09
         0.63964E-01
        -0.79239E-11
         0.16350E+00
         0.12966E-09
         0.21740E+00
         0.30178E-09
         0.16176E+00
         0.56746E-09
         0.87335E-01
         0.32465E-09
         0.27100E-01
         0.76205E-10
        -0.18132E-01
         0.17088E-10
        -0.45240E-01
        -0.27493E-09
        -0.29559E-01
        -0.37546E-09
         0.20892E-01
        -0.59549E-09
         0.49044E-01
        -0.44403E-09
         0.74720E-01
        -0.36833E-09
         0.12235E-01
         0.31566E-01
         0.55713E-02
        -0.16736E-01
         0.19738E-01
         0.20857E-01
         0.51476E-01
         0.28574E-01
         0.68287E-02
         0.13870E-01
         0.52390E-01
         0.68567E-01
         0.80775E-01
         0.24280E-01
         0.13634E-01
         0.49534E-02
         0.12762E-01
        -0.14285E-01
         0.34614E-01
         0.62238E-02
         0.43276E-01
        -0.25744E-01
         0.67118E-01
         0.45051E-01
        -0.93098E-02
         0.23040E-01
        -0.17774E-01
        -0.73078E-01
        -0.13454E+00
        -0.57962E-01
        -0.20714E-01
        -0.35018E-02
        -0.29285E-01
        -0.19875E-01
         0.34782E-01
         0.31447E-01
         0.58055E-01
        -0.71217E-01
        -0.15704E+00
        -0.22005E+00
        -0.23415E+00
        -0.19830E+00
        -0.12717E+00
         0.54138E-01
         0.23666E-01
        -0.12201E-02
        -0.25842E-01
        -0.43688E-01
        -0.42030E-01
        -0.63069E-02
         0.59412E-01
         0.41967E-01
         0.93749E-01
         0.14160E+00
         0.49344E-01
         0.74207E-01
         0.11102E+00
         0.98402E-01
         0.32691E-01
        -0.94963E-01
        -0.21440E+00
        -0.12196E+00
        -0.10235E+00
        -0.28923E+00
        -0.24643E+00
        -0.95740E-01
         0.14219E-01
         0.81634E-01
         0.99381E-01
         0.61967E-01
         0.83609E-02
        -0.40010E-01
        -0.88253E-01
        -0.11169E+00
        -0.59676E-02
         0.20056E+00
         0.24920E+00
         0.19234E+00
         0.58559E-03
         0.12480E-01
         0.41680E-02
        -0.41583E-02
         0.30558E-01
         0.57724E-01
         0.28648E-01
         0.16348E-01
         0.30651E-02
         0.12663E-01
         0.36212E-01
         0.49128E-01
         0.51026E-01
         0.19666E-01
         0.11054E-01
         0.45559E-02
         0.15032E-01
        -0.11685E-01
         0.25918E-01
         0.87809E-02
         0.90970E-02
        -0.28539E-01
         0.97326E-02
         0.19820E-01
        -0.35801E-02
         0.54458E-02
        -0.10162E-01
        -0.55445E-01
        -0.11060E+00
        -0.45367E-01
        -0.15090E-01
        -0.14551E-01
        -0.71095E-02
         0.27088E-01
         0.24385E-01
         0.19611E-01
         0.33919E-01
        -0.50141E-01
        -0.11342E+00
        -0.17284E+00
        -0.20514E+00
        -0.16630E+00
        -0.10254E+00
        -0.24719E-02
        -0.19767E-01
        -0.39975E-01
        -0.42348E-01
        -0.37971E-01
        -0.65823E-02
         0.62855E-01
         0.13382E+00
         0.10486E+00
         0.46067E-01
         0.91979E-01
         0.37242E-01
         0.53498E-01
         0.76233E-01
         0.66482E-01
         0.11801E-01
        -0.74193E-01
        -0.15760E+00
        -0.20891E+00
        -0.21961E+00
        -0.22760E+00
        -0.18967E+00
        -0.10765E+00
        -0.51386E-01
        -0.25447E-01
        -0.24123E-01
        -0.37872E-01
        -0.62957E-01
        -0.86533E-01
        -0.10916E+00
        -0.84284E-01
         0.40279E-01
         0.21411E+00
         0.25286E+00
         0.17496E+00
        -0.12069E-02
         0.36022E-02
         0.34965E-02
         0.11905E-02
         0.21701E-01
         0.38955E-01
         0.12874E-01
         0.84582E-02
         0.33068E-02
         0.96857E-02
         0.19776E-01
         0.28821E-01
         0.25591E-01
         0.12711E-01
         0.10181E-01
         0.33741E-02
         0.12310E-01
        -0.46218E-02
         0.13293E-01
         0.70942E-02
        -0.78040E-02
        -0.24901E-01
        -0.12456E-01
         0.39557E-02
         0.51927E-03
        -0.20917E-02
        -0.40338E-02
        -0.35432E-01
        -0.77714E-01
        -0.27840E-01
        -0.68677E-02
        -0.11874E-01
         0.18426E-02
         0.23777E-01
         0.15405E-01
         0.10995E-01
         0.15488E-01
        -0.28340E-01
        -0.78804E-01
        -0.13561E+00
        -0.17163E+00
        -0.12586E+00
        -0.71685E-01
        -0.17851E-01
        -0.22635E-01
        -0.29705E-01
        -0.25600E-01
        -0.15502E-01
         0.88188E-02
         0.47755E-01
         0.83269E-01
         0.65764E-01
         0.23184E-01
         0.44738E-01
         0.24176E-01
         0.29337E-01
         0.40842E-01
         0.39410E-01
         0.10049E-01
        -0.45083E-01
        -0.11816E+00
        -0.18434E+00
        -0.21938E+00
        -0.20243E+00
        -0.14360E+00
        -0.98623E-01
        -0.69055E-01
        -0.56954E-01
        -0.51404E-01
        -0.41740E-01
        -0.40837E-01
        -0.42663E-01
        -0.35418E-01
        -0.43726E-03
         0.67323E-01
         0.13721E+00
         0.14020E+00
         0.90753E-01
         0.17775E-02
         0.27600E-02
         0.15652E-02
         0.20412E-03
         0.55973E-02
         0.75775E-02
         0.78298E-02
         0.69495E-02
         0.53306E-02
         0.89312E-02
         0.12089E-01
         0.17224E-01
         0.13692E-01
         0.93853E-02
         0.93245E-02
         0.34799E-02
         0.98030E-02
         0.29056E-03
         0.72112E-02
         0.57922E-02
        -0.54503E-02
        -0.16608E-01
        -0.69257E-02
         0.18259E-02
         0.42975E-02
        -0.48655E-03
         0.73435E-03
        -0.17851E-01
        -0.46270E-01
        -0.14096E-01
        -0.16933E-02
        -0.40602E-02
        -0.27515E-03
         0.35248E-02
         0.56070E-02
         0.51996E-02
         0.79488E-02
        -0.12823E-01
        -0.47040E-01
        -0.89788E-01
        -0.12358E+00
        -0.88212E-01
        -0.49219E-01
        -0.87560E-02
        -0.97525E-02
        -0.10637E-01
        -0.78391E-02
        -0.47653E-02
        -0.10265E-03
         0.71770E-02
         0.14384E-01
         0.11747E-01
         0.93478E-02
         0.11360E-01
         0.11528E-01
         0.14564E-01
         0.21253E-01
         0.23687E-01
         0.12217E-01
        -0.20895E-01
        -0.82316E-01
        -0.14829E+00
        -0.19295E+00
        -0.17486E+00
        -0.11598E+00
        -0.68006E-01
        -0.41229E-01
        -0.30319E-01
        -0.25482E-01
        -0.18797E-01
        -0.13714E-01
        -0.11104E-01
        -0.86448E-02
        -0.20296E-02
         0.11158E-01
         0.25966E-01
         0.28245E-01
         0.19227E-01
         0.25623E-02
         0.25804E-02
         0.80309E-03
        -0.20026E-03
        -0.13835E-02
        -0.42784E-02
         0.50459E-02
         0.48650E-02
         0.44036E-02
         0.60021E-02
         0.75760E-02
         0.10667E-01
         0.76607E-02
         0.67555E-02
         0.88178E-02
         0.29711E-02
         0.60992E-02
         0.18720E-02
         0.35597E-02
         0.37076E-02
        -0.27079E-02
        -0.85620E-02
        -0.31294E-02
         0.92596E-03
         0.39971E-02
         0.17844E-03
         0.27807E-02
        -0.67536E-02
        -0.22479E-01
        -0.56662E-02
        -0.87056E-04
        -0.13433E-02
        -0.12358E-02
        -0.37130E-02
         0.75230E-03
         0.24109E-02
         0.45667E-02
        -0.15309E-02
        -0.20842E-01
        -0.46518E-01
        -0.68885E-01
        -0.49325E-01
        -0.27164E-01
        -0.40275E-02
        -0.45387E-02
        -0.45492E-02
        -0.29607E-02
        -0.28676E-02
        -0.47358E-02
        -0.73386E-02
        -0.94610E-02
        -0.73787E-02
         0.10560E-02
        -0.32783E-02
         0.38800E-02
         0.67521E-02
         0.10826E-01
         0.14544E-01
         0.13283E-01
        -0.11481E-02
        -0.40370E-01
        -0.85939E-01
        -0.11804E+00
        -0.11179E+00
        -0.72506E-01
        -0.35818E-01
        -0.18376E-01
        -0.12379E-01
        -0.10925E-01
        -0.90021E-02
        -0.58825E-02
        -0.35359E-02
        -0.34461E-02
        -0.63374E-02
        -0.10112E-01
        -0.13195E-01
        -0.12558E-01
        -0.83668E-02
         0.15088E-02
         0.16975E-02
         0.53042E-03
        -0.59434E-04
        -0.17201E-02
        -0.36307E-02
         0.26719E-02
         0.22261E-02
         0.22036E-02
         0.25604E-02
         0.42313E-02
         0.64877E-02
         0.42595E-02
         0.39478E-02
         0.71099E-02
         0.18081E-02
         0.26665E-02
         0.14525E-02
         0.12992E-02
         0.15936E-02
        -0.15820E-02
        -0.29486E-02
        -0.24216E-02
        -0.12203E-03
         0.19369E-02
        -0.26995E-03
         0.24548E-02
        -0.12185E-02
        -0.72781E-02
        -0.14074E-02
         0.15496E-03
        -0.10482E-02
        -0.63812E-03
        -0.27876E-02
        -0.47425E-04
         0.16140E-02
         0.29004E-02
         0.36547E-02
        -0.44614E-02
        -0.15469E-01
        -0.25009E-01
        -0.17637E-01
        -0.92755E-02
        -0.32048E-02
        -0.35375E-02
        -0.36153E-02
        -0.22798E-02
        -0.19544E-02
        -0.33136E-02
        -0.56343E-02
        -0.76583E-02
        -0.60218E-02
        -0.35917E-03
        -0.35296E-02
         0.22885E-02
         0.38447E-02
         0.55988E-02
         0.88470E-02
         0.11607E-01
         0.81577E-02
        -0.92702E-02
        -0.30878E-01
        -0.45518E-01
        -0.42313E-01
        -0.25918E-01
        -0.12437E-01
        -0.70636E-02
        -0.61552E-02
        -0.67763E-02
        -0.64395E-02
        -0.48817E-02
        -0.30210E-02
        -0.24424E-02
        -0.42999E-02
        -0.75147E-02
        -0.10978E-01
        -0.10721E-01
        -0.69875E-02
         0.59393E-03
         0.96897E-03
         0.20379E-03
        -0.15871E-03
        -0.15310E-02
        -0.22735E-02
         0.12554E-02
         0.59020E-03
         0.75825E-03
         0.53184E-03
         0.20721E-02
         0.37141E-02
         0.25687E-02
         0.18218E-02
         0.46108E-02
         0.81007E-03
         0.62248E-03
         0.74775E-03
        -0.45244E-04
         0.14168E-03
        -0.10931E-02
        -0.11063E-03
        -0.22425E-02
        -0.79539E-03
         0.56239E-03
        -0.64005E-03
         0.16306E-02
         0.14027E-02
         0.99482E-03
         0.44903E-03
        -0.31586E-04
        -0.97988E-03
        -0.44752E-03
        -0.16896E-02
        -0.30827E-03
         0.12346E-02
         0.21096E-02
         0.46490E-02
         0.37598E-02
         0.25864E-02
         0.16498E-02
         0.60951E-03
         0.35586E-03
        -0.27719E-02
        -0.28307E-02
        -0.29179E-02
        -0.19192E-02
        -0.14982E-02
        -0.21197E-02
        -0.33281E-02
        -0.43043E-02
        -0.33743E-02
        -0.68708E-03
        -0.29326E-02
         0.20475E-02
         0.29807E-02
         0.35243E-02
         0.53956E-02
         0.79567E-02
         0.93740E-02
         0.75199E-02
         0.50810E-02
         0.33058E-02
         0.20078E-02
         0.21562E-02
         0.11825E-02
        -0.15326E-02
        -0.38888E-02
        -0.49541E-02
        -0.47550E-02
        -0.39910E-02
        -0.27413E-02
        -0.20805E-02
        -0.28337E-02
        -0.43535E-02
        -0.60133E-02
        -0.55976E-02
        -0.39424E-02
         0.16645E-03
         0.59816E-03
        -0.10298E-03
        -0.42407E-03
        -0.19960E-02
        -0.24982E-02
         0.57053E-03
        -0.13938E-03
         0.83202E-04
        -0.38055E-03
         0.94335E-03
         0.21761E-02
         0.17165E-02
         0.70341E-03
         0.30077E-02
         0.24715E-03
        -0.39333E-03
         0.33666E-03
        -0.80904E-03
        -0.66894E-03
        -0.97168E-03
         0.10468E-02
        -0.21883E-02
        -0.11803E-02
        -0.14961E-03
        -0.82191E-03
         0.10547E-02
         0.22382E-02
         0.41935E-02
         0.10274E-02
        -0.22529E-03
        -0.90949E-03
        -0.65095E-03
        -0.17474E-02
        -0.68453E-03
         0.95794E-03
         0.16949E-02
         0.44735E-02
         0.65724E-02
         0.96072E-02
         0.12641E-01
         0.81826E-02
         0.43540E-02
        -0.24719E-02
        -0.23199E-02
        -0.23728E-02
        -0.16873E-02
        -0.15074E-02
        -0.21482E-02
        -0.31958E-02
        -0.39257E-02
        -0.31690E-02
        -0.10947E-02
        -0.38508E-02
         0.18057E-02
         0.26079E-02
         0.26370E-02
         0.35969E-02
         0.55930E-02
         0.88951E-02
         0.13509E-01
         0.19708E-01
         0.24662E-01
         0.21903E-01
         0.14993E-01
         0.75184E-02
         0.91958E-03
        -0.29151E-02
        -0.40497E-02
        -0.37217E-02
        -0.32209E-02
        -0.24569E-02
        -0.21076E-02
        -0.28478E-02
        -0.41808E-02
        -0.52855E-02
        -0.48523E-02
        -0.44084E-02
         0.74813E-04
         0.53599E-03
        -0.15122E-03
        -0.49566E-03
        -0.23584E-02
        -0.31305E-02
         0.33968E-03
        -0.39349E-03
        -0.11620E-03
        -0.70243E-03
         0.51673E-03
         0.15794E-02
         0.13975E-02
         0.29324E-03
         0.24420E-02
         0.98233E-04
        -0.68495E-03
         0.29513E-03
        -0.11029E-02
        -0.89207E-03
        -0.12025E-02
         0.12674E-02
        -0.25362E-02
        -0.15103E-02
        -0.35174E-03
        -0.10689E-02
         0.88139E-03
         0.26084E-02
         0.53318E-02
         0.12624E-02
        -0.30917E-03
        -0.10438E-02
        -0.79846E-03
        -0.21213E-02
        -0.79360E-03
         0.97419E-03
         0.16170E-02
         0.45265E-02
         0.78393E-02
         0.12338E-01
         0.16416E-01
         0.10520E-01
         0.55188E-02
        -0.28407E-02
        -0.25491E-02
        -0.24991E-02
        -0.18063E-02
        -0.17476E-02
        -0.26514E-02
        -0.40242E-02
        -0.50343E-02
        -0.40505E-02
        -0.11986E-02
        -0.47640E-02
         0.18816E-02
         0.25416E-02
         0.22715E-02
         0.28811E-02
         0.47808E-02
         0.89387E-02
         0.16407E-01
         0.25972E-01
         0.32088E-01
         0.27883E-01
         0.18700E-01
         0.89096E-02
         0.11726E-02
        -0.29278E-02
        -0.44190E-02
        -0.39796E-02
        -0.33133E-02
        -0.25961E-02
        -0.24399E-02
        -0.36014E-02
        -0.54449E-02
        -0.69643E-02
        -0.66202E-02
        -0.60245E-02
         0.10050E-03
         0.61289E-03
        -0.21181E-04
        -0.37441E-03
        -0.24544E-02
        -0.34905E-02
         0.27038E-03
        -0.56206E-03
        -0.11907E-03
        -0.86034E-03
         0.36566E-03
         0.14888E-02
         0.14571E-02
         0.10553E-03
         0.23844E-02
         0.13650E-03
        -0.70179E-03
         0.45405E-03
        -0.12915E-02
        -0.95221E-03
        -0.17547E-02
         0.10584E-02
        -0.33011E-02
        -0.19254E-02
        -0.33227E-03
        -0.14072E-02
         0.87664E-03
         0.30181E-02
         0.61690E-02
         0.14636E-02
        -0.38371E-03
        -0.14181E-02
        -0.87224E-03
        -0.24018E-02
        -0.67369E-03
         0.12403E-02
         0.18465E-02
         0.49182E-02
         0.91593E-02
         0.14595E-01
         0.18892E-01
         0.11450E-01
         0.56271E-02
        -0.36595E-02
        -0.33794E-02
        -0.33766E-02
        -0.24368E-02
        -0.22784E-02
        -0.33806E-02
        -0.50477E-02
        -0.62688E-02
        -0.48260E-02
        -0.10661E-02
        -0.52139E-02
         0.23589E-02
         0.29439E-02
         0.24503E-02
         0.28738E-02
         0.47644E-02
         0.96629E-02
         0.19629E-01
         0.31658E-01
         0.36889E-01
         0.28749E-01
         0.18390E-01
         0.86515E-02
         0.16833E-03
        -0.39590E-02
        -0.55076E-02
        -0.51647E-02
        -0.44742E-02
        -0.35172E-02
        -0.32982E-02
        -0.48879E-02
        -0.72469E-02
        -0.89851E-02
        -0.83691E-02
        -0.71364E-02
         0.41791E-04
         0.57070E-03
         0.61896E-04
        -0.30854E-03
        -0.23392E-02
        -0.34118E-02
         0.10638E-03
        -0.75628E-03
        -0.17697E-03
        -0.10100E-02
         0.17928E-03
         0.13487E-02
         0.13539E-02
        -0.87180E-04
         0.22330E-02
         0.17062E-03
        -0.80174E-03
         0.50696E-03
        -0.13707E-02
        -0.10627E-02
        -0.19609E-02
         0.10857E-02
        -0.34611E-02
        -0.19953E-02
        -0.37133E-03
        -0.14663E-02
         0.83498E-03
         0.33644E-02
         0.71870E-02
         0.17377E-02
        -0.46453E-03
        -0.16161E-02
        -0.95074E-03
        -0.24839E-02
        -0.50185E-03
         0.13969E-02
         0.18746E-02
         0.49704E-02
         0.98990E-02
         0.16503E-01
         0.22075E-01
         0.13710E-01
         0.66195E-02
        -0.38315E-02
        -0.37261E-02
        -0.39396E-02
        -0.29526E-02
        -0.27507E-02
        -0.38787E-02
        -0.55130E-02
        -0.65947E-02
        -0.48812E-02
        -0.82651E-03
        -0.50971E-02
         0.27134E-02
         0.30234E-02
         0.23150E-02
         0.27103E-02
         0.45321E-02
         0.95084E-02
         0.20838E-01
         0.35252E-01
         0.43011E-01
         0.34449E-01
         0.20904E-01
         0.88487E-02
        -0.25846E-03
        -0.42149E-02
        -0.56548E-02
        -0.56337E-02
        -0.52786E-02
        -0.43719E-02
        -0.41379E-02
        -0.58850E-02
        -0.82648E-02
        -0.95083E-02
        -0.84164E-02
        -0.70110E-02
        -0.33862E-04
         0.44104E-03
        -0.57998E-04
        -0.40426E-03
        -0.24414E-02
        -0.34129E-02
        -0.64703E-04
        -0.87221E-03
        -0.24638E-03
        -0.11279E-02
        -0.22989E-04
         0.10422E-02
         0.10711E-02
        -0.22440E-03
         0.20267E-02
         0.16676E-03
        -0.93404E-03
         0.45123E-03
        -0.13785E-02
        -0.11994E-02
        -0.17954E-02
         0.12962E-02
        -0.32554E-02
        -0.19067E-02
        -0.53048E-03
        -0.14233E-02
         0.80443E-03
         0.34468E-02
         0.75969E-02
         0.17710E-02
        -0.55278E-03
        -0.16685E-02
        -0.10570E-02
        -0.25670E-02
        -0.71321E-03
         0.11495E-02
         0.16046E-02
         0.51088E-02
         0.10357E-01
         0.17344E-01
         0.23877E-01
         0.15278E-01
         0.74689E-02
        -0.37032E-02
        -0.37142E-02
        -0.40114E-02
        -0.30902E-02
        -0.29180E-02
        -0.39906E-02
        -0.55180E-02
        -0.64826E-02
        -0.48132E-02
        -0.11326E-02
        -0.50911E-02
         0.22929E-02
         0.25367E-02
         0.18570E-02
         0.22222E-02
         0.40714E-02
         0.98382E-02
         0.22027E-01
         0.36672E-01
         0.46967E-01
         0.39836E-01
         0.23950E-01
         0.98627E-02
         0.36184E-03
        -0.37552E-02
        -0.54264E-02
        -0.55984E-02
        -0.53541E-02
        -0.45460E-02
        -0.43698E-02
        -0.59950E-02
        -0.81688E-02
        -0.91790E-02
        -0.80242E-02
        -0.67013E-02
        -0.45617E-04
         0.30828E-03
        -0.25680E-03
        -0.43778E-03
        -0.27463E-02
        -0.34674E-02
        -0.16891E-03
        -0.90503E-03
        -0.24387E-03
        -0.11517E-02
        -0.99414E-04
         0.90363E-03
         0.84819E-03
        -0.20887E-03
         0.21338E-02
         0.18131E-03
        -0.92766E-03
         0.45497E-03
        -0.13095E-02
        -0.11140E-02
        -0.14451E-02
         0.17720E-02
        -0.30064E-02
        -0.17963E-02
        -0.58282E-03
        -0.13501E-02
         0.85425E-03
         0.33274E-02
         0.72148E-02
         0.17091E-02
        -0.56252E-03
        -0.16206E-02
        -0.10424E-02
        -0.24865E-02
        -0.13056E-02
         0.59365E-03
         0.12232E-02
         0.54969E-02
         0.10508E-01
         0.16772E-01
         0.22885E-01
         0.14831E-01
         0.76786E-02
        -0.35240E-02
        -0.35688E-02
        -0.38444E-02
        -0.29812E-02
        -0.28217E-02
        -0.37783E-02
        -0.51596E-02
        -0.60543E-02
        -0.46255E-02
        -0.21121E-02
        -0.55203E-02
         0.11854E-02
         0.19050E-02
         0.15746E-02
         0.20009E-02
         0.41685E-02
         0.11043E-01
         0.23077E-01
         0.35704E-01
         0.45467E-01
         0.40024E-01
         0.25577E-01
         0.11402E-01
         0.13215E-02
        -0.32540E-02
        -0.52257E-02
        -0.54268E-02
        -0.50954E-02
        -0.43216E-02
        -0.41682E-02
        -0.55033E-02
        -0.73366E-02
        -0.83801E-02
        -0.76005E-02
        -0.66843E-02
        -0.12232E-04
         0.30230E-03
        -0.22389E-03
        -0.31985E-03
        -0.26016E-02
        -0.31776E-02
        -0.14213E-03
        -0.86337E-03
        -0.19240E-03
        -0.10720E-02
        -0.92624E-05
         0.10194E-02
         0.86976E-03
        -0.10078E-03
         0.22930E-02
         0.24943E-03
        -0.83792E-03
         0.51866E-03
        -0.11595E-02
        -0.95594E-03
        -0.10531E-02
         0.21353E-02
        -0.26595E-02
        -0.15805E-02
        -0.49912E-03
        -0.11970E-02
         0.89758E-03
         0.31620E-02
         0.65875E-02
         0.16017E-02
        -0.53392E-03
        -0.15752E-02
        -0.94429E-03
        -0.22510E-02
        -0.13782E-02
         0.44906E-03
         0.11422E-02
         0.54460E-02
         0.99864E-02
         0.15526E-01
         0.20595E-01
         0.13124E-01
         0.71521E-02
        -0.32423E-02
        -0.34518E-02
        -0.38499E-02
        -0.30295E-02
        -0.28228E-02
        -0.36212E-02
        -0.48164E-02
        -0.55908E-02
        -0.42232E-02
        -0.23310E-02
        -0.52744E-02
         0.77907E-03
         0.17554E-02
         0.15910E-02
         0.20835E-02
         0.43414E-02
         0.11004E-01
         0.21896E-01
         0.33417E-01
         0.40961E-01
         0.35316E-01
         0.24493E-01
         0.12477E-01
         0.20495E-02
        -0.28042E-02
        -0.48762E-02
        -0.53217E-02
        -0.51447E-02
        -0.44613E-02
        -0.42594E-02
        -0.53182E-02
        -0.68890E-02
        -0.77714E-02
        -0.69680E-02
        -0.61683E-02
        -0.11495E-04
         0.37912E-03
        -0.66148E-04
        -0.27211E-03
        -0.20866E-02
        -0.27862E-02
        -0.79620E-05
        -0.78576E-03
        -0.15649E-03
        -0.98642E-03
         0.17908E-03
         0.12978E-02
         0.11083E-02
         0.69432E-05
         0.23701E-02
         0.31128E-03
        -0.76362E-03
         0.51309E-03
        -0.10138E-02
        -0.96425E-03
        -0.95682E-03
         0.18757E-02
        -0.25975E-02
        -0.14621E-02
        -0.45745E-03
        -0.11704E-02
         0.88890E-03
         0.30686E-02
         0.62730E-02
         0.14039E-02
        -0.57407E-03
        -0.16571E-02
        -0.94732E-03
        -0.21734E-02
        -0.84720E-03
         0.77371E-03
         0.13706E-02
         0.50828E-02
         0.94199E-02
         0.14891E-01
         0.19510E-01
         0.12063E-01
         0.63663E-02
        -0.32845E-02
        -0.35973E-02
        -0.40734E-02
        -0.32085E-02
        -0.29320E-02
        -0.36726E-02
        -0.48107E-02
        -0.55295E-02
        -0.39999E-02
        -0.14896E-02
        -0.42203E-02
         0.13486E-02
         0.21037E-02
         0.18558E-02
         0.24349E-02
         0.44607E-02
         0.99352E-02
         0.20119E-01
         0.32055E-01
         0.38619E-01
         0.31904E-01
         0.22138E-01
         0.11744E-01
         0.18947E-02
        -0.29731E-02
        -0.50295E-02
        -0.55647E-02
        -0.54625E-02
        -0.47280E-02
        -0.44305E-02
        -0.54918E-02
        -0.71303E-02
        -0.78597E-02
        -0.65893E-02
        -0.52780E-02
        -0.11762E-03
         0.27508E-03
        -0.12836E-03
        -0.39090E-03
        -0.18712E-02
        -0.26361E-02
        -0.52300E-04
        -0.79061E-03
        -0.18320E-03
        -0.94039E-03
         0.14239E-03
         0.12392E-02
         0.10584E-02
        -0.54558E-04
         0.21303E-02
         0.21301E-03
        -0.70429E-03
         0.38380E-03
        -0.10544E-02
        -0.91261E-03
        -0.11984E-02
         0.16276E-02
        -0.28314E-02
        -0.16304E-02
        -0.37202E-03
        -0.13427E-02
         0.80789E-03
         0.30740E-02
         0.65130E-02
         0.15417E-02
        -0.64463E-03
        -0.17622E-02
        -0.96873E-03
        -0.21178E-02
        -0.58460E-03
         0.83522E-03
         0.13218E-02
         0.46515E-02
         0.91372E-02
         0.15089E-01
         0.20304E-01
         0.12739E-01
         0.65222E-02
        -0.34925E-02
        -0.37260E-02
        -0.41408E-02
        -0.32061E-02
        -0.28305E-02
        -0.34894E-02
        -0.45484E-02
        -0.52205E-02
        -0.38009E-02
        -0.91927E-03
        -0.35881E-02
         0.15987E-02
         0.21104E-02
         0.17800E-02
         0.23669E-02
         0.41084E-02
         0.88249E-02
         0.19265E-01
         0.32317E-01
         0.40254E-01
         0.33734E-01
         0.22031E-01
         0.10564E-01
         0.12825E-02
        -0.32068E-02
        -0.51234E-02
        -0.55936E-02
        -0.55198E-02
        -0.46237E-02
        -0.41783E-02
        -0.52161E-02
        -0.67453E-02
        -0.73898E-02
        -0.61921E-02
        -0.48428E-02
        -0.19480E-03
         0.10803E-03
        -0.29779E-03
        -0.43995E-03
        -0.19221E-02
        -0.24890E-02
        -0.17741E-03
        -0.80424E-03
        -0.26849E-03
        -0.96377E-03
        -0.29718E-04
         0.88747E-03
         0.76040E-03
        -0.18433E-03
         0.17269E-02
         0.28993E-05
        -0.80235E-03
         0.26597E-03
        -0.12450E-02
        -0.96577E-03
        -0.13342E-02
         0.15737E-02
        -0.29008E-02
        -0.18237E-02
        -0.42713E-03
        -0.14517E-02
         0.67657E-03
         0.29631E-02
         0.65924E-02
         0.15551E-02
        -0.60950E-03
        -0.16872E-02
        -0.83663E-03
        -0.18481E-02
        -0.81704E-03
         0.47773E-03
         0.96931E-03
         0.43158E-02
         0.89691E-02
         0.15315E-01
         0.21170E-01
         0.13379E-01
         0.67665E-02
        -0.34182E-02
        -0.35186E-02
        -0.38469E-02
        -0.29222E-02
        -0.24660E-02
        -0.29420E-02
        -0.38207E-02
        -0.44159E-02
        -0.33414E-02
        -0.11944E-02
        -0.34987E-02
         0.98710E-03
         0.15887E-02
         0.13645E-02
         0.18149E-02
         0.33951E-02
         0.82285E-02
         0.19210E-01
         0.33232E-01
         0.42668E-01
         0.36248E-01
         0.22764E-01
         0.10280E-01
         0.12567E-02
        -0.29843E-02
        -0.47574E-02
        -0.51671E-02
        -0.51373E-02
        -0.42034E-02
        -0.36472E-02
        -0.43795E-02
        -0.55177E-02
        -0.61376E-02
        -0.54030E-02
        -0.45237E-02
        -0.22249E-03
         0.13490E-04
        -0.36123E-03
        -0.33247E-03
        -0.18583E-02
        -0.20235E-02
        -0.22975E-03
        -0.79345E-03
        -0.35315E-03
        -0.10147E-02
        -0.92834E-04
         0.70777E-03
         0.58891E-03
        -0.22472E-03
         0.15097E-02
        -0.99768E-04
        -0.92823E-03
         0.22157E-03
        -0.12953E-02
        -0.10743E-02
        -0.13119E-02
         0.14434E-02
        -0.27382E-02
        -0.17741E-02
        -0.61086E-03
        -0.13695E-02
         0.53591E-03
         0.25994E-02
         0.60288E-02
         0.12757E-02
        -0.48804E-03
        -0.14954E-02
        -0.58754E-03
        -0.13588E-02
        -0.11104E-02
         0.13467E-03
         0.70535E-03
         0.39774E-02
         0.83209E-02
         0.14304E-01
         0.20077E-01
         0.12814E-01
         0.64919E-02
        -0.31420E-02
        -0.31674E-02
        -0.34010E-02
        -0.25013E-02
        -0.19504E-02
        -0.21726E-02
        -0.27891E-02
        -0.32190E-02
        -0.24834E-02
        -0.17464E-02
        -0.34463E-02
         0.36862E-03
         0.12469E-02
         0.11813E-02
         0.15061E-02
         0.29646E-02
         0.76749E-02
         0.18093E-01
         0.31373E-01
         0.40877E-01
         0.35777E-01
         0.22207E-01
         0.95426E-02
         0.11215E-02
        -0.28661E-02
        -0.44311E-02
        -0.47073E-02
        -0.45525E-02
        -0.35941E-02
        -0.29031E-02
        -0.31776E-02
        -0.38839E-02
        -0.43980E-02
        -0.39212E-02
        -0.36485E-02
        -0.31851E-03
        -0.66530E-05
        -0.23605E-03
        -0.15086E-03
        -0.14874E-02
        -0.12106E-02
        -0.22914E-03
        -0.85865E-03
        -0.47824E-03
        -0.11293E-02
         0.37342E-04
         0.98497E-03
         0.68404E-03
        -0.95122E-04
         0.19614E-02
        -0.81603E-04
        -0.98244E-03
         0.19742E-03
        -0.11707E-02
        -0.99431E-03
        -0.12076E-02
         0.17914E-02
        -0.25996E-02
        -0.16064E-02
        -0.71501E-03
        -0.12083E-02
         0.58763E-03
         0.25666E-02
         0.61000E-02
         0.13840E-02
        -0.26408E-03
        -0.12307E-02
        -0.20060E-03
        -0.60892E-03
        -0.86563E-03
         0.35473E-03
         0.81762E-03
         0.43633E-02
         0.84689E-02
         0.14299E-01
         0.20275E-01
         0.13559E-01
         0.73128E-02
        -0.29029E-02
        -0.27973E-02
        -0.28534E-02
        -0.19265E-02
        -0.12199E-02
        -0.11173E-02
        -0.13390E-02
        -0.14254E-02
        -0.11077E-02
        -0.14548E-02
        -0.31378E-02
         0.99584E-03
         0.16147E-02
         0.13913E-02
         0.18868E-02
         0.37500E-02
         0.85691E-02
         0.18452E-01
         0.31270E-01
         0.40921E-01
         0.38447E-01
         0.24725E-01
         0.97829E-02
         0.72451E-03
        -0.30967E-02
        -0.43091E-02
        -0.42626E-02
        -0.38237E-02
        -0.27592E-02
        -0.18857E-02
        -0.16819E-02
        -0.18302E-02
        -0.18452E-02
        -0.15152E-02
        -0.22858E-02
        -0.54186E-03
        -0.92325E-04
        -0.27008E-04
         0.22034E-03
        -0.68713E-03
         0.33598E-03
        -0.20404E-03
        -0.96501E-03
        -0.69280E-03
        -0.12224E-02
         0.44945E-03
         0.18275E-02
         0.98150E-03
         0.33123E-03
         0.31387E-02
         0.81553E-05
        -0.10378E-02
         0.23547E-03
        -0.10433E-02
        -0.95104E-03
        -0.10462E-02
         0.19585E-02
        -0.24113E-02
        -0.14177E-02
        -0.68968E-03
        -0.11042E-02
         0.94974E-03
         0.28306E-02
         0.62969E-02
         0.15670E-02
         0.15324E-03
        -0.10897E-02
         0.62140E-03
         0.88428E-03
        -0.31213E-03
         0.73776E-03
         0.99618E-03
         0.53469E-02
         0.90093E-02
         0.14294E-01
         0.19773E-01
         0.13697E-01
         0.77525E-02
        -0.29754E-02
        -0.29750E-02
        -0.28781E-02
        -0.14687E-02
        -0.72024E-04
         0.77491E-03
         0.13199E-02
         0.18789E-02
         0.14465E-02
        -0.68362E-03
        -0.21033E-02
         0.20140E-02
         0.21294E-02
         0.18631E-02
         0.30508E-02
         0.56688E-02
         0.10333E-01
         0.19156E-01
         0.30587E-01
         0.38830E-01
         0.38482E-01
         0.26469E-01
         0.10557E-01
         0.11421E-02
        -0.28216E-02
        -0.46675E-02
        -0.49019E-02
        -0.40083E-02
        -0.21126E-02
        -0.33908E-03
         0.80463E-03
         0.16742E-02
         0.27145E-02
         0.26609E-02
         0.23810E-03
        -0.89868E-03
        -0.26727E-03
         0.21241E-03
         0.48388E-03
         0.73264E-03
         0.22349E-02
        -0.15395E-03
        -0.10461E-02
        -0.95156E-03
        -0.12159E-02
         0.95483E-03
         0.27484E-02
         0.13650E-02
         0.85420E-03
         0.42590E-02
        -0.12899E-03
        -0.10226E-02
         0.10773E-03
        -0.12201E-02
        -0.87277E-03
        -0.13672E-02
         0.19977E-02
        -0.36062E-02
        -0.21447E-02
        -0.50374E-03
        -0.21469E-02
         0.14306E-02
         0.31479E-02
         0.61230E-02
         0.17114E-02
         0.63440E-05
        -0.24141E-02
         0.12610E-02
         0.23679E-02
         0.80832E-03
         0.12141E-02
         0.11296E-02
         0.62157E-02
         0.92625E-02
         0.13401E-01
         0.17304E-01
         0.12148E-01
         0.73495E-02
        -0.52205E-02
        -0.57803E-02
        -0.55990E-02
        -0.27463E-02
         0.34000E-03
         0.24599E-02
         0.39907E-02
         0.52766E-02
         0.41557E-02
         0.11370E-02
         0.52331E-03
         0.30955E-02
         0.24938E-02
         0.24501E-02
         0.42489E-02
         0.71467E-02
         0.11537E-01
         0.18772E-01
         0.27292E-01
         0.32498E-01
         0.33784E-01
         0.26544E-01
         0.12332E-01
         0.19603E-02
        -0.38004E-02
        -0.77856E-02
        -0.92367E-02
        -0.75562E-02
        -0.34205E-02
         0.48290E-03
         0.29814E-02
         0.49968E-02
         0.73020E-02
         0.70934E-02
         0.37057E-02
        -0.13615E-02
        -0.86733E-03
         0.32115E-03
        -0.12123E-05
         0.32160E-02
         0.35717E-02
        -0.62623E-03
        -0.13212E-02
        -0.13475E-02
        -0.14461E-02
         0.63120E-03
         0.24113E-02
         0.65564E-03
         0.72677E-03
         0.43937E-02
        -0.17816E-02
        -0.17114E-02
        -0.64150E-03
        -0.41461E-02
        -0.16220E-02
        -0.46547E-02
         0.33584E-02
        -0.10509E-01
        -0.72300E-02
        -0.16274E-03
        -0.74475E-02
         0.16551E-02
         0.42801E-02
         0.87798E-02
         0.33482E-02
        -0.21349E-02
        -0.81688E-02
         0.66804E-03
         0.22085E-02
         0.29044E-02
         0.11505E-02
         0.15727E-03
         0.69978E-02
         0.10622E-01
         0.15943E-01
         0.21827E-01
         0.17586E-01
         0.12251E-01
        -0.14519E-01
        -0.15980E-01
        -0.15429E-01
        -0.88004E-02
        -0.16370E-02
         0.27386E-02
         0.48428E-02
         0.60181E-02
         0.46380E-02
         0.50141E-02
         0.66577E-02
         0.28940E-02
         0.10847E-02
         0.16470E-02
         0.41222E-02
         0.77167E-02
         0.12904E-01
         0.20152E-01
         0.29426E-01
         0.40158E-01
         0.51191E-01
         0.47377E-01
         0.25284E-01
         0.41006E-02
        -0.97536E-02
        -0.19300E-01
        -0.23067E-01
        -0.19334E-01
        -0.97002E-02
        -0.83152E-03
         0.41132E-02
         0.67210E-02
         0.85787E-02
         0.85023E-02
         0.76197E-02
        -0.18655E-02
        -0.23309E-02
         0.22415E-03
        -0.10638E-02
         0.70520E-02
         0.48986E-02
        -0.21814E-02
        -0.20751E-02
        -0.18230E-02
        -0.20913E-02
        -0.11910E-02
        -0.22414E-04
        -0.20665E-02
        -0.63017E-03
         0.28649E-02
        -0.61394E-02
        -0.39478E-02
        -0.20047E-02
        -0.11941E-01
        -0.46111E-02
        -0.11230E-01
         0.80437E-02
        -0.23825E-01
        -0.18381E-01
         0.41392E-03
        -0.18494E-01
         0.12236E-02
         0.69672E-02
         0.17752E-01
         0.81241E-02
        -0.66908E-02
        -0.19233E-01
        -0.84722E-03
         0.66275E-03
         0.53592E-02
        -0.38697E-03
        -0.29782E-02
         0.74738E-02
         0.14156E-01
         0.25300E-01
         0.38863E-01
         0.36798E-01
         0.28538E-01
        -0.31423E-01
        -0.33457E-01
        -0.31448E-01
        -0.19225E-01
        -0.54903E-02
         0.27258E-02
         0.50339E-02
         0.50829E-02
         0.32901E-02
         0.96221E-02
         0.16340E-01
        -0.30417E-03
        -0.35082E-02
        -0.16134E-02
         0.19982E-02
         0.74113E-02
         0.15076E-01
         0.24838E-01
         0.40601E-01
         0.67479E-01
         0.98944E-01
         0.10161E+00
         0.60181E-01
         0.12150E-01
        -0.19540E-01
        -0.38275E-01
        -0.44517E-01
        -0.36959E-01
        -0.18889E-01
        -0.30063E-02
         0.59807E-02
         0.91563E-02
         0.82692E-02
         0.77573E-02
         0.12859E-01
  
SCALARS                      strain_zz  double 1
LOOKUP_TABLE default
        -0.23517E+00
        -0.25059E+00
        -0.24359E+00
        -0.23466E+00
        -0.14093E-09
        -0.14221E-09
        -0.14239E-09
        -0.14580E-09
        -0.24147E+00
        -0.24518E+00
        -0.13963E-09
        -0.15902E-09
        -0.23984E+00
        -0.23341E+00
        -0.14265E-09
        -0.14855E-09
        -0.23137E+00
        -0.23690E+00
        -0.13202E-09
        -0.14069E-09
        -0.21672E+00
        -0.18581E+00
        -0.22785E+00
        -0.13070E-09
        -0.94591E-10
        -0.10946E-09
        -0.20267E+00
        -0.12683E+00
        -0.13101E-09
        -0.78942E-10
        -0.22439E+00
        -0.24000E+00
        -0.22812E+00
        -0.14070E-09
        -0.13853E-09
        -0.13009E-09
        -0.24259E+00
        -0.25340E+00
        -0.15511E-09
        -0.14824E-09
        -0.27858E+00
        -0.25249E+00
        -0.14303E-09
        -0.12770E-09
        -0.28709E+00
        -0.24870E+00
        -0.15732E-09
        -0.16470E-09
        -0.24797E+00
        -0.14270E-09
        -0.24327E+00
        -0.17012E-09
        -0.19695E+00
        -0.12050E-09
        -0.18515E+00
        -0.11131E-09
        -0.14497E+00
        -0.23787E+00
        -0.95629E-10
        -0.14105E-09
        -0.24175E+00
        -0.25932E+00
        -0.15298E-09
        -0.18733E-09
        -0.23450E+00
        -0.15260E-09
        -0.23190E+00
        -0.17957E-09
        -0.24288E+00
        -0.23497E+00
        -0.12279E-09
        -0.12144E-09
        -0.23218E+00
        -0.11545E-09
        -0.58454E-01
        -0.57356E-10
         0.25345E-02
        -0.38302E-10
         0.67992E-01
        -0.20082E-10
         0.11205E+00
        -0.55541E-01
        -0.88186E-11
        -0.58447E-10
        -0.18086E+00
        -0.10676E-09
        -0.29219E+00
        -0.17488E-09
        -0.29914E+00
        -0.19952E-09
        -0.30982E+00
        -0.28435E+00
        -0.21212E-09
        -0.20518E-09
        -0.25530E+00
        -0.17877E-09
        -0.23360E+00
        -0.18037E-09
        -0.23113E+00
        -0.20229E-09
        -0.24592E+00
        -0.24643E+00
        -0.20495E-09
        -0.19027E-09
        -0.27795E+00
        -0.35170E+00
        -0.86851E-10
        -0.10035E-09
        -0.18727E+00
        -0.70684E-10
        -0.15406E+00
        -0.61334E-10
        -0.11276E+00
        -0.54047E-10
         0.89940E-02
        -0.37965E-10
         0.17539E+00
        -0.16988E-10
         0.35486E+00
         0.10460E-11
         0.67700E+00
         0.21500E-10
         0.68529E+00
         0.38924E-10
         0.32686E+00
         0.31093E-10
        -0.39150E-02
        -0.10928E-10
        -0.13377E+00
        -0.55034E-10
        -0.25359E+00
        -0.80010E-10
        -0.34826E+00
        -0.96302E-10
        -0.39135E+00
        -0.11160E-09
        -0.43459E+00
        -0.12661E-09
        -0.42620E+00
        -0.15326E-09
        -0.37224E+00
        -0.17949E-09
        -0.32475E+00
        -0.16753E-09
        -0.27892E+00
        -0.14810E-09
        -0.24837E+00
        -0.15009E-09
        -0.25945E+00
        -0.16350E-09
        -0.29812E+00
        -0.16917E-09
        -0.30975E+00
        -0.14571E-09
        -0.30059E+00
        -0.11631E-09
        -0.70763E-01
        -0.97632E-01
        -0.91193E-01
        -0.59882E-01
        -0.10480E+00
        -0.48637E-01
        -0.11560E+00
        -0.93793E-01
        -0.58561E-01
        -0.79288E-01
        -0.12293E+00
        -0.12465E+00
        -0.13383E+00
        -0.10894E+00
        -0.93286E-01
        -0.62701E-01
        -0.56680E-01
        -0.59975E-01
        -0.62189E-01
        -0.61310E-01
        -0.73848E-01
        -0.67966E-01
        -0.70302E-01
        -0.67702E-01
        -0.76331E-01
        -0.62945E-01
        -0.93197E-01
        -0.79192E-01
        -0.52879E-01
        -0.70949E-01
        -0.51220E-01
        -0.34698E-01
        -0.42037E-01
        -0.20804E-01
        -0.15538E+00
        -0.14182E+00
        -0.13371E+00
        -0.49216E-01
         0.17554E-02
         0.72182E-01
         0.13624E+00
         0.71836E-02
        -0.49589E-01
        -0.46299E-01
         0.27511E-02
         0.59110E-01
         0.45053E-01
         0.46449E-01
         0.69084E-01
         0.88578E-01
         0.89852E-01
         0.11553E-01
        -0.25339E+00
        -0.19741E+00
        -0.22754E+00
        -0.18812E+00
        -0.15491E+00
        -0.11498E+00
        -0.36696E-01
         0.10471E+00
         0.35810E+00
         0.65396E+00
         0.57118E+00
         0.16163E+00
         0.18669E-02
        -0.81411E-01
        -0.11114E+00
        -0.89476E-01
        -0.32078E-01
         0.72718E-01
         0.15721E+00
         0.21561E+00
         0.31015E+00
         0.41995E+00
         0.41885E+00
         0.23142E+00
         0.37657E-01
        -0.90799E-01
        -0.58931E-02
        -0.27032E-01
        -0.21543E-01
         0.70527E-02
        -0.22687E-01
         0.21179E-01
        -0.38139E-01
        -0.19214E-01
         0.49068E-02
        -0.39232E-02
        -0.54505E-01
        -0.84067E-01
        -0.69104E-01
        -0.47671E-01
        -0.88974E-01
        -0.18690E-02
         0.10928E-01
         0.44691E-02
         0.46528E-02
         0.14033E-01
         0.17794E-01
         0.10051E-01
         0.22980E-01
         0.45104E-02
         0.36402E-02
         0.95622E-02
        -0.37812E-01
        -0.33123E-01
        -0.39392E-01
        -0.21983E-02
         0.21755E-01
         0.39149E-01
         0.27524E-01
         0.41546E-01
        -0.64206E-01
        -0.64085E-01
        -0.63832E-01
        -0.82297E-01
        -0.70899E-01
        -0.65969E-01
        -0.75137E-01
        -0.60345E-01
        -0.22423E-01
         0.41343E-01
         0.75753E-01
         0.10693E+00
         0.87621E-01
         0.77293E-01
         0.84453E-01
         0.86977E-01
         0.69943E-01
         0.51763E-01
        -0.13019E+00
        -0.62617E-01
        -0.14536E+00
        -0.12604E+00
        -0.12098E+00
        -0.13550E+00
        -0.14429E+00
        -0.12590E+00
        -0.82275E-01
        -0.77404E-01
        -0.10991E+00
        -0.10292E+00
        -0.59859E-01
        -0.28910E-02
         0.37214E-01
         0.63404E-01
         0.98198E-01
         0.14628E+00
         0.16695E+00
         0.16154E+00
         0.16746E+00
         0.19014E+00
         0.14486E+00
         0.28450E-01
         0.13841E-01
         0.40338E-02
         0.47535E-02
        -0.15271E-02
         0.29202E-02
         0.14292E-01
         0.94471E-02
         0.17707E-01
        -0.45226E-02
         0.34262E-02
         0.95345E-02
         0.10576E-01
        -0.10856E-01
        -0.29571E-01
        -0.16905E-01
        -0.69894E-02
        -0.38763E-01
         0.13433E-01
         0.14131E-01
         0.15702E-01
         0.14752E-01
         0.18610E-01
         0.26229E-01
         0.20099E-01
         0.23042E-01
         0.15429E-01
         0.14988E-01
         0.16263E-01
        -0.41486E-02
        -0.59848E-02
        -0.15967E-01
         0.11086E-01
         0.20578E-01
         0.16854E-01
         0.19426E-01
         0.16510E-01
        -0.79521E-04
        -0.49407E-02
        -0.97363E-02
        -0.45409E-01
        -0.50041E-01
        -0.56486E-01
        -0.69048E-01
        -0.41450E-01
        -0.56580E-02
         0.16820E-01
         0.88992E-02
        -0.58171E-02
        -0.52164E-02
        -0.10669E-01
        -0.16769E-01
        -0.15876E-01
        -0.13091E-01
         0.10012E-01
        -0.47326E-02
         0.14498E-01
        -0.13407E-01
        -0.19903E-01
        -0.37382E-01
        -0.67800E-01
        -0.99526E-01
        -0.11382E+00
        -0.11344E+00
        -0.11923E+00
        -0.12074E+00
        -0.10263E+00
        -0.49013E-01
         0.14774E-01
         0.47830E-01
         0.42196E-01
         0.17815E-01
        -0.10309E-01
        -0.36515E-01
        -0.64658E-01
        -0.93146E-01
        -0.10481E+00
        -0.90433E-01
        -0.52217E-01
        -0.62055E-02
         0.20550E-01
         0.79411E-02
         0.73085E-02
         0.83597E-02
         0.10046E-01
         0.97877E-02
         0.37919E-02
         0.85056E-02
         0.11236E-01
         0.95759E-02
         0.14185E-01
         0.74758E-02
        -0.25488E-02
         0.43837E-02
         0.96411E-02
        -0.10008E-01
         0.11559E-01
         0.12564E-01
         0.11823E-01
         0.13623E-01
         0.17223E-01
         0.22022E-01
         0.20929E-01
         0.17549E-01
         0.13406E-01
         0.17211E-01
         0.11510E-01
         0.10448E-01
         0.83668E-02
         0.21736E-02
         0.16830E-01
         0.10390E-01
         0.57596E-02
         0.82521E-02
         0.14560E-02
         0.12699E-01
         0.11043E-01
         0.81174E-02
        -0.18264E-01
        -0.26031E-01
        -0.32688E-01
        -0.39174E-01
        -0.13288E-01
         0.89223E-02
         0.85835E-02
        -0.36083E-02
        -0.18654E-01
        -0.16073E-01
        -0.18793E-01
        -0.26717E-01
        -0.33187E-01
        -0.37812E-01
        -0.13340E-01
         0.18012E-01
         0.97585E-02
         0.19165E-01
         0.12306E-01
        -0.25826E-02
        -0.26758E-01
        -0.58534E-01
        -0.82071E-01
        -0.95706E-01
        -0.10313E+00
        -0.87596E-01
        -0.57097E-01
        -0.18214E-01
         0.21873E-01
         0.39233E-01
         0.28408E-01
         0.30152E-02
        -0.24770E-01
        -0.46253E-01
        -0.63795E-01
        -0.85086E-01
        -0.10417E+00
        -0.10529E+00
        -0.82766E-01
        -0.44661E-01
        -0.95321E-02
         0.43496E-02
         0.38261E-02
         0.25757E-02
         0.24184E-02
         0.15291E-02
        -0.81578E-03
         0.59058E-02
         0.79456E-02
         0.57677E-02
         0.10750E-01
         0.63212E-02
         0.99647E-03
         0.35220E-02
         0.80966E-02
        -0.39141E-02
         0.37692E-02
         0.81905E-02
         0.32387E-02
         0.69916E-02
         0.11549E-01
         0.11600E-01
         0.13165E-01
         0.84344E-02
         0.56422E-02
         0.13757E-01
         0.36046E-02
         0.93947E-02
         0.85755E-02
         0.33785E-02
         0.13548E-01
         0.18889E-02
         0.17089E-02
         0.97202E-03
        -0.12133E-02
         0.29789E-02
         0.34760E-02
         0.36715E-02
        -0.11944E-01
        -0.20553E-01
        -0.28456E-01
        -0.36467E-01
        -0.11097E-01
         0.68388E-02
         0.45124E-02
         0.11264E-02
        -0.14581E-02
        -0.15030E-02
        -0.30330E-02
        -0.64475E-02
        -0.99992E-02
        -0.12546E-01
        -0.59627E-02
         0.40379E-02
        -0.13736E-03
         0.57792E-02
         0.44871E-02
        -0.37922E-03
        -0.12163E-01
        -0.34775E-01
        -0.63643E-01
        -0.90966E-01
        -0.10494E+00
        -0.91873E-01
        -0.54355E-01
        -0.12979E-01
         0.13425E-01
         0.20741E-01
         0.15482E-01
         0.64386E-02
        -0.11458E-02
        -0.49850E-02
        -0.73844E-02
        -0.13473E-01
        -0.23105E-01
        -0.29205E-01
        -0.25966E-01
        -0.15786E-01
        -0.62279E-02
         0.11751E-02
         0.11200E-02
         0.19718E-03
        -0.42631E-03
        -0.16545E-03
        -0.42441E-03
         0.25077E-02
         0.35304E-02
         0.19506E-02
         0.54002E-02
         0.31299E-02
         0.12316E-02
         0.18586E-02
         0.41260E-02
        -0.16148E-02
         0.13211E-04
         0.34798E-02
        -0.45549E-03
         0.22981E-02
         0.55585E-02
         0.45163E-02
         0.63958E-02
         0.25795E-02
         0.12050E-02
         0.75951E-02
         0.32043E-04
         0.51940E-02
         0.52116E-02
         0.22536E-02
         0.77024E-02
        -0.80657E-03
        -0.64694E-04
        -0.84451E-03
        -0.49611E-03
         0.32386E-03
         0.71438E-03
         0.12813E-02
        -0.74687E-02
        -0.13939E-01
        -0.19349E-01
        -0.24620E-01
        -0.69504E-02
         0.38361E-02
         0.12186E-02
         0.11948E-02
         0.22871E-02
         0.18336E-02
         0.14971E-02
         0.13985E-02
         0.12751E-02
         0.11466E-02
         0.34599E-04
         0.59034E-03
        -0.35205E-03
         0.14768E-02
         0.18487E-02
         0.11298E-02
        -0.32827E-02
        -0.16476E-01
        -0.40344E-01
        -0.67245E-01
        -0.79829E-01
        -0.67253E-01
        -0.34980E-01
        -0.58815E-02
         0.70428E-02
         0.86018E-02
         0.57759E-02
         0.33468E-02
         0.32970E-02
         0.49068E-02
         0.65438E-02
         0.73497E-02
         0.72058E-02
         0.55858E-02
         0.29511E-02
         0.81853E-03
        -0.39946E-03
         0.70301E-04
         0.13710E-03
        -0.18848E-03
        -0.59795E-03
        -0.22367E-03
        -0.39948E-03
         0.73422E-03
         0.11485E-02
         0.39697E-03
         0.20854E-02
         0.11385E-02
         0.63723E-03
         0.69003E-03
         0.16447E-02
        -0.48008E-03
        -0.46707E-03
         0.11725E-02
        -0.68843E-03
         0.69205E-03
         0.23856E-02
         0.19018E-02
         0.32543E-02
         0.63372E-03
         0.74735E-04
         0.32785E-02
        -0.49535E-03
         0.23077E-02
         0.25304E-02
         0.14187E-02
         0.36403E-02
        -0.82285E-03
        -0.54281E-03
        -0.75458E-03
        -0.41333E-03
         0.94555E-04
         0.18293E-03
         0.37815E-03
        -0.31425E-02
        -0.61709E-02
        -0.85510E-02
        -0.10750E-01
        -0.24574E-02
         0.23942E-02
        -0.95292E-04
        -0.77839E-04
         0.41936E-03
         0.28056E-03
         0.26942E-03
         0.51564E-03
         0.85328E-03
         0.10402E-02
         0.93974E-04
         0.39623E-03
        -0.92706E-04
         0.66619E-03
         0.82420E-03
         0.84082E-03
        -0.54108E-03
        -0.63539E-02
        -0.18422E-01
        -0.32459E-01
        -0.38618E-01
        -0.31303E-01
        -0.14825E-01
        -0.93398E-03
         0.44717E-02
         0.40162E-02
         0.18341E-02
         0.52561E-03
         0.69576E-03
         0.15000E-02
         0.22605E-02
         0.29501E-02
         0.35767E-02
         0.37676E-02
         0.27208E-02
         0.86548E-03
        -0.21669E-03
        -0.35155E-04
        -0.74386E-04
        -0.11307E-03
        -0.21459E-03
        -0.14030E-03
        -0.35600E-03
         0.81964E-04
         0.29007E-03
         0.12139E-03
         0.70328E-03
         0.21683E-03
         0.63506E-05
        -0.14729E-04
         0.44035E-03
        -0.33192E-03
        -0.14055E-03
         0.46867E-03
        -0.22497E-03
         0.32417E-03
         0.99902E-03
         0.70325E-03
         0.13045E-02
         0.16557E-03
         0.36534E-04
         0.12416E-02
        -0.22430E-03
         0.75750E-03
         0.98444E-03
         0.81473E-03
         0.15135E-02
        -0.39890E-03
        -0.42577E-03
        -0.39377E-03
        -0.42102E-03
        -0.17516E-04
        -0.51673E-04
        -0.88330E-04
        -0.11961E-02
        -0.20565E-02
        -0.24974E-02
        -0.29016E-02
        -0.26606E-03
         0.11895E-02
        -0.21518E-03
        -0.45365E-03
        -0.57659E-03
        -0.57654E-03
        -0.60964E-03
        -0.66834E-03
        -0.72290E-03
        -0.79968E-03
        -0.59302E-03
         0.93436E-04
        -0.20420E-03
         0.35660E-04
        -0.99301E-04
        -0.11400E-03
        -0.46826E-03
        -0.24183E-02
        -0.66311E-02
        -0.11215E-01
        -0.12349E-01
        -0.91302E-02
        -0.41381E-02
        -0.78134E-04
         0.13941E-02
         0.11489E-02
         0.39421E-03
        -0.17984E-03
        -0.51512E-03
        -0.67391E-03
        -0.76361E-03
        -0.10461E-02
        -0.13022E-02
        -0.13460E-02
        -0.12361E-02
        -0.10470E-02
        -0.69367E-03
         0.59333E-04
         0.41320E-04
         0.65804E-04
         0.10149E-03
         0.33376E-04
        -0.26147E-03
         0.98176E-04
         0.16115E-03
         0.15052E-03
         0.36173E-03
         0.16679E-03
         0.16145E-03
         0.17409E-03
         0.23633E-03
        -0.12084E-03
         0.13812E-03
         0.32296E-03
         0.13869E-03
         0.27120E-03
         0.49463E-03
         0.21927E-03
         0.31965E-03
         0.22530E-03
         0.18662E-03
         0.60595E-03
         0.11330E-03
         0.37284E-03
         0.52124E-03
         0.68422E-03
         0.75072E-03
         0.48319E-04
         0.20211E-04
         0.15933E-04
        -0.25445E-03
         0.13798E-03
         0.12155E-03
         0.11855E-03
        -0.65503E-03
        -0.93363E-03
        -0.50619E-03
         0.14667E-03
         0.77558E-03
         0.62465E-03
         0.19188E-03
         0.69005E-04
        -0.89794E-04
        -0.21308E-03
        -0.44850E-03
        -0.84970E-03
        -0.13466E-02
        -0.18020E-02
        -0.95645E-03
         0.25496E-03
        -0.74305E-04
         0.29689E-03
         0.32321E-03
         0.41900E-03
         0.21813E-03
        -0.10676E-02
        -0.37215E-02
        -0.58992E-02
        -0.45643E-02
        -0.73924E-03
         0.74852E-03
        -0.15222E-03
        -0.54543E-03
        -0.10490E-03
         0.33290E-03
         0.48824E-03
         0.24610E-03
        -0.15836E-03
        -0.70924E-03
        -0.17540E-02
        -0.30388E-02
        -0.38982E-02
        -0.37049E-02
        -0.24331E-02
        -0.97132E-03
         0.90033E-04
         0.10755E-03
         0.10649E-03
         0.15428E-03
         0.77855E-04
        -0.50005E-04
         0.17004E-03
         0.17641E-03
         0.14378E-03
         0.28650E-03
         0.20783E-03
         0.20175E-03
         0.28069E-03
         0.20940E-03
        -0.16306E-03
         0.13047E-03
         0.23779E-03
         0.18208E-03
         0.10698E-03
         0.29290E-03
         0.25238E-04
         0.19319E-03
         0.35983E-04
         0.56706E-04
         0.41683E-03
         0.10631E-03
         0.22181E-03
         0.17573E-03
         0.43084E-04
         0.41941E-03
         0.15168E-03
         0.16843E-03
         0.13467E-03
         0.35328E-06
         0.12876E-03
         0.15720E-03
         0.21581E-03
        -0.75132E-03
        -0.13022E-02
        -0.15038E-02
        -0.14116E-02
        -0.22838E-03
         0.26135E-03
         0.16306E-03
         0.26890E-03
         0.26585E-03
         0.75602E-04
        -0.21025E-03
        -0.48739E-03
        -0.67122E-03
        -0.84277E-03
        -0.38426E-03
         0.16444E-03
        -0.12645E-04
         0.29539E-03
         0.46376E-03
         0.57652E-03
         0.24478E-03
        -0.10931E-02
        -0.33744E-02
        -0.55696E-02
        -0.59586E-02
        -0.35520E-02
        -0.80249E-03
         0.12565E-03
         0.15912E-04
        -0.11726E-03
         0.67163E-04
         0.38979E-03
         0.54808E-03
         0.39931E-03
        -0.22449E-03
        -0.12372E-02
        -0.21325E-02
        -0.23004E-02
        -0.18647E-02
        -0.12207E-02
        -0.48482E-03
         0.28261E-04
        -0.73577E-06
        -0.16670E-04
         0.27847E-04
        -0.10571E-03
        -0.37065E-04
         0.23685E-04
         0.65648E-04
         0.38705E-04
         0.12145E-03
         0.18820E-04
        -0.10514E-03
        -0.94748E-04
         0.14187E-04
        -0.30269E-03
         0.16380E-04
         0.87227E-04
         0.27241E-04
         0.98759E-05
         0.16304E-03
         0.82879E-04
         0.22989E-03
         0.28801E-04
         0.82330E-05
         0.26354E-03
         0.41060E-04
        -0.77062E-05
        -0.46402E-05
        -0.29570E-03
         0.24910E-03
         0.61734E-04
         0.87698E-04
         0.13107E-04
         0.26571E-06
        -0.12330E-03
        -0.73471E-04
        -0.83551E-04
        -0.73693E-03
        -0.11718E-02
        -0.17953E-02
        -0.26112E-02
        -0.11769E-02
        -0.32747E-04
         0.44358E-04
         0.71023E-04
         0.58807E-04
         0.69578E-04
         0.38327E-04
        -0.80356E-05
         0.13641E-04
         0.76289E-04
         0.29866E-04
        -0.20752E-03
        -0.31976E-03
        -0.91293E-04
        -0.19072E-03
        -0.35143E-03
        -0.41157E-03
        -0.89371E-03
        -0.21915E-02
        -0.34666E-02
        -0.49334E-02
        -0.59979E-02
        -0.32298E-02
        -0.15527E-03
         0.54019E-03
         0.28200E-03
         0.92022E-04
         0.41065E-04
         0.18952E-04
        -0.26560E-04
        -0.29845E-04
        -0.21210E-04
        -0.19000E-04
         0.10197E-03
         0.23177E-03
         0.11313E-03
        -0.16518E-03
         0.41125E-04
         0.26036E-04
        -0.53070E-04
        -0.26813E-04
        -0.23203E-03
        -0.25051E-03
         0.63766E-04
         0.70721E-04
         0.17568E-04
         0.78933E-04
         0.44644E-04
        -0.51610E-04
         0.12219E-04
         0.43899E-04
        -0.24924E-03
         0.50839E-04
         0.26215E-04
         0.28481E-04
         0.85986E-04
         0.12186E-03
         0.24570E-03
         0.21350E-03
         0.25195E-03
         0.13719E-03
         0.15042E-03
         0.11545E-03
         0.13281E-03
         0.29508E-03
         0.26312E-03
         0.19636E-03
         0.96159E-04
         0.66939E-04
         0.61630E-04
        -0.37786E-04
        -0.17536E-03
        -0.85793E-04
        -0.33199E-04
        -0.16192E-03
         0.39337E-03
         0.64589E-03
         0.26773E-03
        -0.71087E-04
         0.82245E-04
         0.16028E-03
        -0.69596E-05
        -0.15963E-03
        -0.14711E-04
         0.20783E-03
         0.31342E-03
         0.19704E-03
         0.22689E-04
        -0.17769E-03
        -0.24432E-03
        -0.55555E-03
        -0.12286E-03
        -0.15563E-03
        -0.12224E-03
        -0.27665E-03
        -0.10824E-02
        -0.14785E-02
         0.64868E-03
         0.25845E-02
         0.82602E-03
        -0.73499E-03
        -0.30452E-03
         0.27529E-03
         0.56555E-03
         0.51108E-03
         0.23346E-03
        -0.18079E-03
        -0.46426E-03
        -0.13782E-03
         0.61603E-03
         0.11139E-02
         0.83068E-03
         0.16488E-03
        -0.37795E-03
        -0.65181E-03
        -0.42220E-05
         0.42017E-05
        -0.97888E-04
        -0.72087E-04
        -0.15683E-03
        -0.93606E-04
         0.66748E-04
         0.57812E-04
         0.19944E-05
         0.26767E-04
         0.62449E-04
        -0.24048E-04
         0.90891E-04
         0.95615E-04
        -0.42915E-04
         0.55543E-04
        -0.19284E-04
         0.18285E-04
         0.82173E-04
        -0.19647E-04
         0.26153E-03
         0.14637E-03
         0.18784E-03
         0.10770E-03
        -0.90944E-04
         0.77641E-04
         0.16788E-03
         0.17693E-03
         0.18964E-03
        -0.17611E-03
         0.75108E-04
         0.14761E-04
         0.11449E-03
         0.14149E-03
        -0.13074E-03
        -0.72829E-04
         0.36026E-04
         0.44420E-03
         0.12808E-02
         0.19574E-02
         0.21959E-02
         0.41502E-03
        -0.10560E-03
         0.69886E-04
        -0.81187E-04
        -0.23216E-03
        -0.11825E-03
         0.11942E-03
         0.42881E-03
         0.61088E-03
         0.60942E-03
         0.19778E-03
        -0.12100E-03
        -0.16136E-03
        -0.68689E-04
         0.77769E-04
         0.15956E-03
        -0.25544E-03
        -0.77168E-03
         0.45364E-03
         0.41620E-02
         0.76720E-02
         0.65971E-02
         0.15083E-02
         0.35990E-04
         0.60743E-03
         0.66065E-03
         0.36880E-03
         0.39746E-04
        -0.29522E-03
        -0.52596E-03
        -0.38387E-03
         0.26216E-03
         0.11834E-02
         0.15775E-02
         0.11143E-02
         0.32319E-03
        -0.12302E-03
        -0.70924E-04
        -0.45620E-04
        -0.10274E-03
        -0.54238E-04
        -0.74693E-04
         0.22039E-03
        -0.10079E-04
        -0.59913E-04
        -0.84582E-04
        -0.15128E-03
         0.25171E-04
         0.11631E-03
         0.59287E-04
         0.42342E-05
         0.34477E-03
        -0.36636E-04
        -0.13340E-03
        -0.49265E-04
        -0.68858E-04
        -0.18399E-03
        -0.42452E-04
        -0.48363E-04
        -0.93807E-04
        -0.53706E-04
        -0.26284E-03
        -0.61805E-04
        -0.64959E-04
        -0.61613E-04
         0.30055E-03
        -0.20759E-03
        -0.53200E-04
        -0.11375E-03
         0.20262E-04
         0.21340E-03
        -0.16588E-03
        -0.87688E-04
         0.22370E-04
         0.69541E-03
         0.11086E-02
         0.18985E-02
         0.29252E-02
         0.12937E-02
         0.21533E-03
        -0.14552E-03
        -0.20075E-03
        -0.22338E-03
        -0.16551E-03
        -0.69189E-04
         0.14899E-03
         0.53237E-03
         0.92363E-03
         0.64786E-03
        -0.23560E-03
         0.32323E-04
        -0.41953E-04
         0.18884E-03
         0.21350E-03
         0.29716E-03
         0.11265E-02
         0.29567E-02
         0.47793E-02
         0.68934E-02
         0.78451E-02
         0.43308E-02
         0.12194E-02
         0.41197E-03
         0.23069E-04
        -0.20727E-03
        -0.31369E-03
        -0.35529E-03
        -0.28446E-03
        -0.23434E-03
        -0.14426E-03
         0.24188E-03
         0.99603E-03
         0.16586E-02
         0.15271E-02
         0.75281E-03
        -0.11338E-03
        -0.99675E-04
        -0.17978E-03
        -0.19066E-03
        -0.20866E-03
         0.25847E-04
        -0.10456E-03
        -0.14239E-03
        -0.10488E-03
        -0.19183E-03
        -0.94763E-04
         0.17090E-04
        -0.57851E-04
        -0.11357E-03
         0.31055E-03
        -0.74870E-04
        -0.11628E-03
        -0.15222E-03
        -0.95454E-04
        -0.18013E-03
        -0.23129E-03
        -0.27201E-03
        -0.15540E-03
        -0.81609E-04
        -0.21821E-03
        -0.92045E-04
        -0.16345E-03
        -0.15319E-03
         0.95545E-04
        -0.14946E-03
        -0.15405E-03
        -0.11639E-03
        -0.18320E-03
        -0.72628E-04
        -0.30894E-03
        -0.18863E-03
        -0.63437E-04
         0.53358E-03
         0.49618E-03
         0.69539E-03
         0.12827E-02
         0.69376E-03
         0.57839E-04
        -0.13795E-03
        -0.10223E-03
         0.26859E-04
         0.36377E-04
        -0.67143E-05
        -0.23504E-05
         0.20882E-03
         0.52992E-03
         0.32566E-03
        -0.46100E-03
        -0.13625E-03
        -0.22688E-03
         0.37479E-04
         0.26833E-04
         0.24565E-03
         0.14401E-02
         0.29393E-02
         0.28894E-02
         0.26299E-02
         0.33772E-02
         0.23996E-02
         0.52819E-03
        -0.43689E-03
        -0.49984E-03
        -0.34069E-03
        -0.23762E-03
        -0.63001E-04
         0.25650E-03
         0.51365E-03
         0.43041E-03
         0.31810E-03
         0.69885E-03
         0.11945E-02
         0.12063E-02
         0.61425E-03
        -0.15103E-03
        -0.21429E-03
        -0.23683E-03
        -0.26640E-03
        -0.20012E-03
        -0.10994E-03
        -0.29246E-03
        -0.22189E-03
        -0.79430E-04
        -0.15607E-03
        -0.37513E-03
        -0.45654E-03
        -0.41955E-03
        -0.34484E-03
        -0.33511E-03
        -0.84204E-04
        -0.15726E-04
        -0.21611E-03
         0.13148E-04
        -0.46175E-04
        -0.55401E-04
        -0.23531E-03
         0.12677E-04
        -0.15841E-05
        -0.11370E-03
        -0.46202E-04
        -0.32272E-03
        -0.33093E-03
        -0.42386E-03
        -0.17468E-03
        -0.14293E-03
         0.14195E-04
        -0.21804E-03
        -0.16649E-03
        -0.27766E-03
        -0.29144E-03
        -0.30909E-03
        -0.39862E-03
        -0.71561E-03
        -0.99173E-03
        -0.11419E-02
        -0.72574E-03
        -0.43863E-03
         0.45922E-04
         0.19188E-03
         0.43242E-03
         0.36878E-03
         0.31065E-03
         0.32130E-03
         0.37012E-03
         0.43628E-03
         0.91273E-04
        -0.30065E-03
        -0.20913E-05
        -0.39159E-03
        -0.42263E-03
        -0.62655E-03
        -0.56980E-03
         0.44701E-04
         0.15218E-04
        -0.12547E-02
        -0.23759E-02
        -0.21147E-02
        -0.14891E-02
        -0.94839E-03
        -0.58632E-03
        -0.18012E-03
         0.42496E-04
         0.18786E-03
         0.50373E-03
         0.86720E-03
         0.11650E-02
         0.14031E-02
         0.15952E-02
         0.15811E-02
         0.11091E-02
         0.63420E-03
         0.32634E-03
        -0.81993E-04
        -0.15582E-03
        -0.12725E-03
        -0.12151E-03
         0.53554E-05
         0.15337E-03
        -0.21409E-03
        -0.12886E-03
        -0.50985E-04
        -0.65204E-04
        -0.30493E-03
        -0.43389E-03
        -0.39092E-03
        -0.26704E-03
        -0.36713E-03
        -0.13914E-03
        -0.42744E-04
        -0.16630E-03
        -0.80392E-04
        -0.51466E-04
        -0.32841E-04
         0.19923E-04
        -0.70309E-04
        -0.10705E-03
        -0.16844E-04
        -0.11243E-03
        -0.14062E-03
         0.62200E-04
         0.18721E-03
        -0.12648E-05
        -0.78896E-04
         0.99929E-05
        -0.29860E-04
         0.14072E-03
        -0.89466E-04
        -0.22091E-03
        -0.32253E-03
        -0.83034E-04
         0.41710E-03
         0.75208E-03
         0.79365E-03
         0.30671E-03
         0.95333E-04
        -0.88848E-05
         0.17190E-03
         0.41019E-03
         0.38988E-03
         0.50903E-03
         0.75673E-03
         0.92636E-03
         0.10335E-02
         0.51031E-03
        -0.18580E-04
         0.25446E-03
        -0.37447E-03
        -0.62177E-03
        -0.69334E-03
        -0.58979E-03
        -0.22087E-03
         0.40948E-03
         0.18604E-02
         0.28592E-02
         0.19759E-02
         0.96297E-03
         0.61588E-03
         0.42923E-03
         0.16377E-03
         0.56016E-04
         0.19885E-03
         0.50284E-03
         0.81017E-03
         0.11251E-02
         0.17955E-02
         0.25792E-02
         0.26496E-02
         0.19931E-02
         0.12012E-02
         0.60078E-03
        -0.13658E-03
        -0.13769E-03
        -0.15523E-03
        -0.22414E-03
         0.36971E-04
         0.22088E-03
        -0.89014E-04
        -0.43091E-04
        -0.17031E-03
        -0.67063E-04
        -0.64344E-04
        -0.15323E-03
        -0.21385E-03
         0.21979E-04
         0.85816E-04
        -0.29032E-03
        -0.25874E-03
        -0.29338E-03
        -0.29656E-03
        -0.33988E-03
        -0.16520E-03
        -0.12718E-03
        -0.23207E-03
        -0.28106E-03
        -0.18355E-03
        -0.27106E-03
         0.13055E-03
         0.15137E-03
        -0.12131E-06
        -0.32647E-03
        -0.23838E-03
        -0.17295E-03
        -0.17207E-03
         0.11322E-03
        -0.22851E-04
        -0.15333E-03
        -0.21617E-03
         0.56379E-03
         0.10760E-02
         0.11057E-02
         0.76326E-03
        -0.60808E-04
        -0.19086E-03
        -0.20989E-03
        -0.65710E-04
         0.16196E-03
         0.17356E-03
         0.29820E-03
         0.61456E-03
         0.10225E-02
         0.13904E-02
         0.73947E-03
         0.13134E-03
         0.45316E-03
        -0.17367E-03
        -0.40765E-03
        -0.49706E-03
        -0.40016E-03
         0.99777E-04
         0.13131E-02
         0.35620E-02
         0.46411E-02
         0.24793E-02
         0.84592E-03
         0.11152E-02
         0.94453E-03
         0.32674E-03
        -0.73268E-04
        -0.11175E-03
         0.14804E-03
         0.53616E-03
         0.94242E-03
         0.15674E-02
         0.24370E-02
         0.29996E-02
         0.27897E-02
         0.19223E-02
         0.99077E-03
        -0.19478E-03
        -0.15408E-03
        -0.23548E-03
        -0.42637E-03
        -0.10083E-04
         0.14159E-03
        -0.20503E-04
         0.17587E-04
        -0.20335E-03
         0.14643E-04
         0.77950E-04
         0.30908E-04
        -0.99607E-04
         0.17620E-03
         0.29830E-03
        -0.39473E-03
        -0.19065E-03
        -0.51109E-03
        -0.14628E-03
        -0.10734E-03
         0.15779E-03
         0.13181E-03
         0.29753E-04
        -0.16634E-03
        -0.40921E-04
        -0.33616E-03
         0.23838E-03
         0.14276E-03
        -0.17860E-03
        -0.15319E-03
        -0.51132E-03
        -0.32092E-03
        -0.47609E-03
        -0.10406E-03
        -0.28779E-04
        -0.15134E-03
        -0.16860E-03
         0.61333E-03
         0.66881E-03
         0.25394E-03
        -0.45328E-03
        -0.80012E-03
        -0.34040E-03
        -0.13257E-03
        -0.40057E-04
         0.44345E-03
         0.44429E-03
         0.47739E-03
         0.66246E-03
         0.10714E-02
         0.15533E-02
         0.73889E-03
         0.18397E-03
         0.56719E-03
        -0.10204E-03
        -0.29040E-03
        -0.35299E-03
        -0.22877E-03
         0.25957E-03
         0.13292E-02
         0.24255E-02
         0.21291E-02
        -0.11713E-03
        -0.20828E-02
        -0.49309E-03
         0.86379E-03
         0.84198E-03
         0.45317E-03
         0.17501E-03
         0.45943E-03
         0.13934E-02
         0.24903E-02
         0.31078E-02
         0.34249E-02
         0.37088E-02
         0.34087E-02
         0.23327E-02
         0.12060E-02
        -0.25401E-04
        -0.49007E-05
        -0.18978E-03
        -0.47277E-03
         0.11052E-03
         0.42990E-03
         0.20421E-03
         0.17673E-03
         0.57418E-04
         0.14489E-03
         0.27348E-03
         0.43340E-03
         0.27896E-03
         0.16484E-03
         0.40707E-03
        -0.29437E-03
         0.25218E-03
        -0.57825E-03
         0.45639E-03
         0.55032E-03
         0.11133E-02
         0.78998E-03
         0.93742E-03
         0.34690E-03
         0.17247E-03
        -0.14056E-03
         0.85316E-05
        -0.80032E-04
        -0.16743E-03
         0.19762E-03
        -0.60495E-03
        -0.37171E-04
        -0.55843E-03
         0.71567E-04
        -0.26358E-04
        -0.15204E-03
        -0.18129E-04
         0.49661E-03
         0.67879E-03
         0.71044E-03
         0.33615E-03
        -0.68486E-03
        -0.20073E-03
         0.57327E-03
         0.92364E-03
         0.22923E-02
         0.20602E-02
         0.18538E-02
         0.19457E-02
         0.23937E-02
         0.30114E-02
         0.14698E-02
         0.91661E-04
         0.93118E-03
        -0.31595E-03
        -0.15713E-03
         0.42434E-03
         0.85185E-03
         0.12681E-02
         0.27854E-02
         0.48929E-02
         0.57346E-02
         0.28778E-02
        -0.24965E-02
        -0.20861E-02
         0.96282E-03
         0.23893E-02
         0.22883E-02
         0.18418E-02
         0.27244E-02
         0.51517E-02
         0.75422E-02
         0.83876E-02
         0.81976E-02
         0.77084E-02
         0.62889E-02
         0.41555E-02
         0.22281E-02
        -0.13314E-03
        -0.46094E-03
        -0.87193E-03
        -0.76394E-03
        -0.58471E-03
         0.51168E-03
        -0.20004E-03
         0.76967E-04
         0.26399E-03
         0.33333E-03
        -0.26287E-03
        -0.46478E-03
        -0.46155E-03
        -0.28975E-03
        -0.85373E-03
        -0.40444E-03
         0.76313E-03
        -0.76107E-03
         0.96478E-03
         0.11395E-02
         0.20204E-02
         0.46431E-03
         0.21031E-02
         0.73771E-03
         0.41100E-03
        -0.16060E-04
        -0.51153E-03
        -0.12717E-02
        -0.32102E-02
        -0.33719E-03
        -0.55618E-03
         0.75554E-03
        -0.52967E-03
         0.34954E-03
        -0.13710E-02
        -0.13703E-02
        -0.89045E-03
        -0.15557E-02
        -0.31335E-02
        -0.61528E-02
        -0.98538E-02
        -0.75490E-02
        -0.33782E-02
         0.19324E-02
         0.32918E-02
         0.63750E-02
         0.53085E-02
         0.42479E-02
         0.38213E-02
         0.41063E-02
         0.48168E-02
         0.23706E-02
        -0.18254E-02
         0.52740E-03
        -0.23380E-02
        -0.15227E-02
        -0.67762E-03
        -0.52736E-03
        -0.10711E-02
        -0.16729E-02
        -0.37162E-02
        -0.96293E-02
        -0.16916E-01
        -0.18736E-01
        -0.11596E-01
        -0.16417E-02
         0.41191E-02
         0.55311E-02
         0.58785E-02
         0.84592E-02
         0.13044E-01
         0.16298E-01
         0.16120E-01
         0.14220E-01
         0.12326E-01
         0.96555E-02
         0.63726E-02
         0.33407E-02
        -0.11831E-02
        -0.24611E-02
        -0.35307E-02
        -0.22578E-02
        -0.34401E-02
        -0.83349E-03
        -0.17616E-02
        -0.34834E-03
         0.29569E-03
         0.11718E-02
        -0.18238E-02
        -0.34593E-02
        -0.32466E-02
        -0.10392E-02
        -0.40410E-02
        -0.10720E-02
         0.19852E-02
        -0.16974E-02
         0.18120E-02
         0.30209E-02
         0.37024E-02
         0.57874E-03
         0.36547E-02
         0.10169E-02
         0.17996E-02
        -0.11498E-03
        -0.85758E-03
        -0.34655E-02
        -0.10970E-01
        -0.87201E-03
        -0.40171E-03
         0.24044E-02
        -0.48066E-03
         0.48006E-03
        -0.53596E-02
        -0.50891E-02
        -0.39144E-02
        -0.64317E-02
        -0.13376E-01
        -0.25151E-01
        -0.37323E-01
        -0.25568E-01
        -0.10463E-01
         0.40993E-02
         0.78191E-02
         0.14289E-01
         0.11878E-01
         0.92860E-02
         0.76431E-02
         0.68584E-02
         0.68093E-02
         0.27039E-02
        -0.65677E-02
        -0.17715E-02
        -0.72793E-02
        -0.56038E-02
        -0.52230E-02
        -0.65780E-02
        -0.93412E-02
        -0.15208E-01
        -0.29311E-01
        -0.51879E-01
        -0.67813E-01
        -0.59456E-01
        -0.33299E-01
        -0.72722E-02
         0.59300E-02
         0.96902E-02
         0.12436E-01
         0.18861E-01
         0.27511E-01
         0.32414E-01
         0.30270E-01
         0.24705E-01
         0.18776E-01
         0.12849E-01
         0.72041E-02
         0.27586E-02
        -0.12037E-02
        -0.31948E-02
        -0.48297E-02
        -0.28139E-02
        -0.49611E-02
        -0.15800E-02
        -0.18788E-02
         0.51309E-03
         0.12156E-02
         0.32961E-02
        -0.14882E-02
        -0.36475E-02
        -0.38905E-02
         0.19751E-03
        -0.37753E-02
        -0.83351E-03
         0.40727E-02
        -0.16999E-02
         0.32350E-02
         0.61598E-02
         0.54491E-02
         0.29530E-02
         0.43592E-02
         0.16159E-02
         0.48082E-02
         0.35200E-03
         0.11518E-02
        -0.31513E-02
        -0.16473E-01
         0.74801E-03
         0.43487E-03
         0.41441E-02
         0.30297E-03
         0.11795E-02
        -0.71614E-02
        -0.67295E-02
        -0.50485E-02
        -0.72605E-02
        -0.19680E-01
        -0.38983E-01
        -0.55075E-01
        -0.37960E-01
        -0.13562E-01
         0.52419E-02
         0.10602E-01
         0.19064E-01
         0.16577E-01
         0.13421E-01
         0.11096E-01
         0.93226E-02
         0.83888E-02
         0.31576E-02
        -0.75717E-02
        -0.22613E-02
        -0.79947E-02
        -0.58649E-02
        -0.55314E-02
        -0.72982E-02
        -0.11045E-01
        -0.20705E-01
        -0.42660E-01
        -0.71112E-01
        -0.86804E-01
        -0.73830E-01
        -0.41277E-01
        -0.91446E-02
         0.58872E-02
         0.10083E-01
         0.14625E-01
         0.23340E-01
         0.34523E-01
         0.41212E-01
         0.38781E-01
         0.31444E-01
         0.22806E-01
         0.14715E-01
         0.77033E-02
         0.26005E-02
  
SCALARS                      strain_yz  double 1
LOOKUP_TABLE default
         0.30792E-01
         0.36759E-01
         0.13248E-01
         0.35236E-01
         0.50530E-10
         0.61159E-10
         0.83060E-10
         0.62355E-10
        -0.96475E-01
        -0.80547E-01
         0.58266E-10
         0.30838E-10
         0.41576E-01
         0.29412E-01
         0.47738E-10
        -0.91904E-11
         0.31479E-02
         0.30788E-01
        -0.14694E-10
         0.13260E-10
         0.62556E-01
         0.84443E-01
         0.40890E-01
         0.16472E-10
         0.46282E-10
         0.47987E-10
         0.75530E-01
         0.13243E+00
         0.58900E-10
         0.72104E-10
        -0.12998E-01
        -0.54792E-02
         0.14868E-01
         0.62361E-11
         0.25155E-10
        -0.13157E-10
        -0.26185E-01
        -0.10737E-01
         0.16330E-10
         0.27897E-10
        -0.20823E-02
        -0.15028E-02
        -0.30713E-10
        -0.55902E-10
         0.58802E-01
         0.82290E-03
        -0.22656E-10
         0.24588E-11
         0.45141E-01
         0.27140E-10
         0.22190E-01
        -0.16850E-10
         0.10782E+00
         0.58388E-10
         0.13521E+00
         0.51981E-10
         0.12834E+00
         0.40982E-01
        -0.39369E-11
        -0.73038E-11
         0.46277E-01
         0.61257E-01
         0.73669E-11
        -0.58488E-10
         0.54044E-01
         0.71660E-10
         0.15786E-01
         0.43220E-10
        -0.13665E+00
        -0.52451E-01
        -0.63788E-11
         0.42566E-10
         0.44985E-02
         0.55637E-10
         0.19195E+00
         0.68494E-10
         0.23886E+00
         0.60520E-10
         0.23720E+00
        -0.10183E-10
         0.22088E+00
         0.14140E+00
        -0.13217E-10
        -0.39354E-10
         0.66031E-01
        -0.69014E-10
         0.12680E+00
        -0.13519E-12
         0.16153E+00
        -0.27404E-10
         0.17935E+00
         0.13102E+00
        -0.10543E-09
        -0.64862E-10
         0.10840E+00
         0.36229E-10
         0.58662E-01
         0.42899E-10
        -0.19403E-01
         0.25555E-10
        -0.11727E+00
        -0.10272E+00
        -0.38711E-10
         0.33863E-10
        -0.32125E+00
        -0.33992E+00
        -0.20857E-09
        -0.18581E-09
        -0.16233E+00
        -0.32353E-10
        -0.56455E-01
         0.10569E-10
         0.16458E-01
        -0.41015E-11
         0.10296E+00
         0.25353E-11
         0.14813E+00
         0.31251E-11
         0.19648E+00
         0.22811E-10
         0.16495E+00
         0.23410E-10
         0.25056E+00
         0.14396E-09
         0.32754E+00
         0.32624E-09
         0.36502E+00
         0.26892E-09
         0.29976E+00
         0.14559E-09
         0.19849E+00
         0.86478E-10
         0.17160E+00
         0.74603E-10
         0.22907E+00
         0.69795E-10
         0.34879E+00
         0.87289E-10
         0.39811E+00
         0.14556E-09
         0.30976E+00
         0.85704E-11
         0.22475E+00
        -0.60489E-10
         0.13187E+00
        -0.56531E-10
        -0.19188E-01
        -0.14353E-09
        -0.14724E+00
        -0.19001E-09
        -0.27058E+00
        -0.29234E-09
        -0.31052E+00
        -0.25862E-09
        -0.30723E+00
        -0.19596E-09
         0.19427E-01
         0.20711E-01
        -0.75642E-02
         0.30155E-01
        -0.11713E+00
        -0.10854E+00
         0.45292E-01
         0.35149E-01
         0.48033E-02
         0.41400E-01
         0.10293E+00
         0.15881E+00
         0.71016E-01
         0.13059E+00
         0.25401E+00
         0.73323E-02
        -0.13493E-01
         0.28332E-01
        -0.17171E-01
        -0.83213E-02
         0.31133E-01
         0.44725E-01
         0.10239E+00
         0.38990E-01
         0.58115E-01
         0.70866E-01
         0.17485E+00
         0.21277E+00
         0.23754E+00
         0.89042E-01
         0.57249E-01
         0.10387E+00
         0.33898E-01
        -0.24086E-01
        -0.13785E+00
        -0.52311E-01
         0.13132E-01
         0.33376E+00
         0.37618E+00
         0.37664E+00
         0.34864E+00
         0.27237E+00
         0.15409E+00
         0.17393E+00
         0.20211E+00
         0.19137E+00
         0.11435E+00
         0.38028E-01
        -0.61165E-01
        -0.19364E+00
        -0.31383E+00
        -0.18225E+00
        -0.28157E+00
        -0.34143E+00
        -0.14329E+00
        -0.29185E-01
         0.79705E-01
         0.20035E+00
         0.32038E+00
         0.41950E+00
         0.42306E+00
         0.24684E+00
         0.21622E+00
         0.33014E+00
         0.25571E+00
         0.15696E+00
         0.14459E+00
         0.23173E+00
         0.35766E+00
         0.38217E+00
         0.26167E+00
         0.11632E+00
        -0.62514E-01
        -0.37333E+00
        -0.73610E+00
        -0.76223E+00
        -0.51605E+00
        -0.37680E+00
         0.89961E-02
        -0.23468E-02
        -0.21447E-01
         0.66009E-02
        -0.94054E-01
        -0.10689E+00
         0.14098E-01
         0.12777E-01
         0.79870E-02
         0.16820E-01
         0.58490E-01
         0.95933E-01
         0.22220E-01
         0.85224E-01
         0.19136E+00
         0.26721E-01
        -0.89916E-02
         0.25603E-01
         0.77257E-02
        -0.26347E-02
         0.59489E-01
         0.82600E-01
         0.79433E-01
         0.46197E-01
         0.27899E-01
         0.53093E-01
         0.12079E+00
         0.15985E+00
         0.21281E+00
         0.72837E-01
         0.69070E-02
         0.25219E-01
        -0.28068E-01
        -0.79594E-01
        -0.10765E+00
        -0.58772E-01
        -0.17885E-01
         0.26837E+00
         0.31951E+00
         0.36196E+00
         0.39245E+00
         0.30590E+00
         0.18461E+00
         0.81456E-01
         0.41666E-01
        -0.21815E-01
        -0.61634E-01
        -0.12621E+00
        -0.21550E+00
        -0.30468E+00
        -0.36264E+00
        -0.19952E+00
        -0.19480E+00
        -0.23475E+00
        -0.12459E+00
        -0.50162E-01
         0.16786E-01
         0.11353E+00
         0.24923E+00
         0.37547E+00
         0.43819E+00
         0.45255E+00
         0.43526E+00
         0.42301E+00
         0.35474E+00
         0.25076E+00
         0.17986E+00
         0.15302E+00
         0.13180E+00
         0.51043E-01
        -0.61580E-01
        -0.16671E+00
        -0.30839E+00
        -0.53853E+00
        -0.76783E+00
        -0.72155E+00
        -0.45011E+00
        -0.28768E+00
        -0.63030E-02
        -0.93802E-02
        -0.58778E-02
        -0.47485E-02
        -0.96268E-03
        -0.61238E-02
        -0.32365E-02
        -0.72373E-02
        -0.72157E-02
        -0.86251E-02
         0.22304E-01
         0.49269E-01
         0.54578E-02
         0.35137E-01
         0.11044E+00
         0.66506E-02
        -0.17893E-01
         0.48234E-03
        -0.34660E-02
        -0.15832E-01
         0.23597E-01
         0.47906E-01
         0.10439E-01
         0.87060E-02
        -0.41585E-02
         0.58406E-02
         0.56469E-01
         0.86980E-01
         0.13127E+00
         0.26333E-01
        -0.22980E-01
        -0.24198E-01
        -0.35185E-01
        -0.33808E-01
        -0.71509E-02
        -0.10479E-01
        -0.93699E-02
         0.16964E+00
         0.22521E+00
         0.27938E+00
         0.31808E+00
         0.21796E+00
         0.11774E+00
        -0.95488E-02
        -0.41946E-01
        -0.81709E-01
        -0.89632E-01
        -0.10588E+00
        -0.11138E+00
        -0.93134E-01
        -0.65731E-01
        -0.26269E-01
        -0.76418E-02
         0.70659E-02
        -0.99210E-02
        -0.75222E-02
         0.79379E-02
         0.65360E-01
         0.16857E+00
         0.27683E+00
         0.36046E+00
         0.41704E+00
         0.42845E+00
         0.39213E+00
         0.30082E+00
         0.19580E+00
         0.93458E-01
         0.14034E-01
        -0.43712E-01
        -0.88558E-01
        -0.12532E+00
        -0.16233E+00
        -0.18231E+00
        -0.17516E+00
        -0.14442E+00
        -0.84851E-01
        -0.11018E-01
         0.17487E-01
        -0.11617E-01
        -0.82326E-02
        -0.31801E-03
        -0.76267E-02
         0.21262E-01
         0.18953E-01
        -0.74593E-02
        -0.13223E-01
        -0.15266E-01
        -0.18025E-01
         0.42866E-02
         0.20229E-01
         0.40701E-03
         0.86052E-02
         0.52691E-01
        -0.93554E-02
        -0.23080E-01
        -0.11242E-01
        -0.14781E-01
        -0.23961E-01
         0.64450E-03
         0.15562E-01
        -0.78626E-02
        -0.86023E-02
        -0.18239E-01
        -0.87849E-02
         0.19211E-01
         0.38984E-01
         0.70431E-01
        -0.61415E-03
        -0.16289E-01
        -0.16478E-01
        -0.18365E-01
        -0.76120E-02
         0.21886E-01
         0.72976E-02
        -0.19821E-02
         0.93697E-01
         0.14145E+00
         0.19044E+00
         0.22578E+00
         0.13622E+00
         0.61404E-01
        -0.16324E-01
        -0.24508E-01
        -0.33508E-01
        -0.32727E-01
        -0.33955E-01
        -0.27110E-01
        -0.63516E-02
         0.18710E-01
         0.20706E-01
         0.46344E-01
         0.62200E-01
         0.25393E-01
         0.76505E-02
         0.59644E-02
         0.32180E-01
         0.92099E-01
         0.17826E+00
         0.27534E+00
         0.35659E+00
         0.37056E+00
         0.29974E+00
         0.20708E+00
         0.12048E+00
         0.44540E-01
        -0.79260E-02
        -0.38204E-01
        -0.47980E-01
        -0.49302E-01
        -0.54346E-01
        -0.49677E-01
        -0.25379E-01
         0.12570E-01
         0.48823E-01
         0.70674E-01
         0.72355E-01
        -0.95024E-02
        -0.73683E-02
        -0.42891E-02
        -0.56183E-02
         0.28716E-02
         0.38518E-02
        -0.85134E-02
        -0.12534E-01
        -0.12500E-01
        -0.16861E-01
        -0.51835E-02
         0.16995E-02
        -0.46346E-02
        -0.45384E-02
         0.15652E-01
        -0.89753E-02
        -0.17624E-01
        -0.76872E-02
        -0.12785E-01
        -0.19033E-01
        -0.47166E-02
         0.20102E-02
        -0.65940E-02
        -0.87699E-02
        -0.18720E-01
        -0.67390E-02
        -0.38467E-03
         0.10203E-01
         0.31391E-01
        -0.86861E-02
        -0.43311E-02
        -0.37593E-02
        -0.43912E-02
        -0.17059E-02
         0.28084E-02
        -0.17501E-02
        -0.46489E-02
         0.39220E-01
         0.71627E-01
         0.10863E+00
         0.14054E+00
         0.80313E-01
         0.30524E-01
        -0.67616E-02
        -0.45329E-02
        -0.19577E-02
        -0.29385E-03
         0.96003E-04
         0.81474E-03
         0.41664E-02
         0.92599E-02
         0.66449E-02
         0.10804E-01
         0.15797E-01
         0.46789E-02
        -0.71480E-03
        -0.15754E-02
         0.77119E-02
         0.35435E-01
         0.90763E-01
         0.17050E+00
         0.24373E+00
         0.26582E+00
         0.21111E+00
         0.12585E+00
         0.59607E-01
         0.19902E-01
        -0.18447E-02
        -0.10613E-01
        -0.92860E-02
        -0.38310E-02
        -0.69800E-03
         0.59147E-03
         0.35853E-02
         0.11202E-01
         0.19228E-01
         0.21782E-01
         0.19658E-01
        -0.46188E-02
        -0.38970E-02
        -0.30316E-02
        -0.17836E-02
        -0.22693E-02
        -0.84327E-03
        -0.48874E-02
        -0.68847E-02
        -0.59218E-02
        -0.92017E-02
        -0.47163E-02
        -0.25990E-02
        -0.32450E-02
        -0.53276E-02
         0.74979E-03
        -0.35769E-02
        -0.81730E-02
        -0.23633E-02
        -0.58091E-02
        -0.92517E-02
        -0.35559E-02
        -0.13467E-02
        -0.39650E-02
        -0.42762E-02
        -0.10657E-01
        -0.27293E-02
        -0.44862E-02
        -0.32783E-03
         0.95373E-02
        -0.68035E-02
         0.61862E-03
         0.22433E-04
         0.10427E-02
         0.74631E-03
        -0.28723E-02
        -0.30826E-02
        -0.30445E-02
         0.10272E-01
         0.26658E-01
         0.46202E-01
         0.63572E-01
         0.33715E-01
         0.10563E-01
        -0.32082E-02
        -0.10931E-02
         0.10654E-02
         0.32180E-02
         0.45830E-02
         0.41270E-02
         0.25448E-02
         0.10181E-02
         0.22500E-03
        -0.24227E-02
        -0.21148E-02
        -0.17439E-02
        -0.96315E-03
        -0.61853E-03
         0.43300E-03
         0.73182E-02
         0.32315E-01
         0.79346E-01
         0.12491E+00
         0.13645E+00
         0.10235E+00
         0.53947E-01
         0.20252E-01
         0.38335E-02
        -0.34902E-02
        -0.57045E-02
        -0.43496E-02
        -0.10228E-02
         0.25877E-02
         0.38546E-02
         0.16480E-02
        -0.91638E-03
        -0.14729E-02
        -0.17464E-02
        -0.19281E-02
        -0.18552E-02
        -0.15008E-02
        -0.91269E-03
         0.11987E-03
         0.15721E-03
         0.17414E-02
        -0.18559E-02
        -0.27902E-02
        -0.19630E-02
        -0.36681E-02
        -0.23016E-02
        -0.17951E-02
        -0.79679E-03
        -0.32946E-02
        -0.32295E-02
        -0.46016E-03
        -0.23172E-02
        -0.18125E-03
        -0.13314E-02
        -0.30371E-02
        -0.18386E-02
        -0.19817E-02
        -0.20647E-02
        -0.12096E-02
        -0.46415E-02
        -0.50792E-03
        -0.42722E-02
        -0.43600E-02
        -0.25454E-02
        -0.45994E-02
         0.14864E-02
         0.62979E-03
         0.20248E-02
         0.24711E-02
        -0.40357E-03
        -0.71650E-03
        -0.64619E-03
        -0.28956E-02
         0.42711E-03
         0.52721E-02
         0.10221E-01
         0.36326E-02
        -0.77171E-03
        -0.18018E-02
        -0.96825E-03
        -0.30647E-03
         0.15880E-02
         0.31613E-02
         0.37430E-02
         0.37673E-02
         0.36626E-02
         0.31252E-02
         0.24201E-03
         0.68646E-03
         0.93413E-03
         0.19076E-02
         0.23527E-02
         0.65557E-03
        -0.18948E-02
         0.17764E-02
         0.14834E-01
         0.28945E-01
         0.31624E-01
         0.22335E-01
         0.10412E-01
         0.14005E-02
        -0.28295E-02
        -0.45827E-02
        -0.53659E-02
        -0.50467E-02
        -0.36046E-02
        -0.11474E-02
         0.95351E-03
         0.12673E-02
         0.11909E-02
         0.23859E-02
         0.30385E-02
         0.21079E-02
        -0.98963E-03
        -0.69543E-03
        -0.26421E-03
         0.38818E-03
         0.12828E-02
         0.28706E-02
        -0.58420E-03
        -0.11204E-02
        -0.58649E-03
        -0.13058E-02
        -0.93568E-03
        -0.70317E-03
         0.35459E-03
        -0.19759E-02
        -0.35114E-02
         0.19882E-03
        -0.73539E-04
         0.11497E-03
         0.24191E-03
        -0.38604E-03
        -0.40775E-03
        -0.15709E-02
        -0.89886E-03
        -0.28457E-03
        -0.18824E-02
        -0.14533E-03
        -0.35983E-02
        -0.54587E-02
        -0.73010E-02
        -0.32985E-02
         0.11417E-02
         0.41153E-03
         0.17254E-02
         0.27583E-02
         0.78997E-03
         0.20904E-03
         0.26908E-03
        -0.70790E-02
        -0.10113E-01
        -0.12750E-01
        -0.14172E-01
        -0.94809E-02
        -0.52191E-02
        -0.11889E-02
        -0.88035E-03
        -0.70206E-03
         0.79622E-03
         0.22924E-02
         0.34653E-02
         0.46371E-02
         0.56593E-02
         0.46806E-02
         0.19820E-02
         0.28714E-02
         0.22821E-02
         0.30755E-02
         0.36031E-02
         0.18967E-02
        -0.28416E-02
        -0.87531E-02
        -0.14140E-01
        -0.18544E-01
        -0.20622E-01
        -0.15349E-01
        -0.85864E-02
        -0.41388E-02
        -0.19396E-02
        -0.25412E-02
        -0.38924E-02
        -0.43444E-02
        -0.39564E-02
        -0.23219E-02
         0.75769E-04
         0.20894E-02
         0.41476E-02
         0.65251E-02
         0.69661E-02
         0.50833E-02
        -0.89611E-03
        -0.47279E-03
         0.11178E-04
         0.22095E-03
         0.22197E-02
         0.36902E-02
        -0.20303E-03
        -0.69634E-03
        -0.30573E-03
        -0.56928E-03
        -0.52313E-03
        -0.18352E-03
         0.10024E-02
        -0.16648E-02
        -0.36406E-02
         0.45593E-04
         0.57601E-03
        -0.18836E-03
         0.84021E-03
         0.70131E-03
         0.12864E-02
        -0.19556E-03
         0.68960E-03
         0.24932E-03
        -0.83506E-03
        -0.64683E-04
        -0.34447E-02
        -0.56763E-02
        -0.86011E-02
        -0.25105E-02
         0.75527E-03
         0.38642E-03
         0.14033E-02
         0.29042E-02
         0.19505E-02
         0.98726E-03
         0.90463E-03
        -0.85243E-02
        -0.13542E-01
        -0.18734E-01
        -0.22638E-01
        -0.13667E-01
        -0.58141E-02
        -0.40956E-04
         0.81847E-06
         0.12277E-03
         0.10725E-02
         0.24349E-02
         0.39995E-02
         0.58951E-02
         0.77005E-02
         0.59764E-02
         0.40439E-02
         0.52358E-02
         0.39527E-02
         0.44757E-02
         0.48543E-02
         0.29362E-02
        -0.27979E-02
        -0.11977E-01
        -0.23326E-01
        -0.34722E-01
        -0.39996E-01
        -0.29034E-01
        -0.12705E-01
        -0.21128E-02
         0.24232E-02
         0.19466E-02
        -0.32492E-03
        -0.16716E-02
        -0.22388E-02
        -0.13941E-02
         0.10513E-02
         0.40279E-02
         0.74228E-02
         0.10676E-01
         0.10462E-01
         0.76193E-02
        -0.95651E-03
        -0.45322E-03
         0.18930E-04
         0.10208E-03
         0.24251E-02
         0.39070E-02
        -0.14352E-03
        -0.62682E-03
        -0.23350E-03
        -0.32900E-03
        -0.54084E-03
        -0.18291E-03
         0.12526E-02
        -0.18142E-02
        -0.43370E-02
         0.22367E-03
         0.98317E-03
        -0.30981E-03
         0.13867E-02
         0.13829E-02
         0.13935E-02
         0.13663E-04
         0.69843E-03
         0.59745E-03
        -0.41371E-03
         0.13246E-03
        -0.37581E-02
        -0.60778E-02
        -0.89300E-02
        -0.19785E-02
         0.90871E-03
         0.52368E-03
         0.16175E-02
         0.31640E-02
         0.22423E-02
         0.12413E-02
         0.11882E-02
        -0.10316E-01
        -0.16270E-01
        -0.21611E-01
        -0.24915E-01
        -0.13973E-01
        -0.55709E-02
        -0.81046E-04
         0.87464E-05
         0.36115E-03
         0.15522E-02
         0.32644E-02
         0.51110E-02
         0.69298E-02
         0.84785E-02
         0.63507E-02
         0.45390E-02
         0.58403E-02
         0.45395E-02
         0.51649E-02
         0.54997E-02
         0.32532E-02
        -0.37108E-02
        -0.15980E-01
        -0.31054E-01
        -0.43511E-01
        -0.45126E-01
        -0.30212E-01
        -0.13993E-01
        -0.42790E-02
         0.59654E-03
         0.78403E-03
        -0.10667E-02
        -0.19626E-02
        -0.18400E-02
        -0.35616E-03
         0.26457E-02
         0.60173E-02
         0.91136E-02
         0.11616E-01
         0.10999E-01
         0.82060E-02
        -0.96858E-03
        -0.61699E-03
        -0.19093E-03
         0.16633E-03
         0.20731E-02
         0.36637E-02
        -0.23417E-03
        -0.53311E-03
        -0.61989E-04
        -0.15301E-03
        -0.68057E-03
        -0.62342E-03
         0.84320E-03
        -0.19375E-02
        -0.50654E-02
         0.50796E-03
         0.13657E-02
        -0.95855E-04
         0.15291E-02
         0.16751E-02
         0.62530E-03
        -0.56611E-03
        -0.42723E-03
         0.37853E-03
        -0.33351E-03
         0.77021E-04
        -0.41869E-02
        -0.71356E-02
        -0.10550E-01
        -0.22123E-02
         0.13342E-02
         0.61143E-03
         0.21406E-02
         0.35195E-02
         0.18314E-02
         0.85535E-03
         0.76257E-03
        -0.11952E-01
        -0.19318E-01
        -0.25742E-01
        -0.29229E-01
        -0.16198E-01
        -0.66189E-02
        -0.10588E-02
        -0.62997E-03
         0.16342E-04
         0.17879E-02
         0.39193E-02
         0.58297E-02
         0.73043E-02
         0.82839E-02
         0.61371E-02
         0.39496E-02
         0.50436E-02
         0.38601E-02
         0.42044E-02
         0.44795E-02
         0.22851E-02
        -0.51724E-02
        -0.19337E-01
        -0.37954E-01
        -0.52783E-01
        -0.52664E-01
        -0.34131E-01
        -0.16725E-01
        -0.69577E-02
        -0.25087E-02
        -0.27276E-02
        -0.40516E-02
        -0.39139E-02
        -0.26820E-02
        -0.25863E-03
         0.31901E-02
         0.63945E-02
         0.88135E-02
         0.10457E-01
         0.95561E-02
         0.70562E-02
        -0.84943E-03
        -0.64153E-03
        -0.27076E-03
         0.28956E-03
         0.21633E-02
         0.39148E-02
        -0.10556E-03
        -0.31054E-03
         0.82179E-04
         0.64311E-04
        -0.54973E-03
        -0.64857E-03
         0.67239E-03
        -0.18587E-02
        -0.52579E-02
         0.47239E-03
         0.15324E-02
        -0.10893E-04
         0.13520E-02
         0.17720E-02
         0.20442E-03
        -0.73852E-03
        -0.89460E-03
         0.99307E-04
        -0.14553E-03
        -0.41525E-04
        -0.43176E-02
        -0.76584E-02
        -0.11942E-01
        -0.23912E-02
         0.13732E-02
         0.64487E-03
         0.22022E-02
         0.36705E-02
         0.16579E-02
         0.42694E-03
         0.31313E-03
        -0.12692E-01
        -0.21101E-01
        -0.29150E-01
        -0.34578E-01
        -0.19445E-01
        -0.76661E-02
        -0.12724E-02
        -0.59655E-03
         0.81612E-04
         0.17647E-02
         0.37284E-02
         0.55014E-02
         0.70835E-02
         0.83036E-02
         0.63967E-02
         0.37943E-02
         0.54239E-02
         0.27562E-02
         0.28766E-02
         0.37561E-02
         0.20234E-02
        -0.54040E-02
        -0.20344E-01
        -0.41424E-01
        -0.60058E-01
        -0.63921E-01
        -0.42330E-01
        -0.18769E-01
        -0.72415E-02
        -0.32650E-02
        -0.35876E-02
        -0.44449E-02
        -0.38570E-02
        -0.27000E-02
        -0.67146E-03
         0.23178E-02
         0.50863E-02
         0.77815E-02
         0.10310E-01
         0.99476E-02
         0.75178E-02
        -0.57251E-03
        -0.26106E-03
        -0.28243E-04
         0.45071E-03
         0.20441E-02
         0.36800E-02
         0.24118E-03
        -0.42448E-04
         0.16888E-03
         0.33210E-03
        -0.34627E-03
        -0.53293E-03
         0.10508E-02
        -0.17155E-02
        -0.55442E-02
         0.36268E-03
         0.15761E-02
        -0.18570E-04
         0.13178E-02
         0.18911E-02
        -0.17716E-04
        -0.94560E-03
        -0.10714E-02
         0.28367E-05
         0.25886E-03
        -0.11633E-03
        -0.39549E-02
        -0.68530E-02
        -0.11230E-01
        -0.20346E-02
         0.12304E-02
         0.64722E-03
         0.19596E-02
         0.33288E-02
         0.14569E-02
         0.47754E-03
         0.61909E-03
        -0.12979E-01
        -0.20654E-01
        -0.28321E-01
        -0.34789E-01
        -0.19974E-01
        -0.80223E-02
        -0.13243E-02
        -0.44958E-03
         0.35635E-03
         0.18249E-02
         0.33868E-02
         0.47220E-02
         0.60284E-02
         0.71408E-02
         0.57491E-02
         0.30733E-02
         0.46733E-02
         0.21968E-02
         0.28863E-02
         0.41868E-02
         0.21961E-02
        -0.62604E-02
        -0.22644E-01
        -0.43008E-01
        -0.60213E-01
        -0.66532E-01
        -0.46649E-01
        -0.21534E-01
        -0.87922E-02
        -0.43871E-02
        -0.41367E-02
        -0.46262E-02
        -0.35869E-02
        -0.22250E-02
        -0.52662E-03
         0.17518E-02
         0.35867E-02
         0.56940E-02
         0.83967E-02
         0.86499E-02
         0.66425E-02
        -0.56356E-03
        -0.34725E-04
         0.15716E-03
         0.32792E-03
         0.18305E-02
         0.29532E-02
         0.41059E-03
         0.14007E-04
         0.10427E-03
         0.35489E-03
        -0.19723E-03
        -0.30328E-03
         0.15215E-02
        -0.15468E-02
        -0.53748E-02
         0.29592E-03
         0.14744E-02
        -0.11339E-03
         0.14106E-02
         0.17894E-02
         0.38851E-03
        -0.10565E-02
        -0.61234E-03
         0.15439E-03
         0.24130E-03
        -0.53693E-04
        -0.35984E-02
        -0.61864E-02
        -0.10310E-01
        -0.20641E-02
         0.11894E-02
         0.76155E-03
         0.17864E-02
         0.29108E-02
         0.17844E-02
         0.11519E-02
         0.13356E-02
        -0.12434E-01
        -0.19136E-01
        -0.25668E-01
        -0.31720E-01
        -0.18981E-01
        -0.82583E-02
        -0.94063E-03
        -0.72805E-04
         0.81146E-03
         0.21302E-02
         0.34978E-02
         0.45945E-02
         0.55446E-02
         0.61790E-02
         0.47394E-02
         0.34853E-02
         0.37393E-02
         0.37496E-02
         0.46171E-02
         0.53031E-02
         0.26909E-02
        -0.63755E-02
        -0.22923E-01
        -0.41040E-01
        -0.54657E-01
        -0.60499E-01
        -0.45571E-01
        -0.23202E-01
        -0.90926E-02
        -0.34618E-02
        -0.29765E-02
        -0.35554E-02
        -0.27214E-02
        -0.14614E-02
         0.17956E-03
         0.23417E-02
         0.39627E-02
         0.54860E-02
         0.70270E-02
         0.64288E-02
         0.46691E-02
        -0.60669E-03
        -0.14175E-04
         0.36035E-03
         0.45563E-03
         0.19945E-02
         0.29299E-02
         0.33829E-03
        -0.83174E-04
        -0.41506E-05
         0.20962E-03
        -0.16299E-03
        -0.16143E-03
         0.15205E-02
        -0.13913E-02
        -0.47264E-02
         0.22308E-03
         0.12568E-02
        -0.44219E-04
         0.13013E-02
         0.16169E-02
         0.90485E-03
        -0.77798E-03
         0.78073E-04
         0.29237E-03
         0.95753E-04
         0.89245E-04
        -0.33333E-02
        -0.57973E-02
        -0.93557E-02
        -0.19149E-02
         0.13130E-02
         0.91374E-03
         0.19940E-02
         0.31228E-02
         0.22819E-02
         0.16542E-02
         0.15658E-02
        -0.11158E-01
        -0.17429E-01
        -0.23217E-01
        -0.27828E-01
        -0.16484E-01
        -0.73611E-02
        -0.30928E-03
         0.32424E-03
         0.92842E-03
         0.21183E-02
         0.35739E-02
         0.48913E-02
         0.59038E-02
         0.64028E-02
         0.47671E-02
         0.42710E-02
         0.36700E-02
         0.49489E-02
         0.53612E-02
         0.54703E-02
         0.29143E-02
        -0.53404E-02
        -0.20051E-01
        -0.36592E-01
        -0.48970E-01
        -0.51944E-01
        -0.38633E-01
        -0.20991E-01
        -0.75726E-02
        -0.10800E-02
        -0.80821E-03
        -0.18304E-02
        -0.18399E-02
        -0.14178E-02
        -0.14552E-03
         0.22312E-02
         0.44520E-02
         0.62374E-02
         0.73361E-02
         0.60895E-02
         0.41472E-02
        -0.54904E-03
        -0.20203E-03
         0.13169E-03
         0.53249E-03
         0.15218E-02
         0.26472E-02
         0.12206E-03
        -0.16043E-03
         0.71897E-04
         0.86094E-04
        -0.29637E-03
        -0.42052E-03
         0.93434E-03
        -0.13695E-02
        -0.44085E-02
         0.52753E-03
         0.12129E-02
         0.23977E-03
         0.13610E-02
         0.15668E-02
         0.11407E-02
        -0.31826E-03
         0.46166E-03
         0.59140E-03
        -0.36375E-04
         0.44154E-03
        -0.33489E-02
        -0.58735E-02
        -0.90410E-02
        -0.17421E-02
         0.14907E-02
         0.10389E-02
         0.20173E-02
         0.29118E-02
         0.15914E-02
         0.10267E-02
         0.92416E-03
        -0.10528E-01
        -0.17011E-01
        -0.22732E-01
        -0.26405E-01
        -0.14939E-01
        -0.62456E-02
        -0.31194E-04
         0.27370E-03
         0.48953E-03
         0.16686E-02
         0.30579E-02
         0.42029E-02
         0.50319E-02
         0.55220E-02
         0.43364E-02
         0.32584E-02
         0.28712E-02
         0.37373E-02
         0.39563E-02
         0.41659E-02
         0.20873E-02
        -0.49476E-02
        -0.17768E-01
        -0.34426E-01
        -0.47496E-01
        -0.48706E-01
        -0.34124E-01
        -0.17563E-01
        -0.57580E-02
        -0.53607E-04
        -0.14353E-03
        -0.17333E-02
        -0.23472E-02
        -0.23274E-02
        -0.13269E-02
         0.88672E-03
         0.28638E-02
         0.43493E-02
         0.59094E-02
         0.55817E-02
         0.37813E-02
        -0.43841E-03
        -0.28963E-03
        -0.12555E-03
         0.40289E-03
         0.95860E-03
         0.19508E-02
         0.47281E-04
        -0.17859E-03
         0.27317E-03
         0.59985E-04
        -0.34184E-03
        -0.41815E-03
         0.64791E-03
        -0.14159E-02
        -0.42165E-02
         0.10109E-02
         0.15203E-02
         0.42547E-03
         0.17959E-02
         0.18221E-02
         0.85071E-03
        -0.73286E-03
         0.19161E-03
         0.92547E-03
        -0.29774E-04
         0.72396E-03
        -0.35194E-02
        -0.63048E-02
        -0.99752E-02
        -0.18615E-02
         0.13774E-02
         0.91010E-03
         0.15726E-02
         0.21054E-02
         0.80893E-03
         0.33266E-03
         0.40815E-03
        -0.10651E-01
        -0.18070E-01
        -0.25110E-01
        -0.30047E-01
        -0.17083E-01
        -0.71884E-02
        -0.30268E-03
        -0.17901E-03
        -0.22801E-03
         0.92742E-03
         0.20128E-02
         0.26455E-02
         0.31364E-02
         0.35500E-02
         0.30988E-02
         0.20296E-02
         0.20637E-02
         0.21357E-02
         0.26252E-02
         0.34543E-02
         0.20490E-02
        -0.43367E-02
        -0.17522E-01
        -0.36716E-01
        -0.53538E-01
        -0.56948E-01
        -0.40303E-01
        -0.21046E-01
        -0.83742E-02
        -0.24824E-02
        -0.21449E-02
        -0.31948E-02
        -0.34737E-02
        -0.34061E-02
        -0.26039E-02
        -0.10048E-02
         0.17295E-04
         0.96513E-03
         0.29590E-02
         0.36903E-02
         0.27536E-02
        -0.24297E-03
        -0.59346E-04
         0.45307E-04
         0.51298E-03
         0.60631E-03
         0.12922E-02
         0.99834E-04
        -0.16948E-03
         0.46586E-03
         0.19423E-03
        -0.37608E-03
        -0.29998E-03
         0.84935E-03
        -0.14254E-02
        -0.39212E-02
         0.11115E-02
         0.17833E-02
         0.57418E-03
         0.18992E-02
         0.20707E-02
         0.39506E-03
        -0.11780E-02
        -0.24592E-03
         0.83036E-03
         0.38109E-03
         0.56056E-03
        -0.32343E-02
        -0.55234E-02
        -0.88782E-02
        -0.13152E-02
         0.11133E-02
         0.51541E-03
         0.12729E-02
         0.15422E-02
         0.48700E-03
         0.42237E-03
         0.72307E-03
        -0.99480E-02
        -0.16697E-01
        -0.23180E-01
        -0.28334E-01
        -0.16248E-01
        -0.71423E-02
        -0.74261E-03
        -0.76561E-03
        -0.10452E-02
         0.11097E-03
         0.10758E-02
         0.13977E-02
         0.14821E-02
         0.15044E-02
         0.17793E-02
         0.10670E-02
         0.77372E-03
         0.20238E-02
         0.32708E-02
         0.40566E-02
         0.25897E-02
        -0.33375E-02
        -0.16141E-01
        -0.34484E-01
        -0.50228E-01
        -0.55163E-01
        -0.40559E-01
        -0.22963E-01
        -0.11002E-01
        -0.45932E-02
        -0.34510E-02
        -0.40240E-02
        -0.43259E-02
        -0.45256E-02
        -0.38798E-02
        -0.25584E-02
        -0.22718E-02
        -0.21545E-02
        -0.48625E-03
         0.83446E-03
         0.89605E-03
        -0.33368E-03
        -0.25131E-03
        -0.34992E-03
         0.24279E-03
        -0.72961E-03
        -0.38746E-03
        -0.20278E-03
        -0.39516E-03
         0.38880E-03
         0.72822E-04
        -0.69712E-03
        -0.54380E-03
         0.52205E-03
        -0.16143E-02
        -0.38028E-02
         0.79444E-03
         0.14896E-02
         0.52572E-03
         0.12687E-02
         0.14424E-02
        -0.73987E-04
        -0.16943E-02
        -0.82924E-03
         0.17413E-03
         0.22642E-03
        -0.93502E-04
        -0.31424E-02
        -0.51713E-02
        -0.84653E-02
        -0.17008E-02
         0.43120E-03
        -0.40780E-03
         0.54272E-03
         0.26124E-03
        -0.76996E-03
        -0.17965E-03
         0.44714E-03
        -0.92912E-02
        -0.15351E-01
        -0.21366E-01
        -0.26531E-01
        -0.15764E-01
        -0.74788E-02
        -0.15166E-02
        -0.18524E-02
        -0.25981E-02
        -0.16011E-02
        -0.83054E-03
        -0.87419E-03
        -0.14294E-02
        -0.21149E-02
        -0.81712E-03
        -0.10860E-02
        -0.22196E-02
         0.11317E-02
         0.30855E-02
         0.37862E-02
         0.26343E-02
        -0.24011E-02
        -0.14350E-01
        -0.31237E-01
        -0.45610E-01
        -0.51492E-01
        -0.38763E-01
        -0.21397E-01
        -0.95127E-02
        -0.37660E-02
        -0.34000E-02
        -0.45861E-02
        -0.54706E-02
        -0.64197E-02
        -0.65003E-02
        -0.58096E-02
        -0.62910E-02
        -0.72789E-02
        -0.62306E-02
        -0.41700E-02
        -0.28864E-02
        -0.11982E-02
        -0.13668E-02
        -0.18879E-02
        -0.89486E-03
        -0.38389E-02
        -0.40109E-02
        -0.12959E-02
        -0.14410E-02
        -0.43919E-03
        -0.93999E-03
        -0.17004E-02
        -0.14074E-02
        -0.63513E-03
        -0.24904E-02
        -0.42317E-02
        -0.66134E-04
         0.42646E-03
        -0.13272E-03
         0.49115E-04
        -0.24672E-04
        -0.65700E-03
        -0.26986E-02
        -0.16019E-02
        -0.97405E-03
        -0.97600E-03
        -0.12913E-02
        -0.38194E-02
        -0.60520E-02
        -0.10297E-01
        -0.35274E-02
        -0.12476E-02
        -0.22826E-02
        -0.13778E-02
        -0.25899E-02
        -0.38858E-02
        -0.23875E-02
        -0.11021E-02
        -0.91584E-02
        -0.15330E-01
        -0.22639E-01
        -0.29613E-01
        -0.19267E-01
        -0.99520E-02
        -0.26388E-02
        -0.37164E-02
        -0.56613E-02
        -0.54172E-02
        -0.52782E-02
        -0.58840E-02
        -0.72527E-02
        -0.89210E-02
        -0.58717E-02
        -0.56548E-02
        -0.81015E-02
        -0.22959E-02
         0.78001E-03
         0.24467E-02
         0.20558E-02
        -0.24010E-02
        -0.13309E-01
        -0.30013E-01
        -0.47159E-01
        -0.56570E-01
        -0.45591E-01
        -0.23387E-01
        -0.67970E-02
        -0.12728E-02
        -0.24734E-02
        -0.48174E-02
        -0.69227E-02
        -0.99034E-02
        -0.12368E-01
        -0.13344E-01
        -0.14852E-01
        -0.17114E-01
        -0.16557E-01
        -0.13339E-01
        -0.10342E-01
        -0.77298E-03
        -0.79677E-03
        -0.93968E-03
        -0.55962E-05
        -0.33885E-02
        -0.43592E-02
        -0.10734E-02
        -0.15622E-02
        -0.32766E-03
        -0.16601E-02
        -0.16913E-02
        -0.13027E-02
        -0.19749E-03
        -0.28282E-02
        -0.43063E-02
         0.36129E-03
        -0.24325E-03
         0.69554E-03
         0.12764E-03
        -0.12624E-02
         0.24240E-02
        -0.65868E-03
         0.20266E-02
         0.15785E-03
        -0.26287E-02
        -0.51918E-03
        -0.46883E-02
        -0.75045E-02
        -0.11513E-01
        -0.54515E-02
        -0.16313E-02
        -0.26292E-02
        -0.14683E-02
        -0.25033E-02
        -0.25745E-02
        -0.10132E-02
        -0.25206E-03
        -0.90266E-02
        -0.14741E-01
        -0.20907E-01
        -0.25547E-01
        -0.17393E-01
        -0.86411E-02
         0.11662E-03
        -0.28445E-02
        -0.71637E-02
        -0.87633E-02
        -0.93536E-02
        -0.92057E-02
        -0.95427E-02
        -0.10997E-01
        -0.68177E-02
        -0.38326E-02
        -0.91700E-02
         0.16355E-03
         0.21935E-02
         0.31638E-02
         0.22755E-02
        -0.22754E-02
        -0.11343E-01
        -0.24971E-01
        -0.38102E-01
        -0.43329E-01
        -0.33587E-01
        -0.11184E-01
         0.72400E-02
         0.12306E-01
         0.91801E-02
         0.38081E-02
        -0.28095E-02
        -0.11123E-01
        -0.18238E-01
        -0.20918E-01
        -0.20961E-01
        -0.21743E-01
        -0.20571E-01
        -0.17055E-01
        -0.13485E-01
         0.66040E-02
         0.73435E-02
         0.93251E-02
         0.86313E-02
         0.83909E-02
         0.53036E-02
         0.52485E-02
         0.41010E-02
         0.56158E-02
         0.17231E-02
         0.29116E-02
         0.21301E-02
         0.55051E-02
         0.38153E-03
        -0.31435E-02
         0.69056E-02
         0.32412E-02
         0.78589E-02
         0.67861E-02
         0.48298E-03
         0.15579E-01
         0.79098E-02
         0.16722E-01
         0.95239E-02
        -0.30723E-02
         0.73454E-02
        -0.44154E-02
        -0.10271E-01
        -0.14374E-01
        -0.77015E-02
         0.27819E-02
         0.22558E-02
         0.40789E-02
         0.52215E-02
         0.11365E-01
         0.11290E-01
         0.85464E-02
        -0.10387E-01
        -0.16924E-01
        -0.20732E-01
        -0.20428E-01
        -0.13599E-01
        -0.39438E-02
         0.12282E-01
         0.47773E-02
        -0.47047E-02
        -0.10077E-01
        -0.12036E-01
        -0.92125E-02
        -0.51527E-02
        -0.39545E-02
         0.19293E-02
         0.13403E-01
         0.41627E-02
         0.16508E-01
         0.12366E-01
         0.80123E-02
         0.40905E-02
        -0.21539E-02
        -0.11646E-01
        -0.22886E-01
        -0.28458E-01
        -0.26003E-01
        -0.13090E-01
         0.13787E-01
         0.37797E-01
         0.45371E-01
         0.39499E-01
         0.27757E-01
         0.11442E-01
        -0.83529E-02
        -0.25067E-01
        -0.30866E-01
        -0.26728E-01
        -0.20627E-01
        -0.14248E-01
        -0.85124E-02
        -0.31748E-02
         0.16137E-01
         0.17480E-01
         0.20592E-01
         0.18116E-01
         0.19810E-01
         0.14554E-01
         0.13374E-01
         0.11737E-01
         0.14464E-01
         0.72068E-02
         0.86473E-02
         0.60633E-02
         0.12845E-01
         0.44251E-02
        -0.31681E-02
         0.16824E-01
         0.10775E-01
         0.16948E-01
         0.18125E-01
         0.45895E-02
         0.27850E-01
         0.89722E-02
         0.29785E-01
         0.21450E-01
        -0.34225E-02
         0.16032E-01
        -0.48411E-02
        -0.18337E-01
        -0.30155E-01
        -0.16120E-01
         0.58046E-02
         0.39314E-02
         0.83686E-02
         0.11332E-01
         0.24545E-01
         0.24394E-01
         0.19328E-01
        -0.16426E-01
        -0.28948E-01
        -0.37829E-01
        -0.44283E-01
        -0.37152E-01
        -0.19804E-01
         0.20529E-01
         0.53333E-02
        -0.11967E-01
        -0.19173E-01
        -0.21021E-01
        -0.14158E-01
        -0.47890E-02
        -0.25242E-03
         0.89443E-02
         0.27712E-01
         0.16344E-01
         0.32234E-01
         0.24046E-01
         0.14373E-01
         0.59393E-02
        -0.44384E-02
        -0.18299E-01
        -0.34274E-01
        -0.48355E-01
        -0.63080E-01
        -0.62007E-01
        -0.21831E-01
         0.30968E-01
         0.58224E-01
         0.55027E-01
         0.37105E-01
         0.98437E-02
        -0.21548E-01
        -0.45464E-01
        -0.50593E-01
        -0.40228E-01
        -0.25993E-01
        -0.12036E-01
        -0.82652E-03
         0.82110E-02
  
SCALARS                      strain_xz  double 1
LOOKUP_TABLE default
         0.19881E+00
         0.28691E+00
         0.26088E+00
         0.18162E+00
        -0.32711E-10
         0.30789E-09
         0.16604E-09
         0.13264E-09
         0.25340E+00
         0.19355E+00
        -0.39813E-10
         0.18366E-09
         0.27751E+00
         0.22052E+00
        -0.57406E-10
         0.13043E-09
         0.12897E+00
         0.16815E+00
        -0.34100E-10
         0.87862E-10
         0.26998E+00
         0.32341E+00
         0.31843E+00
        -0.58649E-10
         0.19774E-09
         0.16978E-09
         0.20712E+00
         0.24624E+00
        -0.74047E-10
         0.18174E-09
         0.86741E-01
         0.11206E+00
         0.99314E-01
        -0.20668E-10
        -0.66055E-11
         0.22210E-10
         0.10061E+00
         0.11736E+00
        -0.36172E-10
        -0.36856E-10
         0.10566E+00
         0.72239E-01
        -0.62224E-10
        -0.75616E-10
         0.11063E+00
         0.11050E+00
        -0.82730E-10
        -0.38797E-10
         0.13586E+00
        -0.52107E-10
         0.11023E+00
        -0.29942E-10
         0.12936E+00
        -0.55213E-10
         0.81234E-01
        -0.50815E-10
         0.51132E-01
         0.13808E+00
        -0.12742E-09
         0.15908E-09
         0.89303E-01
         0.13269E+00
        -0.20358E-10
         0.74392E-10
         0.61529E-01
        -0.45357E-10
         0.91285E-01
        -0.64177E-10
         0.28071E+00
         0.28820E+00
        -0.23935E-10
         0.18532E-09
         0.29473E+00
        -0.19062E-10
         0.68398E-01
        -0.67969E-10
        -0.37971E-01
        -0.83168E-10
        -0.10907E+00
        -0.87612E-10
        -0.16263E+00
        -0.23725E-01
        -0.70247E-10
         0.53114E-10
         0.40327E-01
        -0.78570E-10
         0.92660E-01
        -0.10372E-09
         0.90802E-01
        -0.12867E-09
         0.84906E-01
         0.11579E+00
        -0.11160E-09
         0.16557E-09
         0.42242E-01
        -0.58818E-10
        -0.99428E-02
        -0.98349E-10
        -0.51478E-02
        -0.13189E-09
         0.62788E-02
         0.10348E+00
        -0.12167E-09
         0.17220E-09
         0.34287E+00
         0.43444E+00
        -0.47889E-10
         0.29834E-09
         0.24424E+00
        -0.21097E-10
         0.18646E+00
        -0.98658E-11
         0.15578E+00
        -0.20096E-10
         0.16879E+00
        -0.98933E-11
         0.11303E+00
         0.57949E-11
        -0.93644E-01
        -0.32227E-10
        -0.28548E+00
        -0.51759E-10
        -0.40090E+00
        -0.46518E-10
        -0.44778E+00
        -0.10098E-10
        -0.27521E+00
        -0.48314E-10
        -0.13516E+00
        -0.97440E-10
        -0.23621E-01
        -0.10140E-09
         0.34568E-01
        -0.13236E-09
         0.33871E-01
        -0.17013E-09
        -0.60459E-02
        -0.19367E-09
        -0.48490E-01
        -0.24739E-09
        -0.30496E-01
        -0.25300E-09
        -0.46086E-01
        -0.17698E-09
        -0.12033E+00
        -0.16087E-09
        -0.14767E+00
        -0.20466E-09
        -0.12613E+00
        -0.22126E-09
        -0.96120E-01
        -0.19160E-09
        -0.17382E-01
        -0.75387E-10
         0.11696E+00
        -0.28295E-10
         0.16015E+00
         0.21545E+00
         0.19807E+00
         0.11344E+00
         0.22710E+00
         0.15539E+00
         0.25008E+00
         0.20459E+00
         0.12074E+00
         0.15320E+00
         0.23956E+00
         0.20234E+00
         0.23771E+00
         0.19107E+00
         0.12516E+00
         0.91836E-01
         0.11015E+00
         0.85971E-01
         0.13172E+00
         0.12210E+00
         0.23193E+00
         0.16193E+00
         0.25776E+00
         0.16566E+00
         0.13196E+00
         0.14385E+00
         0.12790E+00
         0.89718E-01
         0.35450E-01
         0.10243E+00
         0.10260E+00
         0.16224E+00
         0.89064E-01
         0.10964E+00
         0.29425E+00
         0.27027E+00
         0.24484E+00
         0.28226E-01
        -0.50858E-01
        -0.13773E+00
        -0.21044E+00
        -0.63918E-01
         0.62428E-01
         0.23714E+00
         0.24358E+00
         0.28082E+00
         0.22819E+00
         0.16967E+00
         0.15525E+00
         0.16559E+00
         0.16288E+00
         0.14143E+00
         0.37678E+00
         0.32134E+00
         0.33650E+00
         0.24462E+00
         0.15299E+00
         0.73222E-01
        -0.10346E-01
        -0.16335E+00
        -0.37702E+00
        -0.49055E+00
        -0.45766E+00
        -0.26047E+00
        -0.27048E-02
         0.24786E+00
         0.39931E+00
         0.42004E+00
         0.36050E+00
         0.33470E+00
         0.38653E+00
         0.37596E+00
         0.31950E+00
         0.30909E+00
         0.26284E+00
         0.16233E+00
         0.15198E+00
         0.22376E+00
        -0.49051E-01
        -0.72487E-01
        -0.11808E+00
        -0.93500E-01
        -0.21749E+00
        -0.23818E+00
        -0.68559E-01
        -0.58727E-01
        -0.45407E-01
        -0.50217E-01
        -0.78569E-01
        -0.90102E-01
        -0.82207E-01
        -0.79620E-01
        -0.10855E+00
        -0.76431E-01
        -0.51090E-01
        -0.65605E-01
        -0.50416E-01
        -0.47480E-01
        -0.25574E-02
        -0.33568E-01
        -0.27912E-01
        -0.58368E-01
        -0.55732E-01
        -0.91169E-01
        -0.82218E-01
        -0.99396E-01
        -0.13925E+00
        -0.80144E-01
        -0.95677E-01
        -0.12191E+00
        -0.10929E+00
        -0.18475E+00
        -0.24315E+00
        -0.17838E+00
        -0.11069E+00
        -0.14031E+00
        -0.18379E+00
        -0.23202E+00
        -0.26396E+00
        -0.19977E+00
        -0.11094E+00
        -0.92364E-01
        -0.15971E+00
        -0.19203E+00
        -0.14397E+00
        -0.11380E+00
        -0.16605E+00
        -0.30609E+00
        -0.44799E+00
        -0.34200E+00
        -0.35631E+00
        -0.35568E+00
        -0.28883E+00
        -0.17074E+00
        -0.10603E+00
        -0.10784E+00
        -0.14175E+00
        -0.23318E+00
        -0.34332E+00
        -0.36567E+00
        -0.28502E+00
        -0.23909E+00
        -0.16064E+00
        -0.28164E-01
         0.34748E-01
        -0.65581E-02
        -0.11565E+00
        -0.24337E+00
        -0.27112E+00
        -0.18500E+00
        -0.14503E+00
        -0.27451E+00
        -0.58910E+00
        -0.79510E+00
        -0.67829E+00
        -0.45493E+00
        -0.71721E-01
        -0.83591E-01
        -0.10003E+00
        -0.76814E-01
        -0.13409E+00
        -0.11300E+00
        -0.79801E-01
        -0.71535E-01
        -0.60605E-01
        -0.56921E-01
        -0.81521E-01
        -0.86822E-01
        -0.83806E-01
        -0.78688E-01
        -0.99417E-01
        -0.67171E-01
        -0.49547E-01
        -0.66520E-01
        -0.50517E-01
        -0.42744E-01
        -0.34715E-01
        -0.46389E-01
        -0.51532E-01
        -0.60561E-01
        -0.51914E-01
        -0.77155E-01
        -0.77158E-01
        -0.87988E-01
        -0.11255E+00
        -0.64069E-01
        -0.67797E-01
        -0.88570E-01
        -0.65839E-01
        -0.85962E-01
        -0.16258E+00
        -0.13463E+00
        -0.10082E+00
        -0.12473E+00
        -0.15906E+00
        -0.19237E+00
        -0.21603E+00
        -0.15716E+00
        -0.91579E-01
        -0.82942E-01
        -0.11298E+00
        -0.12369E+00
        -0.89000E-01
        -0.55553E-01
        -0.61334E-01
        -0.10163E+00
        -0.14030E+00
        -0.12359E+00
        -0.22305E+00
        -0.19149E+00
        -0.19357E+00
        -0.13263E+00
        -0.96406E-01
        -0.10283E+00
        -0.14013E+00
        -0.21664E+00
        -0.30373E+00
        -0.31853E+00
        -0.27978E+00
        -0.23123E+00
        -0.15373E+00
        -0.69764E-01
        -0.37760E-01
        -0.53146E-01
        -0.96029E-01
        -0.14973E+00
        -0.15910E+00
        -0.97700E-01
        -0.40494E-01
        -0.53355E-01
        -0.13773E+00
        -0.21019E+00
        -0.20654E+00
        -0.17754E+00
        -0.11202E-01
        -0.96218E-02
        -0.54873E-02
        -0.37898E-02
         0.10317E-01
         0.27138E-01
        -0.91608E-02
        -0.78475E-02
        -0.90876E-02
        -0.47622E-02
        -0.13142E-01
        -0.23786E-01
        -0.12462E-01
        -0.14816E-01
        -0.40680E-01
        -0.11382E-01
        -0.50438E-02
        -0.10928E-01
        -0.62068E-02
        -0.59616E-02
        -0.59977E-02
        -0.16706E-01
        -0.60886E-02
        -0.82438E-02
        -0.74725E-02
        -0.10066E-01
        -0.19919E-01
        -0.31645E-01
        -0.51240E-01
        -0.20571E-01
        -0.18041E-02
        -0.27900E-02
         0.63348E-02
         0.24807E-01
         0.75962E-02
        -0.15632E-02
        -0.79965E-02
        -0.63074E-01
        -0.87668E-01
        -0.11134E+00
        -0.12993E+00
        -0.83849E-01
        -0.42771E-01
        -0.65048E-02
        -0.54147E-03
         0.94809E-02
         0.14978E-01
         0.25397E-01
         0.40976E-01
         0.61626E-01
         0.79996E-01
         0.56841E-01
         0.25462E-01
         0.33741E-01
         0.11885E-01
        -0.78843E-02
        -0.23867E-01
        -0.51871E-01
        -0.95246E-01
        -0.15234E+00
        -0.21677E+00
        -0.24148E+00
        -0.21293E+00
        -0.14878E+00
        -0.85206E-01
        -0.40633E-01
        -0.19093E-01
        -0.85369E-02
        -0.16228E-02
         0.62511E-02
         0.18344E-01
         0.38144E-01
         0.63872E-01
         0.92488E-01
         0.11741E+00
         0.12630E+00
         0.10425E+00
         0.63083E-01
         0.61859E-02
         0.65468E-02
         0.91955E-02
         0.75306E-02
         0.17448E-01
         0.22064E-01
         0.49554E-02
         0.61392E-02
         0.52024E-02
         0.54567E-02
         0.76715E-03
        -0.75655E-02
         0.11144E-02
        -0.68498E-03
        -0.19588E-01
         0.82372E-03
         0.28988E-02
         0.30844E-02
         0.26268E-04
        -0.25384E-02
        -0.51910E-02
        -0.12539E-01
        -0.32734E-02
        -0.98209E-03
        -0.14520E-02
         0.29785E-03
        -0.58293E-02
        -0.16990E-01
        -0.33412E-01
        -0.14266E-01
         0.41121E-02
         0.54775E-02
         0.72687E-02
         0.16902E-01
         0.19260E-01
         0.13004E-01
         0.65241E-02
        -0.34920E-01
        -0.51276E-01
        -0.67923E-01
        -0.80705E-01
        -0.53515E-01
        -0.28559E-01
         0.66738E-03
         0.82736E-02
         0.15167E-01
         0.13867E-01
         0.13744E-01
         0.19485E-01
         0.31941E-01
         0.44642E-01
         0.34454E-01
         0.33041E-01
         0.33344E-01
         0.23946E-01
         0.74803E-02
        -0.60708E-02
        -0.25811E-01
        -0.57434E-01
        -0.96413E-01
        -0.13354E+00
        -0.14949E+00
        -0.13379E+00
        -0.86161E-01
        -0.47726E-01
        -0.31488E-01
        -0.21372E-01
        -0.10964E-01
         0.65121E-03
         0.13565E-01
         0.23046E-01
         0.25789E-01
         0.28883E-01
         0.40805E-01
         0.60958E-01
         0.73523E-01
         0.66316E-01
         0.46098E-01
         0.28930E-02
         0.23732E-02
         0.18049E-02
         0.11036E-02
         0.13491E-02
         0.31741E-03
         0.19544E-02
         0.26993E-02
         0.27870E-02
         0.23797E-02
         0.38609E-03
        -0.26995E-02
         0.44680E-03
        -0.20607E-03
        -0.78372E-02
         0.67898E-03
         0.14358E-02
         0.12070E-02
        -0.36623E-03
        -0.15396E-02
        -0.35912E-02
        -0.55089E-02
        -0.37231E-02
        -0.14775E-02
        -0.10947E-02
        -0.98260E-03
        -0.26066E-02
        -0.78277E-02
        -0.15463E-01
        -0.69889E-02
        -0.35713E-03
        -0.23422E-03
        -0.11272E-02
        -0.14554E-02
         0.25208E-02
         0.23234E-02
         0.17545E-02
        -0.14702E-01
        -0.21948E-01
        -0.29328E-01
        -0.34671E-01
        -0.23206E-01
        -0.11966E-01
        -0.27441E-02
        -0.76612E-03
         0.44319E-03
         0.11055E-03
        -0.12976E-02
        -0.29913E-02
        -0.33433E-02
        -0.20222E-02
        -0.75134E-03
         0.57891E-02
         0.46795E-02
         0.54257E-02
         0.26581E-02
        -0.11870E-02
        -0.87414E-02
        -0.22818E-01
        -0.40609E-01
        -0.56291E-01
        -0.62578E-01
        -0.56425E-01
        -0.33955E-01
        -0.17012E-01
        -0.14281E-01
        -0.12911E-01
        -0.98480E-02
        -0.60811E-02
        -0.23422E-02
         0.39792E-03
         0.27949E-03
        -0.17205E-02
        -0.41830E-02
        -0.37719E-02
         0.48296E-03
         0.47061E-02
         0.50393E-02
         0.50731E-03
         0.61609E-03
        -0.27941E-03
        -0.88355E-03
        -0.19034E-02
        -0.38913E-02
         0.52108E-03
         0.23009E-03
         0.55347E-03
        -0.48578E-04
         0.51495E-04
        -0.67639E-04
         0.97360E-03
        -0.53857E-03
        -0.17949E-02
         0.38762E-03
         0.12494E-03
         0.98498E-04
        -0.73570E-03
        -0.10650E-02
        -0.25760E-02
        -0.19982E-02
        -0.29387E-02
        -0.13660E-02
        -0.86343E-03
        -0.84458E-03
        -0.11983E-02
        -0.18088E-02
        -0.27953E-02
        -0.20080E-02
        -0.59506E-03
        -0.74681E-03
        -0.20625E-02
        -0.41818E-02
        -0.58113E-03
         0.41039E-03
         0.11711E-02
        -0.31485E-02
        -0.34106E-02
        -0.33107E-02
        -0.32629E-02
        -0.29727E-02
        -0.21930E-02
        -0.24873E-02
        -0.18680E-02
        -0.16594E-02
        -0.13467E-02
        -0.24057E-02
        -0.50559E-02
        -0.77007E-02
        -0.89803E-02
        -0.66727E-02
         0.12378E-02
        -0.68160E-03
         0.32490E-02
         0.37984E-02
         0.25475E-02
         0.10344E-03
        -0.39608E-02
        -0.75747E-02
        -0.73181E-02
        -0.44075E-02
        -0.36502E-02
        -0.26251E-02
        -0.25853E-02
        -0.60594E-02
        -0.77073E-02
        -0.68855E-02
        -0.54255E-02
        -0.44362E-02
        -0.30647E-02
        -0.24448E-02
        -0.42825E-02
        -0.84165E-02
        -0.11617E-01
        -0.11021E-01
        -0.72451E-02
        -0.35524E-02
        -0.13974E-03
         0.40468E-03
        -0.68481E-04
        -0.78447E-03
        -0.10358E-02
        -0.28177E-02
         0.15644E-03
        -0.66741E-03
        -0.31086E-03
        -0.10983E-02
        -0.97478E-04
         0.81388E-03
         0.12566E-02
        -0.73177E-03
         0.59935E-03
         0.33488E-03
        -0.53332E-03
        -0.28867E-04
        -0.10180E-02
        -0.10257E-02
        -0.24934E-02
        -0.87797E-03
        -0.26598E-02
        -0.12698E-02
        -0.81820E-03
        -0.45207E-03
        -0.60511E-03
         0.87640E-03
         0.29056E-02
         0.97282E-04
         0.71025E-04
        -0.74130E-04
        -0.11789E-02
        -0.27862E-02
         0.58339E-03
         0.11718E-02
         0.15107E-02
         0.19906E-02
         0.50646E-02
         0.86024E-02
         0.11297E-01
         0.62750E-02
         0.19607E-02
        -0.19209E-02
        -0.12414E-02
        -0.92292E-03
        -0.31308E-03
        -0.96274E-03
        -0.30001E-02
        -0.49061E-02
        -0.57816E-02
        -0.45389E-02
         0.32240E-02
         0.86829E-03
         0.48209E-02
         0.47202E-02
         0.37171E-02
         0.31381E-02
         0.36965E-02
         0.73133E-02
         0.15329E-01
         0.22625E-01
         0.21571E-01
         0.12334E-01
         0.32442E-02
        -0.36831E-02
        -0.64220E-02
        -0.60666E-02
        -0.47511E-02
        -0.39837E-02
        -0.24362E-02
        -0.98743E-03
        -0.19362E-02
        -0.48494E-02
        -0.68020E-02
        -0.63093E-02
        -0.41327E-02
        -0.18241E-02
        -0.32316E-03
         0.21318E-03
        -0.84545E-04
        -0.74707E-03
        -0.90446E-03
        -0.26343E-02
        -0.13280E-03
        -0.10040E-02
        -0.59534E-03
        -0.14664E-02
        -0.32275E-03
         0.71036E-03
         0.77614E-03
        -0.81905E-03
         0.14465E-02
         0.29416E-03
        -0.81214E-03
         0.68433E-05
        -0.12179E-02
        -0.96315E-03
        -0.25735E-02
        -0.17276E-04
        -0.33686E-02
        -0.15653E-02
        -0.78361E-03
        -0.65296E-03
        -0.27062E-03
         0.19669E-02
         0.49868E-02
         0.95917E-03
         0.15557E-03
        -0.37857E-03
        -0.10268E-02
        -0.26161E-02
         0.73896E-03
         0.10487E-02
         0.10536E-02
         0.42383E-02
         0.85397E-02
         0.12846E-01
         0.16244E-01
         0.98253E-02
         0.40710E-02
        -0.29398E-02
        -0.25123E-02
        -0.24603E-02
        -0.11788E-02
        -0.13522E-02
        -0.31366E-02
        -0.48543E-02
        -0.54549E-02
        -0.41911E-02
         0.35085E-02
         0.10695E-02
         0.42932E-02
         0.34345E-02
         0.26303E-02
         0.31282E-02
         0.62881E-02
         0.13799E-01
         0.24885E-01
         0.32222E-01
         0.29616E-01
         0.18464E-01
         0.72630E-02
        -0.16092E-02
        -0.65707E-02
        -0.81167E-02
        -0.77953E-02
        -0.73844E-02
        -0.54000E-02
        -0.32055E-02
        -0.34403E-02
        -0.57482E-02
        -0.70435E-02
        -0.56551E-02
        -0.30825E-02
        -0.12857E-02
        -0.33061E-03
         0.27137E-03
        -0.84827E-04
        -0.81452E-03
        -0.10249E-02
        -0.29994E-02
        -0.99921E-04
        -0.11357E-02
        -0.71582E-03
        -0.16922E-02
        -0.25415E-03
         0.10745E-02
         0.93272E-03
        -0.80598E-03
         0.22319E-02
         0.27045E-03
        -0.98124E-03
         0.42748E-04
        -0.12191E-02
        -0.82317E-03
        -0.20317E-02
         0.11265E-02
        -0.32391E-02
        -0.15819E-02
        -0.82094E-03
        -0.74926E-03
        -0.11889E-03
         0.24349E-02
         0.59937E-02
         0.14707E-02
        -0.29564E-04
        -0.69411E-03
        -0.12980E-02
        -0.31519E-02
         0.74506E-03
         0.10974E-02
         0.11479E-02
         0.55619E-02
         0.10253E-01
         0.14845E-01
         0.18850E-01
         0.12020E-01
         0.58440E-02
        -0.31539E-02
        -0.30438E-02
        -0.33690E-02
        -0.21627E-02
        -0.24623E-02
        -0.43324E-02
        -0.61360E-02
        -0.67362E-02
        -0.50030E-02
         0.35706E-02
         0.91219E-03
         0.43562E-02
         0.34401E-02
         0.27977E-02
         0.40187E-02
         0.87658E-02
         0.18091E-01
         0.30249E-01
         0.37353E-01
         0.34326E-01
         0.22803E-01
         0.11562E-01
         0.14826E-02
        -0.49460E-02
        -0.76622E-02
        -0.81475E-02
        -0.82468E-02
        -0.67606E-02
        -0.54166E-02
        -0.63478E-02
        -0.86559E-02
        -0.94254E-02
        -0.73377E-02
        -0.39016E-02
        -0.15880E-02
        -0.29124E-03
         0.43215E-03
         0.32502E-04
        -0.82092E-03
        -0.10288E-02
        -0.32188E-02
         0.36069E-04
        -0.11921E-02
        -0.79056E-03
        -0.18945E-02
        -0.34113E-04
         0.17500E-02
         0.14515E-02
        -0.67892E-03
         0.31447E-02
         0.34533E-03
        -0.10831E-02
         0.42735E-04
        -0.10359E-02
        -0.78181E-03
        -0.15157E-02
         0.15010E-02
        -0.23912E-02
        -0.11800E-02
        -0.95804E-03
        -0.43321E-03
         0.51821E-05
         0.28105E-02
         0.69447E-02
         0.17188E-02
        -0.11571E-03
        -0.48107E-03
        -0.14979E-02
        -0.34339E-02
         0.88652E-03
         0.13863E-02
         0.15804E-02
         0.68930E-02
         0.12173E-01
         0.17509E-01
         0.21897E-01
         0.13595E-01
         0.65153E-02
        -0.22635E-02
        -0.22351E-02
        -0.26389E-02
        -0.20125E-02
        -0.28318E-02
        -0.48939E-02
        -0.67009E-02
        -0.73809E-02
        -0.54910E-02
         0.37231E-02
         0.84962E-03
         0.49628E-02
         0.44155E-02
         0.41336E-02
         0.58116E-02
         0.11296E-01
         0.22165E-01
         0.36363E-01
         0.44854E-01
         0.40092E-01
         0.24904E-01
         0.12569E-01
         0.24183E-02
        -0.35112E-02
        -0.55777E-02
        -0.59690E-02
        -0.62798E-02
        -0.53111E-02
        -0.49908E-02
        -0.70613E-02
        -0.97612E-02
        -0.10295E-01
        -0.82432E-02
        -0.47423E-02
        -0.19733E-02
        -0.24093E-03
         0.47664E-03
         0.81472E-04
        -0.81291E-03
        -0.11160E-02
        -0.34319E-02
         0.96522E-05
        -0.12288E-02
        -0.78263E-03
        -0.20486E-02
        -0.36513E-04
         0.18603E-02
         0.15153E-02
        -0.67562E-03
         0.35064E-02
         0.36373E-03
        -0.11554E-02
         0.53995E-04
        -0.11170E-02
        -0.99689E-03
        -0.18668E-02
         0.82167E-03
        -0.25232E-02
        -0.12284E-02
        -0.12114E-02
        -0.40472E-03
        -0.14604E-03
         0.26241E-02
         0.68682E-02
         0.14167E-02
        -0.96961E-04
        -0.34560E-03
        -0.15651E-02
        -0.35814E-02
         0.93358E-03
         0.15361E-02
         0.17341E-02
         0.71843E-02
         0.12427E-01
         0.18137E-01
         0.22408E-01
         0.13021E-01
         0.55317E-02
        -0.21881E-02
        -0.19684E-02
        -0.21115E-02
        -0.15137E-02
        -0.24740E-02
        -0.48123E-02
        -0.68815E-02
        -0.77279E-02
        -0.58048E-02
         0.37507E-02
         0.53262E-03
         0.53537E-02
         0.50002E-02
         0.46176E-02
         0.62502E-02
         0.12456E-01
         0.23741E-01
         0.37439E-01
         0.47111E-01
         0.41318E-01
         0.22234E-01
         0.92993E-02
         0.61939E-03
        -0.43296E-02
        -0.58210E-02
        -0.57563E-02
        -0.57834E-02
        -0.43860E-02
        -0.35957E-02
        -0.57287E-02
        -0.91242E-02
        -0.10395E-01
        -0.87815E-02
        -0.54168E-02
        -0.25494E-02
        -0.35907E-03
         0.30528E-03
        -0.95312E-04
        -0.98030E-03
        -0.13000E-02
        -0.37823E-02
        -0.15014E-03
        -0.13579E-02
        -0.79818E-03
        -0.21189E-02
        -0.21612E-03
         0.17347E-02
         0.13767E-02
        -0.93728E-03
         0.30796E-02
         0.33424E-03
        -0.11676E-02
         0.29874E-04
        -0.13155E-02
        -0.11442E-02
        -0.23041E-02
         0.35988E-03
        -0.28585E-02
        -0.14441E-02
        -0.12208E-02
        -0.46634E-03
        -0.51647E-03
         0.23089E-02
         0.66933E-02
         0.13392E-02
         0.52274E-04
        -0.16122E-03
        -0.14774E-02
        -0.37308E-02
         0.89612E-03
         0.15140E-02
         0.16705E-02
         0.59851E-02
         0.10832E-01
         0.16962E-01
         0.21942E-01
         0.12920E-01
         0.52035E-02
        -0.22460E-02
        -0.16846E-02
        -0.14978E-02
        -0.89829E-03
        -0.18277E-02
        -0.43494E-02
        -0.69055E-02
        -0.81917E-02
        -0.62837E-02
         0.38617E-02
         0.36940E-03
         0.57740E-02
         0.54239E-02
         0.46250E-02
         0.63368E-02
         0.12303E-01
         0.21211E-01
         0.32123E-01
         0.42764E-01
         0.40514E-01
         0.22773E-01
         0.83620E-02
        -0.44418E-03
        -0.50516E-02
        -0.62778E-02
        -0.56799E-02
        -0.51672E-02
        -0.33428E-02
        -0.22826E-02
        -0.41272E-02
        -0.78284E-02
        -0.10299E-01
        -0.96443E-02
        -0.64112E-02
        -0.31414E-02
        -0.41208E-03
         0.12854E-03
        -0.27607E-03
        -0.98467E-03
        -0.14024E-02
        -0.35891E-02
        -0.29728E-03
        -0.13630E-02
        -0.73456E-03
        -0.19604E-02
        -0.37812E-03
         0.13784E-02
         0.96379E-03
        -0.10273E-02
         0.25711E-02
         0.42284E-03
        -0.10015E-02
         0.69480E-04
        -0.12680E-02
        -0.94127E-03
        -0.23514E-02
         0.68984E-03
        -0.28423E-02
        -0.13809E-02
        -0.90093E-03
        -0.35644E-03
        -0.51393E-03
         0.24205E-02
         0.71182E-02
         0.18216E-02
         0.19094E-03
        -0.43899E-04
        -0.12393E-02
        -0.33594E-02
         0.60041E-03
         0.11441E-02
         0.12366E-02
         0.52321E-02
         0.99659E-02
         0.16420E-01
         0.22546E-01
         0.14377E-01
         0.63850E-02
        -0.21607E-02
        -0.15851E-02
        -0.14262E-02
        -0.78914E-03
        -0.15426E-02
        -0.37728E-02
        -0.61097E-02
        -0.73505E-02
        -0.57344E-02
         0.34750E-02
         0.38425E-03
         0.51187E-02
         0.44187E-02
         0.35703E-02
         0.56112E-02
         0.11040E-01
         0.18840E-01
         0.28855E-01
         0.39863E-01
         0.41599E-01
         0.27514E-01
         0.11696E-01
         0.24583E-03
        -0.50937E-02
        -0.63246E-02
        -0.57339E-02
        -0.51770E-02
        -0.33654E-02
        -0.22896E-02
        -0.37106E-02
        -0.67919E-02
        -0.90420E-02
        -0.85247E-02
        -0.56130E-02
        -0.26985E-02
        -0.38769E-03
         0.99444E-04
        -0.48176E-03
        -0.99669E-03
        -0.16767E-02
        -0.33319E-02
        -0.17361E-03
        -0.11612E-02
        -0.66034E-03
        -0.17164E-02
        -0.19531E-03
         0.14380E-02
         0.99573E-03
        -0.75640E-03
         0.26073E-02
         0.45960E-03
        -0.87635E-03
         0.19101E-04
        -0.10884E-02
        -0.81241E-03
        -0.20568E-02
         0.94646E-03
        -0.26598E-02
        -0.12244E-02
        -0.77740E-03
        -0.32727E-03
        -0.19558E-03
         0.25372E-02
         0.69049E-02
         0.17804E-02
         0.11117E-03
        -0.16685E-03
        -0.12390E-02
        -0.30637E-02
        -0.26101E-04
         0.64796E-03
         0.10345E-02
         0.55209E-02
         0.10336E-01
         0.16278E-01
         0.21997E-01
         0.14113E-01
         0.64848E-02
        -0.22253E-02
        -0.18726E-02
        -0.18184E-02
        -0.10260E-02
        -0.16548E-02
        -0.36129E-02
        -0.54319E-02
        -0.62283E-02
        -0.49424E-02
         0.24628E-02
        -0.85220E-05
         0.40441E-02
         0.37481E-02
         0.33285E-02
         0.54101E-02
         0.10302E-01
         0.18620E-01
         0.30077E-01
         0.40257E-01
         0.40847E-01
         0.27593E-01
         0.12544E-01
         0.10042E-02
        -0.46077E-02
        -0.62859E-02
        -0.62228E-02
        -0.59913E-02
        -0.40742E-02
        -0.27170E-02
        -0.39407E-02
        -0.64880E-02
        -0.77625E-02
        -0.66164E-02
        -0.41075E-02
        -0.21800E-02
        -0.38063E-03
         0.29187E-03
        -0.35360E-03
        -0.99729E-03
        -0.14566E-02
        -0.30680E-02
         0.11632E-03
        -0.10528E-02
        -0.77784E-03
        -0.17422E-02
         0.10950E-03
         0.19303E-02
         0.16350E-02
        -0.55583E-03
         0.30258E-02
         0.19409E-03
        -0.10298E-02
        -0.17559E-03
        -0.12936E-02
        -0.98164E-03
        -0.23354E-02
         0.65690E-03
        -0.31318E-02
        -0.15682E-02
        -0.94490E-03
        -0.69716E-03
        -0.60761E-04
         0.24525E-02
         0.63822E-02
         0.14260E-02
        -0.14523E-03
        -0.49684E-03
        -0.13835E-02
        -0.29926E-02
         0.17259E-03
         0.86298E-03
         0.14826E-02
         0.62135E-02
         0.10918E-01
         0.16018E-01
         0.20884E-01
         0.13055E-01
         0.58302E-02
        -0.27050E-02
        -0.22281E-02
        -0.20646E-02
        -0.12674E-02
        -0.18445E-02
        -0.36295E-02
        -0.51878E-02
        -0.57820E-02
        -0.45813E-02
         0.27103E-02
         0.26808E-03
         0.42927E-02
         0.46263E-02
         0.47455E-02
         0.63775E-02
         0.11032E-01
         0.20408E-01
         0.32668E-01
         0.40863E-01
         0.39048E-01
         0.25598E-01
         0.11326E-01
         0.36992E-03
        -0.53961E-02
        -0.72277E-02
        -0.69316E-02
        -0.62733E-02
        -0.41705E-02
        -0.28998E-02
        -0.41827E-02
        -0.63254E-02
        -0.71248E-02
        -0.58737E-02
        -0.35883E-02
        -0.19232E-02
        -0.51919E-03
         0.25351E-03
        -0.23052E-03
        -0.96114E-03
        -0.10631E-02
        -0.27292E-02
         0.15302E-04
        -0.12408E-02
        -0.95138E-03
        -0.19441E-02
        -0.45172E-04
         0.18315E-02
         0.17644E-02
        -0.79245E-03
         0.28602E-02
        -0.89278E-04
        -0.11789E-02
        -0.31032E-03
        -0.15916E-02
        -0.11065E-02
        -0.27846E-02
         0.24130E-03
        -0.35996E-02
        -0.19798E-02
        -0.10557E-02
        -0.10627E-02
        -0.32019E-03
         0.22907E-02
         0.62910E-02
         0.13656E-02
        -0.16754E-03
        -0.64650E-03
        -0.12105E-02
        -0.26433E-02
         0.69741E-03
         0.12204E-02
         0.17179E-02
         0.61763E-02
         0.11026E-01
         0.16155E-01
         0.20778E-01
         0.12679E-01
         0.54106E-02
        -0.30694E-02
        -0.23627E-02
        -0.19339E-02
        -0.98784E-03
        -0.12865E-02
        -0.28713E-02
        -0.44028E-02
        -0.50534E-02
        -0.40848E-02
         0.36024E-02
         0.92246E-03
         0.51334E-02
         0.54885E-02
         0.54847E-02
         0.63654E-02
         0.10978E-01
         0.21189E-01
         0.34121E-01
         0.42280E-01
         0.38995E-01
         0.23798E-01
         0.94813E-02
        -0.10017E-02
        -0.62160E-02
        -0.76452E-02
        -0.70243E-02
        -0.60518E-02
        -0.37493E-02
        -0.20392E-02
        -0.27162E-02
        -0.45412E-02
        -0.56562E-02
        -0.50065E-02
        -0.31928E-02
        -0.15801E-02
        -0.56052E-03
         0.11101E-03
        -0.13677E-03
        -0.77725E-03
        -0.53205E-03
        -0.19221E-02
        -0.19761E-03
        -0.12745E-02
        -0.92805E-03
        -0.19281E-02
        -0.35520E-03
         0.10361E-02
         0.11302E-02
        -0.10400E-02
         0.18760E-02
         0.32333E-04
        -0.10641E-02
        -0.25256E-03
        -0.13324E-02
        -0.95961E-03
        -0.22618E-02
         0.40138E-03
        -0.29347E-02
        -0.16036E-02
        -0.10145E-02
        -0.77170E-03
        -0.67851E-03
         0.19364E-02
         0.61534E-02
         0.14085E-02
         0.17322E-03
        -0.29715E-03
        -0.72023E-03
        -0.18589E-02
         0.10547E-02
         0.12132E-02
         0.13171E-02
         0.47933E-02
         0.95452E-02
         0.15298E-01
         0.20504E-01
         0.12540E-01
         0.52916E-02
        -0.25178E-02
        -0.18971E-02
        -0.13342E-02
        -0.21341E-03
        -0.18632E-03
        -0.14767E-02
        -0.27974E-02
        -0.32964E-02
        -0.28055E-02
         0.41861E-02
         0.19827E-02
         0.50864E-02
         0.46305E-02
         0.40123E-02
         0.43321E-02
         0.83500E-02
         0.17752E-01
         0.29728E-01
         0.39557E-01
         0.38589E-01
         0.23185E-01
         0.88449E-02
        -0.36615E-03
        -0.47019E-02
        -0.61367E-02
        -0.59152E-02
        -0.53178E-02
        -0.29443E-02
        -0.51155E-03
        -0.27853E-03
        -0.15831E-02
        -0.27971E-02
        -0.25456E-02
        -0.12703E-02
        -0.11503E-03
        -0.32049E-03
         0.36026E-03
         0.56077E-03
        -0.75530E-04
         0.97101E-03
        -0.25147E-05
        -0.14802E-03
        -0.10988E-02
        -0.73492E-03
        -0.17318E-02
        -0.55788E-03
         0.24977E-03
         0.70637E-03
        -0.12214E-02
         0.66077E-03
         0.33423E-03
        -0.84876E-03
         0.40778E-04
        -0.99952E-03
        -0.81143E-03
        -0.19771E-02
         0.25284E-03
        -0.20743E-02
        -0.10097E-02
        -0.86527E-03
        -0.95915E-04
        -0.89842E-03
         0.17278E-02
         0.60892E-02
         0.14745E-02
         0.95995E-03
         0.69619E-03
         0.33826E-03
        -0.53254E-04
         0.24911E-02
         0.19692E-02
         0.13313E-02
         0.32321E-02
         0.80701E-02
         0.14522E-01
         0.20382E-01
         0.12493E-01
         0.50678E-02
        -0.13578E-02
        -0.49510E-03
         0.44529E-03
         0.14906E-02
         0.15846E-02
         0.79026E-03
         0.29549E-03
         0.39738E-03
         0.52026E-04
         0.63347E-02
         0.43554E-02
         0.61238E-02
         0.41454E-02
         0.26451E-02
         0.22796E-02
         0.50879E-02
         0.13191E-01
         0.24912E-01
         0.36911E-01
         0.38655E-01
         0.23311E-01
         0.79687E-02
        -0.10426E-02
        -0.43550E-02
        -0.46749E-02
        -0.39828E-02
        -0.31718E-02
        -0.48291E-03
         0.22009E-02
         0.26533E-02
         0.22439E-02
         0.21261E-02
         0.25407E-02
         0.28753E-02
         0.28522E-02
         0.30085E-03
         0.12101E-02
         0.20424E-02
         0.10874E-02
         0.38183E-02
         0.29932E-02
         0.60564E-03
        -0.35125E-03
        -0.21551E-03
        -0.10422E-02
         0.93772E-04
         0.55128E-03
         0.12873E-02
        -0.64014E-03
         0.45579E-03
         0.91374E-03
        -0.24901E-03
         0.61109E-03
        -0.16101E-03
         0.10607E-03
        -0.46540E-03
         0.19599E-02
        -0.43125E-03
         0.66387E-04
        -0.79590E-04
         0.93548E-03
        -0.47497E-03
         0.22498E-02
         0.71001E-02
         0.26526E-02
         0.21702E-02
         0.20733E-02
         0.19632E-02
         0.25585E-02
         0.56546E-02
         0.41374E-02
         0.24589E-02
         0.24604E-02
         0.72180E-02
         0.14323E-01
         0.21257E-01
         0.14338E-01
         0.70564E-02
         0.25137E-03
         0.12807E-02
         0.27278E-02
         0.37381E-02
         0.39386E-02
         0.38068E-02
         0.43239E-02
         0.51201E-02
         0.39715E-02
         0.11134E-01
         0.89442E-02
         0.98795E-02
         0.59337E-02
         0.29947E-02
         0.18638E-02
         0.32732E-02
         0.95134E-02
         0.20412E-01
         0.33449E-01
         0.38681E-01
         0.26679E-01
         0.11362E-01
         0.21592E-02
        -0.12093E-02
        -0.17261E-02
        -0.14524E-02
        -0.54077E-03
         0.26737E-02
         0.53327E-02
         0.57022E-02
         0.64460E-02
         0.76177E-02
         0.83885E-02
         0.80675E-02
         0.74404E-02
         0.15532E-03
         0.10163E-02
         0.14721E-02
         0.40100E-03
         0.32471E-02
         0.22384E-02
         0.89966E-03
        -0.28154E-04
        -0.17487E-03
        -0.46502E-03
         0.11275E-02
         0.26535E-02
         0.23073E-02
         0.58327E-03
         0.34052E-02
         0.20266E-03
        -0.15580E-03
         0.77445E-04
        -0.12110E-02
         0.45312E-03
        -0.30180E-02
         0.24012E-02
        -0.48334E-02
        -0.22255E-02
         0.11415E-02
        -0.14492E-02
         0.12504E-02
         0.54162E-02
         0.13064E-01
         0.53847E-02
         0.12284E-03
        -0.15074E-02
         0.71607E-04
         0.24957E-03
         0.43215E-02
         0.33334E-02
         0.26753E-02
         0.64142E-02
         0.13516E-01
         0.24405E-01
         0.35327E-01
         0.24802E-01
         0.12197E-01
        -0.49563E-02
        -0.49618E-02
        -0.46621E-02
        -0.21185E-02
        -0.98065E-03
        -0.10804E-02
        -0.81797E-03
        -0.29823E-06
         0.12275E-02
         0.90164E-02
         0.91026E-02
         0.91552E-02
         0.74801E-02
         0.55432E-02
         0.63655E-02
         0.96782E-02
         0.17286E-01
         0.32008E-01
         0.51345E-01
         0.61995E-01
         0.47587E-01
         0.19886E-01
         0.64248E-03
        -0.83688E-02
        -0.11578E-01
        -0.11907E-01
        -0.11102E-01
        -0.80685E-02
        -0.54112E-02
        -0.54240E-02
        -0.46711E-02
        -0.30076E-02
         0.13649E-03
         0.38959E-02
         0.72954E-02
        -0.91013E-02
        -0.94799E-02
        -0.11416E-01
        -0.10431E-01
        -0.13962E-01
        -0.14261E-01
        -0.97090E-02
        -0.10514E-01
        -0.91620E-02
        -0.10136E-01
        -0.83022E-02
        -0.28987E-02
        -0.51593E-02
        -0.78617E-02
         0.11071E-02
        -0.13762E-01
        -0.11808E-01
        -0.93463E-02
        -0.21991E-01
        -0.16307E-01
        -0.39493E-01
        -0.27494E-01
        -0.45721E-01
        -0.29683E-01
        -0.94527E-02
        -0.26351E-01
        -0.49346E-02
         0.51635E-03
         0.86816E-02
        -0.72799E-02
        -0.17407E-01
        -0.28052E-01
        -0.15580E-01
        -0.18527E-01
        -0.16792E-01
        -0.13096E-01
        -0.74770E-02
         0.89399E-02
         0.20516E-01
         0.33960E-01
         0.44977E-01
         0.20687E-01
        -0.68877E-02
        -0.44630E-01
        -0.44333E-01
        -0.46390E-01
        -0.36068E-01
        -0.29024E-01
        -0.28743E-01
        -0.31032E-01
        -0.31738E-01
        -0.22339E-01
        -0.19394E-01
        -0.11882E-01
        -0.12461E-01
        -0.47781E-03
         0.46448E-02
         0.96791E-02
         0.17953E-01
         0.33291E-01
         0.59868E-01
         0.86498E-01
         0.89318E-01
         0.50524E-01
        -0.16485E-01
        -0.65249E-01
        -0.82440E-01
        -0.81463E-01
        -0.73737E-01
        -0.68013E-01
        -0.63357E-01
        -0.56849E-01
        -0.53638E-01
        -0.52445E-01
        -0.50738E-01
        -0.42360E-01
        -0.27717E-01
        -0.13368E-01
        -0.22642E-01
        -0.24442E-01
        -0.28040E-01
        -0.24151E-01
        -0.33608E-01
        -0.32804E-01
        -0.25348E-01
        -0.26426E-01
        -0.22768E-01
        -0.25460E-01
        -0.23784E-01
        -0.15600E-01
        -0.18475E-01
        -0.22698E-01
        -0.84748E-02
        -0.33270E-01
        -0.29253E-01
        -0.21997E-01
        -0.51842E-01
        -0.40562E-01
        -0.87342E-01
        -0.67314E-01
        -0.97677E-01
        -0.67384E-01
        -0.25464E-01
        -0.59920E-01
        -0.16135E-01
        -0.62762E-02
         0.33548E-02
        -0.25565E-01
        -0.38229E-01
        -0.61035E-01
        -0.32637E-01
        -0.38457E-01
        -0.39543E-01
        -0.33029E-01
        -0.22744E-01
         0.81027E-02
         0.29518E-01
         0.46334E-01
         0.54781E-01
         0.13531E-01
        -0.33362E-01
        -0.93756E-01
        -0.90544E-01
        -0.92480E-01
        -0.73765E-01
        -0.58219E-01
        -0.56144E-01
        -0.60765E-01
        -0.62848E-01
        -0.46926E-01
        -0.45673E-01
        -0.33582E-01
        -0.35814E-01
        -0.14334E-01
        -0.35131E-02
         0.38048E-02
         0.16808E-01
         0.44834E-01
         0.88318E-01
         0.12266E+00
         0.11301E+00
         0.42116E-01
        -0.68275E-01
        -0.14645E+00
        -0.16663E+00
        -0.15762E+00
        -0.13969E+00
        -0.12588E+00
        -0.11766E+00
        -0.10679E+00
        -0.98619E-01
        -0.94674E-01
        -0.91952E-01
        -0.80475E-01
        -0.59029E-01
        -0.36164E-01
  
SCALARS                      strain_xy  double 1
LOOKUP_TABLE default
        -0.24311E-01
         0.32553E-01
         0.10873E+00
         0.36171E-01
        -0.19379E-09
         0.88168E-10
         0.24085E-09
        -0.13306E-10
         0.23666E+00
         0.18098E+00
         0.36445E-09
         0.42989E-09
        -0.77058E-03
        -0.18561E-01
         0.70532E-10
        -0.13501E-09
        -0.20598E-01
        -0.23524E-01
        -0.15233E-09
        -0.12660E-09
        -0.38700E-02
         0.49198E-01
         0.60880E-01
        -0.49256E-11
        -0.27942E-09
        -0.54430E-10
        -0.86612E-02
         0.34584E-01
         0.45098E-10
        -0.20766E-09
         0.64959E-02
        -0.35083E-01
        -0.87083E-02
         0.90683E-11
        -0.64123E-10
        -0.12720E-09
         0.20864E-01
        -0.31079E-01
         0.45272E-10
        -0.10213E-09
         0.14177E+00
         0.15314E+00
         0.10871E-09
         0.94532E-10
         0.13717E+00
         0.74045E-01
         0.14992E-09
         0.13544E-09
        -0.41281E-01
        -0.73761E-10
         0.63320E-01
         0.17290E-09
        -0.10344E-01
         0.52522E-10
         0.90726E-02
         0.27663E-10
         0.11749E+00
         0.64578E-02
         0.18159E-09
        -0.79233E-10
         0.10875E-01
         0.48267E-01
        -0.55126E-10
         0.19765E-09
         0.19627E-01
        -0.11947E-09
         0.69643E-01
        -0.20806E-10
         0.31014E+00
         0.22742E+00
         0.61223E-09
         0.38771E-09
         0.13840E+00
         0.44404E-09
         0.44425E-01
         0.12041E-09
         0.13917E+00
         0.15241E-09
         0.36525E+00
         0.35453E-09
         0.64837E+00
         0.40437E+00
         0.48071E-09
         0.41812E-09
         0.22139E+00
         0.11775E-09
         0.12576E+00
         0.21616E-09
         0.11346E+00
         0.18612E-09
         0.74267E-01
         0.19648E-01
         0.40709E-10
         0.28881E-09
         0.23213E-01
        -0.15382E-09
         0.60360E-01
        -0.48004E-10
         0.11095E+00
         0.35209E-10
         0.15245E+00
         0.15642E+00
         0.80555E-10
         0.19314E-09
         0.42850E+00
         0.25783E+00
         0.12836E-08
         0.11101E-08
         0.35020E+00
         0.59156E-09
         0.21486E+00
         0.39737E-09
         0.14307E+00
         0.38152E-09
         0.16694E+00
         0.26583E-09
         0.17598E+00
         0.15026E-09
         0.22307E+00
         0.14425E-09
         0.59090E+00
         0.18304E-09
         0.11339E+01
         0.41185E-09
         0.11317E+01
         0.90591E-09
         0.74924E+00
         0.76604E-09
         0.48370E+00
         0.39989E-09
         0.36569E+00
         0.31400E-09
         0.25845E+00
         0.31470E-09
         0.17151E+00
         0.28703E-09
         0.11348E+00
         0.26637E-09
         0.14769E+00
         0.30718E-09
         0.11796E+00
        -0.25988E-09
         0.60995E-01
        -0.39616E-09
         0.87624E-01
        -0.24598E-09
         0.12716E+00
        -0.19397E-09
         0.16109E+00
        -0.11474E-09
         0.19518E+00
         0.33835E-09
         0.21856E+00
         0.64021E-09
         0.20938E+00
         0.54523E-09
         0.33359E-01
         0.57376E-01
         0.82877E-01
         0.21018E-01
         0.12446E+00
         0.50903E-01
         0.36666E-01
         0.29297E-01
         0.15098E-01
         0.68800E-03
         0.15920E-01
        -0.37134E-02
         0.12703E-01
         0.64854E-02
         0.32153E-02
        -0.23234E-02
        -0.20781E-01
         0.30660E-02
         0.16529E-01
         0.22698E-01
         0.13986E+00
         0.21085E+00
         0.96317E-01
         0.44311E-01
        -0.96601E-02
         0.22519E-01
        -0.76194E-02
         0.33806E-01
         0.16566E+00
         0.84479E-01
         0.14892E-02
         0.64919E-02
        -0.54155E-02
        -0.19508E-01
         0.15008E+00
         0.10781E+00
         0.52851E-01
         0.35173E-01
         0.12628E+00
         0.30668E+00
         0.50242E+00
         0.40291E+00
         0.30143E+00
         0.47671E-01
         0.13079E-01
         0.56821E-02
         0.79032E-02
         0.44618E-02
        -0.25911E-01
        -0.84444E-01
        -0.13458E+00
        -0.48653E-01
         0.16991E+00
         0.17570E+00
         0.89345E-01
         0.11870E-01
        -0.29892E-01
        -0.21168E-01
         0.30167E-01
         0.14775E+00
         0.40720E+00
         0.74257E+00
         0.86582E+00
         0.69435E+00
         0.51776E+00
         0.40121E+00
         0.27459E+00
         0.14716E+00
         0.40470E-01
         0.41167E-02
         0.24969E-01
         0.48513E-01
         0.24173E-01
        -0.11754E+00
        -0.29969E+00
        -0.34521E+00
        -0.17653E+00
         0.46727E-01
         0.38360E-01
         0.40052E-01
         0.24969E-01
        -0.19526E-02
         0.21846E-01
        -0.51655E-01
         0.40183E-01
         0.34994E-01
         0.15186E-01
         0.78399E-02
         0.22250E-01
         0.75675E-02
         0.10568E-01
         0.16049E-01
         0.25851E-01
        -0.48609E-02
        -0.15767E-01
         0.11321E-01
        -0.63037E-02
         0.32692E-01
         0.81236E-01
         0.18160E+00
         0.24691E-01
        -0.87743E-03
         0.19139E-01
        -0.53541E-02
         0.19363E-01
         0.77657E-01
         0.19825E+00
         0.11495E+00
         0.55607E-02
        -0.57670E-02
        -0.21357E-01
        -0.85200E-01
         0.32981E-01
         0.12004E-01
         0.95441E-02
         0.73497E-01
         0.15797E+00
         0.28166E+00
         0.38134E+00
         0.35685E+00
         0.28488E+00
        -0.16208E-01
        -0.41498E-01
        -0.45519E-01
        -0.18605E-01
        -0.29016E-01
        -0.10351E+00
        -0.21613E+00
        -0.28215E+00
        -0.16746E+00
         0.50798E-01
         0.64831E-01
        -0.19088E-01
        -0.28566E-01
        -0.19041E-01
         0.10644E-01
         0.67266E-01
         0.15909E+00
         0.29859E+00
         0.39260E+00
         0.39033E+00
         0.42252E+00
         0.42340E+00
         0.32218E+00
         0.18405E+00
         0.64113E-01
        -0.37801E-01
        -0.10801E+00
        -0.83165E-01
        -0.43772E-01
        -0.96629E-01
        -0.29724E+00
        -0.51128E+00
        -0.49735E+00
        -0.26748E+00
        -0.49545E-01
         0.77085E-02
         0.26179E-02
        -0.13834E-01
         0.31747E-02
        -0.37759E-01
        -0.27664E-01
         0.94696E-02
         0.20540E-02
        -0.27697E-03
        -0.53055E-02
         0.90277E-02
         0.15846E-01
         0.71438E-02
         0.45003E-02
         0.29911E-01
        -0.28743E-03
        -0.93051E-02
         0.12599E-01
        -0.91660E-03
         0.27605E-01
         0.54447E-01
         0.12266E+00
         0.22222E-01
         0.10053E-02
         0.14053E-01
         0.77796E-02
         0.15743E-01
         0.62550E-01
         0.14339E+00
         0.80467E-01
         0.26415E-01
         0.29379E-01
         0.13560E-01
        -0.12758E-01
        -0.56917E-01
        -0.36860E-01
        -0.99885E-02
         0.68744E-01
         0.13635E+00
         0.22427E+00
         0.29223E+00
         0.25443E+00
         0.19560E+00
         0.14969E-01
         0.24144E-01
         0.36213E-01
         0.42486E-01
         0.29170E-01
        -0.48577E-02
        -0.44098E-01
        -0.64211E-01
        -0.42130E-01
        -0.97329E-01
        -0.72040E-01
        -0.64834E-01
        -0.24288E-01
        -0.67331E-03
         0.25835E-01
         0.69320E-01
         0.14322E+00
         0.26024E+00
         0.33329E+00
         0.34629E+00
         0.36156E+00
         0.32207E+00
         0.22031E+00
         0.12892E+00
         0.68689E-01
         0.32832E-01
         0.17353E-01
         0.30436E-01
         0.38288E-01
         0.48439E-02
        -0.60272E-01
        -0.11259E+00
        -0.10785E+00
        -0.58038E-01
        -0.36499E-01
        -0.14016E-02
         0.10695E-02
        -0.45008E-02
         0.46460E-02
        -0.82281E-02
         0.11145E-01
         0.47138E-02
        -0.19920E-02
        -0.51550E-02
        -0.37953E-02
         0.59339E-02
         0.12399E-01
         0.90097E-02
         0.30220E-02
         0.20145E-01
        -0.41443E-02
        -0.34763E-02
         0.12033E-02
         0.11971E-02
         0.22108E-01
         0.32147E-01
         0.73697E-01
         0.15905E-01
         0.84906E-03
         0.11530E-01
         0.59572E-02
         0.11457E-01
         0.42001E-01
         0.94616E-01
         0.53834E-01
         0.15980E-01
         0.22514E-01
         0.14579E-01
         0.15660E-01
        -0.21140E-01
        -0.10509E-01
         0.22623E-02
         0.45639E-01
         0.91792E-01
         0.15427E+00
         0.20620E+00
         0.16881E+00
         0.12153E+00
         0.19229E-01
         0.30506E-01
         0.38295E-01
         0.35885E-01
         0.30457E-01
         0.25403E-01
         0.23793E-01
         0.27443E-01
         0.23000E-01
        -0.38960E-01
        -0.18315E-01
        -0.16144E-01
         0.73838E-03
         0.80806E-02
         0.18013E-01
         0.44482E-01
         0.97291E-01
         0.18754E+00
         0.26305E+00
         0.28879E+00
         0.26702E+00
         0.19952E+00
         0.12540E+00
         0.76728E-01
         0.50499E-01
         0.42496E-01
         0.41363E-01
         0.41037E-01
         0.38647E-01
         0.28814E-01
         0.19664E-01
         0.22507E-01
         0.37898E-01
         0.44684E-01
         0.25546E-01
        -0.17428E-02
         0.23626E-02
         0.34885E-02
         0.19244E-02
         0.91341E-02
         0.13582E-01
         0.20773E-02
        -0.12793E-02
        -0.39938E-02
        -0.12624E-02
         0.12853E-02
         0.26665E-02
         0.42403E-02
         0.53956E-03
         0.63026E-02
        -0.51513E-02
        -0.95657E-03
        -0.34730E-02
        -0.87719E-03
         0.12392E-01
         0.10654E-01
         0.32734E-01
         0.30314E-02
        -0.28754E-02
         0.80951E-02
        -0.99853E-03
         0.65336E-02
         0.24119E-01
         0.53707E-01
         0.30580E-01
         0.28265E-02
         0.53569E-02
         0.44762E-02
         0.97773E-02
         0.62128E-02
         0.48312E-02
         0.50864E-02
         0.22372E-01
         0.49986E-01
         0.86668E-01
         0.11788E+00
         0.93582E-01
         0.61690E-01
         0.54459E-02
         0.99328E-02
         0.12140E-01
         0.11115E-01
         0.11882E-01
         0.15195E-01
         0.19620E-01
         0.23223E-01
         0.18744E-01
         0.62966E-02
         0.15050E-01
         0.46350E-02
         0.55478E-02
         0.40589E-02
         0.27217E-02
         0.13615E-01
         0.47085E-01
         0.10366E+00
         0.15278E+00
         0.17418E+00
         0.14978E+00
         0.92616E-01
         0.48867E-01
         0.27559E-01
         0.17704E-01
         0.17198E-01
         0.16757E-01
         0.13305E-01
         0.13310E-01
         0.18009E-01
         0.24693E-01
         0.29529E-01
         0.31605E-01
         0.28773E-01
         0.23278E-01
        -0.10653E-02
         0.10141E-02
         0.32933E-02
         0.53261E-03
         0.89777E-02
         0.80933E-02
        -0.14328E-04
        -0.86261E-03
        -0.18524E-02
         0.60427E-05
        -0.11689E-02
        -0.20676E-02
         0.17836E-03
        -0.87812E-03
        -0.78828E-03
        -0.28620E-02
         0.15058E-03
        -0.25120E-02
        -0.16858E-02
         0.46038E-02
        -0.71477E-03
         0.80634E-02
        -0.30707E-02
        -0.34699E-02
         0.43307E-02
        -0.21983E-02
         0.28860E-02
         0.10556E-01
         0.21484E-01
         0.12216E-01
        -0.21794E-03
         0.32882E-03
         0.86835E-03
         0.40112E-02
         0.84411E-02
         0.41296E-02
         0.17860E-02
         0.74662E-02
         0.20066E-01
         0.34285E-01
         0.44918E-01
         0.34465E-01
         0.20508E-01
        -0.10376E-02
         0.13365E-02
         0.28136E-02
         0.32208E-02
         0.45240E-02
         0.71181E-02
         0.10148E-01
         0.12138E-01
         0.92872E-02
         0.11906E-01
         0.16556E-01
         0.33510E-02
         0.16518E-02
        -0.53840E-03
        -0.47216E-02
        -0.21536E-02
         0.14221E-01
         0.40853E-01
         0.60037E-01
         0.66505E-01
         0.53091E-01
         0.25955E-01
         0.74531E-02
         0.13703E-02
        -0.88101E-05
         0.22006E-02
         0.34271E-02
         0.32781E-02
         0.48967E-02
         0.96106E-02
         0.15453E-01
         0.18979E-01
         0.17835E-01
         0.13696E-01
         0.13244E-01
        -0.49050E-03
         0.41243E-03
         0.24692E-02
         0.74708E-03
         0.73299E-02
         0.66603E-02
        -0.30203E-03
        -0.21363E-03
        -0.52551E-03
         0.81997E-03
        -0.11718E-02
        -0.24410E-02
        -0.73358E-03
        -0.78393E-03
        -0.27381E-02
        -0.10608E-02
         0.79251E-03
        -0.11379E-02
        -0.15041E-02
         0.98994E-03
        -0.44220E-02
        -0.29077E-02
        -0.38889E-02
        -0.25691E-02
         0.24456E-02
        -0.12060E-02
         0.10869E-02
         0.31387E-02
         0.39736E-02
         0.27986E-02
         0.37214E-03
         0.57610E-03
         0.96158E-03
         0.30814E-02
         0.64226E-02
         0.24105E-02
         0.32136E-03
        -0.38597E-03
         0.26380E-02
         0.40495E-02
         0.29751E-02
         0.20074E-02
        -0.50198E-03
        -0.16196E-02
         0.59947E-03
         0.24594E-02
         0.31110E-02
         0.38073E-02
         0.51716E-02
         0.71768E-02
         0.89692E-02
         0.72429E-02
         0.92571E-02
         0.13783E-01
         0.13426E-02
        -0.11147E-03
        -0.16883E-02
        -0.51989E-02
        -0.65725E-02
        -0.34837E-02
         0.15086E-02
         0.17103E-02
        -0.35326E-03
        -0.35753E-02
        -0.88525E-02
        -0.99111E-02
        -0.73001E-02
        -0.45726E-02
        -0.11134E-02
         0.13287E-02
         0.32467E-02
         0.49837E-02
         0.73778E-02
         0.10426E-01
         0.13073E-01
         0.13357E-01
         0.11271E-01
         0.11244E-01
        -0.20132E-03
         0.35385E-03
         0.22530E-02
         0.10836E-02
         0.69415E-02
         0.71412E-02
        -0.14475E-03
         0.25019E-03
         0.78395E-04
         0.13398E-02
        -0.88517E-03
        -0.22069E-02
        -0.70285E-03
        -0.56759E-03
        -0.34681E-02
        -0.31081E-03
         0.12029E-02
        -0.59726E-03
        -0.11208E-02
        -0.27216E-03
        -0.53805E-02
        -0.72193E-02
        -0.36755E-02
        -0.18644E-02
         0.18566E-02
        -0.69085E-03
         0.40521E-03
         0.80272E-04
        -0.33135E-02
        -0.96168E-03
         0.66048E-03
         0.65916E-03
         0.13226E-02
         0.35371E-02
         0.56461E-02
         0.20132E-02
         0.13292E-03
        -0.39020E-02
        -0.50560E-02
        -0.91227E-02
        -0.15257E-01
        -0.11859E-01
        -0.93838E-02
        -0.15427E-02
         0.37781E-03
         0.22651E-02
         0.30552E-02
         0.38298E-02
         0.52150E-02
         0.73162E-02
         0.94363E-02
         0.80398E-02
         0.80382E-02
         0.12905E-01
         0.11359E-02
        -0.34891E-03
        -0.16222E-02
        -0.45690E-02
        -0.81312E-02
        -0.11693E-01
        -0.16421E-01
        -0.24946E-01
        -0.30692E-01
        -0.29372E-01
        -0.24609E-01
        -0.16971E-01
        -0.10241E-01
        -0.57482E-02
        -0.19210E-02
         0.63449E-03
         0.31594E-02
         0.50997E-02
         0.71112E-02
         0.98654E-02
         0.12526E-01
         0.13683E-01
         0.12915E-01
         0.12467E-01
        -0.52413E-04
         0.42448E-03
         0.22919E-02
         0.11829E-02
         0.71626E-02
         0.77820E-02
         0.25375E-04
         0.56285E-03
         0.37031E-03
         0.16548E-02
        -0.72370E-03
        -0.21703E-02
        -0.62746E-03
        -0.44652E-03
        -0.39112E-02
        -0.26119E-04
         0.14798E-02
        -0.52498E-03
        -0.12491E-02
        -0.94215E-03
        -0.70852E-02
        -0.10046E-01
        -0.47354E-02
        -0.20661E-02
         0.17160E-02
        -0.73099E-03
         0.14827E-03
        -0.98701E-03
        -0.58256E-02
        -0.24476E-02
         0.56633E-03
         0.44987E-03
         0.13570E-02
         0.39779E-02
         0.56641E-02
         0.20020E-02
         0.15603E-03
        -0.54504E-02
        -0.79164E-02
        -0.13477E-01
        -0.21284E-01
        -0.16976E-01
        -0.13429E-01
        -0.22200E-02
        -0.13861E-03
         0.19236E-02
         0.28394E-02
         0.37708E-02
         0.55682E-02
         0.82802E-02
         0.10872E-01
         0.91526E-02
         0.80027E-02
         0.13246E-01
         0.11459E-02
        -0.29794E-03
        -0.14989E-02
        -0.44968E-02
        -0.90975E-02
        -0.15428E-01
        -0.23554E-01
        -0.33907E-01
        -0.40508E-01
        -0.39333E-01
        -0.32572E-01
        -0.22741E-01
        -0.14504E-01
        -0.84363E-02
        -0.35000E-02
        -0.27722E-03
         0.28769E-02
         0.50686E-02
         0.73888E-02
         0.10928E-01
         0.14416E-01
         0.15883E-01
         0.14747E-01
         0.13613E-01
         0.39473E-04
         0.56870E-03
         0.25577E-02
         0.12450E-02
         0.78938E-02
         0.85370E-02
         0.18109E-03
         0.77127E-03
         0.51479E-03
         0.18315E-02
        -0.67982E-03
        -0.22794E-02
        -0.54276E-03
        -0.48541E-03
        -0.44978E-02
        -0.22290E-04
         0.16149E-02
        -0.59077E-03
        -0.17715E-02
        -0.14884E-02
        -0.89898E-02
        -0.12255E-01
        -0.62984E-02
        -0.28128E-02
         0.16683E-02
        -0.10664E-02
        -0.17654E-03
        -0.16203E-02
        -0.67616E-02
        -0.31197E-02
         0.54432E-03
         0.40934E-03
         0.13818E-02
         0.43399E-02
         0.62817E-02
         0.22561E-02
         0.29496E-03
        -0.68742E-02
        -0.99530E-02
        -0.15470E-01
        -0.23031E-01
        -0.18627E-01
        -0.15550E-01
        -0.31649E-02
        -0.39213E-03
         0.22376E-02
         0.32930E-02
         0.42738E-02
         0.62710E-02
         0.93719E-02
         0.12329E-01
         0.10193E-01
         0.88640E-02
         0.14586E-01
         0.12838E-02
        -0.77429E-04
        -0.14383E-02
        -0.48093E-02
        -0.10254E-01
        -0.18737E-01
        -0.29266E-01
        -0.38908E-01
        -0.42794E-01
        -0.41758E-01
        -0.37190E-01
        -0.27315E-01
        -0.18204E-01
        -0.11193E-01
        -0.51132E-02
        -0.55159E-03
         0.34765E-02
         0.59749E-02
         0.87198E-02
         0.12895E-01
         0.16869E-01
         0.18265E-01
         0.16365E-01
         0.14760E-01
         0.10663E-03
         0.79018E-03
         0.28129E-02
         0.12485E-02
         0.83114E-02
         0.87199E-02
         0.37799E-03
         0.87399E-03
         0.55152E-03
         0.19221E-02
        -0.60028E-03
        -0.22081E-02
        -0.24857E-03
        -0.52676E-03
        -0.47536E-02
        -0.12272E-03
         0.16107E-02
        -0.65278E-03
        -0.19852E-02
        -0.16322E-02
        -0.93330E-02
        -0.12545E-01
        -0.66385E-02
        -0.30745E-02
         0.16155E-02
        -0.11736E-02
        -0.37747E-03
        -0.22361E-02
        -0.80427E-02
        -0.35315E-02
         0.66222E-03
         0.58945E-03
         0.14460E-02
         0.43340E-02
         0.67927E-02
         0.26399E-02
         0.65950E-03
        -0.77127E-02
        -0.11779E-01
        -0.18483E-01
        -0.26607E-01
        -0.20546E-01
        -0.16260E-01
        -0.32686E-02
        -0.11362E-03
         0.28595E-02
         0.39458E-02
         0.49374E-02
         0.68014E-02
         0.96084E-02
         0.12399E-01
         0.10229E-01
         0.95628E-02
         0.15328E-01
         0.17224E-02
         0.48564E-03
        -0.10958E-02
        -0.48254E-02
        -0.10612E-01
        -0.20416E-01
        -0.33622E-01
        -0.45894E-01
        -0.49105E-01
        -0.44654E-01
        -0.37728E-01
        -0.27447E-01
        -0.18609E-01
        -0.11555E-01
        -0.51279E-02
         0.53893E-04
         0.44181E-02
         0.70719E-02
         0.10063E-01
         0.14174E-01
         0.17507E-01
         0.18366E-01
         0.16426E-01
         0.15029E-01
         0.50322E-04
         0.81879E-03
         0.29923E-02
         0.12784E-02
         0.87665E-02
         0.89478E-02
         0.40470E-03
         0.82998E-03
         0.50089E-03
         0.19920E-02
        -0.54972E-03
        -0.20661E-02
        -0.84103E-04
        -0.50521E-03
        -0.47828E-02
        -0.11155E-03
         0.16506E-02
        -0.68531E-03
        -0.18663E-02
        -0.16003E-02
        -0.92153E-02
        -0.12782E-01
        -0.63173E-02
        -0.28585E-02
         0.17086E-02
        -0.97107E-03
        -0.21314E-03
        -0.22976E-02
        -0.90933E-02
        -0.38730E-02
         0.81276E-03
         0.83638E-03
         0.15516E-02
         0.43558E-02
         0.72950E-02
         0.28893E-02
         0.77760E-03
        -0.76553E-02
        -0.12057E-01
        -0.20424E-01
        -0.30619E-01
        -0.23342E-01
        -0.17508E-01
        -0.28216E-02
         0.34844E-03
         0.33018E-02
         0.42929E-02
         0.52642E-02
         0.70574E-02
         0.96525E-02
         0.12296E-01
         0.10223E-01
         0.10335E-01
         0.16195E-01
         0.20647E-02
         0.70522E-03
        -0.76270E-03
        -0.44860E-02
        -0.10903E-01
        -0.20959E-01
        -0.34139E-01
        -0.49892E-01
        -0.57396E-01
        -0.51545E-01
        -0.40390E-01
        -0.27918E-01
        -0.18672E-01
        -0.11160E-01
        -0.44154E-02
         0.77979E-03
         0.49843E-02
         0.75289E-02
         0.10497E-01
         0.14511E-01
         0.17492E-01
         0.18107E-01
         0.16447E-01
         0.15472E-01
         0.19886E-04
         0.69468E-03
         0.29647E-02
         0.13397E-02
         0.90566E-02
         0.93276E-02
         0.33792E-03
         0.79290E-03
         0.48574E-03
         0.19544E-02
        -0.56404E-03
        -0.20840E-02
        -0.20790E-03
        -0.54965E-03
        -0.49706E-02
        -0.57024E-04
         0.16670E-02
        -0.66058E-03
        -0.16109E-02
        -0.16510E-02
        -0.88778E-02
        -0.13344E-01
        -0.56830E-02
        -0.24657E-02
         0.16433E-02
        -0.78139E-03
        -0.21638E-03
        -0.23124E-02
        -0.96226E-02
        -0.42795E-02
         0.81631E-03
         0.85033E-03
         0.15841E-02
         0.44695E-02
         0.74383E-02
         0.27696E-02
         0.53197E-03
        -0.76578E-02
        -0.11718E-01
        -0.20655E-01
        -0.32558E-01
        -0.25432E-01
        -0.19042E-01
        -0.23780E-02
         0.49801E-03
         0.32350E-02
         0.41456E-02
         0.50838E-02
         0.68727E-02
         0.95862E-02
         0.12463E-01
         0.10558E-01
         0.10697E-01
         0.16948E-01
         0.18698E-02
         0.24554E-03
        -0.95234E-03
        -0.44399E-02
        -0.11606E-01
        -0.21569E-01
        -0.32874E-01
        -0.49590E-01
        -0.61954E-01
        -0.57774E-01
        -0.44641E-01
        -0.29487E-01
        -0.18306E-01
        -0.10285E-01
        -0.37538E-02
         0.99625E-03
         0.48705E-02
         0.72427E-02
         0.99488E-02
         0.13766E-01
         0.17044E-01
         0.18315E-01
         0.17199E-01
         0.16350E-01
         0.57493E-04
         0.65503E-03
         0.27611E-02
         0.12576E-02
         0.86543E-02
         0.89762E-02
         0.33250E-03
         0.75153E-03
         0.48563E-03
         0.17763E-02
        -0.65307E-03
        -0.22469E-02
        -0.32480E-03
        -0.75401E-03
        -0.52693E-02
        -0.85363E-04
         0.16145E-02
        -0.64813E-03
        -0.14274E-02
        -0.16595E-02
        -0.82972E-02
        -0.13214E-01
        -0.51340E-02
        -0.22219E-02
         0.14280E-02
        -0.78244E-03
        -0.57757E-03
        -0.25840E-02
        -0.95759E-02
        -0.44153E-02
         0.72145E-03
         0.69970E-03
         0.15049E-02
         0.43000E-02
         0.70639E-02
         0.25127E-02
         0.35378E-03
        -0.79609E-02
        -0.11777E-01
        -0.20070E-01
        -0.31573E-01
        -0.25197E-01
        -0.19212E-01
        -0.22083E-02
         0.37433E-03
         0.29895E-02
         0.39280E-02
         0.48786E-02
         0.65823E-02
         0.92132E-02
         0.12056E-01
         0.10211E-01
         0.10288E-01
         0.16386E-01
         0.15492E-02
        -0.18240E-03
        -0.12787E-02
        -0.47299E-02
        -0.12021E-01
        -0.21571E-01
        -0.32201E-01
        -0.47644E-01
        -0.59715E-01
        -0.57384E-01
        -0.45291E-01
        -0.29154E-01
        -0.17109E-01
        -0.93284E-02
        -0.34515E-02
         0.85732E-03
         0.46193E-02
         0.70248E-02
         0.95031E-02
         0.13004E-01
         0.16256E-01
         0.17760E-01
         0.16805E-01
         0.15892E-01
         0.13188E-03
         0.78011E-03
         0.27505E-02
         0.12131E-02
         0.81094E-02
         0.82078E-02
         0.36462E-03
         0.69678E-03
         0.48732E-03
         0.16353E-02
        -0.74354E-03
        -0.23740E-02
        -0.31021E-03
        -0.92298E-03
        -0.53527E-02
        -0.10640E-03
         0.15473E-02
        -0.56510E-03
        -0.15206E-02
        -0.15937E-02
        -0.81603E-02
        -0.12556E-01
        -0.52497E-02
        -0.23584E-02
         0.13854E-02
        -0.88070E-03
        -0.80790E-03
        -0.25804E-02
        -0.88617E-02
        -0.40342E-02
         0.76989E-03
         0.66585E-03
         0.15407E-02
         0.40829E-02
         0.68488E-02
         0.26259E-02
         0.50737E-03
        -0.80508E-02
        -0.11721E-01
        -0.19002E-01
        -0.28985E-01
        -0.23057E-01
        -0.17826E-01
        -0.24016E-02
         0.21043E-03
         0.28873E-02
         0.39226E-02
         0.49319E-02
         0.65750E-02
         0.89242E-02
         0.11350E-01
         0.93930E-02
         0.99260E-02
         0.15146E-01
         0.18005E-02
        -0.34857E-04
        -0.13513E-02
        -0.49685E-02
        -0.11698E-01
        -0.20901E-01
        -0.31927E-01
        -0.45391E-01
        -0.54163E-01
        -0.51715E-01
        -0.41769E-01
        -0.27518E-01
        -0.16529E-01
        -0.92997E-02
        -0.36837E-02
         0.60489E-03
         0.44758E-02
         0.69965E-02
         0.95443E-02
         0.12987E-01
         0.15835E-01
         0.16701E-01
         0.15275E-01
         0.14298E-01
         0.27858E-03
         0.93600E-03
         0.27793E-02
         0.12807E-02
         0.76554E-02
         0.76141E-02
         0.45881E-03
         0.76455E-03
         0.60395E-03
         0.16792E-02
        -0.65106E-03
        -0.21854E-02
        -0.14523E-03
        -0.79960E-03
        -0.49345E-02
         0.19860E-04
         0.15372E-02
        -0.33657E-03
        -0.18036E-02
        -0.17956E-02
        -0.88573E-02
        -0.12846E-01
        -0.59566E-02
        -0.27020E-02
         0.13598E-02
        -0.94406E-03
        -0.68735E-03
        -0.25727E-02
        -0.89622E-02
        -0.40983E-02
         0.96995E-03
         0.76230E-03
         0.17055E-02
         0.39960E-02
         0.66524E-02
         0.27739E-02
         0.76084E-03
        -0.77018E-02
        -0.11770E-01
        -0.19377E-01
        -0.29256E-01
        -0.22911E-01
        -0.17642E-01
        -0.28103E-02
         0.81835E-04
         0.28988E-02
         0.40263E-02
         0.50435E-02
         0.65738E-02
         0.86595E-02
         0.10774E-01
         0.87743E-02
         0.95388E-02
         0.14064E-01
         0.20812E-02
         0.37074E-03
        -0.10807E-02
        -0.46355E-02
        -0.10588E-01
        -0.19897E-01
        -0.32323E-01
        -0.46495E-01
        -0.54521E-01
        -0.50400E-01
        -0.40394E-01
        -0.27749E-01
        -0.17585E-01
        -0.10396E-01
        -0.44138E-02
         0.30283E-03
         0.44160E-02
         0.69640E-02
         0.95185E-02
         0.12761E-01
         0.15273E-01
         0.15811E-01
         0.14073E-01
         0.13001E-01
         0.29238E-03
         0.80995E-03
         0.25465E-02
         0.11530E-02
         0.73032E-02
         0.71643E-02
         0.45032E-03
         0.85365E-03
         0.68876E-03
         0.18281E-02
        -0.38802E-03
        -0.16775E-02
        -0.90750E-04
        -0.35153E-03
        -0.39256E-02
         0.10826E-03
         0.15520E-02
        -0.28752E-03
        -0.18545E-02
        -0.19999E-02
        -0.90896E-02
        -0.13226E-01
        -0.60409E-02
        -0.26878E-02
         0.13482E-02
        -0.90506E-03
        -0.19041E-03
        -0.24385E-02
        -0.94793E-02
        -0.44462E-02
         0.90160E-03
         0.71659E-03
         0.15357E-02
         0.36561E-02
         0.63244E-02
         0.25107E-02
         0.61648E-03
        -0.66752E-02
        -0.11429E-01
        -0.20222E-01
        -0.31051E-01
        -0.24119E-01
        -0.18273E-01
        -0.28879E-02
        -0.26997E-04
         0.27524E-02
         0.38331E-02
         0.46798E-02
         0.60093E-02
         0.79646E-02
         0.99950E-02
         0.81562E-02
         0.91820E-02
         0.13702E-01
         0.17545E-02
         0.25222E-03
        -0.84140E-03
        -0.36980E-02
        -0.89065E-02
        -0.18285E-01
        -0.32258E-01
        -0.49043E-01
        -0.58370E-01
        -0.52633E-01
        -0.40780E-01
        -0.28038E-01
        -0.17935E-01
        -0.10660E-01
        -0.47785E-02
        -0.15767E-04
         0.42183E-02
         0.66254E-02
         0.87516E-02
         0.11539E-01
         0.14034E-01
         0.14757E-01
         0.13228E-01
         0.12457E-01
         0.28686E-03
         0.62207E-03
         0.21083E-02
         0.82170E-03
         0.65776E-02
         0.62709E-02
         0.41325E-03
         0.91079E-03
         0.68301E-03
         0.18495E-02
        -0.23646E-03
        -0.14418E-02
        -0.21760E-03
        -0.47884E-04
        -0.32436E-02
         0.37945E-04
         0.14246E-02
        -0.38991E-03
        -0.16013E-02
        -0.19100E-02
        -0.79099E-02
        -0.12085E-01
        -0.50940E-02
        -0.22807E-02
         0.12334E-02
        -0.85652E-03
         0.16477E-03
        -0.22623E-02
        -0.95300E-02
        -0.44830E-02
         0.51748E-03
         0.42920E-03
         0.98057E-03
         0.27797E-02
         0.54822E-02
         0.18252E-02
         0.20536E-03
        -0.56823E-02
        -0.10586E-01
        -0.19929E-01
        -0.31136E-01
        -0.23941E-01
        -0.17463E-01
        -0.25302E-02
        -0.15973E-03
         0.22800E-02
         0.31343E-02
         0.36656E-02
         0.46618E-02
         0.63452E-02
         0.81788E-02
         0.67889E-02
         0.80656E-02
         0.12893E-01
         0.60873E-03
        -0.45551E-03
        -0.99355E-03
        -0.32826E-02
        -0.79098E-02
        -0.16424E-01
        -0.30221E-01
        -0.48160E-01
        -0.58862E-01
        -0.52201E-01
        -0.38111E-01
        -0.25201E-01
        -0.15489E-01
        -0.90103E-02
        -0.41667E-02
        -0.11572E-03
         0.36597E-02
         0.56026E-02
         0.69782E-02
         0.90665E-02
         0.11400E-01
         0.12288E-01
         0.11402E-01
         0.11465E-01
         0.35113E-03
         0.41242E-03
         0.12513E-02
         0.19124E-03
         0.46794E-02
         0.41389E-02
         0.30074E-03
         0.94041E-03
         0.67560E-03
         0.17312E-02
        -0.55446E-03
        -0.21475E-02
        -0.72643E-03
        -0.32833E-03
        -0.40143E-02
        -0.73541E-04
         0.12262E-02
        -0.55628E-03
        -0.14183E-02
        -0.19020E-02
        -0.67297E-02
        -0.10936E-01
        -0.43580E-02
        -0.20244E-02
         0.85000E-03
        -0.95593E-03
        -0.22893E-03
        -0.30172E-02
        -0.10886E-01
        -0.49825E-02
        -0.68978E-04
        -0.10792E-03
         0.70431E-04
         0.11072E-02
         0.33686E-02
         0.30583E-03
        -0.58797E-03
        -0.64585E-02
        -0.11816E-01
        -0.22158E-01
        -0.34357E-01
        -0.25773E-01
        -0.17360E-01
        -0.24380E-02
        -0.65093E-03
         0.12799E-02
         0.18926E-02
         0.20956E-02
         0.25457E-02
         0.34432E-02
         0.46373E-02
         0.39391E-02
         0.50020E-02
         0.10024E-01
        -0.20738E-02
        -0.18679E-02
        -0.18183E-02
        -0.44707E-02
        -0.94013E-02
        -0.17615E-01
        -0.32029E-01
        -0.51863E-01
        -0.64555E-01
        -0.55562E-01
        -0.36188E-01
        -0.21902E-01
        -0.12866E-01
        -0.75663E-02
        -0.38033E-02
        -0.65905E-03
         0.24034E-02
         0.37422E-02
         0.43943E-02
         0.55238E-02
         0.68894E-02
         0.74503E-02
         0.73496E-02
         0.83167E-02
         0.43176E-03
        -0.87720E-04
        -0.46973E-03
        -0.12591E-02
         0.10454E-02
        -0.31815E-03
        -0.96460E-04
         0.84056E-03
         0.75616E-03
         0.14784E-02
        -0.15736E-02
        -0.40481E-02
        -0.20388E-02
        -0.14346E-02
        -0.64104E-02
        -0.23440E-03
         0.12442E-02
        -0.96492E-03
        -0.15550E-02
        -0.19940E-02
        -0.74683E-02
        -0.11792E-01
        -0.52136E-02
        -0.24795E-02
         0.42571E-03
        -0.15267E-02
        -0.15275E-02
        -0.45134E-02
        -0.12932E-01
        -0.58020E-02
        -0.12505E-02
        -0.13505E-02
        -0.17754E-02
        -0.22703E-02
        -0.27821E-03
        -0.25266E-02
        -0.23166E-02
        -0.90498E-02
        -0.14621E-01
        -0.25474E-01
        -0.38993E-01
        -0.29668E-01
        -0.19639E-01
        -0.33301E-02
        -0.21423E-02
        -0.10765E-02
        -0.65698E-03
        -0.77556E-03
        -0.12116E-02
        -0.18151E-02
        -0.18903E-02
        -0.17078E-02
         0.13520E-03
         0.47984E-02
        -0.69607E-02
        -0.49482E-02
        -0.40783E-02
        -0.74459E-02
        -0.13070E-01
        -0.21398E-01
        -0.36209E-01
        -0.56828E-01
        -0.72231E-01
        -0.65282E-01
        -0.41886E-01
        -0.24319E-01
        -0.14886E-01
        -0.89275E-02
        -0.46377E-02
        -0.23924E-02
        -0.63895E-03
        -0.20306E-03
        -0.21367E-03
        -0.32945E-03
        -0.70652E-03
        -0.10106E-02
        -0.52542E-03
         0.15248E-02
         0.84078E-03
        -0.28327E-03
        -0.22414E-02
        -0.25703E-02
        -0.36123E-02
        -0.57931E-02
        -0.21252E-03
         0.88471E-03
         0.11142E-02
         0.13683E-02
        -0.23960E-02
        -0.55493E-02
        -0.31131E-02
        -0.24698E-02
        -0.83172E-02
        -0.25868E-04
         0.18293E-02
        -0.89989E-03
        -0.24526E-02
        -0.21909E-02
        -0.12103E-01
        -0.16488E-01
        -0.89019E-02
        -0.41832E-02
         0.62268E-03
        -0.22067E-02
        -0.25760E-02
        -0.51889E-02
        -0.13656E-01
        -0.61807E-02
        -0.16936E-02
        -0.21456E-02
        -0.28514E-02
        -0.52728E-02
        -0.42953E-02
        -0.51018E-02
        -0.37386E-02
        -0.10779E-01
        -0.15724E-01
        -0.25949E-01
        -0.40488E-01
        -0.33192E-01
        -0.24451E-01
        -0.52918E-02
        -0.37744E-02
        -0.34953E-02
        -0.28315E-02
        -0.26956E-02
        -0.36289E-02
        -0.59763E-02
        -0.79715E-02
        -0.77999E-02
        -0.51923E-02
        -0.27118E-02
        -0.10969E-01
        -0.78655E-02
        -0.63112E-02
        -0.94062E-02
        -0.15094E-01
        -0.23027E-01
        -0.36039E-01
        -0.54719E-01
        -0.73266E-01
        -0.76424E-01
        -0.57511E-01
        -0.37626E-01
        -0.24787E-01
        -0.14814E-01
        -0.70844E-02
        -0.45840E-02
        -0.44443E-02
        -0.47824E-02
        -0.42811E-02
        -0.44787E-02
        -0.64151E-02
        -0.87129E-02
        -0.94216E-02
        -0.74750E-02
         0.18432E-02
         0.14457E-02
        -0.46614E-03
         0.60685E-03
        -0.54325E-02
        -0.51990E-02
         0.13695E-02
         0.17942E-02
         0.25725E-02
         0.32084E-02
         0.64964E-03
        -0.61795E-03
         0.64221E-03
         0.72347E-03
        -0.25069E-02
         0.33812E-02
         0.43882E-02
         0.28457E-02
        -0.37560E-02
        -0.46115E-02
        -0.26314E-01
        -0.35662E-01
        -0.17708E-01
        -0.61487E-02
         0.27291E-02
        -0.31293E-03
         0.12759E-02
        -0.24036E-02
        -0.16362E-01
        -0.96439E-02
         0.40175E-02
         0.22078E-02
         0.40691E-02
         0.13414E-02
        -0.37905E-02
        -0.52675E-03
         0.91428E-03
        -0.46842E-02
        -0.10711E-01
        -0.26254E-01
        -0.50273E-01
        -0.48928E-01
        -0.44290E-01
        -0.80113E-02
        -0.19716E-02
         0.17399E-03
         0.28053E-02
         0.53258E-02
         0.66665E-02
         0.42450E-02
         0.39875E-03
        -0.31805E-02
        -0.63177E-02
        -0.10811E-01
        -0.14702E-02
        -0.79277E-03
        -0.18279E-02
        -0.39220E-02
        -0.82309E-02
        -0.15173E-01
        -0.27361E-01
        -0.52091E-01
        -0.87758E-01
        -0.11404E+00
        -0.10719E+00
        -0.83532E-01
        -0.58468E-01
        -0.35477E-01
        -0.16186E-01
        -0.54622E-02
        -0.28776E-02
        -0.23260E-02
         0.26304E-02
         0.73980E-02
         0.64724E-02
         0.75813E-03
        -0.58075E-02
        -0.10011E-01
         0.27230E-02
         0.53081E-02
         0.63913E-02
         0.10895E-01
        -0.32488E-02
         0.52946E-02
         0.45448E-02
         0.31334E-02
         0.56325E-02
         0.78313E-02
         0.87942E-02
         0.13017E-01
         0.10802E-01
         0.98203E-02
         0.13894E-01
         0.12731E-01
         0.98927E-02
         0.12950E-01
        -0.36487E-02
        -0.11768E-01
        -0.51193E-01
        -0.78535E-01
        -0.30283E-01
        -0.59250E-02
         0.65386E-02
         0.60443E-02
         0.12421E-01
         0.36740E-02
        -0.28094E-01
        -0.22513E-01
         0.18624E-01
         0.13282E-01
         0.23286E-01
         0.22823E-01
         0.26211E-02
         0.13799E-01
         0.13928E-01
         0.11595E-01
        -0.84532E-03
        -0.33690E-01
        -0.79620E-01
        -0.89405E-01
        -0.92620E-01
        -0.10903E-01
         0.38252E-02
         0.10225E-01
         0.16894E-01
         0.25098E-01
         0.32832E-01
         0.32254E-01
         0.27021E-01
         0.17684E-01
        -0.25760E-02
        -0.19031E-01
         0.24393E-01
         0.19341E-01
         0.11410E-01
         0.10300E-01
         0.74883E-02
        -0.27184E-03
        -0.17294E-01
        -0.59489E-01
        -0.12993E+00
        -0.19139E+00
        -0.20077E+00
        -0.17099E+00
        -0.12082E+00
        -0.72892E-01
        -0.34332E-01
        -0.63990E-02
         0.39091E-02
         0.66212E-02
         0.20767E-01
         0.35513E-01
         0.37894E-01
         0.29078E-01
         0.15184E-01
        -0.16761E-02
  
SCALARS                      strain_eq  double 1
LOOKUP_TABLE default
         0.30353E+00
         0.39588E+00
         0.38292E+00
         0.29050E+00
         0.34561E-09
         0.43014E-09
         0.37834E-09
         0.27202E-09
         0.46025E+00
         0.37795E+00
         0.46354E-09
         0.59566E-09
         0.38268E+00
         0.32205E+00
         0.25622E-09
         0.27116E-09
         0.24254E+00
         0.27788E+00
         0.24731E-09
         0.21558E-09
         0.36926E+00
         0.43328E+00
         0.44120E+00
         0.24339E-09
         0.44443E-09
         0.30629E-09
         0.30506E+00
         0.34386E+00
         0.26324E-09
         0.34300E-09
         0.20976E+00
         0.23841E+00
         0.21997E+00
         0.12708E-09
         0.14076E-09
         0.21450E-09
         0.23378E+00
         0.25153E+00
         0.14707E-09
         0.17731E-09
         0.31147E+00
         0.28684E+00
         0.20602E-09
         0.18834E-09
         0.32922E+00
         0.25727E+00
         0.26640E-09
         0.22190E-09
         0.26782E+00
         0.15993E-09
         0.24935E+00
         0.26124E-09
         0.25299E+00
         0.18889E-09
         0.24701E+00
         0.15188E-09
         0.26880E+00
         0.26332E+00
         0.35099E-09
         0.28080E-09
         0.22995E+00
         0.27664E+00
         0.15159E-09
         0.31643E-09
         0.21623E+00
         0.21777E-09
         0.23507E+00
         0.25466E-09
         0.54720E+00
         0.47170E+00
         0.74506E-09
         0.51341E-09
         0.43021E+00
         0.57555E-09
         0.24700E+00
         0.21674E-09
         0.34298E+00
         0.23587E-09
         0.55132E+00
         0.46786E-09
         0.83449E+00
         0.51444E+00
         0.62008E-09
         0.58293E-09
         0.31995E+00
         0.25843E-09
         0.34560E+00
         0.36127E-09
         0.35855E+00
         0.37975E-09
         0.35758E+00
         0.30899E+00
         0.31218E-09
         0.44470E-09
         0.25174E+00
         0.28829E-09
         0.22000E+00
         0.23568E-09
         0.23550E+00
         0.28695E-09
         0.30197E+00
         0.32018E+00
         0.36205E-09
         0.46468E-09
         0.77598E+00
         0.76666E+00
         0.15347E-08
         0.15401E-08
         0.55016E+00
         0.72179E-09
         0.36745E+00
         0.50476E-09
         0.31487E+00
         0.52145E-09
         0.35750E+00
         0.35939E-09
         0.35533E+00
         0.19566E-09
         0.46490E+00
         0.17674E-09
         0.95777E+00
         0.22478E-09
         0.16191E+01
         0.57946E-09
         0.15965E+01
         0.12070E-08
         0.10434E+01
         0.97078E-09
         0.71035E+00
         0.54109E-09
         0.52833E+00
         0.40986E-09
         0.46448E+00
         0.41567E-09
         0.48152E+00
         0.43826E-09
         0.58041E+00
         0.50242E-09
         0.61912E+00
         0.73025E-09
         0.49612E+00
         0.55244E-09
         0.38208E+00
         0.52976E-09
         0.32422E+00
         0.38535E-09
         0.30597E+00
         0.46553E-09
         0.36081E+00
         0.53193E-09
         0.46934E+00
         0.83014E-09
         0.50816E+00
         0.94199E-09
         0.51630E+00
         0.79980E-09
         0.19909E+00
         0.27369E+00
         0.26736E+00
         0.15202E+00
         0.35413E+00
         0.24285E+00
         0.31436E+00
         0.25498E+00
         0.14921E+00
         0.19470E+00
         0.32144E+00
         0.32009E+00
         0.31498E+00
         0.28356E+00
         0.33903E+00
         0.11920E+00
         0.13888E+00
         0.11613E+00
         0.16526E+00
         0.15321E+00
         0.32316E+00
         0.31750E+00
         0.34840E+00
         0.21371E+00
         0.17893E+00
         0.19487E+00
         0.26375E+00
         0.28538E+00
         0.35833E+00
         0.20086E+00
         0.14300E+00
         0.22446E+00
         0.12250E+00
         0.15129E+00
         0.45421E+00
         0.37717E+00
         0.31889E+00
         0.39836E+00
         0.48148E+00
         0.61319E+00
         0.77969E+00
         0.58916E+00
         0.41294E+00
         0.34893E+00
         0.36631E+00
         0.39582E+00
         0.29826E+00
         0.20794E+00
         0.21722E+00
         0.34335E+00
         0.46961E+00
         0.29145E+00
         0.64865E+00
         0.63053E+00
         0.50197E+00
         0.34338E+00
         0.25944E+00
         0.27877E+00
         0.37777E+00
         0.56154E+00
         0.87504E+00
         0.12141E+01
         0.12856E+01
         0.98393E+00
         0.69844E+00
         0.58336E+00
         0.59111E+00
         0.58779E+00
         0.59440E+00
         0.59179E+00
         0.55625E+00
         0.49442E+00
         0.46020E+00
         0.69265E+00
         0.10571E+01
         0.10417E+01
         0.69672E+00
         0.54694E+00
         0.72874E-01
         0.99663E-01
         0.15188E+00
         0.11104E+00
         0.28971E+00
         0.31723E+00
         0.10104E+00
         0.83788E-01
         0.56258E-01
         0.63318E-01
         0.12801E+00
         0.17176E+00
         0.12168E+00
         0.14443E+00
         0.26655E+00
         0.94518E-01
         0.64424E-01
         0.82995E-01
         0.63545E-01
         0.68206E-01
         0.12151E+00
         0.23859E+00
         0.10592E+00
         0.88455E-01
         0.75409E-01
         0.12328E+00
         0.17328E+00
         0.24149E+00
         0.38578E+00
         0.18648E+00
         0.11319E+00
         0.14905E+00
         0.13662E+00
         0.26033E+00
         0.33518E+00
         0.24112E+00
         0.14689E+00
         0.36840E+00
         0.47729E+00
         0.61589E+00
         0.72892E+00
         0.61097E+00
         0.42443E+00
         0.14836E+00
         0.20736E+00
         0.24838E+00
         0.19933E+00
         0.21165E+00
         0.34933E+00
         0.57449E+00
         0.76091E+00
         0.51110E+00
         0.51392E+00
         0.52359E+00
         0.41048E+00
         0.24769E+00
         0.17240E+00
         0.21941E+00
         0.36013E+00
         0.55634E+00
         0.74898E+00
         0.83834E+00
         0.78241E+00
         0.77647E+00
         0.69239E+00
         0.49237E+00
         0.31665E+00
         0.20753E+00
         0.22434E+00
         0.33650E+00
         0.36566E+00
         0.32830E+00
         0.44276E+00
         0.80994E+00
         0.12906E+01
         0.13962E+01
         0.10202E+01
         0.64849E+00
         0.83710E-01
         0.97415E-01
         0.11707E+00
         0.90347E-01
         0.16262E+00
         0.14153E+00
         0.93618E-01
         0.83547E-01
         0.70984E-01
         0.67785E-01
         0.99879E-01
         0.12160E+00
         0.10132E+00
         0.10057E+00
         0.17807E+00
         0.78863E-01
         0.63639E-01
         0.79432E-01
         0.61430E-01
         0.64674E-01
         0.87894E-01
         0.16756E+00
         0.71640E-01
         0.72677E-01
         0.63937E-01
         0.91179E-01
         0.11219E+00
         0.16398E+00
         0.26881E+00
         0.12610E+00
         0.90374E-01
         0.11287E+00
         0.90134E-01
         0.11370E+00
         0.19989E+00
         0.16234E+00
         0.11907E+00
         0.25994E+00
         0.36518E+00
         0.48738E+00
         0.58091E+00
         0.44320E+00
         0.29269E+00
         0.10037E+00
         0.14336E+00
         0.17794E+00
         0.15545E+00
         0.14338E+00
         0.14958E+00
         0.17734E+00
         0.21318E+00
         0.16937E+00
         0.28236E+00
         0.24002E+00
         0.23802E+00
         0.15965E+00
         0.12163E+00
         0.15835E+00
         0.27801E+00
         0.45076E+00
         0.64100E+00
         0.74570E+00
         0.74629E+00
         0.70049E+00
         0.55846E+00
         0.36697E+00
         0.20896E+00
         0.11997E+00
         0.13521E+00
         0.20494E+00
         0.24076E+00
         0.23199E+00
         0.23082E+00
         0.24064E+00
         0.28608E+00
         0.32183E+00
         0.27871E+00
         0.22546E+00
         0.20068E-01
         0.17091E-01
         0.16117E-01
         0.17454E-01
         0.37797E-01
         0.48752E-01
         0.17929E-01
         0.21106E-01
         0.23466E-01
         0.27070E-01
         0.21113E-01
         0.41654E-01
         0.23097E-01
         0.23202E-01
         0.81198E-01
         0.20563E-01
         0.31103E-01
         0.21312E-01
         0.24233E-01
         0.42949E-01
         0.47883E-01
         0.95356E-01
         0.29790E-01
         0.19735E-01
         0.33207E-01
         0.20127E-01
         0.37931E-01
         0.80207E-01
         0.15513E+00
         0.71039E-01
         0.28697E-01
         0.33094E-01
         0.32441E-01
         0.44222E-01
         0.46483E-01
         0.27983E-01
         0.19532E-01
         0.14275E+00
         0.22569E+00
         0.32239E+00
         0.39953E+00
         0.27950E+00
         0.17149E+00
         0.32281E-01
         0.45989E-01
         0.62392E-01
         0.60478E-01
         0.63213E-01
         0.72424E-01
         0.91678E-01
         0.11604E+00
         0.85408E-01
         0.86562E-01
         0.90508E-01
         0.56852E-01
         0.33391E-01
         0.38447E-01
         0.80095E-01
         0.16885E+00
         0.30201E+00
         0.47315E+00
         0.60415E+00
         0.62223E+00
         0.51800E+00
         0.36141E+00
         0.21926E+00
         0.12030E+00
         0.70613E-01
         0.69293E-01
         0.77877E-01
         0.87100E-01
         0.10343E+00
         0.12206E+00
         0.14703E+00
         0.17345E+00
         0.18644E+00
         0.16600E+00
         0.12021E+00
         0.13891E-01
         0.12333E-01
         0.12732E-01
         0.11391E-01
         0.23644E-01
         0.31187E-01
         0.13306E-01
         0.17976E-01
         0.17545E-01
         0.23577E-01
         0.10338E-01
         0.13203E-01
         0.10692E-01
         0.10624E-01
         0.31154E-01
         0.12765E-01
         0.22756E-01
         0.10997E-01
         0.16803E-01
         0.29188E-01
         0.20613E-01
         0.44375E-01
         0.12856E-01
         0.12290E-01
         0.28268E-01
         0.87013E-02
         0.16004E-01
         0.40198E-01
         0.85332E-01
         0.43537E-01
         0.80987E-02
         0.10057E-01
         0.11769E-01
         0.23643E-01
         0.24416E-01
         0.17145E-01
         0.12625E-01
         0.67716E-01
         0.12104E+00
         0.18552E+00
         0.24087E+00
         0.16128E+00
         0.89845E-01
         0.11295E-01
         0.16312E-01
         0.23158E-01
         0.20756E-01
         0.21346E-01
         0.29881E-01
         0.45705E-01
         0.61535E-01
         0.47543E-01
         0.41825E-01
         0.46941E-01
         0.30804E-01
         0.15879E-01
         0.14602E-01
         0.35482E-01
         0.85346E-01
         0.17108E+00
         0.29035E+00
         0.39166E+00
         0.41712E+00
         0.33120E+00
         0.19850E+00
         0.10323E+00
         0.53878E-01
         0.29414E-01
         0.25618E-01
         0.28529E-01
         0.32584E-01
         0.34634E-01
         0.40955E-01
         0.59281E-01
         0.84228E-01
         0.98975E-01
         0.89566E-01
         0.65197E-01
         0.66047E-02
         0.56478E-02
         0.56024E-02
         0.25904E-02
         0.10911E-01
         0.98886E-02
         0.68021E-02
         0.92580E-02
         0.82448E-02
         0.12242E-01
         0.71561E-02
         0.75618E-02
         0.58405E-02
         0.79535E-02
         0.11273E-01
         0.55797E-02
         0.10422E-01
         0.44006E-02
         0.74607E-02
         0.13349E-01
         0.75753E-02
         0.13532E-01
         0.77713E-02
         0.66742E-02
         0.15564E-01
         0.42115E-02
         0.94915E-02
         0.17624E-01
         0.34381E-01
         0.20018E-01
         0.11135E-02
         0.10394E-02
         0.22210E-02
         0.55458E-02
         0.10703E-01
         0.66915E-02
         0.55389E-02
         0.24408E-01
         0.48868E-01
         0.78357E-01
         0.10316E+00
         0.64220E-01
         0.31593E-01
         0.59650E-02
         0.43944E-02
         0.57707E-02
         0.59863E-02
         0.78738E-02
         0.10551E-01
         0.13575E-01
         0.15612E-01
         0.11832E-01
         0.15557E-01
         0.20419E-01
         0.80513E-02
         0.68782E-02
         0.70231E-02
         0.14336E-01
         0.32570E-01
         0.71266E-01
         0.13471E+00
         0.18967E+00
         0.19877E+00
         0.14595E+00
         0.75207E-01
         0.32700E-01
         0.18294E-01
         0.14109E-01
         0.12673E-01
         0.10509E-01
         0.86548E-02
         0.94635E-02
         0.13776E-01
         0.19860E-01
         0.23713E-01
         0.22671E-01
         0.19040E-01
         0.17747E-01
         0.23586E-02
         0.21289E-02
         0.30749E-02
         0.14642E-02
         0.89077E-02
         0.93772E-02
         0.26329E-02
         0.34123E-02
         0.25337E-02
         0.47575E-02
         0.36616E-02
         0.49432E-02
         0.35267E-02
         0.45187E-02
         0.67532E-02
         0.16113E-02
         0.31255E-02
         0.15759E-02
         0.25363E-02
         0.45138E-02
         0.65404E-02
         0.55138E-02
         0.67146E-02
         0.37662E-02
         0.70042E-02
         0.19862E-02
         0.60686E-02
         0.77947E-02
         0.81230E-02
         0.78034E-02
         0.20137E-02
         0.17130E-02
         0.35945E-02
         0.68000E-02
         0.75194E-02
         0.32674E-02
         0.31268E-02
         0.75336E-02
         0.94228E-02
         0.13337E-01
         0.17234E-01
         0.79828E-02
         0.43435E-02
         0.52305E-02
         0.42332E-02
         0.48789E-02
         0.47450E-02
         0.64838E-02
         0.95749E-02
         0.13218E-01
         0.15677E-01
         0.12252E-01
         0.10884E-01
         0.16437E-01
         0.49064E-02
         0.70138E-02
         0.68909E-02
         0.80324E-02
         0.12629E-01
         0.20198E-01
         0.34261E-01
         0.47437E-01
         0.45619E-01
         0.29316E-01
         0.16276E-01
         0.14047E-01
         0.13316E-01
         0.12353E-01
         0.11144E-01
         0.10098E-01
         0.84966E-02
         0.76053E-02
         0.10395E-01
         0.15988E-01
         0.20786E-01
         0.20891E-01
         0.16577E-01
         0.14513E-01
         0.12037E-02
         0.12148E-02
         0.26805E-02
         0.16550E-02
         0.85485E-02
         0.98115E-02
         0.10628E-02
         0.15587E-02
         0.78168E-03
         0.26049E-02
         0.18376E-02
         0.35911E-02
         0.29413E-02
         0.26455E-02
         0.63116E-02
         0.62688E-03
         0.16346E-02
         0.78085E-03
         0.19403E-02
         0.16604E-02
         0.70921E-02
         0.87050E-02
         0.61096E-02
         0.29676E-02
         0.34512E-02
         0.13455E-02
         0.44258E-02
         0.68730E-02
         0.10775E-01
         0.44307E-02
         0.15722E-02
         0.13350E-02
         0.29237E-02
         0.62775E-02
         0.68005E-02
         0.31223E-02
         0.29876E-02
         0.10434E-01
         0.15626E-01
         0.22618E-01
         0.29739E-01
         0.20327E-01
         0.13172E-01
         0.44451E-02
         0.34285E-02
         0.40500E-02
         0.40051E-02
         0.54385E-02
         0.82357E-02
         0.11819E-01
         0.14765E-01
         0.12310E-01
         0.10489E-01
         0.16007E-01
         0.68577E-02
         0.78863E-02
         0.75651E-02
         0.76824E-02
         0.11967E-01
         0.21058E-01
         0.34212E-01
         0.48853E-01
         0.54343E-01
         0.44810E-01
         0.32706E-01
         0.21618E-01
         0.14647E-01
         0.11377E-01
         0.93774E-02
         0.85475E-02
         0.76773E-02
         0.70923E-02
         0.87254E-02
         0.13198E-01
         0.17553E-01
         0.19544E-01
         0.18232E-01
         0.16487E-01
         0.11174E-02
         0.10015E-02
         0.27076E-02
         0.16871E-02
         0.90755E-02
         0.10837E-01
         0.79566E-03
         0.15982E-02
         0.89763E-03
         0.27173E-02
         0.14010E-02
         0.32084E-02
         0.27813E-02
         0.22493E-02
         0.67221E-02
         0.37861E-03
         0.21606E-02
         0.70294E-03
         0.24952E-02
         0.19468E-02
         0.91678E-02
         0.11728E-01
         0.76177E-02
         0.34885E-02
         0.24751E-02
         0.16343E-02
         0.40775E-02
         0.73996E-02
         0.14094E-01
         0.43943E-02
         0.11342E-02
         0.13603E-02
         0.26300E-02
         0.66791E-02
         0.71534E-02
         0.32492E-02
         0.28348E-02
         0.13231E-01
         0.21684E-01
         0.32273E-01
         0.42787E-01
         0.28960E-01
         0.18116E-01
         0.55510E-02
         0.43315E-02
         0.46911E-02
         0.41279E-02
         0.56112E-02
         0.90109E-02
         0.13480E-01
         0.17235E-01
         0.14015E-01
         0.11342E-01
         0.17296E-01
         0.74028E-02
         0.78218E-02
         0.77160E-02
         0.77977E-02
         0.13779E-01
         0.28760E-01
         0.50104E-01
         0.70921E-01
         0.78806E-01
         0.64518E-01
         0.44005E-01
         0.27661E-01
         0.19242E-01
         0.14867E-01
         0.11627E-01
         0.10314E-01
         0.87127E-02
         0.76834E-02
         0.98016E-02
         0.15522E-01
         0.21182E-01
         0.24003E-01
         0.22116E-01
         0.19098E-01
         0.11815E-02
         0.11805E-02
         0.30121E-02
         0.17544E-02
         0.99497E-02
         0.11840E-01
         0.96627E-03
         0.18233E-02
         0.10656E-02
         0.29991E-02
         0.14597E-02
         0.35323E-02
         0.31981E-02
         0.24019E-02
         0.79343E-02
         0.43439E-03
         0.25386E-02
         0.87680E-03
         0.32481E-02
         0.26793E-02
         0.11221E-01
         0.14349E-01
         0.93739E-02
         0.44364E-02
         0.22521E-02
         0.22180E-02
         0.44112E-02
         0.81880E-02
         0.15556E-01
         0.47633E-02
         0.12727E-02
         0.19233E-02
         0.29666E-02
         0.74546E-02
         0.79114E-02
         0.36810E-02
         0.32850E-02
         0.16220E-01
         0.26166E-01
         0.37241E-01
         0.47512E-01
         0.31693E-01
         0.20755E-01
         0.69489E-02
         0.55743E-02
         0.62363E-02
         0.54490E-02
         0.70821E-02
         0.10961E-01
         0.15773E-01
         0.19660E-01
         0.15582E-01
         0.12411E-01
         0.19009E-01
         0.80465E-02
         0.86637E-02
         0.85471E-02
         0.88023E-02
         0.16658E-01
         0.36283E-01
         0.62774E-01
         0.84463E-01
         0.87601E-01
         0.69197E-01
         0.50141E-01
         0.33037E-01
         0.22572E-01
         0.17294E-01
         0.13597E-01
         0.12106E-01
         0.10821E-01
         0.10183E-01
         0.13158E-01
         0.19734E-01
         0.25457E-01
         0.27469E-01
         0.24339E-01
         0.20768E-01
         0.11805E-02
         0.14922E-02
         0.33124E-02
         0.17562E-02
         0.10276E-01
         0.11967E-01
         0.11030E-02
         0.19350E-02
         0.11260E-02
         0.32310E-02
         0.14790E-02
         0.38931E-02
         0.33213E-02
         0.24823E-02
         0.90190E-02
         0.73719E-03
         0.28223E-02
         0.87798E-03
         0.34284E-02
         0.29896E-02
         0.11390E-01
         0.14704E-01
         0.93957E-02
         0.45133E-02
         0.22442E-02
         0.22488E-02
         0.49025E-02
         0.96417E-02
         0.18325E-01
         0.54187E-02
         0.17716E-02
         0.20840E-02
         0.35353E-02
         0.78356E-02
         0.83325E-02
         0.40431E-02
         0.35353E-02
         0.18716E-01
         0.30805E-01
         0.44073E-01
         0.55396E-01
         0.35908E-01
         0.22288E-01
         0.68207E-02
         0.53714E-02
         0.64108E-02
         0.61934E-02
         0.82927E-02
         0.12205E-01
         0.16564E-01
         0.19961E-01
         0.15712E-01
         0.12866E-01
         0.19473E-01
         0.82273E-02
         0.87334E-02
         0.85231E-02
         0.97215E-02
         0.19254E-01
         0.42121E-01
         0.74193E-01
         0.10053E+00
         0.10183E+00
         0.76449E-01
         0.52671E-01
         0.33826E-01
         0.22788E-01
         0.16900E-01
         0.13020E-01
         0.11422E-01
         0.10796E-01
         0.11063E-01
         0.15074E-01
         0.21741E-01
         0.26443E-01
         0.27334E-01
         0.23740E-01
         0.20472E-01
         0.10362E-02
         0.14961E-02
         0.35166E-02
         0.18158E-02
         0.10815E-01
         0.12368E-01
         0.10087E-02
         0.18982E-02
         0.10959E-02
         0.34270E-02
         0.12730E-02
         0.37147E-02
         0.31852E-02
         0.23843E-02
         0.93174E-02
         0.71472E-03
         0.30232E-02
         0.88758E-03
         0.32551E-02
         0.31516E-02
         0.11252E-01
         0.14907E-01
         0.90550E-02
         0.42422E-02
         0.24700E-02
         0.20304E-02
         0.50387E-02
         0.10128E-01
         0.20090E-01
         0.57103E-02
         0.19036E-02
         0.21448E-02
         0.37014E-02
         0.80475E-02
         0.88405E-02
         0.41810E-02
         0.34883E-02
         0.19478E-01
         0.32663E-01
         0.48342E-01
         0.62505E-01
         0.40193E-01
         0.23771E-01
         0.63934E-02
         0.51058E-02
         0.63755E-02
         0.63118E-02
         0.83283E-02
         0.12179E-01
         0.16571E-01
         0.20034E-01
         0.15975E-01
         0.13592E-01
         0.20507E-01
         0.79629E-02
         0.84481E-02
         0.83252E-02
         0.96206E-02
         0.20407E-01
         0.44233E-01
         0.77772E-01
         0.10971E+00
         0.11676E+00
         0.87492E-01
         0.56064E-01
         0.34455E-01
         0.23101E-01
         0.16664E-01
         0.12465E-01
         0.10900E-01
         0.10499E-01
         0.10737E-01
         0.14533E-01
         0.21240E-01
         0.26033E-01
         0.27173E-01
         0.24071E-01
         0.21144E-01
         0.81504E-03
         0.10728E-02
         0.34621E-02
         0.20250E-02
         0.11157E-01
         0.12784E-01
         0.87764E-03
         0.19631E-02
         0.11155E-02
         0.34808E-02
         0.10560E-02
         0.34593E-02
         0.29574E-02
         0.23586E-02
         0.94709E-02
         0.59388E-03
         0.30684E-02
         0.86601E-03
         0.31332E-02
         0.33327E-02
         0.10971E-01
         0.15611E-01
         0.85357E-02
         0.39336E-02
         0.24310E-02
         0.18647E-02
         0.46696E-02
         0.91793E-02
         0.19653E-01
         0.58566E-02
         0.17685E-02
         0.20589E-02
         0.34806E-02
         0.80065E-02
         0.89626E-02
         0.39162E-02
         0.31659E-02
         0.19258E-01
         0.31359E-01
         0.47051E-01
         0.63429E-01
         0.41996E-01
         0.25405E-01
         0.60099E-02
         0.47509E-02
         0.59289E-02
         0.59761E-02
         0.77152E-02
         0.11296E-01
         0.15892E-01
         0.19739E-01
         0.16149E-01
         0.13811E-01
         0.21112E-01
         0.78218E-02
         0.84778E-02
         0.83264E-02
         0.95518E-02
         0.21111E-01
         0.44564E-01
         0.75200E-01
         0.10702E+00
         0.12093E+00
         0.95463E-01
         0.61732E-01
         0.36958E-01
         0.23190E-01
         0.16156E-01
         0.11986E-01
         0.10100E-01
         0.94973E-02
         0.98232E-02
         0.13058E-01
         0.19310E-01
         0.24690E-01
         0.26719E-01
         0.24354E-01
         0.21730E-01
         0.84439E-03
         0.89605E-03
         0.32319E-02
         0.19072E-02
         0.10642E-01
         0.12051E-01
         0.92214E-03
         0.19316E-02
         0.10401E-02
         0.32078E-02
         0.10472E-02
         0.32927E-02
         0.28333E-02
         0.23162E-02
         0.93776E-02
         0.63907E-03
         0.28627E-02
         0.89417E-03
         0.30033E-02
         0.31584E-02
         0.10348E-01
         0.15552E-01
         0.78579E-02
         0.36218E-02
         0.20255E-02
         0.17327E-02
         0.43236E-02
         0.86299E-02
         0.18988E-01
         0.61597E-02
         0.16802E-02
         0.19688E-02
         0.31493E-02
         0.73770E-02
         0.85702E-02
         0.35931E-02
         0.29262E-02
         0.18636E-01
         0.29545E-01
         0.44026E-01
         0.60307E-01
         0.41459E-01
         0.25953E-01
         0.55674E-02
         0.44370E-02
         0.56319E-02
         0.58739E-02
         0.75198E-02
         0.10667E-01
         0.14824E-01
         0.18413E-01
         0.15050E-01
         0.13372E-01
         0.20172E-01
         0.77438E-02
         0.83502E-02
         0.82519E-02
         0.92451E-02
         0.20566E-01
         0.43369E-01
         0.71230E-01
         0.99530E-01
         0.11446E+00
         0.94947E-01
         0.63618E-01
         0.36975E-01
         0.21767E-01
         0.14888E-01
         0.11132E-01
         0.94359E-02
         0.88758E-02
         0.95260E-02
         0.12578E-01
         0.18096E-01
         0.23119E-01
         0.25051E-01
         0.22670E-01
         0.20359E-01
         0.86910E-03
         0.10613E-02
         0.32755E-02
         0.19102E-02
         0.10072E-01
         0.11108E-01
         0.91716E-03
         0.16988E-02
         0.96064E-03
         0.28689E-02
         0.11040E-02
         0.35214E-02
         0.29790E-02
         0.21194E-02
         0.89922E-02
         0.65705E-03
         0.25941E-02
         0.80727E-03
         0.28563E-02
         0.29218E-02
         0.10132E-01
         0.14756E-01
         0.77985E-02
         0.36211E-02
         0.18839E-02
         0.17530E-02
         0.40466E-02
         0.82810E-02
         0.17646E-01
         0.56700E-02
         0.18282E-02
         0.20680E-02
         0.33368E-02
         0.71360E-02
         0.84234E-02
         0.38311E-02
         0.30789E-02
         0.17623E-01
         0.28107E-01
         0.41264E-01
         0.55268E-01
         0.37870E-01
         0.24080E-01
         0.55929E-02
         0.46125E-02
         0.57914E-02
         0.59614E-02
         0.76723E-02
         0.10775E-01
         0.14413E-01
         0.17316E-01
         0.13886E-01
         0.12926E-01
         0.18614E-01
         0.78903E-02
         0.84825E-02
         0.83624E-02
         0.94210E-02
         0.19413E-01
         0.40650E-01
         0.68022E-01
         0.93817E-01
         0.10365E+00
         0.85168E-01
         0.58795E-01
         0.34601E-01
         0.20614E-01
         0.14430E-01
         0.11020E-01
         0.98189E-02
         0.92285E-02
         0.97086E-02
         0.12729E-01
         0.18123E-01
         0.22405E-01
         0.23384E-01
         0.20460E-01
         0.18230E-01
         0.86348E-03
         0.12998E-02
         0.32800E-02
         0.20115E-02
         0.94061E-02
         0.10299E-01
         0.97143E-03
         0.16589E-02
         0.11520E-02
         0.29036E-02
         0.11226E-02
         0.37361E-02
         0.31081E-02
         0.19626E-02
         0.85842E-02
         0.67586E-03
         0.26201E-02
         0.64999E-03
         0.32137E-02
         0.30862E-02
         0.11000E-01
         0.14999E-01
         0.87682E-02
         0.41884E-02
         0.19390E-02
         0.20773E-02
         0.40255E-02
         0.83197E-02
         0.17298E-01
         0.55462E-02
         0.21299E-02
         0.23071E-02
         0.35375E-02
         0.68974E-02
         0.79986E-02
         0.37918E-02
         0.31242E-02
         0.17116E-01
         0.28027E-01
         0.41069E-01
         0.54160E-01
         0.36526E-01
         0.23260E-01
         0.62476E-02
         0.49522E-02
         0.59189E-02
         0.59346E-02
         0.75062E-02
         0.10348E-01
         0.13557E-01
         0.16106E-01
         0.12919E-01
         0.12170E-01
         0.17164E-01
         0.73291E-02
         0.81342E-02
         0.83386E-02
         0.97421E-02
         0.18862E-01
         0.39448E-01
         0.68165E-01
         0.93975E-01
         0.10132E+00
         0.81098E-01
         0.55541E-01
         0.34066E-01
         0.21929E-01
         0.16031E-01
         0.12069E-01
         0.10352E-01
         0.96081E-02
         0.98823E-02
         0.12575E-01
         0.17383E-01
         0.20911E-01
         0.21578E-01
         0.18813E-01
         0.16633E-01
         0.90031E-03
         0.11239E-02
         0.29958E-02
         0.18364E-02
         0.88529E-02
         0.94923E-02
         0.81771E-03
         0.18733E-02
         0.14124E-02
         0.31854E-02
         0.83347E-03
         0.31561E-02
         0.28848E-02
         0.19353E-02
         0.75655E-02
         0.11864E-02
         0.29288E-02
         0.76372E-03
         0.37602E-02
         0.34978E-02
         0.11447E-01
         0.15461E-01
         0.92363E-02
         0.46223E-02
         0.20113E-02
         0.24832E-02
         0.41433E-02
         0.85919E-02
         0.18287E-01
         0.59234E-02
         0.19771E-02
         0.22780E-02
         0.29774E-02
         0.59467E-02
         0.75112E-02
         0.34230E-02
         0.29136E-02
         0.16556E-01
         0.28730E-01
         0.43496E-01
         0.58034E-01
         0.38717E-01
         0.24168E-01
         0.66847E-02
         0.50707E-02
         0.56499E-02
         0.53614E-02
         0.64065E-02
         0.86469E-02
         0.11581E-01
         0.14105E-01
         0.11540E-01
         0.11752E-01
         0.16643E-01
         0.69941E-02
         0.80422E-02
         0.83288E-02
         0.90621E-02
         0.17302E-01
         0.38720E-01
         0.70613E-01
         0.10082E+00
         0.11014E+00
         0.86574E-01
         0.57242E-01
         0.35102E-01
         0.22929E-01
         0.16917E-01
         0.12877E-01
         0.10610E-01
         0.95590E-02
         0.94849E-02
         0.11151E-01
         0.14937E-01
         0.18242E-01
         0.19132E-01
         0.17096E-01
         0.15744E-01
         0.86225E-03
         0.77092E-03
         0.24699E-02
         0.14846E-02
         0.78970E-02
         0.80443E-02
         0.68296E-03
         0.19335E-02
         0.14755E-02
         0.32086E-02
         0.74566E-03
         0.22580E-02
         0.21880E-02
         0.20471E-02
         0.63832E-02
         0.13198E-02
         0.30125E-02
         0.94083E-03
         0.35785E-02
         0.36047E-02
         0.10030E-01
         0.14228E-01
         0.80885E-02
         0.41282E-02
         0.19740E-02
         0.23162E-02
         0.38697E-02
         0.75607E-02
         0.17347E-01
         0.57455E-02
         0.15160E-02
         0.18876E-02
         0.21007E-02
         0.43959E-02
         0.65728E-02
         0.26631E-02
         0.23184E-02
         0.14718E-01
         0.26263E-01
         0.41174E-01
         0.56507E-01
         0.37886E-01
         0.23268E-01
         0.61840E-02
         0.48123E-02
         0.51050E-02
         0.43207E-02
         0.47025E-02
         0.61585E-02
         0.85486E-02
         0.10771E-01
         0.90810E-02
         0.10706E-01
         0.15680E-01
         0.64990E-02
         0.73781E-02
         0.72582E-02
         0.71257E-02
         0.14041E-01
         0.34176E-01
         0.64872E-01
         0.95992E-01
         0.10856E+00
         0.86007E-01
         0.55501E-01
         0.33021E-01
         0.20353E-01
         0.14933E-01
         0.12003E-01
         0.10357E-01
         0.93209E-02
         0.87410E-02
         0.90118E-02
         0.11444E-01
         0.14386E-01
         0.15211E-01
         0.14042E-01
         0.14146E-01
         0.84277E-03
         0.70937E-03
         0.16633E-02
         0.68721E-03
         0.57520E-02
         0.50163E-02
         0.57186E-03
         0.18765E-02
         0.13213E-02
         0.29919E-02
         0.12459E-02
         0.27586E-02
         0.19076E-02
         0.23791E-02
         0.66322E-02
         0.10665E-02
         0.25678E-02
         0.10634E-02
         0.28004E-02
         0.30689E-02
         0.85449E-02
         0.12982E-01
         0.68717E-02
         0.33743E-02
         0.15748E-02
         0.19808E-02
         0.38731E-02
         0.75324E-02
         0.18113E-01
         0.64299E-02
         0.13617E-02
         0.18505E-02
         0.96958E-03
         0.14543E-02
         0.49694E-02
         0.23354E-02
         0.22134E-02
         0.14082E-01
         0.25233E-01
         0.41006E-01
         0.57798E-01
         0.39350E-01
         0.23400E-01
         0.55239E-02
         0.45491E-02
         0.49867E-02
         0.39337E-02
         0.33792E-02
         0.34188E-02
         0.45460E-02
         0.61620E-02
         0.48401E-02
         0.94803E-02
         0.13369E-01
         0.76396E-02
         0.70541E-02
         0.63148E-02
         0.67583E-02
         0.13024E-01
         0.31175E-01
         0.61086E-01
         0.93985E-01
         0.11046E+00
         0.88501E-01
         0.53421E-01
         0.28980E-01
         0.17046E-01
         0.12599E-01
         0.10560E-01
         0.96251E-02
         0.95298E-02
         0.98170E-02
         0.94583E-02
         0.10482E-01
         0.12303E-01
         0.12055E-01
         0.10791E-01
         0.11354E-01
         0.16928E-02
         0.21311E-02
         0.34362E-02
         0.24620E-02
         0.64378E-02
         0.58082E-02
         0.16837E-02
         0.21597E-02
         0.12241E-02
         0.26195E-02
         0.27128E-02
         0.52308E-02
         0.31995E-02
         0.34549E-02
         0.92804E-02
         0.11211E-02
         0.17750E-02
         0.15685E-02
         0.20802E-02
         0.24959E-02
         0.89138E-02
         0.14304E-01
         0.69943E-02
         0.34458E-02
         0.14943E-02
         0.28283E-02
         0.49984E-02
         0.95173E-02
         0.21460E-01
         0.85447E-02
         0.33230E-02
         0.41133E-02
         0.36897E-02
         0.52030E-02
         0.81601E-02
         0.64325E-02
         0.42068E-02
         0.15872E-01
         0.27021E-01
         0.44360E-01
         0.63776E-01
         0.45506E-01
         0.27459E-01
         0.60013E-02
         0.63047E-02
         0.83336E-02
         0.80164E-02
         0.78472E-02
         0.84887E-02
         0.10361E-01
         0.12470E-01
         0.85988E-02
         0.14646E-01
         0.15134E-01
         0.14464E-01
         0.92220E-02
         0.69045E-02
         0.95330E-02
         0.16570E-01
         0.32450E-01
         0.61604E-01
         0.97188E-01
         0.11935E+00
         0.10196E+00
         0.60936E-01
         0.30627E-01
         0.17750E-01
         0.11875E-01
         0.97417E-02
         0.10570E-01
         0.13550E-01
         0.16970E-01
         0.18139E-01
         0.19921E-01
         0.22654E-01
         0.22192E-01
         0.18473E-01
         0.15044E-01
         0.17024E-02
         0.17693E-02
         0.41543E-02
         0.35225E-02
         0.75318E-02
         0.91428E-02
         0.16505E-02
         0.23240E-02
         0.16080E-02
         0.28093E-02
         0.37210E-02
         0.76088E-02
         0.46858E-02
         0.45551E-02
         0.12111E-01
         0.69595E-03
         0.24017E-02
         0.16415E-02
         0.34497E-02
         0.32509E-02
         0.14810E-01
         0.19338E-01
         0.12416E-01
         0.57827E-02
         0.34348E-02
         0.35695E-02
         0.66217E-02
         0.12630E-01
         0.26188E-01
         0.11457E-01
         0.27789E-02
         0.47708E-02
         0.41424E-02
         0.73810E-02
         0.91680E-02
         0.82714E-02
         0.55344E-02
         0.18745E-01
         0.30576E-01
         0.49266E-01
         0.70647E-01
         0.53197E-01
         0.33746E-01
         0.95995E-02
         0.97607E-02
         0.12868E-01
         0.11983E-01
         0.11841E-01
         0.12197E-01
         0.14090E-01
         0.16896E-01
         0.12803E-01
         0.14476E-01
         0.15461E-01
         0.18039E-01
         0.13161E-01
         0.10576E-01
         0.13840E-01
         0.21814E-01
         0.37204E-01
         0.64903E-01
         0.10022E+00
         0.12530E+00
         0.11536E+00
         0.75260E-01
         0.45407E-01
         0.33591E-01
         0.24824E-01
         0.18620E-01
         0.17999E-01
         0.21028E-01
         0.26478E-01
         0.28652E-01
         0.28003E-01
         0.28655E-01
         0.27701E-01
         0.24267E-01
         0.20135E-01
         0.13250E-01
         0.14128E-01
         0.17297E-01
         0.15760E-01
         0.20295E-01
         0.18859E-01
         0.12948E-01
         0.13253E-01
         0.12828E-01
         0.12556E-01
         0.10313E-01
         0.54684E-02
         0.92195E-02
         0.91912E-02
         0.68576E-02
         0.18306E-01
         0.15192E-01
         0.14556E-01
         0.27399E-01
         0.19962E-01
         0.58611E-01
         0.53464E-01
         0.61279E-01
         0.37520E-01
         0.12029E-01
         0.32356E-01
         0.79718E-02
         0.13037E-01
         0.29440E-01
         0.16926E-01
         0.20954E-01
         0.33451E-01
         0.19205E-01
         0.22362E-01
         0.24466E-01
         0.20510E-01
         0.13627E-01
         0.18442E-01
         0.35929E-01
         0.60177E-01
         0.88720E-01
         0.68280E-01
         0.53922E-01
         0.56303E-01
         0.54097E-01
         0.56941E-01
         0.45109E-01
         0.37600E-01
         0.36373E-01
         0.37330E-01
         0.37676E-01
         0.26520E-01
         0.29270E-01
         0.20372E-01
         0.25113E-01
         0.15393E-01
         0.11865E-01
         0.14452E-01
         0.25006E-01
         0.47233E-01
         0.85554E-01
         0.13057E+00
         0.16109E+00
         0.15839E+00
         0.13521E+00
         0.13269E+00
         0.12932E+00
         0.11416E+00
         0.95964E-01
         0.84561E-01
         0.79540E-01
         0.77123E-01
         0.75686E-01
         0.71663E-01
         0.65815E-01
         0.53132E-01
         0.35422E-01
         0.21031E-01
         0.32310E-01
         0.35382E-01
         0.41510E-01
         0.37406E-01
         0.46099E-01
         0.42209E-01
         0.33716E-01
         0.33629E-01
         0.31970E-01
         0.32115E-01
         0.30983E-01
         0.24766E-01
         0.29591E-01
         0.29087E-01
         0.19760E-01
         0.46450E-01
         0.38644E-01
         0.35449E-01
         0.67107E-01
         0.52477E-01
         0.12882E+00
         0.12714E+00
         0.13042E+00
         0.86687E-01
         0.31789E-01
         0.75598E-01
         0.24215E-01
         0.24640E-01
         0.53261E-01
         0.46935E-01
         0.49964E-01
         0.75310E-01
         0.47697E-01
         0.53928E-01
         0.55049E-01
         0.51006E-01
         0.38332E-01
         0.26543E-01
         0.51771E-01
         0.88220E-01
         0.13499E+00
         0.12253E+00
         0.12333E+00
         0.11881E+00
         0.11164E+00
         0.11463E+00
         0.93330E-01
         0.78033E-01
         0.78271E-01
         0.81049E-01
         0.79795E-01
         0.59111E-01
         0.63065E-01
         0.50256E-01
         0.63444E-01
         0.39690E-01
         0.22339E-01
         0.15796E-01
         0.24501E-01
         0.59979E-01
         0.11848E+00
         0.17995E+00
         0.23001E+00
         0.25864E+00
         0.26690E+00
         0.27681E+00
         0.25782E+00
         0.21953E+00
         0.18086E+00
         0.15573E+00
         0.14721E+00
         0.14041E+00
         0.13406E+00
         0.12946E+00
         0.12129E+00
         0.10084E+00
         0.71004E-01
         0.44423E-01
  
SCALARS                     nodal_mass  double 1
LOOKUP_TABLE default
         0.24608E-05
         0.19551E-05
         0.20945E-05
         0.35953E-05
         0.12304E-05
         0.97770E-06
         0.10472E-05
         0.17973E-05
         0.19315E-05
         0.24627E-05
         0.96570E-06
         0.12312E-05
         0.13823E-05
         0.16614E-05
         0.69133E-06
         0.83095E-06
         0.27274E-05
         0.20125E-05
         0.13635E-05
         0.10066E-05
         0.81737E-06
         0.15393E-05
         0.16929E-05
         0.40889E-06
         0.76975E-06
         0.84649E-06
         0.13859E-05
         0.17532E-05
         0.69345E-06
         0.87672E-06
         0.32470E-05
         0.25355E-05
         0.32225E-05
         0.16233E-05
         0.12675E-05
         0.16109E-05
         0.18980E-05
         0.21673E-05
         0.94902E-06
         0.10836E-05
         0.20482E-05
         0.22683E-05
         0.10242E-05
         0.11342E-05
         0.17426E-05
         0.10823E-05
         0.87140E-06
         0.54121E-06
         0.20598E-05
         0.10301E-05
         0.17103E-05
         0.85523E-06
         0.17977E-05
         0.89958E-06
         0.18362E-05
         0.91859E-06
         0.15911E-05
         0.19369E-05
         0.79575E-06
         0.96860E-06
         0.24553E-05
         0.17361E-05
         0.12277E-05
         0.86816E-06
         0.27409E-05
         0.13702E-05
         0.23792E-05
         0.11891E-05
         0.10821E-05
         0.16705E-05
         0.54106E-06
         0.83538E-06
         0.18955E-05
         0.94787E-06
         0.20026E-05
         0.10014E-05
         0.19316E-05
         0.96578E-06
         0.15181E-05
         0.75906E-06
         0.95443E-06
         0.15782E-05
         0.47723E-06
         0.78918E-06
         0.20886E-05
         0.10443E-05
         0.16867E-05
         0.84342E-06
         0.14838E-05
         0.74203E-06
         0.97224E-06
         0.16569E-05
         0.48620E-06
         0.82849E-06
         0.22482E-05
         0.11241E-05
         0.23568E-05
         0.11783E-05
         0.19018E-05
         0.95085E-06
         0.11709E-05
         0.20091E-05
         0.58544E-06
         0.10044E-05
         0.74681E-06
         0.94889E-06
         0.37348E-06
         0.47447E-06
         0.88885E-06
         0.44455E-06
         0.10466E-05
         0.52333E-06
         0.10205E-05
         0.51021E-06
         0.99108E-06
         0.49550E-06
         0.10560E-05
         0.52791E-06
         0.11142E-05
         0.55694E-06
         0.10497E-05
         0.52469E-06
         0.82085E-06
         0.41039E-06
         0.66950E-06
         0.33475E-06
         0.86397E-06
         0.43199E-06
         0.11504E-05
         0.57519E-06
         0.12637E-05
         0.63182E-06
         0.12132E-05
         0.60658E-06
         0.10948E-05
         0.54745E-06
         0.99429E-06
         0.49718E-06
         0.80759E-06
         0.40382E-06
         0.67982E-06
         0.33995E-06
         0.88797E-06
         0.44401E-06
         0.11753E-05
         0.58766E-06
         0.12140E-05
         0.60702E-06
         0.98236E-06
         0.49125E-06
         0.79766E-06
         0.39889E-06
         0.97540E-06
         0.48769E-06
         0.11548E-05
         0.57743E-06
         0.24609E-05
         0.19547E-05
         0.20946E-05
         0.35969E-05
         0.19318E-05
         0.24634E-05
         0.13815E-05
         0.16603E-05
         0.27283E-05
         0.20111E-05
         0.81658E-06
         0.15390E-05
         0.16927E-05
         0.13839E-05
         0.17528E-05
         0.32479E-05
         0.25367E-05
         0.32241E-05
         0.18980E-05
         0.21675E-05
         0.20481E-05
         0.22684E-05
         0.17424E-05
         0.10822E-05
         0.20589E-05
         0.17102E-05
         0.17950E-05
         0.18344E-05
         0.15904E-05
         0.19365E-05
         0.24555E-05
         0.17359E-05
         0.27423E-05
         0.23814E-05
         0.10820E-05
         0.16702E-05
         0.18953E-05
         0.20025E-05
         0.19317E-05
         0.15181E-05
         0.95442E-06
         0.15780E-05
         0.20884E-05
         0.16864E-05
         0.14835E-05
         0.97197E-06
         0.16567E-05
         0.22482E-05
         0.23571E-05
         0.19022E-05
         0.11709E-05
         0.20101E-05
         0.74658E-06
         0.94886E-06
         0.88841E-06
         0.10467E-05
         0.10207E-05
         0.99128E-06
         0.10565E-05
         0.11150E-05
         0.10503E-05
         0.82102E-06
         0.66954E-06
         0.86398E-06
         0.11506E-05
         0.12640E-05
         0.12133E-05
         0.10948E-05
         0.99421E-06
         0.80751E-06
         0.67970E-06
         0.88789E-06
         0.11752E-05
         0.12140E-05
         0.98215E-06
         0.79747E-06
         0.97551E-06
         0.11548E-05
         0.24611E-05
         0.19543E-05
         0.20949E-05
         0.35987E-05
         0.19321E-05
         0.24642E-05
         0.13808E-05
         0.16594E-05
         0.27293E-05
         0.20098E-05
         0.81582E-06
         0.15388E-05
         0.16927E-05
         0.13821E-05
         0.17525E-05
         0.32489E-05
         0.25379E-05
         0.32257E-05
         0.18982E-05
         0.21678E-05
         0.20480E-05
         0.22685E-05
         0.17423E-05
         0.10821E-05
         0.20580E-05
         0.17101E-05
         0.17924E-05
         0.18326E-05
         0.15898E-05
         0.19361E-05
         0.24558E-05
         0.17357E-05
         0.27438E-05
         0.23836E-05
         0.10821E-05
         0.16699E-05
         0.18951E-05
         0.20024E-05
         0.19318E-05
         0.15183E-05
         0.95445E-06
         0.15778E-05
         0.20884E-05
         0.16862E-05
         0.14831E-05
         0.97174E-06
         0.16566E-05
         0.22483E-05
         0.23575E-05
         0.19026E-05
         0.11709E-05
         0.20112E-05
         0.74636E-06
         0.94886E-06
         0.88800E-06
         0.10467E-05
         0.10210E-05
         0.99152E-06
         0.10570E-05
         0.11159E-05
         0.10509E-05
         0.82122E-06
         0.66961E-06
         0.86402E-06
         0.11507E-05
         0.12643E-05
         0.12135E-05
         0.10948E-05
         0.99417E-06
         0.80747E-06
         0.67961E-06
         0.88784E-06
         0.11752E-05
         0.12140E-05
         0.98197E-06
         0.79731E-06
         0.97565E-06
         0.11548E-05
         0.24612E-05
         0.19539E-05
         0.20950E-05
         0.36004E-05
         0.19324E-05
         0.24650E-05
         0.13801E-05
         0.16584E-05
         0.27303E-05
         0.20085E-05
         0.81504E-06
         0.15385E-05
         0.16925E-05
         0.13801E-05
         0.17521E-05
         0.32498E-05
         0.25390E-05
         0.32274E-05
         0.18982E-05
         0.21681E-05
         0.20479E-05
         0.22686E-05
         0.17421E-05
         0.10820E-05
         0.20571E-05
         0.17099E-05
         0.17897E-05
         0.18308E-05
         0.15891E-05
         0.19356E-05
         0.24561E-05
         0.17355E-05
         0.27453E-05
         0.23857E-05
         0.10820E-05
         0.16696E-05
         0.18948E-05
         0.20022E-05
         0.19320E-05
         0.15183E-05
         0.95445E-06
         0.15776E-05
         0.20883E-05
         0.16859E-05
         0.14828E-05
         0.97149E-06
         0.16564E-05
         0.22483E-05
         0.23578E-05
         0.19030E-05
         0.11710E-05
         0.20122E-05
         0.74613E-06
         0.94884E-06
         0.88756E-06
         0.10467E-05
         0.10212E-05
         0.99173E-06
         0.10574E-05
         0.11167E-05
         0.10515E-05
         0.82140E-06
         0.66966E-06
         0.86404E-06
         0.11509E-05
         0.12646E-05
         0.12136E-05
         0.10947E-05
         0.99410E-06
         0.80740E-06
         0.67950E-06
         0.88777E-06
         0.11752E-05
         0.12140E-05
         0.98177E-06
         0.79713E-06
         0.97576E-06
         0.11547E-05
         0.24613E-05
         0.19535E-05
         0.20952E-05
         0.36022E-05
         0.19327E-05
         0.24657E-05
         0.13794E-05
         0.16574E-05
         0.27313E-05
         0.20072E-05
         0.81426E-06
         0.15382E-05
         0.16924E-05
         0.13782E-05
         0.17517E-05
         0.32508E-05
         0.25402E-05
         0.32290E-05
         0.18983E-05
         0.21684E-05
         0.20479E-05
         0.22687E-05
         0.17420E-05
         0.10819E-05
         0.20563E-05
         0.17098E-05
         0.17870E-05
         0.18290E-05
         0.15884E-05
         0.19352E-05
         0.24563E-05
         0.17353E-05
         0.27467E-05
         0.23879E-05
         0.10820E-05
         0.16693E-05
         0.18946E-05
         0.20021E-05
         0.19321E-05
         0.15184E-05
         0.95445E-06
         0.15773E-05
         0.20882E-05
         0.16857E-05
         0.14824E-05
         0.97124E-06
         0.16563E-05
         0.22484E-05
         0.23582E-05
         0.19034E-05
         0.11710E-05
         0.20132E-05
         0.74590E-06
         0.94883E-06
         0.88713E-06
         0.10468E-05
         0.10215E-05
         0.99194E-06
         0.10579E-05
         0.11175E-05
         0.10521E-05
         0.82159E-06
         0.66972E-06
         0.86406E-06
         0.11510E-05
         0.12649E-05
         0.12138E-05
         0.10947E-05
         0.99404E-06
         0.80734E-06
         0.67940E-06
         0.88771E-06
         0.11752E-05
         0.12140E-05
         0.98157E-06
         0.79696E-06
         0.97588E-06
         0.11547E-05
         0.24615E-05
         0.19531E-05
         0.20954E-05
         0.36039E-05
         0.19331E-05
         0.24665E-05
         0.13787E-05
         0.16564E-05
         0.27322E-05
         0.20059E-05
         0.81349E-06
         0.15380E-05
         0.16923E-05
         0.13763E-05
         0.17514E-05
         0.32518E-05
         0.25414E-05
         0.32306E-05
         0.18984E-05
         0.21687E-05
         0.20478E-05
         0.22688E-05
         0.17418E-05
         0.10818E-05
         0.20554E-05
         0.17096E-05
         0.17843E-05
         0.18272E-05
         0.15878E-05
         0.19347E-05
         0.24566E-05
         0.17351E-05
         0.27482E-05
         0.23901E-05
         0.10820E-05
         0.16690E-05
         0.18943E-05
         0.20019E-05
         0.19322E-05
         0.15185E-05
         0.95446E-06
         0.15771E-05
         0.20881E-05
         0.16855E-05
         0.14821E-05
         0.97100E-06
         0.16562E-05
         0.22484E-05
         0.23586E-05
         0.19038E-05
         0.11710E-05
         0.20142E-05
         0.74568E-06
         0.94882E-06
         0.88671E-06
         0.10468E-05
         0.10217E-05
         0.99216E-06
         0.10583E-05
         0.11183E-05
         0.10528E-05
         0.82178E-06
         0.66977E-06
         0.86408E-06
         0.11512E-05
         0.12652E-05
         0.12139E-05
         0.10947E-05
         0.99398E-06
         0.80728E-06
         0.67930E-06
         0.88766E-06
         0.11752E-05
         0.12140E-05
         0.98138E-06
         0.79679E-06
         0.97601E-06
         0.11547E-05
         0.24616E-05
         0.19527E-05
         0.20956E-05
         0.36056E-05
         0.19334E-05
         0.24672E-05
         0.13779E-05
         0.16554E-05
         0.27332E-05
         0.20046E-05
         0.81271E-06
         0.15377E-05
         0.16922E-05
         0.13744E-05
         0.17510E-05
         0.32527E-05
         0.25425E-05
         0.32322E-05
         0.18984E-05
         0.21689E-05
         0.20477E-05
         0.22689E-05
         0.17416E-05
         0.10816E-05
         0.20545E-05
         0.17095E-05
         0.17817E-05
         0.18254E-05
         0.15871E-05
         0.19343E-05
         0.24568E-05
         0.17349E-05
         0.27496E-05
         0.23922E-05
         0.10820E-05
         0.16686E-05
         0.18941E-05
         0.20018E-05
         0.19324E-05
         0.15186E-05
         0.95446E-06
         0.15769E-05
         0.20880E-05
         0.16852E-05
         0.14817E-05
         0.97074E-06
         0.16560E-05
         0.22484E-05
         0.23589E-05
         0.19042E-05
         0.11710E-05
         0.20152E-05
         0.74544E-06
         0.94880E-06
         0.88627E-06
         0.10469E-05
         0.10219E-05
         0.99237E-06
         0.10588E-05
         0.11191E-05
         0.10534E-05
         0.82196E-06
         0.66982E-06
         0.86410E-06
         0.11513E-05
         0.12654E-05
         0.12140E-05
         0.10947E-05
         0.99391E-06
         0.80721E-06
         0.67919E-06
         0.88759E-06
         0.11751E-05
         0.12140E-05
         0.98118E-06
         0.79661E-06
         0.97612E-06
         0.11546E-05
         0.24618E-05
         0.19523E-05
         0.20957E-05
         0.36073E-05
         0.19337E-05
         0.24680E-05
         0.13772E-05
         0.16545E-05
         0.27341E-05
         0.20033E-05
         0.81194E-06
         0.15374E-05
         0.16921E-05
         0.13725E-05
         0.17506E-05
         0.32537E-05
         0.25437E-05
         0.32339E-05
         0.18985E-05
         0.21692E-05
         0.20476E-05
         0.22690E-05
         0.17414E-05
         0.10815E-05
         0.20536E-05
         0.17093E-05
         0.17790E-05
         0.18236E-05
         0.15864E-05
         0.19339E-05
         0.24571E-05
         0.17347E-05
         0.27511E-05
         0.23944E-05
         0.10820E-05
         0.16683E-05
         0.18938E-05
         0.20016E-05
         0.19325E-05
         0.15186E-05
         0.95446E-06
         0.15767E-05
         0.20878E-05
         0.16850E-05
         0.14814E-05
         0.97050E-06
         0.16559E-05
         0.22484E-05
         0.23593E-05
         0.19046E-05
         0.11711E-05
         0.20162E-05
         0.74522E-06
         0.94878E-06
         0.88584E-06
         0.10469E-05
         0.10222E-05
         0.99258E-06
         0.10593E-05
         0.11199E-05
         0.10540E-05
         0.82215E-06
         0.66988E-06
         0.86413E-06
         0.11515E-05
         0.12657E-05
         0.12142E-05
         0.10946E-05
         0.99385E-06
         0.80715E-06
         0.67909E-06
         0.88752E-06
         0.11751E-05
         0.12140E-05
         0.98098E-06
         0.79643E-06
         0.97624E-06
         0.11546E-05
         0.24619E-05
         0.19519E-05
         0.20959E-05
         0.36091E-05
         0.19340E-05
         0.24688E-05
         0.13765E-05
         0.16535E-05
         0.27351E-05
         0.20020E-05
         0.81117E-06
         0.15372E-05
         0.16920E-05
         0.13706E-05
         0.17503E-05
         0.32546E-05
         0.25448E-05
         0.32355E-05
         0.18986E-05
         0.21695E-05
         0.20475E-05
         0.22691E-05
         0.17413E-05
         0.10814E-05
         0.20527E-05
         0.17092E-05
         0.17763E-05
         0.18219E-05
         0.15858E-05
         0.19334E-05
         0.24573E-05
         0.17345E-05
         0.27525E-05
         0.23966E-05
         0.10820E-05
         0.16680E-05
         0.18936E-05
         0.20015E-05
         0.19326E-05
         0.15187E-05
         0.95447E-06
         0.15765E-05
         0.20878E-05
         0.16848E-05
         0.14810E-05
         0.97025E-06
         0.16557E-05
         0.22485E-05
         0.23597E-05
         0.19050E-05
         0.11711E-05
         0.20172E-05
         0.74499E-06
         0.94877E-06
         0.88541E-06
         0.10469E-05
         0.10224E-05
         0.99280E-06
         0.10597E-05
         0.11207E-05
         0.10546E-05
         0.82234E-06
         0.66994E-06
         0.86415E-06
         0.11517E-05
         0.12660E-05
         0.12143E-05
         0.10946E-05
         0.99379E-06
         0.80709E-06
         0.67898E-06
         0.88746E-06
         0.11751E-05
         0.12140E-05
         0.98079E-06
         0.79626E-06
         0.97636E-06
         0.11546E-05
         0.24621E-05
         0.19515E-05
         0.20961E-05
         0.36108E-05
         0.19343E-05
         0.24695E-05
         0.13758E-05
         0.16525E-05
         0.27361E-05
         0.20006E-05
         0.81039E-06
         0.15369E-05
         0.16919E-05
         0.13686E-05
         0.17499E-05
         0.32556E-05
         0.25460E-05
         0.32371E-05
         0.18986E-05
         0.21697E-05
         0.20474E-05
         0.22692E-05
         0.17411E-05
         0.10813E-05
         0.20519E-05
         0.17091E-05
         0.17736E-05
         0.18201E-05
         0.15851E-05
         0.19330E-05
         0.24575E-05
         0.17342E-05
         0.27540E-05
         0.23987E-05
         0.10820E-05
         0.16677E-05
         0.18933E-05
         0.20014E-05
         0.19328E-05
         0.15188E-05
         0.95448E-06
         0.15763E-05
         0.20876E-05
         0.16845E-05
         0.14807E-05
         0.97000E-06
         0.16556E-05
         0.22485E-05
         0.23600E-05
         0.19053E-05
         0.11711E-05
         0.20182E-05
         0.74476E-06
         0.94875E-06
         0.88498E-06
         0.10470E-05
         0.10227E-05
         0.99301E-06
         0.10602E-05
         0.11215E-05
         0.10553E-05
         0.82252E-06
         0.66999E-06
         0.86417E-06
         0.11518E-05
         0.12663E-05
         0.12145E-05
         0.10946E-05
         0.99373E-06
         0.80702E-06
         0.67888E-06
         0.88740E-06
         0.11751E-05
         0.12140E-05
         0.98058E-06
         0.79608E-06
         0.97648E-06
         0.11546E-05
         0.24622E-05
         0.19511E-05
         0.20963E-05
         0.36125E-05
         0.19346E-05
         0.24703E-05
         0.13751E-05
         0.16515E-05
         0.27370E-05
         0.19993E-05
         0.80962E-06
         0.15366E-05
         0.16917E-05
         0.13667E-05
         0.17495E-05
         0.32565E-05
         0.25471E-05
         0.32388E-05
         0.18987E-05
         0.21700E-05
         0.20473E-05
         0.22693E-05
         0.17409E-05
         0.10812E-05
         0.20510E-05
         0.17089E-05
         0.17710E-05
         0.18183E-05
         0.15844E-05
         0.19325E-05
         0.24578E-05
         0.17340E-05
         0.27554E-05
         0.24009E-05
         0.10820E-05
         0.16674E-05
         0.18931E-05
         0.20012E-05
         0.19329E-05
         0.15189E-05
         0.95448E-06
         0.15760E-05
         0.20875E-05
         0.16843E-05
         0.14803E-05
         0.96975E-06
         0.16555E-05
         0.22485E-05
         0.23604E-05
         0.19057E-05
         0.11712E-05
         0.20192E-05
         0.74453E-06
         0.94874E-06
         0.88455E-06
         0.10470E-05
         0.10229E-05
         0.99322E-06
         0.10606E-05
         0.11223E-05
         0.10559E-05
         0.82270E-06
         0.67004E-06
         0.86419E-06
         0.11520E-05
         0.12666E-05
         0.12146E-05
         0.10945E-05
         0.99366E-06
         0.80696E-06
         0.67877E-06
         0.88733E-06
         0.11751E-05
         0.12140E-05
         0.98038E-06
         0.79590E-06
         0.97660E-06
         0.11545E-05
         0.24623E-05
         0.19507E-05
         0.20964E-05
         0.36142E-05
         0.19349E-05
         0.24710E-05
         0.13743E-05
         0.16505E-05
         0.27380E-05
         0.19980E-05
         0.80885E-06
         0.15364E-05
         0.16916E-05
         0.13648E-05
         0.17492E-05
         0.32575E-05
         0.25483E-05
         0.32404E-05
         0.18988E-05
         0.21703E-05
         0.20473E-05
         0.22694E-05
         0.17407E-05
         0.10811E-05
         0.20501E-05
         0.17088E-05
         0.17683E-05
         0.18165E-05
         0.15837E-05
         0.19321E-05
         0.24580E-05
         0.17338E-05
         0.27569E-05
         0.24031E-05
         0.10820E-05
         0.16670E-05
         0.18928E-05
         0.20011E-05
         0.19330E-05
         0.15189E-05
         0.95448E-06
         0.15758E-05
         0.20874E-05
         0.16840E-05
         0.14800E-05
         0.96950E-06
         0.16553E-05
         0.22485E-05
         0.23608E-05
         0.19061E-05
         0.11712E-05
         0.20202E-05
         0.74430E-06
         0.94872E-06
         0.88412E-06
         0.10470E-05
         0.10231E-05
         0.99344E-06
         0.10611E-05
         0.11231E-05
         0.10565E-05
         0.82289E-06
         0.67009E-06
         0.86422E-06
         0.11521E-05
         0.12669E-05
         0.12147E-05
         0.10945E-05
         0.99360E-06
         0.80690E-06
         0.67867E-06
         0.88727E-06
         0.11750E-05
         0.12140E-05
         0.98019E-06
         0.79573E-06
         0.97672E-06
         0.11545E-05
         0.24625E-05
         0.19503E-05
         0.20966E-05
         0.36160E-05
         0.19352E-05
         0.24718E-05
         0.13736E-05
         0.16496E-05
         0.27389E-05
         0.19967E-05
         0.80807E-06
         0.15361E-05
         0.16915E-05
         0.13629E-05
         0.17488E-05
         0.32584E-05
         0.25495E-05
         0.32420E-05
         0.18988E-05
         0.21705E-05
         0.20472E-05
         0.22695E-05
         0.17406E-05
         0.10810E-05
         0.20492E-05
         0.17086E-05
         0.17656E-05
         0.18147E-05
         0.15831E-05
         0.19317E-05
         0.24583E-05
         0.17336E-05
         0.27583E-05
         0.24053E-05
         0.10820E-05
         0.16667E-05
         0.18926E-05
         0.20009E-05
         0.19331E-05
         0.15190E-05
         0.95449E-06
         0.15756E-05
         0.20873E-05
         0.16838E-05
         0.14796E-05
         0.96925E-06
         0.16552E-05
         0.22486E-05
         0.23611E-05
         0.19065E-05
         0.11712E-05
         0.20212E-05
         0.74407E-06
         0.94870E-06
         0.88368E-06
         0.10471E-05
         0.10234E-05
         0.99365E-06
         0.10616E-05
         0.11239E-05
         0.10571E-05
         0.82307E-06
         0.67014E-06
         0.86424E-06
         0.11523E-05
         0.12672E-05
         0.12149E-05
         0.10945E-05
         0.99354E-06
         0.80683E-06
         0.67856E-06
         0.88721E-06
         0.11750E-05
         0.12140E-05
         0.97999E-06
         0.79555E-06
         0.97684E-06
         0.11545E-05
         0.24626E-05
         0.19499E-05
         0.20968E-05
         0.36177E-05
         0.19355E-05
         0.24725E-05
         0.13729E-05
         0.16486E-05
         0.27399E-05
         0.19954E-05
         0.80730E-06
         0.15358E-05
         0.16914E-05
         0.13610E-05
         0.17484E-05
         0.32594E-05
         0.25506E-05
         0.32437E-05
         0.18989E-05
         0.21708E-05
         0.20471E-05
         0.22696E-05
         0.17404E-05
         0.10808E-05
         0.20483E-05
         0.17085E-05
         0.17629E-05
         0.18129E-05
         0.15824E-05
         0.19312E-05
         0.24585E-05
         0.17334E-05
         0.27598E-05
         0.24074E-05
         0.10820E-05
         0.16664E-05
         0.18923E-05
         0.20008E-05
         0.19333E-05
         0.15191E-05
         0.95449E-06
         0.15754E-05
         0.20872E-05
         0.16835E-05
         0.14793E-05
         0.96901E-06
         0.16550E-05
         0.22486E-05
         0.23615E-05
         0.19069E-05
         0.11713E-05
         0.20222E-05
         0.74384E-06
         0.94869E-06
         0.88325E-06
         0.10471E-05
         0.10236E-05
         0.99386E-06
         0.10620E-05
         0.11247E-05
         0.10577E-05
         0.82326E-06
         0.67020E-06
         0.86426E-06
         0.11524E-05
         0.12674E-05
         0.12150E-05
         0.10944E-05
         0.99348E-06
         0.80677E-06
         0.67846E-06
         0.88714E-06
         0.11750E-05
         0.12140E-05
         0.97979E-06
         0.79538E-06
         0.97696E-06
         0.11544E-05
         0.24628E-05
         0.19495E-05
         0.20970E-05
         0.36194E-05
         0.19358E-05
         0.24733E-05
         0.13722E-05
         0.16476E-05
         0.27409E-05
         0.19941E-05
         0.80652E-06
         0.15355E-05
         0.16913E-05
         0.13591E-05
         0.17481E-05
         0.32604E-05
         0.25518E-05
         0.32453E-05
         0.18990E-05
         0.21711E-05
         0.20470E-05
         0.22697E-05
         0.17402E-05
         0.10807E-05
         0.20474E-05
         0.17084E-05
         0.17603E-05
         0.18111E-05
         0.15817E-05
         0.19308E-05
         0.24588E-05
         0.17332E-05
         0.27613E-05
         0.24096E-05
         0.10819E-05
         0.16661E-05
         0.18921E-05
         0.20006E-05
         0.19334E-05
         0.15192E-05
         0.95450E-06
         0.15752E-05
         0.20871E-05
         0.16833E-05
         0.14789E-05
         0.96876E-06
         0.16549E-05
         0.22486E-05
         0.23619E-05
         0.19073E-05
         0.11713E-05
         0.20232E-05
         0.74362E-06
         0.94868E-06
         0.88282E-06
         0.10472E-05
         0.10238E-05
         0.99408E-06
         0.10625E-05
         0.11255E-05
         0.10584E-05
         0.82345E-06
         0.67025E-06
         0.86428E-06
         0.11526E-05
         0.12677E-05
         0.12152E-05
         0.10944E-05
         0.99342E-06
         0.80671E-06
         0.67836E-06
         0.88709E-06
         0.11750E-05
         0.12140E-05
         0.97959E-06
         0.79521E-06
         0.97708E-06
         0.11544E-05
         0.24629E-05
         0.19491E-05
         0.20972E-05
         0.36212E-05
         0.19361E-05
         0.24741E-05
         0.13715E-05
         0.16466E-05
         0.27418E-05
         0.19928E-05
         0.80575E-06
         0.15353E-05
         0.16912E-05
         0.13572E-05
         0.17477E-05
         0.32613E-05
         0.25529E-05
         0.32469E-05
         0.18990E-05
         0.21714E-05
         0.20469E-05
         0.22698E-05
         0.17400E-05
         0.10806E-05
         0.20466E-05
         0.17082E-05
         0.17576E-05
         0.18093E-05
         0.15810E-05
         0.19303E-05
         0.24590E-05
         0.17330E-05
         0.27627E-05
         0.24118E-05
         0.10819E-05
         0.16658E-05
         0.18919E-05
         0.20005E-05
         0.19335E-05
         0.15192E-05
         0.95450E-06
         0.15750E-05
         0.20870E-05
         0.16831E-05
         0.14786E-05
         0.96851E-06
         0.16548E-05
         0.22487E-05
         0.23622E-05
         0.19077E-05
         0.11713E-05
         0.20242E-05
         0.74339E-06
         0.94866E-06
         0.88239E-06
         0.10472E-05
         0.10241E-05
         0.99429E-06
         0.10630E-05
         0.11263E-05
         0.10590E-05
         0.82363E-06
         0.67030E-06
         0.86430E-06
         0.11527E-05
         0.12680E-05
         0.12153E-05
         0.10944E-05
         0.99335E-06
         0.80665E-06
         0.67825E-06
         0.88702E-06
         0.11749E-05
         0.12140E-05
         0.97939E-06
         0.79503E-06
         0.97720E-06
         0.11544E-05
         0.24631E-05
         0.19487E-05
         0.20973E-05
         0.36229E-05
         0.19364E-05
         0.24748E-05
         0.13707E-05
         0.16456E-05
         0.27428E-05
         0.19915E-05
         0.80498E-06
         0.15350E-05
         0.16911E-05
         0.13553E-05
         0.17473E-05
         0.32623E-05
         0.25541E-05
         0.32486E-05
         0.18991E-05
         0.21716E-05
         0.20468E-05
         0.22699E-05
         0.17399E-05
         0.10805E-05
         0.20457E-05
         0.17081E-05
         0.17549E-05
         0.18075E-05
         0.15804E-05
         0.19299E-05
         0.24592E-05
         0.17328E-05
         0.27642E-05
         0.24140E-05
         0.10819E-05
         0.16654E-05
         0.18916E-05
         0.20003E-05
         0.19337E-05
         0.15193E-05
         0.95450E-06
         0.15748E-05
         0.20869E-05
         0.16828E-05
         0.14782E-05
         0.96826E-06
         0.16546E-05
         0.22487E-05
         0.23626E-05
         0.19081E-05
         0.11714E-05
         0.20253E-05
         0.74316E-06
         0.94864E-06
         0.88196E-06
         0.10472E-05
         0.10243E-05
         0.99450E-06
         0.10634E-05
         0.11271E-05
         0.10596E-05
         0.82381E-06
         0.67036E-06
         0.86432E-06
         0.11529E-05
         0.12683E-05
         0.12154E-05
         0.10943E-05
         0.99329E-06
         0.80658E-06
         0.67815E-06
         0.88696E-06
         0.11749E-05
         0.12140E-05
         0.97919E-06
         0.79485E-06
         0.97732E-06
         0.11544E-05
         0.24632E-05
         0.19483E-05
         0.20975E-05
         0.36246E-05
         0.19368E-05
         0.24756E-05
         0.13700E-05
         0.16447E-05
         0.27437E-05
         0.19902E-05
         0.80421E-06
         0.15347E-05
         0.16910E-05
         0.13534E-05
         0.17470E-05
         0.32632E-05
         0.25552E-05
         0.32502E-05
         0.18992E-05
         0.21719E-05
         0.20467E-05
         0.22700E-05
         0.17397E-05
         0.10804E-05
         0.20448E-05
         0.17079E-05
         0.17523E-05
         0.18057E-05
         0.15797E-05
         0.19295E-05
         0.24595E-05
         0.17326E-05
         0.27656E-05
         0.24161E-05
         0.10819E-05
         0.16651E-05
         0.18914E-05
         0.20002E-05
         0.19338E-05
         0.15194E-05
         0.95451E-06
         0.15745E-05
         0.20868E-05
         0.16826E-05
         0.14779E-05
         0.96801E-06
         0.16545E-05
         0.22487E-05
         0.23630E-05
         0.19085E-05
         0.11714E-05
         0.20263E-05
         0.74293E-06
         0.94863E-06
         0.88153E-06
         0.10473E-05
         0.10245E-05
         0.99472E-06
         0.10639E-05
         0.11279E-05
         0.10602E-05
         0.82400E-06
         0.67041E-06
         0.86435E-06
         0.11530E-05
         0.12686E-05
         0.12156E-05
         0.10943E-05
         0.99323E-06
         0.80652E-06
         0.67804E-06
         0.88690E-06
         0.11749E-05
         0.12140E-05
         0.97900E-06
         0.79468E-06
         0.97744E-06
         0.11543E-05
         0.24633E-05
         0.19479E-05
         0.20977E-05
         0.36264E-05
         0.19371E-05
         0.24763E-05
         0.13693E-05
         0.16437E-05
         0.27447E-05
         0.19888E-05
         0.80343E-06
         0.15345E-05
         0.16908E-05
         0.13515E-05
         0.17466E-05
         0.32642E-05
         0.25564E-05
         0.32518E-05
         0.18992E-05
         0.21722E-05
         0.20466E-05
         0.22701E-05
         0.17395E-05
         0.10803E-05
         0.20439E-05
         0.17078E-05
         0.17496E-05
         0.18039E-05
         0.15790E-05
         0.19290E-05
         0.24597E-05
         0.17323E-05
         0.27671E-05
         0.24183E-05
         0.10819E-05
         0.16648E-05
         0.18911E-05
         0.20001E-05
         0.19339E-05
         0.15195E-05
         0.95452E-06
         0.15743E-05
         0.20867E-05
         0.16823E-05
         0.14775E-05
         0.96776E-06
         0.16543E-05
         0.22487E-05
         0.23633E-05
         0.19089E-05
         0.11714E-05
         0.20273E-05
         0.74270E-06
         0.94861E-06
         0.88109E-06
         0.10473E-05
         0.10248E-05
         0.99493E-06
         0.10643E-05
         0.11287E-05
         0.10609E-05
         0.82418E-06
         0.67046E-06
         0.86437E-06
         0.11532E-05
         0.12689E-05
         0.12157E-05
         0.10943E-05
         0.99316E-06
         0.80646E-06
         0.67794E-06
         0.88683E-06
         0.11749E-05
         0.12140E-05
         0.97879E-06
         0.79450E-06
         0.97755E-06
         0.11543E-05
         0.24635E-05
         0.19475E-05
         0.20979E-05
         0.36281E-05
         0.19374E-05
         0.24771E-05
         0.13686E-05
         0.16427E-05
         0.27456E-05
         0.19875E-05
         0.80266E-06
         0.15342E-05
         0.16907E-05
         0.13496E-05
         0.17463E-05
         0.32651E-05
         0.25575E-05
         0.32534E-05
         0.18993E-05
         0.21724E-05
         0.20466E-05
         0.22702E-05
         0.17393E-05
         0.10802E-05
         0.20430E-05
         0.17076E-05
         0.17469E-05
         0.18021E-05
         0.15784E-05
         0.19286E-05
         0.24600E-05
         0.17321E-05
         0.27685E-05
         0.24205E-05
         0.10819E-05
         0.16645E-05
         0.18909E-05
         0.19999E-05
         0.19341E-05
         0.15195E-05
         0.95452E-06
         0.15741E-05
         0.20866E-05
         0.16821E-05
         0.14772E-05
         0.96751E-06
         0.16542E-05
         0.22488E-05
         0.23637E-05
         0.19092E-05
         0.11715E-05
         0.20283E-05
         0.74247E-06
         0.94860E-06
         0.88066E-06
         0.10473E-05
         0.10250E-05
         0.99514E-06
         0.10648E-05
         0.11295E-05
         0.10615E-05
         0.82437E-06
         0.67052E-06
         0.86439E-06
         0.11533E-05
         0.12691E-05
         0.12159E-05
         0.10942E-05
         0.99310E-06
         0.80639E-06
         0.67783E-06
         0.88676E-06
         0.11748E-05
         0.12140E-05
         0.97859E-06
         0.79433E-06
         0.97767E-06
         0.11543E-05
         0.24636E-05
         0.19471E-05
         0.20980E-05
         0.36298E-05
         0.19377E-05
         0.24779E-05
         0.13679E-05
         0.16417E-05
         0.27466E-05
         0.19862E-05
         0.80189E-06
         0.15339E-05
         0.16906E-05
         0.13477E-05
         0.17459E-05
         0.32661E-05
         0.25587E-05
         0.32551E-05
         0.18994E-05
         0.21727E-05
         0.20465E-05
         0.22703E-05
         0.17392E-05
         0.10800E-05
         0.20421E-05
         0.17075E-05
         0.17443E-05
         0.18003E-05
         0.15777E-05
         0.19281E-05
         0.24602E-05
         0.17319E-05
         0.27700E-05
         0.24227E-05
         0.10819E-05
         0.16642E-05
         0.18906E-05
         0.19998E-05
         0.19342E-05
         0.15196E-05
         0.95453E-06
         0.15739E-05
         0.20865E-05
         0.16819E-05
         0.14768E-05
         0.96727E-06
         0.16541E-05
         0.22488E-05
         0.23640E-05
         0.19096E-05
         0.11715E-05
         0.20293E-05
         0.74225E-06
         0.94859E-06
         0.88023E-06
         0.10474E-05
         0.10253E-05
         0.99535E-06
         0.10653E-05
         0.11303E-05
         0.10621E-05
         0.82456E-06
         0.67057E-06
         0.86441E-06
         0.11535E-05
         0.12694E-05
         0.12160E-05
         0.10942E-05
         0.99304E-06
         0.80633E-06
         0.67773E-06
         0.88671E-06
         0.11748E-05
         0.12140E-05
         0.97840E-06
         0.79415E-06
         0.97780E-06
         0.11542E-05
         0.24637E-05
         0.19466E-05
         0.20982E-05
         0.36315E-05
         0.19380E-05
         0.24786E-05
         0.13671E-05
         0.16407E-05
         0.27475E-05
         0.19849E-05
         0.80110E-06
         0.15336E-05
         0.16905E-05
         0.13457E-05
         0.17455E-05
         0.32669E-05
         0.25598E-05
         0.32567E-05
         0.18994E-05
         0.21729E-05
         0.20464E-05
         0.22703E-05
         0.17390E-05
         0.10799E-05
         0.20412E-05
         0.17073E-05
         0.17416E-05
         0.17985E-05
         0.15770E-05
         0.19277E-05
         0.24604E-05
         0.17317E-05
         0.27714E-05
         0.24248E-05
         0.10819E-05
         0.16638E-05
         0.18903E-05
         0.19996E-05
         0.19343E-05
         0.15196E-05
         0.95451E-06
         0.15737E-05
         0.20864E-05
         0.16816E-05
         0.14765E-05
         0.96700E-06
         0.16539E-05
         0.22488E-05
         0.23644E-05
         0.19100E-05
         0.11715E-05
         0.20303E-05
         0.74200E-06
         0.94855E-06
         0.87978E-06
         0.10474E-05
         0.10255E-05
         0.99555E-06
         0.10657E-05
         0.11311E-05
         0.10627E-05
         0.82472E-06
         0.67061E-06
         0.86442E-06
         0.11536E-05
         0.12697E-05
         0.12161E-05
         0.10941E-05
         0.99295E-06
         0.80625E-06
         0.67761E-06
         0.88662E-06
         0.11748E-05
         0.12140E-05
         0.97818E-06
         0.79396E-06
         0.97790E-06
         0.11542E-05
         0.24639E-05
         0.19463E-05
         0.20984E-05
         0.36333E-05
         0.19383E-05
         0.24794E-05
         0.13664E-05
         0.16398E-05
         0.27485E-05
         0.19836E-05
         0.80034E-06
         0.15334E-05
         0.16904E-05
         0.13439E-05
         0.17452E-05
         0.32679E-05
         0.25610E-05
         0.32583E-05
         0.18995E-05
         0.21732E-05
         0.20463E-05
         0.22704E-05
         0.17388E-05
         0.10798E-05
         0.20404E-05
         0.17072E-05
         0.17389E-05
         0.17967E-05
         0.15763E-05
         0.19272E-05
         0.24607E-05
         0.17315E-05
         0.27729E-05
         0.24270E-05
         0.10819E-05
         0.16635E-05
         0.18901E-05
         0.19995E-05
         0.19345E-05
         0.15197E-05
         0.95453E-06
         0.15735E-05
         0.20863E-05
         0.16814E-05
         0.14761E-05
         0.96677E-06
         0.16538E-05
         0.22488E-05
         0.23647E-05
         0.19104E-05
         0.11716E-05
         0.20313E-05
         0.74179E-06
         0.94855E-06
         0.87936E-06
         0.10475E-05
         0.10257E-05
         0.99577E-06
         0.10662E-05
         0.11319E-05
         0.10633E-05
         0.82492E-06
         0.67068E-06
         0.86446E-06
         0.11538E-05
         0.12700E-05
         0.12163E-05
         0.10941E-05
         0.99291E-06
         0.80620E-06
         0.67752E-06
         0.88657E-06
         0.11748E-05
         0.12140E-05
         0.97800E-06
         0.79380E-06
         0.97803E-06
         0.11542E-05
         0.12320E-05
         0.97306E-06
         0.10493E-05
         0.18171E-05
         0.96926E-06
         0.12399E-05
         0.68306E-06
         0.81967E-06
         0.13745E-05
         0.99152E-06
         0.39999E-06
         0.76665E-06
         0.84519E-06
         0.67148E-06
         0.87252E-06
         0.16343E-05
         0.12808E-05
         0.16296E-05
         0.94981E-06
         0.10867E-05
         0.10232E-05
         0.11353E-05
         0.86940E-06
         0.53990E-06
         0.10200E-05
         0.85360E-06
         0.86884E-06
         0.89793E-06
         0.78802E-06
         0.96354E-06
         0.12305E-05
         0.86572E-06
         0.13869E-05
         0.12141E-05
         0.54095E-06
         0.83170E-06
         0.94503E-06
         0.99975E-06
         0.96729E-06
         0.75992E-06
         0.47728E-06
         0.78670E-06
         0.10432E-05
         0.84065E-06
         0.73800E-06
         0.48334E-06
         0.82688E-06
         0.11245E-05
         0.11825E-05
         0.95534E-06
         0.58581E-06
         0.10159E-05
         0.37085E-06
         0.47429E-06
         0.43959E-06
         0.52375E-06
         0.51294E-06
         0.49796E-06
         0.53322E-06
         0.56619E-06
         0.53185E-06
         0.41252E-06
         0.33536E-06
         0.43225E-06
         0.57696E-06
         0.63509E-06
         0.60820E-06
         0.54708E-06
         0.49646E-06
         0.40310E-06
         0.33875E-06
         0.44329E-06
         0.58740E-06
         0.60700E-06
         0.48897E-06
         0.39687E-06
         0.48906E-06
         0.57710E-06
  
SCALARS                 Poissons_ratio  double 1
LOOKUP_TABLE default
         0.30000E+00
         0.30000E+00
         0.30000E+00
         0.30000E+00
         0.30000E+00
         0.30000E+00
         0.30000E+00
         0.30000E+00
         0.30000E+00
         0.30000E+00
         0.30000E+00
         0.30000E+00
         0.30000E+00
         0.30000E+00
         0.30000E+00
         0.30000E+00
         0.30000E+00
         0.30000E+00
         0.30000E+00
         0.30000E+00
         0.30000E+00
         0.30000E+00
         0.30000E+00
         0.30000E+00
         0.30000E+00
         0.30000E+00
         0.30000E+00
         0.30000E+00
         0.30000E+00
         0.30000E+00
         0.30000E+00
         0.30000E+00
         0.30000E+00
         0.30000E+00
         0.30000E+00
         0.30000E+00
         0.30000E+00
         0.30000E+00
         0.30000E+00
         0.30000E+00
         0.30000E+00
         0.30000E+00
         0.30000E+00
         0.30000E+00
         0.30000E+00
         0.30000E+00
         0.30000E+00
         0.30000E+00
         0.30000E+00
         0.30000E+00
         0.30000E+00
         0.30000E+00
         0.30000E+00
         0.30000E+00
         0.30000E+00
         0.30000E+00
         0.30000E+00
         0.30000E+00
         0.30000E+00
         0.30000E+00
         0.30000E+00
         0.30000E+00
         0.30000E+00
         0.30000E+00
         0.30000E+00
         0.30000E+00
         0.30000E+00
         0.30000E+00
         0.30000E+00
         0.30000E+00
         0.30000E+00
         0.30000E+00
         0.30000E+00
         0.30000E+00
         0.30000E+00
         0.30000E+00
         0.30000E+00
         0.30000E+00
         0.30000E+00
         0.30000E+00
         0.30000E+00
         0.30000E+00
         0.30000E+00
         0.30000E+00
         0.30000E+00
         0.30000E+00
         0.30000E+00
         0.30000E+00
         0.30000E+00
         0.30000E+00
         0.30000E+00
         0.30000E+00
         0.30000E+00
         0.30000E+00
         0.30000E+00
         0.30000E+00
         0.30000E+00
         0.30000E+00
         0.30000E+00
         0.30000E+00
         0.30000E+00
         0.30000E+00
         0.30000E+00
         0.30000E+00
         0.30000E+00
         0.30000E+00
         0.30000E+00
         0.30000E+00
         0.30000E+00
         0.30000E+00
         0.30000E+00
         0.30000E+00
         0.30000E+00
         0.30000E+00
         0.30000E+00
         0.30000E+00
         0.30000E+00
         0.30000E+00
         0.30000E+00
         0.30000E+00
         0.30000E+00
         0.30000E+00
         0.30000E+00
         0.30000E+00
         0.30000E+00
         0.30000E+00
         0.30000E+00
         0.30000E+00
         0.30000E+00
         0.30000E+00
         0.30000E+00
         0.30000E+00
         0.30000E+00
         0.30000E+00
         0.30000E+00
         0.30000E+00
         0.30000E+00
         0.30000E+00
         0.30000E+00
         0.30000E+00
         0.30000E+00
         0.30000E+00
         0.30000E+00
         0.30000E+00
         0.30000E+00
         0.30000E+00
         0.30000E+00
         0.30000E+00
         0.30000E+00
         0.30000E+00
         0.30000E+00
         0.30000E+00
         0.30000E+00
         0.30000E+00
         0.30000E+00
         0.30000E+00
         0.30000E+00
         0.30000E+00
         0.30000E+00
         0.30000E+00
         0.30000E+00
         0.30000E+00
         0.30000E+00
         0.30000E+00
         0.30000E+00
         0.30000E+00
         0.30000E+00
         0.30000E+00
         0.30000E+00
         0.30000E+00
         0.30000E+00
         0.30000E+00
         0.30000E+00
         0.30000E+00
         0.30000E+00
         0.30000E+00
         0.30000E+00
         0.30000E+00
         0.30000E+00
         0.30000E+00
         0.30000E+00
         0.30000E+00
         0.30000E+00
         0.30000E+00
         0.30000E+00
         0.30000E+00
         0.30000E+00
         0.30000E+00
         0.30000E+00
         0.30000E+00
         0.30000E+00
         0.30000E+00
         0.30000E+00
         0.30000E+00
         0.30000E+00
         0.30000E+00
         0.30000E+00
         0.30000E+00
         0.30000E+00
         0.30000E+00
         0.30000E+00
         0.30000E+00
         0.30000E+00
         0.30000E+00
         0.30000E+00
         0.30000E+00
         0.30000E+00
         0.30000E+00
         0.30000E+00
         0.30000E+00
         0.30000E+00
         0.30000E+00
         0.30000E+00
         0.30000E+00
         0.30000E+00
         0.30000E+00
         0.30000E+00
         0.30000E+00
         0.30000E+00
         0.30000E+00
         0.30000E+00
         0.30000E+00
         0.30000E+00
         0.30000E+00
         0.30000E+00
         0.30000E+00
         0.30000E+00
         0.30000E+00
         0.30000E+00
         0.30000E+00
         0.30000E+00
         0.30000E+00
         0.30000E+00
         0.30000E+00
         0.30000E+00
         0.30000E+00
         0.30000E+00
         0.30000E+00
         0.30000E+00
         0.30000E+00
         0.30000E+00
         0.30000E+00
         0.30000E+00
         0.30000E+00
         0.30000E+00
         0.30000E+00
         0.30000E+00
         0.30000E+00
         0.30000E+00
         0.30000E+00
         0.30000E+00
         0.30000E+00
         0.30000E+00
         0.30000E+00
         0.30000E+00
         0.30000E+00
         0.30000E+00
         0.30000E+00
         0.30000E+00
         0.30000E+00
         0.30000E+00
         0.30000E+00
         0.30000E+00
         0.30000E+00
         0.30000E+00
         0.30000E+00
         0.30000E+00
         0.30000E+00
         0.30000E+00
         0.30000E+00
         0.30000E+00
         0.30000E+00
         0.30000E+00
         0.30000E+00
         0.30000E+00
         0.30000E+00
         0.30000E+00
         0.30000E+00
         0.30000E+00
         0.30000E+00
         0.30000E+00
         0.30000E+00
         0.30000E+00
         0.30000E+00
         0.30000E+00
         0.30000E+00
         0.30000E+00
         0.30000E+00
         0.30000E+00
         0.30000E+00
         0.30000E+00
         0.30000E+00
         0.30000E+00
         0.30000E+00
         0.30000E+00
         0.30000E+00
         0.30000E+00
         0.30000E+00
         0.30000E+00
         0.30000E+00
         0.30000E+00
         0.30000E+00
         0.30000E+00
         0.30000E+00
         0.30000E+00
         0.30000E+00
         0.30000E+00
         0.30000E+00
         0.30000E+00
         0.30000E+00
         0.30000E+00
         0.30000E+00
         0.30000E+00
         0.30000E+00
         0.30000E+00
         0.30000E+00
         0.30000E+00
         0.30000E+00
         0.30000E+00
         0.30000E+00
         0.30000E+00
         0.30000E+00
         0.30000E+00
         0.30000E+00
         0.30000E+00
         0.30000E+00
         0.30000E+00
         0.30000E+00
         0.30000E+00
         0.30000E+00
         0.30000E+00
         0.30000E+00
         0.30000E+00
         0.30000E+00
         0.30000E+00
         0.30000E+00
         0.30000E+00
         0.30000E+00
         0.30000E+00
         0.30000E+00
         0.30000E+00
         0.30000E+00
         0.30000E+00
         0.30000E+00
         0.30000E+00
         0.30000E+00
         0.30000E+00
         0.30000E+00
         0.30000E+00
         0.30000E+00
         0.30000E+00
         0.30000E+00
         0.30000E+00
         0.30000E+00
         0.30000E+00
         0.30000E+00
         0.30000E+00
         0.30000E+00
         0.30000E+00
         0.30000E+00
         0.30000E+00
         0.30000E+00
         0.30000E+00
         0.30000E+00
         0.30000E+00
         0.30000E+00
         0.30000E+00
         0.30000E+00
         0.30000E+00
         0.30000E+00
         0.30000E+00
         0.30000E+00
         0.30000E+00
         0.30000E+00
         0.30000E+00
         0.30000E+00
         0.30000E+00
         0.30000E+00
         0.30000E+00
         0.30000E+00
         0.30000E+00
         0.30000E+00
         0.30000E+00
         0.30000E+00
         0.30000E+00
         0.30000E+00
         0.30000E+00
         0.30000E+00
         0.30000E+00
         0.30000E+00
         0.30000E+00
         0.30000E+00
         0.30000E+00
         0.30000E+00
         0.30000E+00
         0.30000E+00
         0.30000E+00
         0.30000E+00
         0.30000E+00
         0.30000E+00
         0.30000E+00
         0.30000E+00
         0.30000E+00
         0.30000E+00
         0.30000E+00
         0.30000E+00
         0.30000E+00
         0.30000E+00
         0.30000E+00
         0.30000E+00
         0.30000E+00
         0.30000E+00
         0.30000E+00
         0.30000E+00
         0.30000E+00
         0.30000E+00
         0.30000E+00
         0.30000E+00
         0.30000E+00
         0.30000E+00
         0.30000E+00
         0.30000E+00
         0.30000E+00
         0.30000E+00
         0.30000E+00
         0.30000E+00
         0.30000E+00
         0.30000E+00
         0.30000E+00
         0.30000E+00
         0.30000E+00
         0.30000E+00
         0.30000E+00
         0.30000E+00
         0.30000E+00
         0.30000E+00
         0.30000E+00
         0.30000E+00
         0.30000E+00
         0.30000E+00
         0.30000E+00
         0.30000E+00
         0.30000E+00
         0.30000E+00
         0.30000E+00
         0.30000E+00
         0.30000E+00
         0.30000E+00
         0.30000E+00
         0.30000E+00
         0.30000E+00
         0.30000E+00
         0.30000E+00
         0.30000E+00
         0.30000E+00
         0.30000E+00
         0.30000E+00
         0.30000E+00
         0.30000E+00
         0.30000E+00
         0.30000E+00
         0.30000E+00
         0.30000E+00
         0.30000E+00
         0.30000E+00
         0.30000E+00
         0.30000E+00
         0.30000E+00
         0.30000E+00
         0.30000E+00
         0.30000E+00
         0.30000E+00
         0.30000E+00
         0.30000E+00
         0.30000E+00
         0.30000E+00
         0.30000E+00
         0.30000E+00
         0.30000E+00
         0.30000E+00
         0.30000E+00
         0.30000E+00
         0.30000E+00
         0.30000E+00
         0.30000E+00
         0.30000E+00
         0.30000E+00
         0.30000E+00
         0.30000E+00
         0.30000E+00
         0.30000E+00
         0.30000E+00
         0.30000E+00
         0.30000E+00
         0.30000E+00
         0.30000E+00
         0.30000E+00
         0.30000E+00
         0.30000E+00
         0.30000E+00
         0.30000E+00
         0.30000E+00
         0.30000E+00
         0.30000E+00
         0.30000E+00
         0.30000E+00
         0.30000E+00
         0.30000E+00
         0.30000E+00
         0.30000E+00
         0.30000E+00
         0.30000E+00
         0.30000E+00
         0.30000E+00
         0.30000E+00
         0.30000E+00
         0.30000E+00
         0.30000E+00
         0.30000E+00
         0.30000E+00
         0.30000E+00
         0.30000E+00
         0.30000E+00
         0.30000E+00
         0.30000E+00
         0.30000E+00
         0.30000E+00
         0.30000E+00
         0.30000E+00
         0.30000E+00
         0.30000E+00
         0.30000E+00
         0.30000E+00
         0.30000E+00
         0.30000E+00
         0.30000E+00
         0.30000E+00
         0.30000E+00
         0.30000E+00
         0.30000E+00
         0.30000E+00
         0.30000E+00
         0.30000E+00
         0.30000E+00
         0.30000E+00
         0.30000E+00
         0.30000E+00
         0.30000E+00
         0.30000E+00
         0.30000E+00
         0.30000E+00
         0.30000E+00
         0.30000E+00
         0.30000E+00
         0.30000E+00
         0.30000E+00
         0.30000E+00
         0.30000E+00
         0.30000E+00
         0.30000E+00
         0.30000E+00
         0.30000E+00
         0.30000E+00
         0.30000E+00
         0.30000E+00
         0.30000E+00
         0.30000E+00
         0.30000E+00
         0.30000E+00
         0.30000E+00
         0.30000E+00
         0.30000E+00
         0.30000E+00
         0.30000E+00
         0.30000E+00
         0.30000E+00
         0.30000E+00
         0.30000E+00
         0.30000E+00
         0.30000E+00
         0.30000E+00
         0.30000E+00
         0.30000E+00
         0.30000E+00
         0.30000E+00
         0.30000E+00
         0.30000E+00
         0.30000E+00
         0.30000E+00
         0.30000E+00
         0.30000E+00
         0.30000E+00
         0.30000E+00
         0.30000E+00
         0.30000E+00
         0.30000E+00
         0.30000E+00
         0.30000E+00
         0.30000E+00
         0.30000E+00
         0.30000E+00
         0.30000E+00
         0.30000E+00
         0.30000E+00
         0.30000E+00
         0.30000E+00
         0.30000E+00
         0.30000E+00
         0.30000E+00
         0.30000E+00
         0.30000E+00
         0.30000E+00
         0.30000E+00
         0.30000E+00
         0.30000E+00
         0.30000E+00
         0.30000E+00
         0.30000E+00
         0.30000E+00
         0.30000E+00
         0.30000E+00
         0.30000E+00
         0.30000E+00
         0.30000E+00
         0.30000E+00
         0.30000E+00
         0.30000E+00
         0.30000E+00
         0.30000E+00
         0.30000E+00
         0.30000E+00
         0.30000E+00
         0.30000E+00
         0.30000E+00
         0.30000E+00
         0.30000E+00
         0.30000E+00
         0.30000E+00
         0.30000E+00
         0.30000E+00
         0.30000E+00
         0.30000E+00
         0.30000E+00
         0.30000E+00
         0.30000E+00
         0.30000E+00
         0.30000E+00
         0.30000E+00
         0.30000E+00
         0.30000E+00
         0.30000E+00
         0.30000E+00
         0.30000E+00
         0.30000E+00
         0.30000E+00
         0.30000E+00
         0.30000E+00
         0.30000E+00
         0.30000E+00
         0.30000E+00
         0.30000E+00
         0.30000E+00
         0.30000E+00
         0.30000E+00
         0.30000E+00
         0.30000E+00
         0.30000E+00
         0.30000E+00
         0.30000E+00
         0.30000E+00
         0.30000E+00
         0.30000E+00
         0.30000E+00
         0.30000E+00
         0.30000E+00
         0.30000E+00
         0.30000E+00
         0.30000E+00
         0.30000E+00
         0.30000E+00
         0.30000E+00
         0.30000E+00
         0.30000E+00
         0.30000E+00
         0.30000E+00
         0.30000E+00
         0.30000E+00
         0.30000E+00
         0.30000E+00
         0.30000E+00
         0.30000E+00
         0.30000E+00
         0.30000E+00
         0.30000E+00
         0.30000E+00
         0.30000E+00
         0.30000E+00
         0.30000E+00
         0.30000E+00
         0.30000E+00
         0.30000E+00
         0.30000E+00
         0.30000E+00
         0.30000E+00
         0.30000E+00
         0.30000E+00
         0.30000E+00
         0.30000E+00
         0.30000E+00
         0.30000E+00
         0.30000E+00
         0.30000E+00
         0.30000E+00
         0.30000E+00
         0.30000E+00
         0.30000E+00
         0.30000E+00
         0.30000E+00
         0.30000E+00
         0.30000E+00
         0.30000E+00
         0.30000E+00
         0.30000E+00
         0.30000E+00
         0.30000E+00
         0.30000E+00
         0.30000E+00
         0.30000E+00
         0.30000E+00
         0.30000E+00
         0.30000E+00
         0.30000E+00
         0.30000E+00
         0.30000E+00
         0.30000E+00
         0.30000E+00
         0.30000E+00
         0.30000E+00
         0.30000E+00
         0.30000E+00
         0.30000E+00
         0.30000E+00
         0.30000E+00
         0.30000E+00
         0.30000E+00
         0.30000E+00
         0.30000E+00
         0.30000E+00
         0.30000E+00
         0.30000E+00
         0.30000E+00
         0.30000E+00
         0.30000E+00
         0.30000E+00
         0.30000E+00
         0.30000E+00
         0.30000E+00
         0.30000E+00
         0.30000E+00
         0.30000E+00
         0.30000E+00
         0.30000E+00
         0.30000E+00
         0.30000E+00
         0.30000E+00
         0.30000E+00
         0.30000E+00
         0.30000E+00
         0.30000E+00
         0.30000E+00
         0.30000E+00
         0.30000E+00
         0.30000E+00
         0.30000E+00
         0.30000E+00
         0.30000E+00
         0.30000E+00
         0.30000E+00
         0.30000E+00
         0.30000E+00
         0.30000E+00
         0.30000E+00
         0.30000E+00
         0.30000E+00
         0.30000E+00
         0.30000E+00
         0.30000E+00
         0.30000E+00
         0.30000E+00
         0.30000E+00
         0.30000E+00
         0.30000E+00
         0.30000E+00
         0.30000E+00
         0.30000E+00
         0.30000E+00
         0.30000E+00
         0.30000E+00
         0.30000E+00
         0.30000E+00
         0.30000E+00
         0.30000E+00
         0.30000E+00
         0.30000E+00
         0.30000E+00
         0.30000E+00
         0.30000E+00
         0.30000E+00
         0.30000E+00
         0.30000E+00
         0.30000E+00
         0.30000E+00
         0.30000E+00
         0.30000E+00
         0.30000E+00
         0.30000E+00
         0.30000E+00
         0.30000E+00
         0.30000E+00
         0.30000E+00
         0.30000E+00
         0.30000E+00
         0.30000E+00
         0.30000E+00
         0.30000E+00
         0.30000E+00
         0.30000E+00
         0.30000E+00
         0.30000E+00
         0.30000E+00
         0.30000E+00
         0.30000E+00
         0.30000E+00
         0.30000E+00
         0.30000E+00
         0.30000E+00
         0.30000E+00
         0.30000E+00
         0.30000E+00
         0.30000E+00
         0.30000E+00
         0.30000E+00
         0.30000E+00
         0.30000E+00
         0.30000E+00
         0.30000E+00
         0.30000E+00
         0.30000E+00
         0.30000E+00
         0.30000E+00
         0.30000E+00
         0.30000E+00
         0.30000E+00
         0.30000E+00
         0.30000E+00
         0.30000E+00
         0.30000E+00
         0.30000E+00
         0.30000E+00
         0.30000E+00
         0.30000E+00
         0.30000E+00
         0.30000E+00
         0.30000E+00
         0.30000E+00
         0.30000E+00
         0.30000E+00
         0.30000E+00
         0.30000E+00
         0.30000E+00
         0.30000E+00
         0.30000E+00
         0.30000E+00
         0.30000E+00
         0.30000E+00
         0.30000E+00
         0.30000E+00
         0.30000E+00
         0.30000E+00
         0.30000E+00
         0.30000E+00
         0.30000E+00
         0.30000E+00
         0.30000E+00
         0.30000E+00
         0.30000E+00
         0.30000E+00
         0.30000E+00
         0.30000E+00
         0.30000E+00
         0.30000E+00
         0.30000E+00
         0.30000E+00
         0.30000E+00
         0.30000E+00
         0.30000E+00
         0.30000E+00
         0.30000E+00
         0.30000E+00
         0.30000E+00
         0.30000E+00
         0.30000E+00
         0.30000E+00
         0.30000E+00
         0.30000E+00
         0.30000E+00
         0.30000E+00
         0.30000E+00
         0.30000E+00
         0.30000E+00
         0.30000E+00
         0.30000E+00
         0.30000E+00
         0.30000E+00
         0.30000E+00
         0.30000E+00
         0.30000E+00
         0.30000E+00
         0.30000E+00
         0.30000E+00
         0.30000E+00
         0.30000E+00
         0.30000E+00
         0.30000E+00
         0.30000E+00
         0.30000E+00
         0.30000E+00
         0.30000E+00
         0.30000E+00
         0.30000E+00
         0.30000E+00
         0.30000E+00
         0.30000E+00
         0.30000E+00
         0.30000E+00
         0.30000E+00
         0.30000E+00
         0.30000E+00
         0.30000E+00
         0.30000E+00
         0.30000E+00
         0.30000E+00
         0.30000E+00
         0.30000E+00
         0.30000E+00
         0.30000E+00
         0.30000E+00
         0.30000E+00
         0.30000E+00
         0.30000E+00
         0.30000E+00
         0.30000E+00
         0.30000E+00
         0.30000E+00
         0.30000E+00
         0.30000E+00
         0.30000E+00
         0.30000E+00
         0.30000E+00
         0.30000E+00
         0.30000E+00
         0.30000E+00
         0.30000E+00
         0.30000E+00
         0.30000E+00
         0.30000E+00
         0.30000E+00
         0.30000E+00
         0.30000E+00
         0.30000E+00
         0.30000E+00
         0.30000E+00
         0.30000E+00
         0.30000E+00
         0.30000E+00
         0.30000E+00
         0.30000E+00
         0.30000E+00
         0.30000E+00
         0.30000E+00
         0.30000E+00
         0.30000E+00
         0.30000E+00
         0.30000E+00
         0.30000E+00
         0.30000E+00
         0.30000E+00
         0.30000E+00
         0.30000E+00
         0.30000E+00
         0.30000E+00
         0.30000E+00
         0.30000E+00
         0.30000E+00
         0.30000E+00
         0.30000E+00
         0.30000E+00
         0.30000E+00
         0.30000E+00
         0.30000E+00
         0.30000E+00
         0.30000E+00
         0.30000E+00
         0.30000E+00
         0.30000E+00
         0.30000E+00
         0.30000E+00
         0.30000E+00
         0.30000E+00
         0.30000E+00
         0.30000E+00
         0.30000E+00
         0.30000E+00
         0.30000E+00
         0.30000E+00
         0.30000E+00
         0.30000E+00
         0.30000E+00
         0.30000E+00
         0.30000E+00
         0.30000E+00
         0.30000E+00
         0.30000E+00
         0.30000E+00
         0.30000E+00
         0.30000E+00
         0.30000E+00
         0.30000E+00
         0.30000E+00
         0.30000E+00
         0.30000E+00
         0.30000E+00
         0.30000E+00
         0.30000E+00
         0.30000E+00
         0.30000E+00
         0.30000E+00
         0.30000E+00
         0.30000E+00
         0.30000E+00
         0.30000E+00
         0.30000E+00
         0.30000E+00
         0.30000E+00
         0.30000E+00
         0.30000E+00
         0.30000E+00
         0.30000E+00
         0.30000E+00
         0.30000E+00
         0.30000E+00
         0.30000E+00
         0.30000E+00
         0.30000E+00
         0.30000E+00
         0.30000E+00
         0.30000E+00
         0.30000E+00
         0.30000E+00
         0.30000E+00
         0.30000E+00
         0.30000E+00
         0.30000E+00
         0.30000E+00
         0.30000E+00
         0.30000E+00
         0.30000E+00
         0.30000E+00
         0.30000E+00
         0.30000E+00
         0.30000E+00
         0.30000E+00
         0.30000E+00
         0.30000E+00
         0.30000E+00
         0.30000E+00
         0.30000E+00
         0.30000E+00
         0.30000E+00
         0.30000E+00
         0.30000E+00
         0.30000E+00
         0.30000E+00
         0.30000E+00
         0.30000E+00
         0.30000E+00
         0.30000E+00
         0.30000E+00
         0.30000E+00
         0.30000E+00
         0.30000E+00
         0.30000E+00
         0.30000E+00
         0.30000E+00
         0.30000E+00
         0.30000E+00
         0.30000E+00
         0.30000E+00
         0.30000E+00
         0.30000E+00
         0.30000E+00
         0.30000E+00
         0.30000E+00
         0.30000E+00
         0.30000E+00
         0.30000E+00
         0.30000E+00
         0.30000E+00
         0.30000E+00
         0.30000E+00
         0.30000E+00
         0.30000E+00
         0.30000E+00
         0.30000E+00
         0.30000E+00
         0.30000E+00
         0.30000E+00
         0.30000E+00
         0.30000E+00
         0.30000E+00
         0.30000E+00
         0.30000E+00
         0.30000E+00
         0.30000E+00
         0.30000E+00
         0.30000E+00
         0.30000E+00
         0.30000E+00
         0.30000E+00
         0.30000E+00
         0.30000E+00
         0.30000E+00
         0.30000E+00
         0.30000E+00
         0.30000E+00
         0.30000E+00
         0.30000E+00
         0.30000E+00
         0.30000E+00
         0.30000E+00
         0.30000E+00
         0.30000E+00
         0.30000E+00
         0.30000E+00
         0.30000E+00
         0.30000E+00
         0.30000E+00
         0.30000E+00
         0.30000E+00
         0.30000E+00
         0.30000E+00
         0.30000E+00
         0.30000E+00
         0.30000E+00
         0.30000E+00
         0.30000E+00
         0.30000E+00
         0.30000E+00
         0.30000E+00
         0.30000E+00
         0.30000E+00
         0.30000E+00
         0.30000E+00
         0.30000E+00
         0.30000E+00
         0.30000E+00
         0.30000E+00
         0.30000E+00
         0.30000E+00
         0.30000E+00
         0.30000E+00
         0.30000E+00
         0.30000E+00
         0.30000E+00
         0.30000E+00
         0.30000E+00
         0.30000E+00
         0.30000E+00
         0.30000E+00
         0.30000E+00
         0.30000E+00
         0.30000E+00
         0.30000E+00
         0.30000E+00
         0.30000E+00
         0.30000E+00
         0.30000E+00
         0.30000E+00
         0.30000E+00
         0.30000E+00
         0.30000E+00
         0.30000E+00
         0.30000E+00
         0.30000E+00
         0.30000E+00
         0.30000E+00
         0.30000E+00
         0.30000E+00
         0.30000E+00
         0.30000E+00
         0.30000E+00
         0.30000E+00
         0.30000E+00
         0.30000E+00
         0.30000E+00
         0.30000E+00
         0.30000E+00
         0.30000E+00
         0.30000E+00
         0.30000E+00
         0.30000E+00
         0.30000E+00
         0.30000E+00
         0.30000E+00
         0.30000E+00
         0.30000E+00
         0.30000E+00
         0.30000E+00
         0.30000E+00
         0.30000E+00
         0.30000E+00
         0.30000E+00
         0.30000E+00
         0.30000E+00
         0.30000E+00
         0.30000E+00
         0.30000E+00
         0.30000E+00
         0.30000E+00
         0.30000E+00
         0.30000E+00
         0.30000E+00
         0.30000E+00
         0.30000E+00
         0.30000E+00
         0.30000E+00
         0.30000E+00
         0.30000E+00
         0.30000E+00
         0.30000E+00
         0.30000E+00
         0.30000E+00
         0.30000E+00
         0.30000E+00
         0.30000E+00
         0.30000E+00
         0.30000E+00
         0.30000E+00
         0.30000E+00
         0.30000E+00
         0.30000E+00
         0.30000E+00
         0.30000E+00
         0.30000E+00
         0.30000E+00
         0.30000E+00
         0.30000E+00
         0.30000E+00
         0.30000E+00
         0.30000E+00
         0.30000E+00
         0.30000E+00
         0.30000E+00
         0.30000E+00
         0.30000E+00
         0.30000E+00
         0.30000E+00
         0.30000E+00
         0.30000E+00
         0.30000E+00
         0.30000E+00
         0.30000E+00
         0.30000E+00
         0.30000E+00
         0.30000E+00
         0.30000E+00
         0.30000E+00
         0.30000E+00
         0.30000E+00
         0.30000E+00
         0.30000E+00
         0.30000E+00
         0.30000E+00
         0.30000E+00
         0.30000E+00
         0.30000E+00
         0.30000E+00
         0.30000E+00
         0.30000E+00
         0.30000E+00
         0.30000E+00
         0.30000E+00
         0.30000E+00
         0.30000E+00
         0.30000E+00
         0.30000E+00
         0.30000E+00
         0.30000E+00
         0.30000E+00
         0.30000E+00
         0.30000E+00
         0.30000E+00
         0.30000E+00
         0.30000E+00
         0.30000E+00
         0.30000E+00
         0.30000E+00
         0.30000E+00
         0.30000E+00
         0.30000E+00
         0.30000E+00
         0.30000E+00
         0.30000E+00
         0.30000E+00
         0.30000E+00
         0.30000E+00
         0.30000E+00
         0.30000E+00
         0.30000E+00
         0.30000E+00
         0.30000E+00
         0.30000E+00
         0.30000E+00
         0.30000E+00
         0.30000E+00
         0.30000E+00
         0.30000E+00
         0.30000E+00
         0.30000E+00
         0.30000E+00
         0.30000E+00
         0.30000E+00
         0.30000E+00
         0.30000E+00
         0.30000E+00
         0.30000E+00
         0.30000E+00
         0.30000E+00
         0.30000E+00
         0.30000E+00
         0.30000E+00
         0.30000E+00
         0.30000E+00
         0.30000E+00
         0.30000E+00
         0.30000E+00
         0.30000E+00
         0.30000E+00
         0.30000E+00
         0.30000E+00
         0.30000E+00
         0.30000E+00
         0.30000E+00
         0.30000E+00
         0.30000E+00
         0.30000E+00
         0.30000E+00
         0.30000E+00
         0.30000E+00
         0.30000E+00
         0.30000E+00
         0.30000E+00
         0.30000E+00
         0.30000E+00
         0.30000E+00
         0.30000E+00
         0.30000E+00
         0.30000E+00
         0.30000E+00
         0.30000E+00
         0.30000E+00
         0.30000E+00
         0.30000E+00
         0.30000E+00
         0.30000E+00
         0.30000E+00
         0.30000E+00
         0.30000E+00
         0.30000E+00
         0.30000E+00
         0.30000E+00
         0.30000E+00
         0.30000E+00
         0.30000E+00
         0.30000E+00
         0.30000E+00
         0.30000E+00
         0.30000E+00
         0.30000E+00
         0.30000E+00
         0.30000E+00
         0.30000E+00
         0.30000E+00
         0.30000E+00
         0.30000E+00
         0.30000E+00
         0.30000E+00
         0.30000E+00
         0.30000E+00
         0.30000E+00
         0.30000E+00
         0.30000E+00
         0.30000E+00
         0.30000E+00
         0.30000E+00
         0.30000E+00
         0.30000E+00
         0.30000E+00
         0.30000E+00
         0.30000E+00
         0.30000E+00
         0.30000E+00
         0.30000E+00
         0.30000E+00
         0.30000E+00
         0.30000E+00
         0.30000E+00
         0.30000E+00
         0.30000E+00
         0.30000E+00
         0.30000E+00
         0.30000E+00
         0.30000E+00
         0.30000E+00
         0.30000E+00
         0.30000E+00
         0.30000E+00
         0.30000E+00
         0.30000E+00
         0.30000E+00
         0.30000E+00
         0.30000E+00
         0.30000E+00
         0.30000E+00
         0.30000E+00
         0.30000E+00
         0.30000E+00
         0.30000E+00
         0.30000E+00
         0.30000E+00
         0.30000E+00
         0.30000E+00
         0.30000E+00
         0.30000E+00
         0.30000E+00
         0.30000E+00
         0.30000E+00
         0.30000E+00
         0.30000E+00
         0.30000E+00
         0.30000E+00
         0.30000E+00
         0.30000E+00
         0.30000E+00
         0.30000E+00
         0.30000E+00
         0.30000E+00
         0.30000E+00
         0.30000E+00
         0.30000E+00
         0.30000E+00
         0.30000E+00
         0.30000E+00
         0.30000E+00
         0.30000E+00
         0.30000E+00
         0.30000E+00
         0.30000E+00
         0.30000E+00
         0.30000E+00
         0.30000E+00
         0.30000E+00
         0.30000E+00
         0.30000E+00
         0.30000E+00
         0.30000E+00
         0.30000E+00
         0.30000E+00
         0.30000E+00
         0.30000E+00
         0.30000E+00
         0.30000E+00
         0.30000E+00
         0.30000E+00
         0.30000E+00
         0.30000E+00
         0.30000E+00
         0.30000E+00
         0.30000E+00
         0.30000E+00
         0.30000E+00
         0.30000E+00
         0.30000E+00
         0.30000E+00
         0.30000E+00
         0.30000E+00
         0.30000E+00
         0.30000E+00
         0.30000E+00
         0.30000E+00
         0.30000E+00
         0.30000E+00
         0.30000E+00
         0.30000E+00
         0.30000E+00
         0.30000E+00
         0.30000E+00
         0.30000E+00
         0.30000E+00
         0.30000E+00
         0.30000E+00
         0.30000E+00
         0.30000E+00
         0.30000E+00
         0.30000E+00
         0.30000E+00
         0.30000E+00
         0.30000E+00
         0.30000E+00
         0.30000E+00
         0.30000E+00
         0.30000E+00
         0.30000E+00
         0.30000E+00
         0.30000E+00
         0.30000E+00
         0.30000E+00
         0.30000E+00
         0.30000E+00
         0.30000E+00
         0.30000E+00
         0.30000E+00
         0.30000E+00
         0.30000E+00
         0.30000E+00
         0.30000E+00
         0.30000E+00
         0.30000E+00
         0.30000E+00
         0.30000E+00
         0.30000E+00
         0.30000E+00
         0.30000E+00
         0.30000E+00
         0.30000E+00
         0.30000E+00
         0.30000E+00
         0.30000E+00
         0.30000E+00
         0.30000E+00
         0.30000E+00
         0.30000E+00
         0.30000E+00
         0.30000E+00
         0.30000E+00
         0.30000E+00
         0.30000E+00
         0.30000E+00
         0.30000E+00
         0.30000E+00
         0.30000E+00
         0.30000E+00
         0.30000E+00
         0.30000E+00
         0.30000E+00
         0.30000E+00
         0.30000E+00
         0.30000E+00
         0.30000E+00
         0.30000E+00
         0.30000E+00
         0.30000E+00
         0.30000E+00
         0.30000E+00
         0.30000E+00
         0.30000E+00
         0.30000E+00
         0.30000E+00
         0.30000E+00
         0.30000E+00
         0.30000E+00
         0.30000E+00
         0.30000E+00
         0.30000E+00
         0.30000E+00
         0.30000E+00
         0.30000E+00
         0.30000E+00
         0.30000E+00
         0.30000E+00
         0.30000E+00
         0.30000E+00
         0.30000E+00
         0.30000E+00
         0.30000E+00
         0.30000E+00
         0.30000E+00
         0.30000E+00
         0.30000E+00
         0.30000E+00
         0.30000E+00
         0.30000E+00
         0.30000E+00
         0.30000E+00
         0.30000E+00
         0.30000E+00
         0.30000E+00
         0.30000E+00
         0.30000E+00
         0.30000E+00
         0.30000E+00
         0.30000E+00
         0.30000E+00
         0.30000E+00
         0.30000E+00
         0.30000E+00
         0.30000E+00
         0.30000E+00
         0.30000E+00
         0.30000E+00
         0.30000E+00
         0.30000E+00
         0.30000E+00
         0.30000E+00
         0.30000E+00
         0.30000E+00
         0.30000E+00
         0.30000E+00
         0.30000E+00
         0.30000E+00
         0.30000E+00
         0.30000E+00
         0.30000E+00
         0.30000E+00
         0.30000E+00
         0.30000E+00
         0.30000E+00
         0.30000E+00
         0.30000E+00
         0.30000E+00
         0.30000E+00
         0.30000E+00
         0.30000E+00
         0.30000E+00
         0.30000E+00
         0.30000E+00
         0.30000E+00
         0.30000E+00
         0.30000E+00
         0.30000E+00
         0.30000E+00
         0.30000E+00
         0.30000E+00
         0.30000E+00
         0.30000E+00
         0.30000E+00
         0.30000E+00
         0.30000E+00
         0.30000E+00
         0.30000E+00
         0.30000E+00
         0.30000E+00
         0.30000E+00
         0.30000E+00
         0.30000E+00
         0.30000E+00
         0.30000E+00
         0.30000E+00
         0.30000E+00
         0.30000E+00
         0.30000E+00
         0.30000E+00
         0.30000E+00
         0.30000E+00
         0.30000E+00
         0.30000E+00
         0.30000E+00
         0.30000E+00
         0.30000E+00
         0.30000E+00
         0.30000E+00
         0.30000E+00
         0.30000E+00
         0.30000E+00
         0.30000E+00
         0.30000E+00
         0.30000E+00
         0.30000E+00
         0.30000E+00
         0.30000E+00
         0.30000E+00
         0.30000E+00
         0.30000E+00
         0.30000E+00
         0.30000E+00
         0.30000E+00
         0.30000E+00
         0.30000E+00
         0.30000E+00
         0.30000E+00
         0.30000E+00
         0.30000E+00
         0.30000E+00
         0.30000E+00
         0.30000E+00
         0.30000E+00
         0.30000E+00
         0.30000E+00
         0.30000E+00
         0.30000E+00
         0.30000E+00
         0.30000E+00
         0.30000E+00
         0.30000E+00
         0.30000E+00
         0.30000E+00
         0.30000E+00
         0.30000E+00
         0.30000E+00
         0.30000E+00
         0.30000E+00
         0.30000E+00
         0.30000E+00
         0.30000E+00
         0.30000E+00
         0.30000E+00
         0.30000E+00
         0.30000E+00
         0.30000E+00
         0.30000E+00
         0.30000E+00
         0.30000E+00
         0.30000E+00
         0.30000E+00
         0.30000E+00
         0.30000E+00
         0.30000E+00
         0.30000E+00
         0.30000E+00
         0.30000E+00
         0.30000E+00
         0.30000E+00
         0.30000E+00
         0.30000E+00
         0.30000E+00
         0.30000E+00
         0.30000E+00
         0.30000E+00
         0.30000E+00
         0.30000E+00
         0.30000E+00
         0.30000E+00
         0.30000E+00
         0.30000E+00
         0.30000E+00
         0.30000E+00
         0.30000E+00
         0.30000E+00
         0.30000E+00
         0.30000E+00
         0.30000E+00
         0.30000E+00
         0.30000E+00
         0.30000E+00
         0.30000E+00
         0.30000E+00
         0.30000E+00
         0.30000E+00
         0.30000E+00
         0.30000E+00
         0.30000E+00
         0.30000E+00
         0.30000E+00
         0.30000E+00
         0.30000E+00
         0.30000E+00
         0.30000E+00
         0.30000E+00
         0.30000E+00
         0.30000E+00
         0.30000E+00
         0.30000E+00
         0.30000E+00
         0.30000E+00
         0.30000E+00
         0.30000E+00
         0.30000E+00
         0.30000E+00
         0.30000E+00
         0.30000E+00
         0.30000E+00
         0.30000E+00
         0.30000E+00
         0.30000E+00
         0.30000E+00
         0.30000E+00
         0.30000E+00
         0.30000E+00
         0.30000E+00
         0.30000E+00
         0.30000E+00
         0.30000E+00
         0.30000E+00
         0.30000E+00
         0.30000E+00
         0.30000E+00
         0.30000E+00
         0.30000E+00
         0.30000E+00
         0.30000E+00
         0.30000E+00
         0.30000E+00
         0.30000E+00
         0.30000E+00
         0.30000E+00
         0.30000E+00
         0.30000E+00
         0.30000E+00
         0.30000E+00
         0.30000E+00
         0.30000E+00
         0.30000E+00
         0.30000E+00
         0.30000E+00
         0.30000E+00
         0.30000E+00
         0.30000E+00
         0.30000E+00
         0.30000E+00
         0.30000E+00
         0.30000E+00
         0.30000E+00
         0.30000E+00
         0.30000E+00
         0.30000E+00
         0.30000E+00
         0.30000E+00
         0.30000E+00
         0.30000E+00
         0.30000E+00
         0.30000E+00
         0.30000E+00
         0.30000E+00
         0.30000E+00
         0.30000E+00
         0.30000E+00
         0.30000E+00
         0.30000E+00
         0.30000E+00
         0.30000E+00
         0.30000E+00
         0.30000E+00
         0.30000E+00
         0.30000E+00
         0.30000E+00
         0.30000E+00
         0.30000E+00
         0.30000E+00
         0.30000E+00
         0.30000E+00
         0.30000E+00
         0.30000E+00
         0.30000E+00
         0.30000E+00
         0.30000E+00
         0.30000E+00
         0.30000E+00
         0.30000E+00
         0.30000E+00
         0.30000E+00
         0.30000E+00
         0.30000E+00
         0.30000E+00
         0.30000E+00
         0.30000E+00
         0.30000E+00
         0.30000E+00
         0.30000E+00
         0.30000E+00
         0.30000E+00
         0.30000E+00
         0.30000E+00
         0.30000E+00
         0.30000E+00
         0.30000E+00
         0.30000E+00
         0.30000E+00
         0.30000E+00
         0.30000E+00
         0.30000E+00
         0.30000E+00
         0.30000E+00
         0.30000E+00
         0.30000E+00
         0.30000E+00
         0.30000E+00
         0.30000E+00
         0.30000E+00
         0.30000E+00
         0.30000E+00
         0.30000E+00
         0.30000E+00
         0.30000E+00
         0.30000E+00
         0.30000E+00
         0.30000E+00
         0.30000E+00
         0.30000E+00
         0.30000E+00
         0.30000E+00
         0.30000E+00
         0.30000E+00
         0.30000E+00
         0.30000E+00
         0.30000E+00
         0.30000E+00
         0.30000E+00
         0.30000E+00
         0.30000E+00
         0.30000E+00
         0.30000E+00
         0.30000E+00
         0.30000E+00
         0.30000E+00
         0.30000E+00
         0.30000E+00
         0.30000E+00
         0.30000E+00
         0.30000E+00
         0.30000E+00
         0.30000E+00
         0.30000E+00
         0.30000E+00
         0.30000E+00
         0.30000E+00
         0.30000E+00
         0.30000E+00
         0.30000E+00
         0.30000E+00
         0.30000E+00
         0.30000E+00
         0.30000E+00
         0.30000E+00
         0.30000E+00
         0.30000E+00
         0.30000E+00
         0.30000E+00
         0.30000E+00
         0.30000E+00
         0.30000E+00
  
SCALARS                 Youngs_modulus  double 1
LOOKUP_TABLE default
         0.78200E+11
         0.78200E+11
         0.78200E+11
         0.78200E+11
         0.78200E+11
         0.78200E+11
         0.78200E+11
         0.78200E+11
         0.78200E+11
         0.78200E+11
         0.78200E+11
         0.78200E+11
         0.78200E+11
         0.78200E+11
         0.78200E+11
         0.78200E+11
         0.78200E+11
         0.78200E+11
         0.78200E+11
         0.78200E+11
         0.78200E+11
         0.78200E+11
         0.78200E+11
         0.78200E+11
         0.78200E+11
         0.78200E+11
         0.78200E+11
         0.78200E+11
         0.78200E+11
         0.78200E+11
         0.78200E+11
         0.78200E+11
         0.78200E+11
         0.78200E+11
         0.78200E+11
         0.78200E+11
         0.78200E+11
         0.78200E+11
         0.78200E+11
         0.78200E+11
         0.78200E+11
         0.78200E+11
         0.78200E+11
         0.78200E+11
         0.78200E+11
         0.78200E+11
         0.78200E+11
         0.78200E+11
         0.78200E+11
         0.78200E+11
         0.78200E+11
         0.78200E+11
         0.78200E+11
         0.78200E+11
         0.78200E+11
         0.78200E+11
         0.78200E+11
         0.78200E+11
         0.78200E+11
         0.78200E+11
         0.78200E+11
         0.78200E+11
         0.78200E+11
         0.78200E+11
         0.78200E+11
         0.78200E+11
         0.78200E+11
         0.78200E+11
         0.78200E+11
         0.78200E+11
         0.78200E+11
         0.78200E+11
         0.78200E+11
         0.78200E+11
         0.78200E+11
         0.78200E+11
         0.78200E+11
         0.78200E+11
         0.78200E+11
         0.78200E+11
         0.78200E+11
         0.78200E+11
         0.78200E+11
         0.78200E+11
         0.78200E+11
         0.78200E+11
         0.78200E+11
         0.78200E+11
         0.78200E+11
         0.78200E+11
         0.78200E+11
         0.78200E+11
         0.78200E+11
         0.78200E+11
         0.78200E+11
         0.78200E+11
         0.78200E+11
         0.78200E+11
         0.78200E+11
         0.78200E+11
         0.78200E+11
         0.78200E+11
         0.78200E+11
         0.78200E+11
         0.78200E+11
         0.78200E+11
         0.78200E+11
         0.78200E+11
         0.78200E+11
         0.78200E+11
         0.78200E+11
         0.78200E+11
         0.78200E+11
         0.78200E+11
         0.78200E+11
         0.78200E+11
         0.78200E+11
         0.78200E+11
         0.78200E+11
         0.78200E+11
         0.78200E+11
         0.78200E+11
         0.78200E+11
         0.78200E+11
         0.78200E+11
         0.78200E+11
         0.78200E+11
         0.78200E+11
         0.78200E+11
         0.78200E+11
         0.78200E+11
         0.78200E+11
         0.78200E+11
         0.78200E+11
         0.78200E+11
         0.78200E+11
         0.78200E+11
         0.78200E+11
         0.78200E+11
         0.78200E+11
         0.78200E+11
         0.78200E+11
         0.78200E+11
         0.78200E+11
         0.78200E+11
         0.78200E+11
         0.78200E+11
         0.78200E+11
         0.78200E+11
         0.78200E+11
         0.78200E+11
         0.78200E+11
         0.78200E+11
         0.78200E+11
         0.78200E+11
         0.78200E+11
         0.78200E+11
         0.78200E+11
         0.78200E+11
         0.78200E+11
         0.78200E+11
         0.78200E+11
         0.78200E+11
         0.78200E+11
         0.78200E+11
         0.78200E+11
         0.78200E+11
         0.78200E+11
         0.78200E+11
         0.78200E+11
         0.78200E+11
         0.78200E+11
         0.78200E+11
         0.78200E+11
         0.78200E+11
         0.78200E+11
         0.78200E+11
         0.78200E+11
         0.78200E+11
         0.78200E+11
         0.78200E+11
         0.78200E+11
         0.78200E+11
         0.78200E+11
         0.78200E+11
         0.78200E+11
         0.78200E+11
         0.78200E+11
         0.78200E+11
         0.78200E+11
         0.78200E+11
         0.78200E+11
         0.78200E+11
         0.78200E+11
         0.78200E+11
         0.78200E+11
         0.78200E+11
         0.78200E+11
         0.78200E+11
         0.78200E+11
         0.78200E+11
         0.78200E+11
         0.78200E+11
         0.78200E+11
         0.78200E+11
         0.78200E+11
         0.78200E+11
         0.78200E+11
         0.78200E+11
         0.78200E+11
         0.78200E+11
         0.78200E+11
         0.78200E+11
         0.78200E+11
         0.78200E+11
         0.78200E+11
         0.78200E+11
         0.78200E+11
         0.78200E+11
         0.78200E+11
         0.78200E+11
         0.78200E+11
         0.78200E+11
         0.78200E+11
         0.78200E+11
         0.78200E+11
         0.78200E+11
         0.78200E+11
         0.78200E+11
         0.78200E+11
         0.78200E+11
         0.78200E+11
         0.78200E+11
         0.78200E+11
         0.78200E+11
         0.78200E+11
         0.78200E+11
         0.78200E+11
         0.78200E+11
         0.78200E+11
         0.78200E+11
         0.78200E+11
         0.78200E+11
         0.78200E+11
         0.78200E+11
         0.78200E+11
         0.78200E+11
         0.78200E+11
         0.78200E+11
         0.78200E+11
         0.78200E+11
         0.78200E+11
         0.78200E+11
         0.78200E+11
         0.78200E+11
         0.78200E+11
         0.78200E+11
         0.78200E+11
         0.78200E+11
         0.78200E+11
         0.78200E+11
         0.78200E+11
         0.78200E+11
         0.78200E+11
         0.78200E+11
         0.78200E+11
         0.78200E+11
         0.78200E+11
         0.78200E+11
         0.78200E+11
         0.78200E+11
         0.78200E+11
         0.78200E+11
         0.78200E+11
         0.78200E+11
         0.78200E+11
         0.78200E+11
         0.78200E+11
         0.78200E+11
         0.78200E+11
         0.78200E+11
         0.78200E+11
         0.78200E+11
         0.78200E+11
         0.78200E+11
         0.78200E+11
         0.78200E+11
         0.78200E+11
         0.78200E+11
         0.78200E+11
         0.78200E+11
         0.78200E+11
         0.78200E+11
         0.78200E+11
         0.78200E+11
         0.78200E+11
         0.78200E+11
         0.78200E+11
         0.78200E+11
         0.78200E+11
         0.78200E+11
         0.78200E+11
         0.78200E+11
         0.78200E+11
         0.78200E+11
         0.78200E+11
         0.78200E+11
         0.78200E+11
         0.78200E+11
         0.78200E+11
         0.78200E+11
         0.78200E+11
         0.78200E+11
         0.78200E+11
         0.78200E+11
         0.78200E+11
         0.78200E+11
         0.78200E+11
         0.78200E+11
         0.78200E+11
         0.78200E+11
         0.78200E+11
         0.78200E+11
         0.78200E+11
         0.78200E+11
         0.78200E+11
         0.78200E+11
         0.78200E+11
         0.78200E+11
         0.78200E+11
         0.78200E+11
         0.78200E+11
         0.78200E+11
         0.78200E+11
         0.78200E+11
         0.78200E+11
         0.78200E+11
         0.78200E+11
         0.78200E+11
         0.78200E+11
         0.78200E+11
         0.78200E+11
         0.78200E+11
         0.78200E+11
         0.78200E+11
         0.78200E+11
         0.78200E+11
         0.78200E+11
         0.78200E+11
         0.78200E+11
         0.78200E+11
         0.78200E+11
         0.78200E+11
         0.78200E+11
         0.78200E+11
         0.78200E+11
         0.78200E+11
         0.78200E+11
         0.78200E+11
         0.78200E+11
         0.78200E+11
         0.78200E+11
         0.78200E+11
         0.78200E+11
         0.78200E+11
         0.78200E+11
         0.78200E+11
         0.78200E+11
         0.78200E+11
         0.78200E+11
         0.78200E+11
         0.78200E+11
         0.78200E+11
         0.78200E+11
         0.78200E+11
         0.78200E+11
         0.78200E+11
         0.78200E+11
         0.78200E+11
         0.78200E+11
         0.78200E+11
         0.78200E+11
         0.78200E+11
         0.78200E+11
         0.78200E+11
         0.78200E+11
         0.78200E+11
         0.78200E+11
         0.78200E+11
         0.78200E+11
         0.78200E+11
         0.78200E+11
         0.78200E+11
         0.78200E+11
         0.78200E+11
         0.78200E+11
         0.78200E+11
         0.78200E+11
         0.78200E+11
         0.78200E+11
         0.78200E+11
         0.78200E+11
         0.78200E+11
         0.78200E+11
         0.78200E+11
         0.78200E+11
         0.78200E+11
         0.78200E+11
         0.78200E+11
         0.78200E+11
         0.78200E+11
         0.78200E+11
         0.78200E+11
         0.78200E+11
         0.78200E+11
         0.78200E+11
         0.78200E+11
         0.78200E+11
         0.78200E+11
         0.78200E+11
         0.78200E+11
         0.78200E+11
         0.78200E+11
         0.78200E+11
         0.78200E+11
         0.78200E+11
         0.78200E+11
         0.78200E+11
         0.78200E+11
         0.78200E+11
         0.78200E+11
         0.78200E+11
         0.78200E+11
         0.78200E+11
         0.78200E+11
         0.78200E+11
         0.78200E+11
         0.78200E+11
         0.78200E+11
         0.78200E+11
         0.78200E+11
         0.78200E+11
         0.78200E+11
         0.78200E+11
         0.78200E+11
         0.78200E+11
         0.78200E+11
         0.78200E+11
         0.78200E+11
         0.78200E+11
         0.78200E+11
         0.78200E+11
         0.78200E+11
         0.78200E+11
         0.78200E+11
         0.78200E+11
         0.78200E+11
         0.78200E+11
         0.78200E+11
         0.78200E+11
         0.78200E+11
         0.78200E+11
         0.78200E+11
         0.78200E+11
         0.78200E+11
         0.78200E+11
         0.78200E+11
         0.78200E+11
         0.78200E+11
         0.78200E+11
         0.78200E+11
         0.78200E+11
         0.78200E+11
         0.78200E+11
         0.78200E+11
         0.78200E+11
         0.78200E+11
         0.78200E+11
         0.78200E+11
         0.78200E+11
         0.78200E+11
         0.78200E+11
         0.78200E+11
         0.78200E+11
         0.78200E+11
         0.78200E+11
         0.78200E+11
         0.78200E+11
         0.78200E+11
         0.78200E+11
         0.78200E+11
         0.78200E+11
         0.78200E+11
         0.78200E+11
         0.78200E+11
         0.78200E+11
         0.78200E+11
         0.78200E+11
         0.78200E+11
         0.78200E+11
         0.78200E+11
         0.78200E+11
         0.78200E+11
         0.78200E+11
         0.78200E+11
         0.78200E+11
         0.78200E+11
         0.78200E+11
         0.78200E+11
         0.78200E+11
         0.78200E+11
         0.78200E+11
         0.78200E+11
         0.78200E+11
         0.78200E+11
         0.78200E+11
         0.78200E+11
         0.78200E+11
         0.78200E+11
         0.78200E+11
         0.78200E+11
         0.78200E+11
         0.78200E+11
         0.78200E+11
         0.78200E+11
         0.78200E+11
         0.78200E+11
         0.78200E+11
         0.78200E+11
         0.78200E+11
         0.78200E+11
         0.78200E+11
         0.78200E+11
         0.78200E+11
         0.78200E+11
         0.78200E+11
         0.78200E+11
         0.78200E+11
         0.78200E+11
         0.78200E+11
         0.78200E+11
         0.78200E+11
         0.78200E+11
         0.78200E+11
         0.78200E+11
         0.78200E+11
         0.78200E+11
         0.78200E+11
         0.78200E+11
         0.78200E+11
         0.78200E+11
         0.78200E+11
         0.78200E+11
         0.78200E+11
         0.78200E+11
         0.78200E+11
         0.78200E+11
         0.78200E+11
         0.78200E+11
         0.78200E+11
         0.78200E+11
         0.78200E+11
         0.78200E+11
         0.78200E+11
         0.78200E+11
         0.78200E+11
         0.78200E+11
         0.78200E+11
         0.78200E+11
         0.78200E+11
         0.78200E+11
         0.78200E+11
         0.78200E+11
         0.78200E+11
         0.78200E+11
         0.78200E+11
         0.78200E+11
         0.78200E+11
         0.78200E+11
         0.78200E+11
         0.78200E+11
         0.78200E+11
         0.78200E+11
         0.78200E+11
         0.78200E+11
         0.78200E+11
         0.78200E+11
         0.78200E+11
         0.78200E+11
         0.78200E+11
         0.78200E+11
         0.78200E+11
         0.78200E+11
         0.78200E+11
         0.78200E+11
         0.78200E+11
         0.78200E+11
         0.78200E+11
         0.78200E+11
         0.78200E+11
         0.78200E+11
         0.78200E+11
         0.78200E+11
         0.78200E+11
         0.78200E+11
         0.78200E+11
         0.78200E+11
         0.78200E+11
         0.78200E+11
         0.78200E+11
         0.78200E+11
         0.78200E+11
         0.78200E+11
         0.78200E+11
         0.78200E+11
         0.78200E+11
         0.78200E+11
         0.78200E+11
         0.78200E+11
         0.78200E+11
         0.78200E+11
         0.78200E+11
         0.78200E+11
         0.78200E+11
         0.78200E+11
         0.78200E+11
         0.78200E+11
         0.78200E+11
         0.78200E+11
         0.78200E+11
         0.78200E+11
         0.78200E+11
         0.78200E+11
         0.78200E+11
         0.78200E+11
         0.78200E+11
         0.78200E+11
         0.78200E+11
         0.78200E+11
         0.78200E+11
         0.78200E+11
         0.78200E+11
         0.78200E+11
         0.78200E+11
         0.78200E+11
         0.78200E+11
         0.78200E+11
         0.78200E+11
         0.78200E+11
         0.78200E+11
         0.78200E+11
         0.78200E+11
         0.78200E+11
         0.78200E+11
         0.78200E+11
         0.78200E+11
         0.78200E+11
         0.78200E+11
         0.78200E+11
         0.78200E+11
         0.78200E+11
         0.78200E+11
         0.78200E+11
         0.78200E+11
         0.78200E+11
         0.78200E+11
         0.78200E+11
         0.78200E+11
         0.78200E+11
         0.78200E+11
         0.78200E+11
         0.78200E+11
         0.78200E+11
         0.78200E+11
         0.78200E+11
         0.78200E+11
         0.78200E+11
         0.78200E+11
         0.78200E+11
         0.78200E+11
         0.78200E+11
         0.78200E+11
         0.78200E+11
         0.78200E+11
         0.78200E+11
         0.78200E+11
         0.78200E+11
         0.78200E+11
         0.78200E+11
         0.78200E+11
         0.78200E+11
         0.78200E+11
         0.78200E+11
         0.78200E+11
         0.78200E+11
         0.78200E+11
         0.78200E+11
         0.78200E+11
         0.78200E+11
         0.78200E+11
         0.78200E+11
         0.78200E+11
         0.78200E+11
         0.78200E+11
         0.78200E+11
         0.78200E+11
         0.78200E+11
         0.78200E+11
         0.78200E+11
         0.78200E+11
         0.78200E+11
         0.78200E+11
         0.78200E+11
         0.78200E+11
         0.78200E+11
         0.78200E+11
         0.78200E+11
         0.78200E+11
         0.78200E+11
         0.78200E+11
         0.78200E+11
         0.78200E+11
         0.78200E+11
         0.78200E+11
         0.78200E+11
         0.78200E+11
         0.78200E+11
         0.78200E+11
         0.78200E+11
         0.78200E+11
         0.78200E+11
         0.78200E+11
         0.78200E+11
         0.78200E+11
         0.78200E+11
         0.78200E+11
         0.78200E+11
         0.78200E+11
         0.78200E+11
         0.78200E+11
         0.78200E+11
         0.78200E+11
         0.78200E+11
         0.78200E+11
         0.78200E+11
         0.78200E+11
         0.78200E+11
         0.78200E+11
         0.78200E+11
         0.78200E+11
         0.78200E+11
         0.78200E+11
         0.78200E+11
         0.78200E+11
         0.78200E+11
         0.78200E+11
         0.78200E+11
         0.78200E+11
         0.78200E+11
         0.78200E+11
         0.78200E+11
         0.78200E+11
         0.78200E+11
         0.78200E+11
         0.78200E+11
         0.78200E+11
         0.78200E+11
         0.78200E+11
         0.78200E+11
         0.78200E+11
         0.78200E+11
         0.78200E+11
         0.78200E+11
         0.78200E+11
         0.78200E+11
         0.78200E+11
         0.78200E+11
         0.78200E+11
         0.78200E+11
         0.78200E+11
         0.78200E+11
         0.78200E+11
         0.78200E+11
         0.78200E+11
         0.78200E+11
         0.78200E+11
         0.78200E+11
         0.78200E+11
         0.78200E+11
         0.78200E+11
         0.78200E+11
         0.78200E+11
         0.78200E+11
         0.78200E+11
         0.78200E+11
         0.78200E+11
         0.78200E+11
         0.78200E+11
         0.78200E+11
         0.78200E+11
         0.78200E+11
         0.78200E+11
         0.78200E+11
         0.78200E+11
         0.78200E+11
         0.78200E+11
         0.78200E+11
         0.78200E+11
         0.78200E+11
         0.78200E+11
         0.78200E+11
         0.78200E+11
         0.78200E+11
         0.78200E+11
         0.78200E+11
         0.78200E+11
         0.78200E+11
         0.78200E+11
         0.78200E+11
         0.78200E+11
         0.78200E+11
         0.78200E+11
         0.78200E+11
         0.78200E+11
         0.78200E+11
         0.78200E+11
         0.78200E+11
         0.78200E+11
         0.78200E+11
         0.78200E+11
         0.78200E+11
         0.78200E+11
         0.78200E+11
         0.78200E+11
         0.78200E+11
         0.78200E+11
         0.78200E+11
         0.78200E+11
         0.78200E+11
         0.78200E+11
         0.78200E+11
         0.78200E+11
         0.78200E+11
         0.78200E+11
         0.78200E+11
         0.78200E+11
         0.78200E+11
         0.78200E+11
         0.78200E+11
         0.78200E+11
         0.78200E+11
         0.78200E+11
         0.78200E+11
         0.78200E+11
         0.78200E+11
         0.78200E+11
         0.78200E+11
         0.78200E+11
         0.78200E+11
         0.78200E+11
         0.78200E+11
         0.78200E+11
         0.78200E+11
         0.78200E+11
         0.78200E+11
         0.78200E+11
         0.78200E+11
         0.78200E+11
         0.78200E+11
         0.78200E+11
         0.78200E+11
         0.78200E+11
         0.78200E+11
         0.78200E+11
         0.78200E+11
         0.78200E+11
         0.78200E+11
         0.78200E+11
         0.78200E+11
         0.78200E+11
         0.78200E+11
         0.78200E+11
         0.78200E+11
         0.78200E+11
         0.78200E+11
         0.78200E+11
         0.78200E+11
         0.78200E+11
         0.78200E+11
         0.78200E+11
         0.78200E+11
         0.78200E+11
         0.78200E+11
         0.78200E+11
         0.78200E+11
         0.78200E+11
         0.78200E+11
         0.78200E+11
         0.78200E+11
         0.78200E+11
         0.78200E+11
         0.78200E+11
         0.78200E+11
         0.78200E+11
         0.78200E+11
         0.78200E+11
         0.78200E+11
         0.78200E+11
         0.78200E+11
         0.78200E+11
         0.78200E+11
         0.78200E+11
         0.78200E+11
         0.78200E+11
         0.78200E+11
         0.78200E+11
         0.78200E+11
         0.78200E+11
         0.78200E+11
         0.78200E+11
         0.78200E+11
         0.78200E+11
         0.78200E+11
         0.78200E+11
         0.78200E+11
         0.78200E+11
         0.78200E+11
         0.78200E+11
         0.78200E+11
         0.78200E+11
         0.78200E+11
         0.78200E+11
         0.78200E+11
         0.78200E+11
         0.78200E+11
         0.78200E+11
         0.78200E+11
         0.78200E+11
         0.78200E+11
         0.78200E+11
         0.78200E+11
         0.78200E+11
         0.78200E+11
         0.78200E+11
         0.78200E+11
         0.78200E+11
         0.78200E+11
         0.78200E+11
         0.78200E+11
         0.78200E+11
         0.78200E+11
         0.78200E+11
         0.78200E+11
         0.78200E+11
         0.78200E+11
         0.78200E+11
         0.78200E+11
         0.78200E+11
         0.78200E+11
         0.78200E+11
         0.78200E+11
         0.78200E+11
         0.78200E+11
         0.78200E+11
         0.78200E+11
         0.78200E+11
         0.78200E+11
         0.78200E+11
         0.78200E+11
         0.78200E+11
         0.78200E+11
         0.78200E+11
         0.78200E+11
         0.78200E+11
         0.78200E+11
         0.78200E+11
         0.78200E+11
         0.78200E+11
         0.78200E+11
         0.78200E+11
         0.78200E+11
         0.78200E+11
         0.78200E+11
         0.78200E+11
         0.78200E+11
         0.78200E+11
         0.78200E+11
         0.78200E+11
         0.78200E+11
         0.78200E+11
         0.78200E+11
         0.78200E+11
         0.78200E+11
         0.78200E+11
         0.78200E+11
         0.78200E+11
         0.78200E+11
         0.78200E+11
         0.78200E+11
         0.78200E+11
         0.78200E+11
         0.78200E+11
         0.78200E+11
         0.78200E+11
         0.78200E+11
         0.78200E+11
         0.78200E+11
         0.78200E+11
         0.78200E+11
         0.78200E+11
         0.78200E+11
         0.78200E+11
         0.78200E+11
         0.78200E+11
         0.78200E+11
         0.78200E+11
         0.78200E+11
         0.78200E+11
         0.78200E+11
         0.78200E+11
         0.78200E+11
         0.78200E+11
         0.78200E+11
         0.78200E+11
         0.78200E+11
         0.78200E+11
         0.78200E+11
         0.78200E+11
         0.78200E+11
         0.78200E+11
         0.78200E+11
         0.78200E+11
         0.78200E+11
         0.78200E+11
         0.78200E+11
         0.78200E+11
         0.78200E+11
         0.78200E+11
         0.78200E+11
         0.78200E+11
         0.78200E+11
         0.78200E+11
         0.78200E+11
         0.78200E+11
         0.78200E+11
         0.78200E+11
         0.78200E+11
         0.78200E+11
         0.78200E+11
         0.78200E+11
         0.78200E+11
         0.78200E+11
         0.78200E+11
         0.78200E+11
         0.78200E+11
         0.78200E+11
         0.78200E+11
         0.78200E+11
         0.78200E+11
         0.78200E+11
         0.78200E+11
         0.78200E+11
         0.78200E+11
         0.78200E+11
         0.78200E+11
         0.78200E+11
         0.78200E+11
         0.78200E+11
         0.78200E+11
         0.78200E+11
         0.78200E+11
         0.78200E+11
         0.78200E+11
         0.78200E+11
         0.78200E+11
         0.78200E+11
         0.78200E+11
         0.78200E+11
         0.78200E+11
         0.78200E+11
         0.78200E+11
         0.78200E+11
         0.78200E+11
         0.78200E+11
         0.78200E+11
         0.78200E+11
         0.78200E+11
         0.78200E+11
         0.78200E+11
         0.78200E+11
         0.78200E+11
         0.78200E+11
         0.78200E+11
         0.78200E+11
         0.78200E+11
         0.78200E+11
         0.78200E+11
         0.78200E+11
         0.78200E+11
         0.78200E+11
         0.78200E+11
         0.78200E+11
         0.78200E+11
         0.78200E+11
         0.78200E+11
         0.78200E+11
         0.78200E+11
         0.78200E+11
         0.78200E+11
         0.78200E+11
         0.78200E+11
         0.78200E+11
         0.78200E+11
         0.78200E+11
         0.78200E+11
         0.78200E+11
         0.78200E+11
         0.78200E+11
         0.78200E+11
         0.78200E+11
         0.78200E+11
         0.78200E+11
         0.78200E+11
         0.78200E+11
         0.78200E+11
         0.78200E+11
         0.78200E+11
         0.78200E+11
         0.78200E+11
         0.78200E+11
         0.78200E+11
         0.78200E+11
         0.78200E+11
         0.78200E+11
         0.78200E+11
         0.78200E+11
         0.78200E+11
         0.78200E+11
         0.78200E+11
         0.78200E+11
         0.78200E+11
         0.78200E+11
         0.78200E+11
         0.78200E+11
         0.78200E+11
         0.78200E+11
         0.78200E+11
         0.78200E+11
         0.78200E+11
         0.78200E+11
         0.78200E+11
         0.78200E+11
         0.78200E+11
         0.78200E+11
         0.78200E+11
         0.78200E+11
         0.78200E+11
         0.78200E+11
         0.78200E+11
         0.78200E+11
         0.78200E+11
         0.78200E+11
         0.78200E+11
         0.78200E+11
         0.78200E+11
         0.78200E+11
         0.78200E+11
         0.78200E+11
         0.78200E+11
         0.78200E+11
         0.78200E+11
         0.78200E+11
         0.78200E+11
         0.78200E+11
         0.78200E+11
         0.78200E+11
         0.78200E+11
         0.78200E+11
         0.78200E+11
         0.78200E+11
         0.78200E+11
         0.78200E+11
         0.78200E+11
         0.78200E+11
         0.78200E+11
         0.78200E+11
         0.78200E+11
         0.78200E+11
         0.78200E+11
         0.78200E+11
         0.78200E+11
         0.78200E+11
         0.78200E+11
         0.78200E+11
         0.78200E+11
         0.78200E+11
         0.78200E+11
         0.78200E+11
         0.78200E+11
         0.78200E+11
         0.78200E+11
         0.78200E+11
         0.78200E+11
         0.78200E+11
         0.78200E+11
         0.78200E+11
         0.78200E+11
         0.78200E+11
         0.78200E+11
         0.78200E+11
         0.78200E+11
         0.78200E+11
         0.78200E+11
         0.78200E+11
         0.78200E+11
         0.78200E+11
         0.78200E+11
         0.78200E+11
         0.78200E+11
         0.78200E+11
         0.78200E+11
         0.78200E+11
         0.78200E+11
         0.78200E+11
         0.78200E+11
         0.78200E+11
         0.78200E+11
         0.78200E+11
         0.78200E+11
         0.78200E+11
         0.78200E+11
         0.78200E+11
         0.78200E+11
         0.78200E+11
         0.78200E+11
         0.78200E+11
         0.78200E+11
         0.78200E+11
         0.78200E+11
         0.78200E+11
         0.78200E+11
         0.78200E+11
         0.78200E+11
         0.78200E+11
         0.78200E+11
         0.78200E+11
         0.78200E+11
         0.78200E+11
         0.78200E+11
         0.78200E+11
         0.78200E+11
         0.78200E+11
         0.78200E+11
         0.78200E+11
         0.78200E+11
         0.78200E+11
         0.78200E+11
         0.78200E+11
         0.78200E+11
         0.78200E+11
         0.78200E+11
         0.78200E+11
         0.78200E+11
         0.78200E+11
         0.78200E+11
         0.78200E+11
         0.78200E+11
         0.78200E+11
         0.78200E+11
         0.78200E+11
         0.78200E+11
         0.78200E+11
         0.78200E+11
         0.78200E+11
         0.78200E+11
         0.78200E+11
         0.78200E+11
         0.78200E+11
         0.78200E+11
         0.78200E+11
         0.78200E+11
         0.78200E+11
         0.78200E+11
         0.78200E+11
         0.78200E+11
         0.78200E+11
         0.78200E+11
         0.78200E+11
         0.78200E+11
         0.78200E+11
         0.78200E+11
         0.78200E+11
         0.78200E+11
         0.78200E+11
         0.78200E+11
         0.78200E+11
         0.78200E+11
         0.78200E+11
         0.78200E+11
         0.78200E+11
         0.78200E+11
         0.78200E+11
         0.78200E+11
         0.78200E+11
         0.78200E+11
         0.78200E+11
         0.78200E+11
         0.78200E+11
         0.78200E+11
         0.78200E+11
         0.78200E+11
         0.78200E+11
         0.78200E+11
         0.78200E+11
         0.78200E+11
         0.78200E+11
         0.78200E+11
         0.78200E+11
         0.78200E+11
         0.78200E+11
         0.78200E+11
         0.78200E+11
         0.78200E+11
         0.78200E+11
         0.78200E+11
         0.78200E+11
         0.78200E+11
         0.78200E+11
         0.78200E+11
         0.78200E+11
         0.78200E+11
         0.78200E+11
         0.78200E+11
         0.78200E+11
         0.78200E+11
         0.78200E+11
         0.78200E+11
         0.78200E+11
         0.78200E+11
         0.78200E+11
         0.78200E+11
         0.78200E+11
         0.78200E+11
         0.78200E+11
         0.78200E+11
         0.78200E+11
         0.78200E+11
         0.78200E+11
         0.78200E+11
         0.78200E+11
         0.78200E+11
         0.78200E+11
         0.78200E+11
         0.78200E+11
         0.78200E+11
         0.78200E+11
         0.78200E+11
         0.78200E+11
         0.78200E+11
         0.78200E+11
         0.78200E+11
         0.78200E+11
         0.78200E+11
         0.78200E+11
         0.78200E+11
         0.78200E+11
         0.78200E+11
         0.78200E+11
         0.78200E+11
         0.78200E+11
         0.78200E+11
         0.78200E+11
         0.78200E+11
         0.78200E+11
         0.78200E+11
         0.78200E+11
         0.78200E+11
         0.78200E+11
         0.78200E+11
         0.78200E+11
         0.78200E+11
         0.78200E+11
         0.78200E+11
         0.78200E+11
         0.78200E+11
         0.78200E+11
         0.78200E+11
         0.78200E+11
         0.78200E+11
         0.78200E+11
         0.78200E+11
         0.78200E+11
         0.78200E+11
         0.78200E+11
         0.78200E+11
         0.78200E+11
         0.78200E+11
         0.78200E+11
         0.78200E+11
         0.78200E+11
         0.78200E+11
         0.78200E+11
         0.78200E+11
         0.78200E+11
         0.78200E+11
         0.78200E+11
         0.78200E+11
         0.78200E+11
         0.78200E+11
         0.78200E+11
         0.78200E+11
         0.78200E+11
         0.78200E+11
         0.78200E+11
         0.78200E+11
         0.78200E+11
         0.78200E+11
         0.78200E+11
         0.78200E+11
         0.78200E+11
         0.78200E+11
         0.78200E+11
         0.78200E+11
         0.78200E+11
         0.78200E+11
         0.78200E+11
         0.78200E+11
         0.78200E+11
         0.78200E+11
         0.78200E+11
         0.78200E+11
         0.78200E+11
         0.78200E+11
         0.78200E+11
         0.78200E+11
         0.78200E+11
         0.78200E+11
         0.78200E+11
         0.78200E+11
         0.78200E+11
         0.78200E+11
         0.78200E+11
         0.78200E+11
         0.78200E+11
         0.78200E+11
         0.78200E+11
         0.78200E+11
         0.78200E+11
         0.78200E+11
         0.78200E+11
         0.78200E+11
         0.78200E+11
         0.78200E+11
         0.78200E+11
         0.78200E+11
         0.78200E+11
         0.78200E+11
         0.78200E+11
         0.78200E+11
         0.78200E+11
         0.78200E+11
         0.78200E+11
         0.78200E+11
         0.78200E+11
         0.78200E+11
         0.78200E+11
         0.78200E+11
         0.78200E+11
         0.78200E+11
         0.78200E+11
         0.78200E+11
         0.78200E+11
         0.78200E+11
         0.78200E+11
         0.78200E+11
         0.78200E+11
         0.78200E+11
         0.78200E+11
         0.78200E+11
         0.78200E+11
         0.78200E+11
         0.78200E+11
         0.78200E+11
         0.78200E+11
         0.78200E+11
         0.78200E+11
         0.78200E+11
         0.78200E+11
         0.78200E+11
         0.78200E+11
         0.78200E+11
         0.78200E+11
         0.78200E+11
         0.78200E+11
         0.78200E+11
         0.78200E+11
         0.78200E+11
         0.78200E+11
         0.78200E+11
         0.78200E+11
         0.78200E+11
         0.78200E+11
         0.78200E+11
         0.78200E+11
         0.78200E+11
         0.78200E+11
         0.78200E+11
         0.78200E+11
         0.78200E+11
         0.78200E+11
         0.78200E+11
         0.78200E+11
         0.78200E+11
         0.78200E+11
         0.78200E+11
         0.78200E+11
         0.78200E+11
         0.78200E+11
         0.78200E+11
         0.78200E+11
         0.78200E+11
         0.78200E+11
         0.78200E+11
         0.78200E+11
         0.78200E+11
         0.78200E+11
         0.78200E+11
         0.78200E+11
         0.78200E+11
         0.78200E+11
         0.78200E+11
         0.78200E+11
         0.78200E+11
         0.78200E+11
         0.78200E+11
         0.78200E+11
         0.78200E+11
         0.78200E+11
         0.78200E+11
         0.78200E+11
         0.78200E+11
         0.78200E+11
         0.78200E+11
         0.78200E+11
         0.78200E+11
         0.78200E+11
         0.78200E+11
         0.78200E+11
         0.78200E+11
         0.78200E+11
         0.78200E+11
         0.78200E+11
         0.78200E+11
         0.78200E+11
         0.78200E+11
         0.78200E+11
         0.78200E+11
         0.78200E+11
         0.78200E+11
         0.78200E+11
         0.78200E+11
         0.78200E+11
         0.78200E+11
         0.78200E+11
         0.78200E+11
         0.78200E+11
         0.78200E+11
         0.78200E+11
         0.78200E+11
         0.78200E+11
         0.78200E+11
         0.78200E+11
         0.78200E+11
         0.78200E+11
         0.78200E+11
         0.78200E+11
         0.78200E+11
         0.78200E+11
         0.78200E+11
         0.78200E+11
         0.78200E+11
         0.78200E+11
         0.78200E+11
         0.78200E+11
         0.78200E+11
         0.78200E+11
         0.78200E+11
         0.78200E+11
         0.78200E+11
         0.78200E+11
         0.78200E+11
         0.78200E+11
         0.78200E+11
         0.78200E+11
         0.78200E+11
         0.78200E+11
         0.78200E+11
         0.78200E+11
         0.78200E+11
         0.78200E+11
         0.78200E+11
         0.78200E+11
         0.78200E+11
         0.78200E+11
         0.78200E+11
         0.78200E+11
         0.78200E+11
         0.78200E+11
         0.78200E+11
         0.78200E+11
         0.78200E+11
         0.78200E+11
         0.78200E+11
         0.78200E+11
         0.78200E+11
         0.78200E+11
         0.78200E+11
         0.78200E+11
         0.78200E+11
         0.78200E+11
         0.78200E+11
         0.78200E+11
         0.78200E+11
         0.78200E+11
         0.78200E+11
         0.78200E+11
         0.78200E+11
         0.78200E+11
         0.78200E+11
         0.78200E+11
         0.78200E+11
         0.78200E+11
         0.78200E+11
         0.78200E+11
         0.78200E+11
         0.78200E+11
         0.78200E+11
         0.78200E+11
         0.78200E+11
         0.78200E+11
         0.78200E+11
         0.78200E+11
         0.78200E+11
         0.78200E+11
         0.78200E+11
         0.78200E+11
         0.78200E+11
         0.78200E+11
         0.78200E+11
         0.78200E+11
         0.78200E+11
         0.78200E+11
         0.78200E+11
         0.78200E+11
         0.78200E+11
         0.78200E+11
         0.78200E+11
         0.78200E+11
         0.78200E+11
         0.78200E+11
         0.78200E+11
         0.78200E+11
         0.78200E+11
         0.78200E+11
         0.78200E+11
         0.78200E+11
         0.78200E+11
         0.78200E+11
         0.78200E+11
         0.78200E+11
         0.78200E+11
         0.78200E+11
         0.78200E+11
         0.78200E+11
         0.78200E+11
         0.78200E+11
         0.78200E+11
         0.78200E+11
         0.78200E+11
         0.78200E+11
         0.78200E+11
         0.78200E+11
         0.78200E+11
         0.78200E+11
         0.78200E+11
         0.78200E+11
         0.78200E+11
         0.78200E+11
         0.78200E+11
         0.78200E+11
         0.78200E+11
         0.78200E+11
         0.78200E+11
         0.78200E+11
         0.78200E+11
         0.78200E+11
         0.78200E+11
         0.78200E+11
         0.78200E+11
         0.78200E+11
         0.78200E+11
         0.78200E+11
         0.78200E+11
         0.78200E+11
         0.78200E+11
         0.78200E+11
         0.78200E+11
         0.78200E+11
         0.78200E+11
         0.78200E+11
         0.78200E+11
         0.78200E+11
         0.78200E+11
         0.78200E+11
         0.78200E+11
         0.78200E+11
         0.78200E+11
         0.78200E+11
         0.78200E+11
         0.78200E+11
         0.78200E+11
         0.78200E+11
         0.78200E+11
         0.78200E+11
         0.78200E+11
         0.78200E+11
         0.78200E+11
         0.78200E+11
         0.78200E+11
         0.78200E+11
         0.78200E+11
         0.78200E+11
         0.78200E+11
         0.78200E+11
         0.78200E+11
         0.78200E+11
         0.78200E+11
         0.78200E+11
         0.78200E+11
         0.78200E+11
         0.78200E+11
         0.78200E+11
         0.78200E+11
         0.78200E+11
         0.78200E+11
         0.78200E+11
         0.78200E+11
         0.78200E+11
         0.78200E+11
         0.78200E+11
         0.78200E+11
         0.78200E+11
         0.78200E+11
         0.78200E+11
         0.78200E+11
         0.78200E+11
         0.78200E+11
         0.78200E+11
         0.78200E+11
         0.78200E+11
         0.78200E+11
         0.78200E+11
         0.78200E+11
         0.78200E+11
         0.78200E+11
         0.78200E+11
         0.78200E+11
         0.78200E+11
         0.78200E+11
         0.78200E+11
         0.78200E+11
         0.78200E+11
         0.78200E+11
         0.78200E+11
         0.78200E+11
         0.78200E+11
         0.78200E+11
         0.78200E+11
         0.78200E+11
         0.78200E+11
         0.78200E+11
         0.78200E+11
         0.78200E+11
         0.78200E+11
         0.78200E+11
         0.78200E+11
         0.78200E+11
         0.78200E+11
         0.78200E+11
         0.78200E+11
         0.78200E+11
         0.78200E+11
         0.78200E+11
         0.78200E+11
         0.78200E+11
         0.78200E+11
         0.78200E+11
         0.78200E+11
         0.78200E+11
         0.78200E+11
         0.78200E+11
         0.78200E+11
         0.78200E+11
         0.78200E+11
         0.78200E+11
         0.78200E+11
         0.78200E+11
         0.78200E+11
         0.78200E+11
         0.78200E+11
         0.78200E+11
         0.78200E+11
         0.78200E+11
         0.78200E+11
         0.78200E+11
         0.78200E+11
         0.78200E+11
         0.78200E+11
         0.78200E+11
         0.78200E+11
         0.78200E+11
         0.78200E+11
         0.78200E+11
         0.78200E+11
         0.78200E+11
         0.78200E+11
         0.78200E+11
         0.78200E+11
         0.78200E+11
         0.78200E+11
         0.78200E+11
         0.78200E+11
         0.78200E+11
         0.78200E+11
         0.78200E+11
         0.78200E+11
         0.78200E+11
         0.78200E+11
         0.78200E+11
         0.78200E+11
         0.78200E+11
         0.78200E+11
         0.78200E+11
         0.78200E+11
         0.78200E+11
         0.78200E+11
         0.78200E+11
         0.78200E+11
         0.78200E+11
         0.78200E+11
         0.78200E+11
         0.78200E+11
         0.78200E+11
         0.78200E+11
         0.78200E+11
         0.78200E+11
         0.78200E+11
         0.78200E+11
         0.78200E+11
         0.78200E+11
         0.78200E+11
         0.78200E+11
         0.78200E+11
         0.78200E+11
         0.78200E+11
         0.78200E+11
         0.78200E+11
         0.78200E+11
         0.78200E+11
         0.78200E+11
         0.78200E+11
         0.78200E+11
         0.78200E+11
         0.78200E+11
         0.78200E+11
         0.78200E+11
         0.78200E+11
         0.78200E+11
         0.78200E+11
         0.78200E+11
         0.78200E+11
         0.78200E+11
         0.78200E+11
         0.78200E+11
         0.78200E+11
         0.78200E+11
         0.78200E+11
         0.78200E+11
         0.78200E+11
         0.78200E+11
         0.78200E+11
         0.78200E+11
         0.78200E+11
         0.78200E+11
         0.78200E+11
         0.78200E+11
         0.78200E+11
         0.78200E+11
         0.78200E+11
         0.78200E+11
         0.78200E+11
         0.78200E+11
         0.78200E+11
         0.78200E+11
         0.78200E+11
         0.78200E+11
         0.78200E+11
         0.78200E+11
         0.78200E+11
         0.78200E+11
         0.78200E+11
         0.78200E+11
         0.78200E+11
         0.78200E+11
         0.78200E+11
         0.78200E+11
         0.78200E+11
         0.78200E+11
         0.78200E+11
         0.78200E+11
         0.78200E+11
         0.78200E+11
         0.78200E+11
         0.78200E+11
         0.78200E+11
         0.78200E+11
         0.78200E+11
         0.78200E+11
         0.78200E+11
         0.78200E+11
         0.78200E+11
         0.78200E+11
         0.78200E+11
         0.78200E+11
         0.78200E+11
         0.78200E+11
         0.78200E+11
         0.78200E+11
         0.78200E+11
         0.78200E+11
         0.78200E+11
         0.78200E+11
         0.78200E+11
         0.78200E+11
         0.78200E+11
         0.78200E+11
         0.78200E+11
         0.78200E+11
         0.78200E+11
         0.78200E+11
  
SCALARS                        density  double 1
LOOKUP_TABLE default
         0.27000E+04
         0.27000E+04
         0.27000E+04
         0.27000E+04
         0.27000E+04
         0.27000E+04
         0.27000E+04
         0.27000E+04
         0.27000E+04
         0.27000E+04
         0.27000E+04
         0.27000E+04
         0.27000E+04
         0.27000E+04
         0.27000E+04
         0.27000E+04
         0.27000E+04
         0.27000E+04
         0.27000E+04
         0.27000E+04
         0.27000E+04
         0.27000E+04
         0.27000E+04
         0.27000E+04
         0.27000E+04
         0.27000E+04
         0.27000E+04
         0.27000E+04
         0.27000E+04
         0.27000E+04
         0.27000E+04
         0.27000E+04
         0.27000E+04
         0.27000E+04
         0.27000E+04
         0.27000E+04
         0.27000E+04
         0.27000E+04
         0.27000E+04
         0.27000E+04
         0.27000E+04
         0.27000E+04
         0.27000E+04
         0.27000E+04
         0.27000E+04
         0.27000E+04
         0.27000E+04
         0.27000E+04
         0.27000E+04
         0.27000E+04
         0.27000E+04
         0.27000E+04
         0.27000E+04
         0.27000E+04
         0.27000E+04
         0.27000E+04
         0.27000E+04
         0.27000E+04
         0.27000E+04
         0.27000E+04
         0.27000E+04
         0.27000E+04
         0.27000E+04
         0.27000E+04
         0.27000E+04
         0.27000E+04
         0.27000E+04
         0.27000E+04
         0.27000E+04
         0.27000E+04
         0.27000E+04
         0.27000E+04
         0.27000E+04
         0.27000E+04
         0.27000E+04
         0.27000E+04
         0.27000E+04
         0.27000E+04
         0.27000E+04
         0.27000E+04
         0.27000E+04
         0.27000E+04
         0.27000E+04
         0.27000E+04
         0.27000E+04
         0.27000E+04
         0.27000E+04
         0.27000E+04
         0.27000E+04
         0.27000E+04
         0.27000E+04
         0.27000E+04
         0.27000E+04
         0.27000E+04
         0.27000E+04
         0.27000E+04
         0.27000E+04
         0.27000E+04
         0.27000E+04
         0.27000E+04
         0.27000E+04
         0.27000E+04
         0.27000E+04
         0.27000E+04
         0.27000E+04
         0.27000E+04
         0.27000E+04
         0.27000E+04
         0.27000E+04
         0.27000E+04
         0.27000E+04
         0.27000E+04
         0.27000E+04
         0.27000E+04
         0.27000E+04
         0.27000E+04
         0.27000E+04
         0.27000E+04
         0.27000E+04
         0.27000E+04
         0.27000E+04
         0.27000E+04
         0.27000E+04
         0.27000E+04
         0.27000E+04
         0.27000E+04
         0.27000E+04
         0.27000E+04
         0.27000E+04
         0.27000E+04
         0.27000E+04
         0.27000E+04
         0.27000E+04
         0.27000E+04
         0.27000E+04
         0.27000E+04
         0.27000E+04
         0.27000E+04
         0.27000E+04
         0.27000E+04
         0.27000E+04
         0.27000E+04
         0.27000E+04
         0.27000E+04
         0.27000E+04
         0.27000E+04
         0.27000E+04
         0.27000E+04
         0.27000E+04
         0.27000E+04
         0.27000E+04
         0.27000E+04
         0.27000E+04
         0.27000E+04
         0.27000E+04
         0.27000E+04
         0.27000E+04
         0.27000E+04
         0.27000E+04
         0.27000E+04
         0.27000E+04
         0.27000E+04
         0.27000E+04
         0.27000E+04
         0.27000E+04
         0.27000E+04
         0.27000E+04
         0.27000E+04
         0.27000E+04
         0.27000E+04
         0.27000E+04
         0.27000E+04
         0.27000E+04
         0.27000E+04
         0.27000E+04
         0.27000E+04
         0.27000E+04
         0.27000E+04
         0.27000E+04
         0.27000E+04
         0.27000E+04
         0.27000E+04
         0.27000E+04
         0.27000E+04
         0.27000E+04
         0.27000E+04
         0.27000E+04
         0.27000E+04
         0.27000E+04
         0.27000E+04
         0.27000E+04
         0.27000E+04
         0.27000E+04
         0.27000E+04
         0.27000E+04
         0.27000E+04
         0.27000E+04
         0.27000E+04
         0.27000E+04
         0.27000E+04
         0.27000E+04
         0.27000E+04
         0.27000E+04
         0.27000E+04
         0.27000E+04
         0.27000E+04
         0.27000E+04
         0.27000E+04
         0.27000E+04
         0.27000E+04
         0.27000E+04
         0.27000E+04
         0.27000E+04
         0.27000E+04
         0.27000E+04
         0.27000E+04
         0.27000E+04
         0.27000E+04
         0.27000E+04
         0.27000E+04
         0.27000E+04
         0.27000E+04
         0.27000E+04
         0.27000E+04
         0.27000E+04
         0.27000E+04
         0.27000E+04
         0.27000E+04
         0.27000E+04
         0.27000E+04
         0.27000E+04
         0.27000E+04
         0.27000E+04
         0.27000E+04
         0.27000E+04
         0.27000E+04
         0.27000E+04
         0.27000E+04
         0.27000E+04
         0.27000E+04
         0.27000E+04
         0.27000E+04
         0.27000E+04
         0.27000E+04
         0.27000E+04
         0.27000E+04
         0.27000E+04
         0.27000E+04
         0.27000E+04
         0.27000E+04
         0.27000E+04
         0.27000E+04
         0.27000E+04
         0.27000E+04
         0.27000E+04
         0.27000E+04
         0.27000E+04
         0.27000E+04
         0.27000E+04
         0.27000E+04
         0.27000E+04
         0.27000E+04
         0.27000E+04
         0.27000E+04
         0.27000E+04
         0.27000E+04
         0.27000E+04
         0.27000E+04
         0.27000E+04
         0.27000E+04
         0.27000E+04
         0.27000E+04
         0.27000E+04
         0.27000E+04
         0.27000E+04
         0.27000E+04
         0.27000E+04
         0.27000E+04
         0.27000E+04
         0.27000E+04
         0.27000E+04
         0.27000E+04
         0.27000E+04
         0.27000E+04
         0.27000E+04
         0.27000E+04
         0.27000E+04
         0.27000E+04
         0.27000E+04
         0.27000E+04
         0.27000E+04
         0.27000E+04
         0.27000E+04
         0.27000E+04
         0.27000E+04
         0.27000E+04
         0.27000E+04
         0.27000E+04
         0.27000E+04
         0.27000E+04
         0.27000E+04
         0.27000E+04
         0.27000E+04
         0.27000E+04
         0.27000E+04
         0.27000E+04
         0.27000E+04
         0.27000E+04
         0.27000E+04
         0.27000E+04
         0.27000E+04
         0.27000E+04
         0.27000E+04
         0.27000E+04
         0.27000E+04
         0.27000E+04
         0.27000E+04
         0.27000E+04
         0.27000E+04
         0.27000E+04
         0.27000E+04
         0.27000E+04
         0.27000E+04
         0.27000E+04
         0.27000E+04
         0.27000E+04
         0.27000E+04
         0.27000E+04
         0.27000E+04
         0.27000E+04
         0.27000E+04
         0.27000E+04
         0.27000E+04
         0.27000E+04
         0.27000E+04
         0.27000E+04
         0.27000E+04
         0.27000E+04
         0.27000E+04
         0.27000E+04
         0.27000E+04
         0.27000E+04
         0.27000E+04
         0.27000E+04
         0.27000E+04
         0.27000E+04
         0.27000E+04
         0.27000E+04
         0.27000E+04
         0.27000E+04
         0.27000E+04
         0.27000E+04
         0.27000E+04
         0.27000E+04
         0.27000E+04
         0.27000E+04
         0.27000E+04
         0.27000E+04
         0.27000E+04
         0.27000E+04
         0.27000E+04
         0.27000E+04
         0.27000E+04
         0.27000E+04
         0.27000E+04
         0.27000E+04
         0.27000E+04
         0.27000E+04
         0.27000E+04
         0.27000E+04
         0.27000E+04
         0.27000E+04
         0.27000E+04
         0.27000E+04
         0.27000E+04
         0.27000E+04
         0.27000E+04
         0.27000E+04
         0.27000E+04
         0.27000E+04
         0.27000E+04
         0.27000E+04
         0.27000E+04
         0.27000E+04
         0.27000E+04
         0.27000E+04
         0.27000E+04
         0.27000E+04
         0.27000E+04
         0.27000E+04
         0.27000E+04
         0.27000E+04
         0.27000E+04
         0.27000E+04
         0.27000E+04
         0.27000E+04
         0.27000E+04
         0.27000E+04
         0.27000E+04
         0.27000E+04
         0.27000E+04
         0.27000E+04
         0.27000E+04
         0.27000E+04
         0.27000E+04
         0.27000E+04
         0.27000E+04
         0.27000E+04
         0.27000E+04
         0.27000E+04
         0.27000E+04
         0.27000E+04
         0.27000E+04
         0.27000E+04
         0.27000E+04
         0.27000E+04
         0.27000E+04
         0.27000E+04
         0.27000E+04
         0.27000E+04
         0.27000E+04
         0.27000E+04
         0.27000E+04
         0.27000E+04
         0.27000E+04
         0.27000E+04
         0.27000E+04
         0.27000E+04
         0.27000E+04
         0.27000E+04
         0.27000E+04
         0.27000E+04
         0.27000E+04
         0.27000E+04
         0.27000E+04
         0.27000E+04
         0.27000E+04
         0.27000E+04
         0.27000E+04
         0.27000E+04
         0.27000E+04
         0.27000E+04
         0.27000E+04
         0.27000E+04
         0.27000E+04
         0.27000E+04
         0.27000E+04
         0.27000E+04
         0.27000E+04
         0.27000E+04
         0.27000E+04
         0.27000E+04
         0.27000E+04
         0.27000E+04
         0.27000E+04
         0.27000E+04
         0.27000E+04
         0.27000E+04
         0.27000E+04
         0.27000E+04
         0.27000E+04
         0.27000E+04
         0.27000E+04
         0.27000E+04
         0.27000E+04
         0.27000E+04
         0.27000E+04
         0.27000E+04
         0.27000E+04
         0.27000E+04
         0.27000E+04
         0.27000E+04
         0.27000E+04
         0.27000E+04
         0.27000E+04
         0.27000E+04
         0.27000E+04
         0.27000E+04
         0.27000E+04
         0.27000E+04
         0.27000E+04
         0.27000E+04
         0.27000E+04
         0.27000E+04
         0.27000E+04
         0.27000E+04
         0.27000E+04
         0.27000E+04
         0.27000E+04
         0.27000E+04
         0.27000E+04
         0.27000E+04
         0.27000E+04
         0.27000E+04
         0.27000E+04
         0.27000E+04
         0.27000E+04
         0.27000E+04
         0.27000E+04
         0.27000E+04
         0.27000E+04
         0.27000E+04
         0.27000E+04
         0.27000E+04
         0.27000E+04
         0.27000E+04
         0.27000E+04
         0.27000E+04
         0.27000E+04
         0.27000E+04
         0.27000E+04
         0.27000E+04
         0.27000E+04
         0.27000E+04
         0.27000E+04
         0.27000E+04
         0.27000E+04
         0.27000E+04
         0.27000E+04
         0.27000E+04
         0.27000E+04
         0.27000E+04
         0.27000E+04
         0.27000E+04
         0.27000E+04
         0.27000E+04
         0.27000E+04
         0.27000E+04
         0.27000E+04
         0.27000E+04
         0.27000E+04
         0.27000E+04
         0.27000E+04
         0.27000E+04
         0.27000E+04
         0.27000E+04
         0.27000E+04
         0.27000E+04
         0.27000E+04
         0.27000E+04
         0.27000E+04
         0.27000E+04
         0.27000E+04
         0.27000E+04
         0.27000E+04
         0.27000E+04
         0.27000E+04
         0.27000E+04
         0.27000E+04
         0.27000E+04
         0.27000E+04
         0.27000E+04
         0.27000E+04
         0.27000E+04
         0.27000E+04
         0.27000E+04
         0.27000E+04
         0.27000E+04
         0.27000E+04
         0.27000E+04
         0.27000E+04
         0.27000E+04
         0.27000E+04
         0.27000E+04
         0.27000E+04
         0.27000E+04
         0.27000E+04
         0.27000E+04
         0.27000E+04
         0.27000E+04
         0.27000E+04
         0.27000E+04
         0.27000E+04
         0.27000E+04
         0.27000E+04
         0.27000E+04
         0.27000E+04
         0.27000E+04
         0.27000E+04
         0.27000E+04
         0.27000E+04
         0.27000E+04
         0.27000E+04
         0.27000E+04
         0.27000E+04
         0.27000E+04
         0.27000E+04
         0.27000E+04
         0.27000E+04
         0.27000E+04
         0.27000E+04
         0.27000E+04
         0.27000E+04
         0.27000E+04
         0.27000E+04
         0.27000E+04
         0.27000E+04
         0.27000E+04
         0.27000E+04
         0.27000E+04
         0.27000E+04
         0.27000E+04
         0.27000E+04
         0.27000E+04
         0.27000E+04
         0.27000E+04
         0.27000E+04
         0.27000E+04
         0.27000E+04
         0.27000E+04
         0.27000E+04
         0.27000E+04
         0.27000E+04
         0.27000E+04
         0.27000E+04
         0.27000E+04
         0.27000E+04
         0.27000E+04
         0.27000E+04
         0.27000E+04
         0.27000E+04
         0.27000E+04
         0.27000E+04
         0.27000E+04
         0.27000E+04
         0.27000E+04
         0.27000E+04
         0.27000E+04
         0.27000E+04
         0.27000E+04
         0.27000E+04
         0.27000E+04
         0.27000E+04
         0.27000E+04
         0.27000E+04
         0.27000E+04
         0.27000E+04
         0.27000E+04
         0.27000E+04
         0.27000E+04
         0.27000E+04
         0.27000E+04
         0.27000E+04
         0.27000E+04
         0.27000E+04
         0.27000E+04
         0.27000E+04
         0.27000E+04
         0.27000E+04
         0.27000E+04
         0.27000E+04
         0.27000E+04
         0.27000E+04
         0.27000E+04
         0.27000E+04
         0.27000E+04
         0.27000E+04
         0.27000E+04
         0.27000E+04
         0.27000E+04
         0.27000E+04
         0.27000E+04
         0.27000E+04
         0.27000E+04
         0.27000E+04
         0.27000E+04
         0.27000E+04
         0.27000E+04
         0.27000E+04
         0.27000E+04
         0.27000E+04
         0.27000E+04
         0.27000E+04
         0.27000E+04
         0.27000E+04
         0.27000E+04
         0.27000E+04
         0.27000E+04
         0.27000E+04
         0.27000E+04
         0.27000E+04
         0.27000E+04
         0.27000E+04
         0.27000E+04
         0.27000E+04
         0.27000E+04
         0.27000E+04
         0.27000E+04
         0.27000E+04
         0.27000E+04
         0.27000E+04
         0.27000E+04
         0.27000E+04
         0.27000E+04
         0.27000E+04
         0.27000E+04
         0.27000E+04
         0.27000E+04
         0.27000E+04
         0.27000E+04
         0.27000E+04
         0.27000E+04
         0.27000E+04
         0.27000E+04
         0.27000E+04
         0.27000E+04
         0.27000E+04
         0.27000E+04
         0.27000E+04
         0.27000E+04
         0.27000E+04
         0.27000E+04
         0.27000E+04
         0.27000E+04
         0.27000E+04
         0.27000E+04
         0.27000E+04
         0.27000E+04
         0.27000E+04
         0.27000E+04
         0.27000E+04
         0.27000E+04
         0.27000E+04
         0.27000E+04
         0.27000E+04
         0.27000E+04
         0.27000E+04
         0.27000E+04
         0.27000E+04
         0.27000E+04
         0.27000E+04
         0.27000E+04
         0.27000E+04
         0.27000E+04
         0.27000E+04
         0.27000E+04
         0.27000E+04
         0.27000E+04
         0.27000E+04
         0.27000E+04
         0.27000E+04
         0.27000E+04
         0.27000E+04
         0.27000E+04
         0.27000E+04
         0.27000E+04
         0.27000E+04
         0.27000E+04
         0.27000E+04
         0.27000E+04
         0.27000E+04
         0.27000E+04
         0.27000E+04
         0.27000E+04
         0.27000E+04
         0.27000E+04
         0.27000E+04
         0.27000E+04
         0.27000E+04
         0.27000E+04
         0.27000E+04
         0.27000E+04
         0.27000E+04
         0.27000E+04
         0.27000E+04
         0.27000E+04
         0.27000E+04
         0.27000E+04
         0.27000E+04
         0.27000E+04
         0.27000E+04
         0.27000E+04
         0.27000E+04
         0.27000E+04
         0.27000E+04
         0.27000E+04
         0.27000E+04
         0.27000E+04
         0.27000E+04
         0.27000E+04
         0.27000E+04
         0.27000E+04
         0.27000E+04
         0.27000E+04
         0.27000E+04
         0.27000E+04
         0.27000E+04
         0.27000E+04
         0.27000E+04
         0.27000E+04
         0.27000E+04
         0.27000E+04
         0.27000E+04
         0.27000E+04
         0.27000E+04
         0.27000E+04
         0.27000E+04
         0.27000E+04
         0.27000E+04
         0.27000E+04
         0.27000E+04
         0.27000E+04
         0.27000E+04
         0.27000E+04
         0.27000E+04
         0.27000E+04
         0.27000E+04
         0.27000E+04
         0.27000E+04
         0.27000E+04
         0.27000E+04
         0.27000E+04
         0.27000E+04
         0.27000E+04
         0.27000E+04
         0.27000E+04
         0.27000E+04
         0.27000E+04
         0.27000E+04
         0.27000E+04
         0.27000E+04
         0.27000E+04
         0.27000E+04
         0.27000E+04
         0.27000E+04
         0.27000E+04
         0.27000E+04
         0.27000E+04
         0.27000E+04
         0.27000E+04
         0.27000E+04
         0.27000E+04
         0.27000E+04
         0.27000E+04
         0.27000E+04
         0.27000E+04
         0.27000E+04
         0.27000E+04
         0.27000E+04
         0.27000E+04
         0.27000E+04
         0.27000E+04
         0.27000E+04
         0.27000E+04
         0.27000E+04
         0.27000E+04
         0.27000E+04
         0.27000E+04
         0.27000E+04
         0.27000E+04
         0.27000E+04
         0.27000E+04
         0.27000E+04
         0.27000E+04
         0.27000E+04
         0.27000E+04
         0.27000E+04
         0.27000E+04
         0.27000E+04
         0.27000E+04
         0.27000E+04
         0.27000E+04
         0.27000E+04
         0.27000E+04
         0.27000E+04
         0.27000E+04
         0.27000E+04
         0.27000E+04
         0.27000E+04
         0.27000E+04
         0.27000E+04
         0.27000E+04
         0.27000E+04
         0.27000E+04
         0.27000E+04
         0.27000E+04
         0.27000E+04
         0.27000E+04
         0.27000E+04
         0.27000E+04
         0.27000E+04
         0.27000E+04
         0.27000E+04
         0.27000E+04
         0.27000E+04
         0.27000E+04
         0.27000E+04
         0.27000E+04
         0.27000E+04
         0.27000E+04
         0.27000E+04
         0.27000E+04
         0.27000E+04
         0.27000E+04
         0.27000E+04
         0.27000E+04
         0.27000E+04
         0.27000E+04
         0.27000E+04
         0.27000E+04
         0.27000E+04
         0.27000E+04
         0.27000E+04
         0.27000E+04
         0.27000E+04
         0.27000E+04
         0.27000E+04
         0.27000E+04
         0.27000E+04
         0.27000E+04
         0.27000E+04
         0.27000E+04
         0.27000E+04
         0.27000E+04
         0.27000E+04
         0.27000E+04
         0.27000E+04
         0.27000E+04
         0.27000E+04
         0.27000E+04
         0.27000E+04
         0.27000E+04
         0.27000E+04
         0.27000E+04
         0.27000E+04
         0.27000E+04
         0.27000E+04
         0.27000E+04
         0.27000E+04
         0.27000E+04
         0.27000E+04
         0.27000E+04
         0.27000E+04
         0.27000E+04
         0.27000E+04
         0.27000E+04
         0.27000E+04
         0.27000E+04
         0.27000E+04
         0.27000E+04
         0.27000E+04
         0.27000E+04
         0.27000E+04
         0.27000E+04
         0.27000E+04
         0.27000E+04
         0.27000E+04
         0.27000E+04
         0.27000E+04
         0.27000E+04
         0.27000E+04
         0.27000E+04
         0.27000E+04
         0.27000E+04
         0.27000E+04
         0.27000E+04
         0.27000E+04
         0.27000E+04
         0.27000E+04
         0.27000E+04
         0.27000E+04
         0.27000E+04
         0.27000E+04
         0.27000E+04
         0.27000E+04
         0.27000E+04
         0.27000E+04
         0.27000E+04
         0.27000E+04
         0.27000E+04
         0.27000E+04
         0.27000E+04
         0.27000E+04
         0.27000E+04
         0.27000E+04
         0.27000E+04
         0.27000E+04
         0.27000E+04
         0.27000E+04
         0.27000E+04
         0.27000E+04
         0.27000E+04
         0.27000E+04
         0.27000E+04
         0.27000E+04
         0.27000E+04
         0.27000E+04
         0.27000E+04
         0.27000E+04
         0.27000E+04
         0.27000E+04
         0.27000E+04
         0.27000E+04
         0.27000E+04
         0.27000E+04
         0.27000E+04
         0.27000E+04
         0.27000E+04
         0.27000E+04
         0.27000E+04
         0.27000E+04
         0.27000E+04
         0.27000E+04
         0.27000E+04
         0.27000E+04
         0.27000E+04
         0.27000E+04
         0.27000E+04
         0.27000E+04
         0.27000E+04
         0.27000E+04
         0.27000E+04
         0.27000E+04
         0.27000E+04
         0.27000E+04
         0.27000E+04
         0.27000E+04
         0.27000E+04
         0.27000E+04
         0.27000E+04
         0.27000E+04
         0.27000E+04
         0.27000E+04
         0.27000E+04
         0.27000E+04
         0.27000E+04
         0.27000E+04
         0.27000E+04
         0.27000E+04
         0.27000E+04
         0.27000E+04
         0.27000E+04
         0.27000E+04
         0.27000E+04
         0.27000E+04
         0.27000E+04
         0.27000E+04
         0.27000E+04
         0.27000E+04
         0.27000E+04
         0.27000E+04
         0.27000E+04
         0.27000E+04
         0.27000E+04
         0.27000E+04
         0.27000E+04
         0.27000E+04
         0.27000E+04
         0.27000E+04
         0.27000E+04
         0.27000E+04
         0.27000E+04
         0.27000E+04
         0.27000E+04
         0.27000E+04
         0.27000E+04
         0.27000E+04
         0.27000E+04
         0.27000E+04
         0.27000E+04
         0.27000E+04
         0.27000E+04
         0.27000E+04
         0.27000E+04
         0.27000E+04
         0.27000E+04
         0.27000E+04
         0.27000E+04
         0.27000E+04
         0.27000E+04
         0.27000E+04
         0.27000E+04
         0.27000E+04
         0.27000E+04
         0.27000E+04
         0.27000E+04
         0.27000E+04
         0.27000E+04
         0.27000E+04
         0.27000E+04
         0.27000E+04
         0.27000E+04
         0.27000E+04
         0.27000E+04
         0.27000E+04
         0.27000E+04
         0.27000E+04
         0.27000E+04
         0.27000E+04
         0.27000E+04
         0.27000E+04
         0.27000E+04
         0.27000E+04
         0.27000E+04
         0.27000E+04
         0.27000E+04
         0.27000E+04
         0.27000E+04
         0.27000E+04
         0.27000E+04
         0.27000E+04
         0.27000E+04
         0.27000E+04
         0.27000E+04
         0.27000E+04
         0.27000E+04
         0.27000E+04
         0.27000E+04
         0.27000E+04
         0.27000E+04
         0.27000E+04
         0.27000E+04
         0.27000E+04
         0.27000E+04
         0.27000E+04
         0.27000E+04
         0.27000E+04
         0.27000E+04
         0.27000E+04
         0.27000E+04
         0.27000E+04
         0.27000E+04
         0.27000E+04
         0.27000E+04
         0.27000E+04
         0.27000E+04
         0.27000E+04
         0.27000E+04
         0.27000E+04
         0.27000E+04
         0.27000E+04
         0.27000E+04
         0.27000E+04
         0.27000E+04
         0.27000E+04
         0.27000E+04
         0.27000E+04
         0.27000E+04
         0.27000E+04
         0.27000E+04
         0.27000E+04
         0.27000E+04
         0.27000E+04
         0.27000E+04
         0.27000E+04
         0.27000E+04
         0.27000E+04
         0.27000E+04
         0.27000E+04
         0.27000E+04
         0.27000E+04
         0.27000E+04
         0.27000E+04
         0.27000E+04
         0.27000E+04
         0.27000E+04
         0.27000E+04
         0.27000E+04
         0.27000E+04
         0.27000E+04
         0.27000E+04
         0.27000E+04
         0.27000E+04
         0.27000E+04
         0.27000E+04
         0.27000E+04
         0.27000E+04
         0.27000E+04
         0.27000E+04
         0.27000E+04
         0.27000E+04
         0.27000E+04
         0.27000E+04
         0.27000E+04
         0.27000E+04
         0.27000E+04
         0.27000E+04
         0.27000E+04
         0.27000E+04
         0.27000E+04
         0.27000E+04
         0.27000E+04
         0.27000E+04
         0.27000E+04
         0.27000E+04
         0.27000E+04
         0.27000E+04
         0.27000E+04
         0.27000E+04
         0.27000E+04
         0.27000E+04
         0.27000E+04
         0.27000E+04
         0.27000E+04
         0.27000E+04
         0.27000E+04
         0.27000E+04
         0.27000E+04
         0.27000E+04
         0.27000E+04
         0.27000E+04
         0.27000E+04
         0.27000E+04
         0.27000E+04
         0.27000E+04
         0.27000E+04
         0.27000E+04
         0.27000E+04
         0.27000E+04
         0.27000E+04
         0.27000E+04
         0.27000E+04
         0.27000E+04
         0.27000E+04
         0.27000E+04
         0.27000E+04
         0.27000E+04
         0.27000E+04
         0.27000E+04
         0.27000E+04
         0.27000E+04
         0.27000E+04
         0.27000E+04
         0.27000E+04
         0.27000E+04
         0.27000E+04
         0.27000E+04
         0.27000E+04
         0.27000E+04
         0.27000E+04
         0.27000E+04
         0.27000E+04
         0.27000E+04
         0.27000E+04
         0.27000E+04
         0.27000E+04
         0.27000E+04
         0.27000E+04
         0.27000E+04
         0.27000E+04
         0.27000E+04
         0.27000E+04
         0.27000E+04
         0.27000E+04
         0.27000E+04
         0.27000E+04
         0.27000E+04
         0.27000E+04
         0.27000E+04
         0.27000E+04
         0.27000E+04
         0.27000E+04
         0.27000E+04
         0.27000E+04
         0.27000E+04
         0.27000E+04
         0.27000E+04
         0.27000E+04
         0.27000E+04
         0.27000E+04
         0.27000E+04
         0.27000E+04
         0.27000E+04
         0.27000E+04
         0.27000E+04
         0.27000E+04
         0.27000E+04
         0.27000E+04
         0.27000E+04
         0.27000E+04
         0.27000E+04
         0.27000E+04
         0.27000E+04
         0.27000E+04
         0.27000E+04
         0.27000E+04
         0.27000E+04
         0.27000E+04
         0.27000E+04
         0.27000E+04
         0.27000E+04
         0.27000E+04
         0.27000E+04
         0.27000E+04
         0.27000E+04
         0.27000E+04
         0.27000E+04
         0.27000E+04
         0.27000E+04
         0.27000E+04
         0.27000E+04
         0.27000E+04
         0.27000E+04
         0.27000E+04
         0.27000E+04
         0.27000E+04
         0.27000E+04
         0.27000E+04
         0.27000E+04
         0.27000E+04
         0.27000E+04
         0.27000E+04
         0.27000E+04
         0.27000E+04
         0.27000E+04
         0.27000E+04
         0.27000E+04
         0.27000E+04
         0.27000E+04
         0.27000E+04
         0.27000E+04
         0.27000E+04
         0.27000E+04
         0.27000E+04
         0.27000E+04
         0.27000E+04
         0.27000E+04
         0.27000E+04
         0.27000E+04
         0.27000E+04
         0.27000E+04
         0.27000E+04
         0.27000E+04
         0.27000E+04
         0.27000E+04
         0.27000E+04
         0.27000E+04
         0.27000E+04
         0.27000E+04
         0.27000E+04
         0.27000E+04
         0.27000E+04
         0.27000E+04
         0.27000E+04
         0.27000E+04
         0.27000E+04
         0.27000E+04
         0.27000E+04
         0.27000E+04
         0.27000E+04
         0.27000E+04
         0.27000E+04
         0.27000E+04
         0.27000E+04
         0.27000E+04
         0.27000E+04
         0.27000E+04
         0.27000E+04
         0.27000E+04
         0.27000E+04
         0.27000E+04
         0.27000E+04
         0.27000E+04
         0.27000E+04
         0.27000E+04
         0.27000E+04
         0.27000E+04
         0.27000E+04
         0.27000E+04
         0.27000E+04
         0.27000E+04
         0.27000E+04
         0.27000E+04
         0.27000E+04
         0.27000E+04
         0.27000E+04
         0.27000E+04
         0.27000E+04
         0.27000E+04
         0.27000E+04
         0.27000E+04
         0.27000E+04
         0.27000E+04
         0.27000E+04
         0.27000E+04
         0.27000E+04
         0.27000E+04
         0.27000E+04
         0.27000E+04
         0.27000E+04
         0.27000E+04
         0.27000E+04
         0.27000E+04
         0.27000E+04
         0.27000E+04
         0.27000E+04
         0.27000E+04
         0.27000E+04
         0.27000E+04
         0.27000E+04
         0.27000E+04
         0.27000E+04
         0.27000E+04
         0.27000E+04
         0.27000E+04
         0.27000E+04
         0.27000E+04
         0.27000E+04
         0.27000E+04
         0.27000E+04
         0.27000E+04
         0.27000E+04
         0.27000E+04
         0.27000E+04
         0.27000E+04
         0.27000E+04
         0.27000E+04
         0.27000E+04
         0.27000E+04
         0.27000E+04
         0.27000E+04
         0.27000E+04
         0.27000E+04
         0.27000E+04
         0.27000E+04
         0.27000E+04
         0.27000E+04
         0.27000E+04
         0.27000E+04
         0.27000E+04
         0.27000E+04
         0.27000E+04
         0.27000E+04
         0.27000E+04
         0.27000E+04
         0.27000E+04
         0.27000E+04
         0.27000E+04
         0.27000E+04
         0.27000E+04
         0.27000E+04
         0.27000E+04
         0.27000E+04
         0.27000E+04
         0.27000E+04
         0.27000E+04
         0.27000E+04
         0.27000E+04
         0.27000E+04
         0.27000E+04
         0.27000E+04
         0.27000E+04
         0.27000E+04
         0.27000E+04
         0.27000E+04
         0.27000E+04
         0.27000E+04
         0.27000E+04
         0.27000E+04
         0.27000E+04
         0.27000E+04
         0.27000E+04
         0.27000E+04
         0.27000E+04
         0.27000E+04
         0.27000E+04
         0.27000E+04
         0.27000E+04
         0.27000E+04
         0.27000E+04
         0.27000E+04
         0.27000E+04
         0.27000E+04
         0.27000E+04
         0.27000E+04
         0.27000E+04
         0.27000E+04
         0.27000E+04
         0.27000E+04
         0.27000E+04
         0.27000E+04
         0.27000E+04
         0.27000E+04
         0.27000E+04
         0.27000E+04
         0.27000E+04
         0.27000E+04
         0.27000E+04
         0.27000E+04
         0.27000E+04
         0.27000E+04
         0.27000E+04
         0.27000E+04
         0.27000E+04
         0.27000E+04
         0.27000E+04
         0.27000E+04
         0.27000E+04
         0.27000E+04
         0.27000E+04
         0.27000E+04
         0.27000E+04
         0.27000E+04
         0.27000E+04
         0.27000E+04
         0.27000E+04
         0.27000E+04
         0.27000E+04
         0.27000E+04
         0.27000E+04
         0.27000E+04
         0.27000E+04
         0.27000E+04
         0.27000E+04
         0.27000E+04
         0.27000E+04
         0.27000E+04
         0.27000E+04
         0.27000E+04
         0.27000E+04
         0.27000E+04
         0.27000E+04
         0.27000E+04
         0.27000E+04
         0.27000E+04
         0.27000E+04
         0.27000E+04
         0.27000E+04
         0.27000E+04
         0.27000E+04
         0.27000E+04
         0.27000E+04
         0.27000E+04
         0.27000E+04
         0.27000E+04
         0.27000E+04
         0.27000E+04
         0.27000E+04
         0.27000E+04
         0.27000E+04
         0.27000E+04
         0.27000E+04
         0.27000E+04
         0.27000E+04
         0.27000E+04
         0.27000E+04
         0.27000E+04
         0.27000E+04
         0.27000E+04
         0.27000E+04
         0.27000E+04
         0.27000E+04
         0.27000E+04
         0.27000E+04
         0.27000E+04
         0.27000E+04
         0.27000E+04
         0.27000E+04
         0.27000E+04
         0.27000E+04
         0.27000E+04
         0.27000E+04
         0.27000E+04
         0.27000E+04
         0.27000E+04
         0.27000E+04
         0.27000E+04
         0.27000E+04
         0.27000E+04
         0.27000E+04
         0.27000E+04
         0.27000E+04
         0.27000E+04
         0.27000E+04
         0.27000E+04
         0.27000E+04
         0.27000E+04
         0.27000E+04
         0.27000E+04
         0.27000E+04
         0.27000E+04
         0.27000E+04
         0.27000E+04
         0.27000E+04
         0.27000E+04
         0.27000E+04
         0.27000E+04
         0.27000E+04
         0.27000E+04
         0.27000E+04
         0.27000E+04
         0.27000E+04
         0.27000E+04
         0.27000E+04
         0.27000E+04
         0.27000E+04
         0.27000E+04
         0.27000E+04
         0.27000E+04
         0.27000E+04
         0.27000E+04
         0.27000E+04
         0.27000E+04
         0.27000E+04
         0.27000E+04
         0.27000E+04
         0.27000E+04
         0.27000E+04
         0.27000E+04
         0.27000E+04
         0.27000E+04
         0.27000E+04
         0.27000E+04
         0.27000E+04
         0.27000E+04
         0.27000E+04
         0.27000E+04
         0.27000E+04
         0.27000E+04
         0.27000E+04
         0.27000E+04
         0.27000E+04
         0.27000E+04
         0.27000E+04
         0.27000E+04
         0.27000E+04
         0.27000E+04
         0.27000E+04
         0.27000E+04
         0.27000E+04
         0.27000E+04
         0.27000E+04
         0.27000E+04
         0.27000E+04
         0.27000E+04
         0.27000E+04
         0.27000E+04
         0.27000E+04
         0.27000E+04
         0.27000E+04
         0.27000E+04
         0.27000E+04
         0.27000E+04
         0.27000E+04
         0.27000E+04
         0.27000E+04
         0.27000E+04
         0.27000E+04
         0.27000E+04
         0.27000E+04
         0.27000E+04
         0.27000E+04
         0.27000E+04
         0.27000E+04
         0.27000E+04
         0.27000E+04
         0.27000E+04
         0.27000E+04
         0.27000E+04
         0.27000E+04
         0.27000E+04
         0.27000E+04
         0.27000E+04
         0.27000E+04
         0.27000E+04
         0.27000E+04
         0.27000E+04
         0.27000E+04
         0.27000E+04
         0.27000E+04
         0.27000E+04
         0.27000E+04
         0.27000E+04
         0.27000E+04
         0.27000E+04
         0.27000E+04
         0.27000E+04
         0.27000E+04
         0.27000E+04
         0.27000E+04
         0.27000E+04
         0.27000E+04
         0.27000E+04
         0.27000E+04
         0.27000E+04
         0.27000E+04
         0.27000E+04
         0.27000E+04
         0.27000E+04
         0.27000E+04
         0.27000E+04
         0.27000E+04
         0.27000E+04
         0.27000E+04
         0.27000E+04
         0.27000E+04
         0.27000E+04
         0.27000E+04
         0.27000E+04
         0.27000E+04
         0.27000E+04
         0.27000E+04
         0.27000E+04
         0.27000E+04
         0.27000E+04
         0.27000E+04
         0.27000E+04
         0.27000E+04
         0.27000E+04
         0.27000E+04
         0.27000E+04
         0.27000E+04
         0.27000E+04
         0.27000E+04
         0.27000E+04
         0.27000E+04
         0.27000E+04
         0.27000E+04
         0.27000E+04
         0.27000E+04
         0.27000E+04
         0.27000E+04
         0.27000E+04
         0.27000E+04
         0.27000E+04
         0.27000E+04
         0.27000E+04
         0.27000E+04
         0.27000E+04
         0.27000E+04
         0.27000E+04
         0.27000E+04
         0.27000E+04
         0.27000E+04
         0.27000E+04
         0.27000E+04
         0.27000E+04
         0.27000E+04
         0.27000E+04
         0.27000E+04
         0.27000E+04
         0.27000E+04
         0.27000E+04
         0.27000E+04
         0.27000E+04
         0.27000E+04
         0.27000E+04
         0.27000E+04
         0.27000E+04
         0.27000E+04
         0.27000E+04
         0.27000E+04
         0.27000E+04
         0.27000E+04
         0.27000E+04
         0.27000E+04
         0.27000E+04
         0.27000E+04
         0.27000E+04
         0.27000E+04
         0.27000E+04
         0.27000E+04
         0.27000E+04
         0.27000E+04
         0.27000E+04
         0.27000E+04
         0.27000E+04
         0.27000E+04
         0.27000E+04
         0.27000E+04
         0.27000E+04
         0.27000E+04
         0.27000E+04
         0.27000E+04
         0.27000E+04
         0.27000E+04
         0.27000E+04
         0.27000E+04
         0.27000E+04
         0.27000E+04
         0.27000E+04
         0.27000E+04
         0.27000E+04
         0.27000E+04
         0.27000E+04
         0.27000E+04
         0.27000E+04
         0.27000E+04
         0.27000E+04
         0.27000E+04
         0.27000E+04
         0.27000E+04
         0.27000E+04
         0.27000E+04
         0.27000E+04
         0.27000E+04
         0.27000E+04
         0.27000E+04
         0.27000E+04
         0.27000E+04
         0.27000E+04
         0.27000E+04
         0.27000E+04
         0.27000E+04
         0.27000E+04
         0.27000E+04
         0.27000E+04
         0.27000E+04
         0.27000E+04
         0.27000E+04
         0.27000E+04
         0.27000E+04
         0.27000E+04
         0.27000E+04
         0.27000E+04
         0.27000E+04
         0.27000E+04
         0.27000E+04
         0.27000E+04
         0.27000E+04
         0.27000E+04
         0.27000E+04
         0.27000E+04
         0.27000E+04
         0.27000E+04
         0.27000E+04
         0.27000E+04
         0.27000E+04
         0.27000E+04
         0.27000E+04
         0.27000E+04
         0.27000E+04
         0.27000E+04
         0.27000E+04
         0.27000E+04
         0.27000E+04
         0.27000E+04
         0.27000E+04
         0.27000E+04
         0.27000E+04
         0.27000E+04
         0.27000E+04
         0.27000E+04
         0.27000E+04
         0.27000E+04
         0.27000E+04
         0.27000E+04
         0.27000E+04
         0.27000E+04
         0.27000E+04
         0.27000E+04
         0.27000E+04
         0.27000E+04
         0.27000E+04
         0.27000E+04
         0.27000E+04
         0.27000E+04
         0.27000E+04
         0.27000E+04
         0.27000E+04
         0.27000E+04
         0.27000E+04
         0.27000E+04
         0.27000E+04
         0.27000E+04
         0.27000E+04
         0.27000E+04
         0.27000E+04
         0.27000E+04
         0.27000E+04
         0.27000E+04
         0.27000E+04
         0.27000E+04
         0.27000E+04
         0.27000E+04
         0.27000E+04
         0.27000E+04
         0.27000E+04
         0.27000E+04
         0.27000E+04
         0.27000E+04
         0.27000E+04
         0.27000E+04
         0.27000E+04
         0.27000E+04
         0.27000E+04
         0.27000E+04
         0.27000E+04
         0.27000E+04
         0.27000E+04
         0.27000E+04
         0.27000E+04
         0.27000E+04
         0.27000E+04
         0.27000E+04
         0.27000E+04
         0.27000E+04
         0.27000E+04
         0.27000E+04
         0.27000E+04
         0.27000E+04
         0.27000E+04
         0.27000E+04
         0.27000E+04
         0.27000E+04
         0.27000E+04
         0.27000E+04
         0.27000E+04
         0.27000E+04
         0.27000E+04
         0.27000E+04
         0.27000E+04
         0.27000E+04
         0.27000E+04
         0.27000E+04
         0.27000E+04
         0.27000E+04
         0.27000E+04
         0.27000E+04
         0.27000E+04
         0.27000E+04
         0.27000E+04
         0.27000E+04
         0.27000E+04
         0.27000E+04
         0.27000E+04
         0.27000E+04
         0.27000E+04
         0.27000E+04
         0.27000E+04
         0.27000E+04
         0.27000E+04
         0.27000E+04
         0.27000E+04
         0.27000E+04
         0.27000E+04
         0.27000E+04
         0.27000E+04
         0.27000E+04
         0.27000E+04
         0.27000E+04
         0.27000E+04
         0.27000E+04
         0.27000E+04
         0.27000E+04
         0.27000E+04
         0.27000E+04
         0.27000E+04
         0.27000E+04
         0.27000E+04
         0.27000E+04
         0.27000E+04
         0.27000E+04
         0.27000E+04
         0.27000E+04
         0.27000E+04
         0.27000E+04
         0.27000E+04
         0.27000E+04
         0.27000E+04
